       4
 i =        1, E =       -51.3574465828
 As         6.5096606980        6.9999999309        7.4893982880
 Cl         5.5409889560        8.6777154070        6.4949826359
 Cl         5.5409890098        5.3222846908        6.4949827266
 Cl         8.4469466518        6.9999999713        6.4949948141
       4
 i =        2, E =       -51.3575568281
 As         6.5096676427        6.9999998902        7.5024032440
 Cl         5.5452335555        8.6703520096        6.4906471808
 Cl         5.5452335677        5.3296481363        6.4906470693
 Cl         8.4384508136        6.9999999639        6.4906618282
       4
 i =        3, E =       -51.3575738106
 As         6.5096692484        6.9999998811        7.5095573004
 Cl         5.5480857804        8.6654173061        6.4882651033
 Cl         5.5480858228        5.3345828569        6.4882650052
 Cl         8.4327466765        6.9999999558        6.4882744427
       4
 i =        4, E =       -51.3575738269
 As         6.5096729596        6.9999999648        7.5094239269
 Cl         5.5480023876        8.6655606102        6.4883104084
 Cl         5.5480023852        5.3344394712        6.4883102578
 Cl         8.4329113664        6.9999999539        6.4883193882
       4
 i =        5, E =       -51.3575738269
 As         6.5096729596        6.9999999648        7.5094239269
 Cl         5.5480023876        8.6655606102        6.4883104084
 Cl         5.5480023852        5.3344394712        6.4883102578
 Cl         8.4329113664        6.9999999539        6.4883193882
