       2
 i =        1, E =       -49.6407981341
 Ba         6.4999999851        6.4999999953        5.3672087041
  F         6.5000000147        6.5000000045        7.6181796045
       2
 i =        2, E =       -49.6408685836
 Ba         6.4999999847        6.4999999957        5.3771894283
  F         6.4999999996        6.4999999997        7.6129356845
       2
 i =        3, E =       -49.6408721624
 Ba         6.4999999847        6.4999999954        5.3779171406
  F         6.5000000004        6.5000000003        7.6109053127
       2
 i =        4, E =       -49.6408851745
 Ba         6.4999999842        6.4999999947        5.3768142323
  F         6.5000000003        6.5000000005        7.6026830199
       2
 i =        5, E =       -49.6293493098
 Ba         6.4999999720        6.5000000091        5.1268142323
  F         6.5000000094        6.4999999951        7.6170581074
       2
 i =        6, E =       -49.6349610349
 Ba         6.4999999487        6.4999999915        4.9591864114
  F         6.5000000086        6.4999999957        7.3670581074
       2
 i =        7, E =       -49.6386578041
 Ba         6.4999999249        6.4999999746        4.7810116744
  F         6.5000000081        6.4999999959        7.1170581074
       2
 i =        8, E =       -49.6406192975
 Ba         6.4999999027        6.4999999571        4.5957179373
  F         6.5000000055        6.4999999983        6.8670581074
       2
 i =        9, E =       -49.6408406007
 Ba         6.4999998778        6.4999999398        4.4067005218
  F         6.4999999956        6.5000000011        6.6170581074
       2
 i =       10, E =       -49.6408835384
 Ba         6.4999998866        6.4999999458        4.4832583324
  F         6.5000000009        6.5000000003        6.7185111831
       2
 i =       11, E =       -49.6403069827
 Ba         6.4999999264        6.4999999716        4.6833192902
  F         6.4999999922        6.4999999969        6.9685111831
       2
 i =       12, E =       -49.6398519201
 Ba         6.4999999455        6.4999999842        4.8062027068
  F         6.5000000073        6.4999999969        7.1095927741
       2
 i =       13, E =       -49.6404112008
 Ba         6.4999999311        6.4999999744        4.7306333123
  F         6.5000000143        6.4999999990        7.0084047880
       2
 i =       14, E =       -49.6408553061
 Ba         6.4999999168        6.4999999624        4.6460349443
  F         6.4999999960        6.4999999968        6.8877041108
       2
 i =       15, E =       -49.6408852672
 Ba         6.4999998997        6.4999999528        4.5706767931
  F         6.5000000019        6.5000000001        6.7893484764
       2
 i =       16, E =       -49.6409716694
 Ba         6.4999999111        6.4999999599        4.6260447393
  F         6.5000000012        6.5000000000        6.8610772890
       2
 i =       17, E =       -49.6409717911
 Ba         6.4999999150        6.4999999605        4.6271153784
  F         6.4999999990        6.5000000000        6.8619031076
       2
 i =       18, E =       -49.6409727608
 Ba         6.4999999260        6.4999999625        4.6277268011
  F         6.4999999942        6.4999999998        6.8612087190
       2
 i =       19, E =       -49.6409727608
 Ba         6.4999999260        6.4999999625        4.6277268011
  F         6.4999999942        6.4999999998        6.8612087190
