       4
 i =        1, E =        -7.2162754606
 Bi         7.3726629636        7.0000000062        7.4784479938
  H         8.1071600978        5.7277972290        6.4938818680
  H         8.1071600822        8.2722027673        6.4938818854
  H         5.9036418787        6.9999999976        6.4938713516
       4
 i =        2, E =        -7.2166625508
 Bi         7.3726596623        6.9999999954        7.5025646197
  H         8.1095365727        5.7236838326        6.4858422309
  H         8.1095365622        8.2763161741        6.4858422403
  H         5.8988920333        6.9999999979        6.4858334850
       4
 i =        3, E =        -7.2166760072
 Bi         7.3726526502        6.9999999967        7.5053025563
  H         8.1076954565        5.7268756535        6.4849273603
  H         8.1076954462        8.2731243525        6.4849273709
  H         5.9025810400        6.9999999973        6.4849242714
       4
 i =        4, E =        -7.2166818628
 Bi         7.3726659259        6.9999999951        7.5085839100
  H         8.1054381549        5.7307851396        6.4838349215
  H         8.1054381462        8.2692148685        6.4838349314
  H         5.9070816193        6.9999999968        6.4838256657
       4
 i =        5, E =        -7.2166818630
 Bi         7.3726472916        6.9999999976        7.5085867747
  H         8.1054414575        5.7307848555        6.4838293049
  H         8.1054414479        8.2692151505        6.4838293167
  H         5.9070931661        6.9999999964        6.4838331947
       4
 i =        6, E =        -7.2166818630
 Bi         7.3726472916        6.9999999976        7.5085867747
  H         8.1054414575        5.7307848555        6.4838293049
  H         8.1054414479        8.2692151505        6.4838293167
  H         5.9070931661        6.9999999964        6.4838331947
