       2
 i =        1, E =       -26.9143935110
 Br         6.5000000122        6.5000000005        5.3665493497
 Br         6.4999999878        6.4999999995        7.6334506503
       2
 i =        2, E =       -26.9144812896
 Br         6.5000000123        6.5000000004        5.3570645526
 Br         6.4999999877        6.4999999996        7.6429354474
       2
 i =        3, E =       -26.9144822731
 Br         6.5000000122        6.5000000004        5.3579709266
 Br         6.4999999878        6.4999999996        7.6420290734
       2
 i =        4, E =       -26.9144822731
 Br         6.5000000122        6.5000000004        5.3579709266
 Br         6.4999999878        6.4999999996        7.6420290734
