       5
 i =        1, E =      -102.4766916452
  C         6.5000259901        6.5000374809        6.5000843082
  F         7.2691255779        7.2691196765        7.2691317727
  F         5.7309428475        7.2690676051        5.7309418798
  F         5.7309202571        5.7309228297        7.2691022955
  F         7.2690626043        5.7309523283        5.7309464779
       5
 i =        2, E =      -102.4766990712
  C         6.4999678176        6.4999481817        6.4998786908
  F         7.2681970927        7.2682166445        7.2682829328
  F         5.7316767311        7.2684030584        5.7317370284
  F         5.7317605385        5.7317713401        7.2683861640
  F         7.2684046642        5.7316644888        5.7317128001
       5
 i =        3, E =      -102.4766990712
  C         6.4999678176        6.4999481817        6.4998786908
  F         7.2681970927        7.2682166445        7.2682829328
  F         5.7316767311        7.2684030584        5.7317370284
  F         5.7317605385        5.7317713401        7.2683861640
  F         7.2684046642        5.7316644888        5.7317128001
