       2
 i =        1, E =       -99.5340970529
 Ga         6.4999999890        6.5000000021        5.6066673997
  F         6.5000000115        6.4999999981        7.4033738398
       2
 i =        2, E =       -99.5341013345
 Ga         6.4999999775        6.5000000043        5.6110723685
  F         6.4999999779        6.5000000039        7.4064168572
       2
 i =        3, E =       -99.5341028542
 Ga         6.4999999594        6.5000000077        5.6125188654
  F         6.5000000300        6.4999999948        7.4065316098
       2
 i =        4, E =       -99.5341032468
 Ga         6.4999999238        6.5000000141        5.6126240166
  F         6.4999999430        6.5000000102        7.4059598480
       2
 i =        5, E =       -99.5341032468
 Ga         6.4999999238        6.5000000141        5.6126240166
  F         6.4999999430        6.5000000102        7.4059598480
