       5
 i =        1, E =      -100.7917958040
 Ge         6.4999999737        6.4999999822        6.4999999600
  F         7.4814860409        5.5185139299        7.4814830752
  F         5.5185139604        7.4814860712        7.4814830872
  F         5.5185139059        5.5185139129        5.5185168861
  F         7.4814861199        7.4814861046        5.5185169912
       5
 i =        2, E =      -100.7919726894
 Ge         6.5000000261        6.5000000477        6.4999999719
  F         7.4590818315        5.5409180257        7.4590753527
  F         5.5409181143        7.4590818740        7.4590754604
  F         5.5409180515        5.5409180923        5.5409246231
  F         7.4590820211        7.4590819910        5.5409246555
       5
 i =        3, E =      -100.7930193644
 Ge         6.4999999959        6.4999999954        6.4999999968
  F         7.4713619355        5.5286380842        7.4713625462
  F         5.5286380825        7.4713619445        7.4713625365
  F         5.5286380727        5.5286380830        5.5286374192
  F         7.4713619315        7.4713619348        5.5286374627
       5
 i =        4, E =      -100.7930637345
 Ge         6.5000000018        6.5000000031        6.5000000017
  F         7.4695837037        5.5304163035        7.4695844527
  F         5.5304162930        7.4695837019        7.4695844469
  F         5.5304163036        5.5304163004        5.5304155454
  F         7.4695836953        7.4695836965        5.5304155326
       5
 i =        5, E =      -100.7930653565
 Ge         6.4999999995        6.4999999995        6.4999999981
  F         7.4692968338        5.5307031678        7.4692976261
  F         5.5307031711        7.4692968357        7.4692976280
  F         5.5307031620        5.5307031627        5.5307023751
  F         7.4692968389        7.4692968396        5.5307023824
       5
 i =        6, E =      -100.7930653565
 Ge         6.4999999995        6.4999999995        6.4999999981
  F         7.4692968338        5.5307031678        7.4692976261
  F         5.5307031711        7.4692968357        7.4692976280
  F         5.5307031620        5.5307031627        5.5307023751
  F         7.4692968389        7.4692968396        5.5307023824
