       2
 i =        1, E =        -1.1679129000
  H         6.0000000000        6.0000000000        6.3715015920
  H         6.0000000000        6.0000000000        5.6284984080
       2
 i =        2, E =        -1.1679130909
  H         6.0000000000        6.0000000000        6.3717869348
  H         6.0000000000        6.0000000000        5.6282130652
       2
 i =        3, E =        -1.1679130909
  H         6.0000000000        6.0000000000        6.3717869348
  H         6.0000000000        6.0000000000        5.6282130652
