       3
 i =        1, E =       -26.4224633054
  O         5.6863950925        6.8775497413        6.4999998718
  N         6.8802803759        6.9984628760        6.5000000922
  H         7.3084596679        6.0102986683        6.5000000359
       3
 i =        2, E =       -26.4225125397
  O         5.6842308986        6.8745860122        6.4999998297
  N         6.8759047606        6.9808052927        6.5000001206
  H         7.3139929598        6.0202935189        6.5000000592
       3
 i =        3, E =       -26.4226266431
  O         5.6856810853        6.8657372117        6.4999998514
  N         6.8787280303        6.9874576557        6.5000001132
  H         7.3094089346        6.0180328031        6.5000000504
       3
 i =        4, E =       -26.4226331459
  O         5.6839038076        6.8639953798        6.4999998562
  N         6.8777346608        6.9866418380        6.5000001165
  H         7.3115217642        6.0174044922        6.5000000514
       3
 i =        5, E =       -26.4226350436
  O         5.6823513976        6.8605972937        6.4999998689
  N         6.8763358019        6.9853313030        6.5000001183
  H         7.3127104095        6.0175081223        6.5000000530
       3
 i =        6, E =       -26.4226353234
  O         5.6817292535        6.8606189423        6.4999998796
  N         6.8755959380        6.9852519167        6.5000001174
  H         7.3125269632        6.0174906210        6.5000000530
       3
 i =        7, E =       -26.4226353234
  O         5.6817292535        6.8606189423        6.4999998796
  N         6.8755959380        6.9852519167        6.5000001174
  H         7.3125269632        6.0174906210        6.5000000530
