       3
 i =        1, E =       -93.4573548909
 Mg         7.4999999983        7.4999999949        7.5000001188
 Cl         7.4999999987        7.5000000067        9.6878627896
 Cl         7.5000000025        7.4999999975        5.3121370917
       3
 i =        2, E =       -93.4573555674
 Mg         7.5000000019        7.5000000053        7.5000031110
 Cl         7.4999999984        7.5000000060        9.6867346829
 Cl         7.5000000022        7.4999999968        5.3132690356
       3
 i =        3, E =       -93.4573555674
 Mg         7.5000000019        7.5000000053        7.5000031110
 Cl         7.4999999984        7.5000000060        9.6867346829
 Cl         7.5000000022        7.4999999968        5.3132690356
