       5
 i =        1, E =      -166.8051738527
 Mn         6.4999999504        6.5000000115        6.4999999905
  O         7.4260030516        5.5739969315        7.4259987479
  O         5.5739970016        7.4260030757        7.4259989143
  O         5.5739969449        5.5739969524        5.5740011514
  O         7.4260030510        7.4260030285        5.5740011956
       5
 i =        2, E =      -166.8053177089
 Mn         6.5000001468        6.4999999654        6.5000000262
  O         7.4223700158        5.5776299058        7.4223679627
  O         5.5776300887        7.4223699089        7.4223679292
  O         5.5776299851        5.5776301502        5.5776321039
  O         7.4223699461        7.4223700270        5.5776320133
       5
 i =        3, E =      -166.8053176636
 Mn         6.4999998778        6.5000000290        6.4999999789
  O         7.4225649135        5.5774350952        7.4225651036
  O         5.5774351369        7.4225649597        7.4225653859
  O         5.5774350366        5.5774350596        5.5774347104
  O         7.4225649444        7.4225648781        5.5774348079
       5
 i =        4, E =      -166.8053176636
 Mn         6.4999998778        6.5000000290        6.4999999789
  O         7.4225649135        5.5774350952        7.4225651036
  O         5.5774351369        7.4225649597        7.4225653859
  O         5.5774350366        5.5774350596        5.5774347104
  O         7.4225649444        7.4225648781        5.5774348079
