       4
 i =        1, E =      -241.3032957015
 Ni         6.5691623786        7.0001812988        6.9457681246
  F         5.6728058671        8.4895104666        7.0167994683
  F         5.6712945717        5.5111578945        7.0169178031
  F         8.3099758899        6.9992945588        7.0160521511
       4
 i =        2, E =      -241.3029470977
 Ni         6.6006275303        7.0274604659        6.6957681246
  F         5.5868740527        8.3370072247        7.1553626474
  F         5.6490656489        5.6848033766        7.1498035344
  F         8.2537195939        6.9502350839        7.1529473022
       4
 i =        3, E =      -241.3070459314
 Ni         6.5911530550        7.0203682256        6.8351176127
  F         5.6224732992        8.3907717495        7.0900107920
  F         5.6696270782        5.6218139622        7.0968036392
  F         8.2750064230        6.9681610814        7.0938435272
       4
 i =        4, E =      -241.3072411661
 Ni         6.5875547510        7.0179788189        6.8544501618
  F         5.6108825700        8.4042116122        7.0779010018
  F         5.6592242165        5.6027279504        7.0745281947
  F         8.2877834477        6.9683249097        7.0735347249
       4
 i =        5, E =      -241.3073641191
 Ni         6.5861291255        7.0185871209        6.8584924588
  F         5.5895273774        8.3898702063        7.0890869286
  F         5.6572478481        5.6074460040        7.0830036139
  F         8.2842018844        6.9630685971        7.0812533188
       4
 i =        6, E =      -241.3074968678
 Ni         6.5785944740        7.0185316197        6.8744100770
  F         5.5866437666        8.3888763173        7.0999418215
  F         5.6633719706        5.6024566941        7.1021646973
  F         8.2739795795        6.9623849265        7.1008074790
       4
 i =        7, E =      -241.3416746370
 Ni         6.5759325831        7.0186363497        6.8845295031
  F         5.5889462099        8.3962623183        7.0918350397
  F         5.6632606153        5.5967116792        7.0914691199
  F         8.2750900513        6.9632654523        7.0898593085
       4
 i =        8, E =      -241.3048893586
 Ni         6.5592643524        7.0223091478        6.9983314365
  F         5.5878244891        8.4447729137        7.0387994720
  F         5.6534394986        5.5643472201        7.0411654472
  F         8.2885944823        6.9637008449        7.0358079125
       4
 i =        9, E =      -241.3070117209
 Ni         6.5742042533        7.0232051086        6.9137118212
  F         5.5939737779        8.4128725086        7.0719368817
  F         5.6612815875        5.5954105979        7.0774661888
  F         8.2786504597        6.9621260829        7.0754940430
       4
 i =       10, E =      -241.2980988198
 Ni         6.6130045277        7.0090742712        6.6637118212
  F         5.5838107620        8.2884915375        7.2186406243
  F         5.6653947681        5.6689189826        7.2168132992
  F         8.2579494555        6.9693961384        7.2143726485
       4
 i =       11, E =      -241.3074111928
 Ni         6.5823069945        7.0172800670        6.8715185614
  F         5.5935964029        8.3788702077        7.1079767015
  F         5.6647065000        5.6100637345        7.1083437296
  F         8.2703408519        6.9639118878        7.1084464174
       4
 i =       12, E =      -241.3065284402
 Ni         6.5764040613        7.0219768604        6.9231549132
  F         5.5917594405        8.4185110973        7.0596649668
  F         5.6573147220        5.5868451646        7.0715054401
  F         8.2890738186        6.9625968958        7.0663201648
       4
 i =       13, E =      -241.3073692211
 Ni         6.5799726887        7.0196602596        6.8955514496
  F         5.5923625437        8.3971668987        7.0770426050
  F         5.6600781916        5.6002453586        7.0929868782
  F         8.2803275744        6.9630105942        7.0859116225
       4
 i =       14, E =      -241.3046174207
 Ni         6.5907560421        7.0089489355        6.7796237440
  F         5.5952011708        8.3280719055        7.1888848197
  F         5.6775586184        5.6361070718        7.1508864731
  F         8.2507235500        6.9671522458        7.1791990886
       4
 i =       15, E =      -241.3070561083
 Ni         6.5827170111        7.0176148215        6.8611829090
  F         5.5941758168        8.3785086968        7.1172967347
  F         5.6631202937        5.6123971764        7.1112932811
  F         8.2708093503        6.9643614279        7.1131714040
       4
 i =       16, E =      -241.3036040901
 Ni         6.5663259560        7.0252259385        6.9949314106
  F         5.5849054583        8.4583084790        6.9866458416
  F         5.6607960679        5.5539593211        7.0288128714
  F         8.3054620938        6.9598270983        7.0127814835
       4
 i =       17, E =      -241.3070443728
 Ni         6.5775767508        7.0190068447        6.9069969637
  F         5.5942823325        8.4053987365        7.0669955065
  F         5.6632894852        5.5899818679        7.0811356001
  F         8.2827159499        6.9631744302        7.0804428078
       4
 i =       18, E =      -241.3063629293
 Ni         6.5861410874        7.0144350177        6.8185071804
  F         5.5903933300        8.3528991973        7.1589978239
  F         5.6559621076        5.6335308433        7.1420757561
  F         8.2590026720        6.9649571064        7.1458905215
       4
 i =       19, E =      -241.3068236900
 Ni         6.5873443428        7.0140735538        6.8512110756
  F         5.5924035372        8.3677048770        7.1179692737
  F         5.6603160715        5.6158288073        7.1232968137
  F         8.2745180282        6.9647739780        7.1265951278
       4
 i =       20, E =      -241.3007897438
 Ni         6.5799399392        7.0102297088        7.0650032141
  F         5.5987194677        8.4697072580        6.8679692737
  F         5.6842307840        5.4960613518        6.9951890959
  F         8.3507743345        6.9617467195        7.0006282453
       4
 i =       21, E =      -241.3068237789
 Ni         6.5841972798        7.0088485525        6.9252352076
  F         5.5954385761        8.3927914744        7.0354274039
  F         5.6682742641        5.5752213448        7.0772476462
  F         8.2955976743        6.9630697010        7.0908298681
       4
 i =       22, E =      -241.3061805186
 Ni         6.5827744627        7.0133739213        6.8127253472
  F         5.5884646980        8.3574440025        7.1449844784
  F         5.6505882771        5.6336653255        7.1620589637
  F         8.2529747605        6.9660088554        7.1529915050
       4
 i =       23, E =      -241.3102582880
 Ni         6.5828744148        7.0117688817        6.8811998587
  F         5.5931646109        8.3803850578        7.0812396775
  F         5.6605463987        5.6019806738        7.1131697388
  F         8.2768656728        6.9641096549        7.1170119307
       4
 i =       24, E =      -241.3064384553
 Ni         6.5867817991        7.0210816556        6.9380118162
  F         5.5912186315        8.4098404399        7.0368889114
  F         5.6715754249        5.5875083959        7.0656444394
  F         8.3006450258        6.9538078142        7.0707929549
       4
 i =       25, E =      -241.3073079142
 Ni         6.5873214629        7.0175783673        6.8968686111
  F         5.5910904442        8.3898377566        7.0747057880
  F         5.6628059746        5.6050436874        7.0937627498
  F         8.2861096796        6.9587135131        7.1014164108
       4
 i =       26, E =      -241.3068554723
 Ni         6.5845344731        7.0159724387        6.8515673223
  F         5.5961696577        8.3733882017        7.1397943386
  F         5.6607039686        5.6186144971        7.1361537657
  F         8.2692910133        6.9691320852        7.1133071706
