       2
 i =        1, E =       -24.6148903814
 Rb         6.5000000008        6.5000000038        5.3049575211
  H         6.4999999992        6.4999999962        7.6950305395
       2
 i =        2, E =       -24.6150573734
 Rb         6.5000000007        6.5000000036        5.3367313154
  H         6.4999999993        6.4999999963        7.6631804185
       2
 i =        3, E =       -24.6150650887
 Rb         6.5000000007        6.5000000036        5.3308924266
  H         6.4999999993        6.4999999963        7.6690588725
       2
 i =        4, E =       -24.6150651425
 Rb         6.5000000007        6.5000000036        5.3312973691
  H         6.4999999993        6.4999999963        7.6686740386
       2
 i =        5, E =       -24.6150651425
 Rb         6.5000000007        6.5000000036        5.3312973691
  H         6.4999999993        6.4999999963        7.6686740386
