       5
 i =        1, E =       -51.0673114084
  S         6.6107326134        7.5594820297        8.4586421970
  S         8.4672056048        6.9622080620        8.1455083041
  S         8.4672118392        6.9622073279        5.8545028526
  S         6.6107417665        7.5594773922        5.5413564781
  S         5.5561441231        6.4542969697        7.0000031299
       5
 i =        2, E =       -51.0689996927
  S         6.6023943394        7.5513595189        8.4491986938
  S         8.4579878577        6.9605045451        8.0924928121
  S         8.4579926542        6.9605011144        5.9075193685
  S         6.6024016645        7.5513556085        5.5508014548
  S         5.5913514378        6.4738467364        7.0000006320
       5
 i =        3, E =       -51.0694239395
  S         6.5961407106        7.5490916189        8.4581746943
  S         8.4656853239        6.9605162330        8.0894176940
  S         8.4656900636        6.9605119514        5.9105942426
  S         6.5961483312        7.5490878141        5.5418263234
  S         5.5884787017        6.4783564317        7.0000000064
       5
 i =        4, E =       -51.0695994650
  S         6.5882410547        7.5447171060        8.4667453190
  S         8.4748848341        6.9610400701        8.0824681609
  S         8.4748902951        6.9610345417        5.9175428700
  S         6.5882496138        7.5447135077        5.5332572581
  S         5.5858981793        6.4860488379        6.9999993532
       5
 i =        5, E =       -51.0696017436
  S         6.5876488358        7.5448561942        8.4668498608
  S         8.4756703478        6.9609377967        8.0841287795
  S         8.4756747285        6.9609329083        5.9158837543
  S         6.5876563404        7.5448526646        5.5331511891
  S         5.5855090578        6.4859786180        6.9999993784
       5
 i =        6, E =       -51.0696019348
  S         6.5874794058        7.5449276130        8.4667960894
  S         8.4755901469        6.9608441004        8.0836796558
  S         8.4755947451        6.9608393474        5.9163327220
  S         6.5874870029        7.5449239935        5.5332050158
  S         5.5860089046        6.4860234431        6.9999994794
       5
 i =        7, E =       -51.0696019348
  S         6.5874794058        7.5449276130        8.4667960894
  S         8.4755901469        6.9608441004        8.0836796558
  S         8.4755947451        6.9608393474        5.9163327220
  S         6.5874870029        7.5449239935        5.5332050158
  S         5.5860089046        6.4860234431        6.9999994794
