      12
 i =        1, E =      -242.4052464929
  B         9.3401365903        7.9999993713        8.0000000142
  N         8.5858250228        9.2202996138        8.0000000341
  B         7.1517049061        9.2633918566        8.0000000035
  N         6.4719616352        8.0000001035        8.0000000431
  B         7.1517024740        6.7366078092        8.0000000009
  N         8.5858230609        6.7796998511        7.9999999892
  H        10.5462020157        7.9999949956        7.9999999892
  H         9.0940101058       10.1005673149        8.0000000027
  H         6.5488334686       10.3079925650        7.9999999277
  H         5.4554840313        8.0000033782        7.9999999904
  H         6.5488269911        5.6920094927        8.0000000245
  H         9.0940061314        5.8994314088        7.9999999805
      12
 i =        2, E =      -242.4052854893
  B         9.3358318153        7.9999977398        8.0000000063
  N         8.5868121614        9.2221307992        8.0000000303
  B         7.1538891444        9.2597624365        8.0000000038
  N         6.4700075330        8.0000018915        8.0000000190
  B         7.1538855535        6.7402395274        8.0000000333
  N         8.5868087778        6.7778667467        7.9999999918
  H        10.5361300258        7.9999964185        7.9999999932
  H         9.0938609405       10.1004259996        8.0000000074
  H         6.5537941510       10.2992450843        7.9999999236
  H         5.4558554506        8.0000024452        7.9999999989
  H         6.5537896693        5.7007569419        8.0000000174
  H         9.0938578596        5.8995717307        7.9999999750
      12
 i =        3, E =      -242.4052975155
  B         9.3375302810        7.9999982343        8.0000000057
  N         8.5861384208        9.2209544797        8.0000000247
  B         7.1530456998        9.2612052834        7.9999999937
  N         6.4713436801        8.0000013350        8.0000000213
  B         7.1530426925        6.7387958808        8.0000000165
  N         8.5861355687        6.7790437542        8.0000000017
  H        10.5387969225        7.9999963980        7.9999999937
  H         9.0935815702       10.0999020369        8.0000000089
  H         6.5524554096       10.3015483735        7.9999999350
  H         5.4564279495        8.0000025641        8.0000000012
  H         6.5524503610        5.6984538619        8.0000000205
  H         9.0935775801        5.9000955585        7.9999999771
      12
 i =        4, E =      -242.4052975526
  B         9.3374941818        7.9999983265        8.0000000098
  N         8.5861672316        9.2210109256        8.0000000167
  B         7.1530674729        9.2611764729        7.9999999953
  N         6.4712931464        8.0000012423        8.0000000152
  B         7.1530647525        6.7388246060        8.0000000174
  N         8.5861646239        6.7789873601        8.0000000003
  H        10.5387735101        7.9999965358        7.9999999936
  H         9.0936587411       10.1000295020        8.0000000095
  H         6.5524524433       10.3015258283        7.9999999396
  H         5.4562930740        8.0000025748        8.0000000028
  H         6.5524473511        5.6984765721        8.0000000201
  H         9.0936544143        5.8999678122        7.9999999797
      12
 i =        5, E =      -242.4052975528
  B         9.3374941818        7.9999983265        8.0000000098
  N         8.5861672316        9.2210109256        8.0000000167
  B         7.1530674729        9.2611764729        7.9999999953
  N         6.4712931464        8.0000012423        8.0000000152
  B         7.1530647525        6.7388246060        8.0000000174
  N         8.5861646239        6.7789873601        8.0000000003
  H        10.5387735101        7.9999965358        7.9999999936
  H         9.0936587411       10.1000295020        8.0000000095
  H         6.5524524433       10.3015258283        7.9999999396
  H         5.4562930740        8.0000025748        8.0000000028
  H         6.5524473511        5.6984765721        8.0000000201
  H         9.0936544143        5.8999678122        7.9999999797
