       4
 i =        1, E =       -26.5527386744
  B         6.5000000006        6.4999999994        6.1967085216
  H         6.5000000005        6.5000000040        7.3990344968
  H         7.5412369537        6.4999999933        5.5955482822
  H         5.4587630453        6.5000000033        5.5955482829
       4
 i =        2, E =       -26.5527680623
  B         6.4999999999        6.5000000007        6.1967105469
  H         6.5000000007        6.5000000035        7.3940521788
  H         7.5369277984        6.4999999930        5.5980384425
  H         5.4630722010        6.5000000028        5.5980384431
       4
 i =        3, E =       -26.5527681070
  B         6.5000000000        6.4999999997        6.1967101105
  H         6.5000000006        6.5000000038        7.3942399059
  H         7.5370910312        6.4999999933        5.5979448041
  H         5.4629089683        6.5000000032        5.5979448049
       4
 i =        4, E =       -26.5527681069
  B         6.5000000000        6.4999999997        6.1967101105
  H         6.5000000006        6.5000000038        7.3942399059
  H         7.5370910312        6.4999999933        5.5979448041
  H         5.4629089683        6.5000000032        5.5979448049
