       2
 i =        1, E =      -312.1145050021
 Bi         6.5000007562        6.4999996410        5.4651073735
  F         6.4999992438        6.5000003591        7.5348889211
       2
 i =        2, E =      -312.1145066211
 Bi         6.5000007575        6.4999996511        5.4661635879
  F         6.4999992426        6.5000003488        7.5338274303
       2
 i =        3, E =      -312.1145066211
 Bi         6.5000007575        6.4999996511        5.4661635879
  F         6.4999992426        6.5000003488        7.5338274303
