       8
 i =        1, E =       -79.7264521326
  C         6.4999982032        6.4999926119        7.2625295105
  C         6.4999954390        6.5000073045        5.7374846399
  H         6.4999863760        7.5236203361        7.6701927843
  H         5.6134934956        7.0118148691        5.3298559532
  H         5.6134857518        5.9881930111        7.6701312305
  H         6.5000004293        5.4763845261        5.3298055446
  H         7.3865095323        5.9881793052        7.6701660098
  H         7.3865043295        7.0118131168        5.3298684171
       8
 i =        2, E =       -79.7264990970
  C         6.4999871791        6.4999908504        7.2612841807
  C         6.5000082740        6.5000090282        5.7387153574
  H         6.4999946327        7.5211186464        7.6661920477
  H         5.6156792812        7.0105801680        5.3338338536
  H         5.6156679767        5.9894176379        7.6661790376
  H         6.4999985664        5.4788783663        5.3338146599
  H         7.3843090478        5.9894240307        7.6661865192
  H         7.3843285975        7.0105863532        5.3338284341
       8
 i =        3, E =       -79.7265001830
  C         6.4999983788        6.4999916108        7.2611538177
  C         6.4999967471        6.5000086105        5.7388609012
  H         6.4999892226        7.5214415677        7.6654158864
  H         5.6154000567        7.0107416247        5.3346008836
  H         5.6153891097        5.9892624342        7.6653937803
  H         6.5000036668        5.4785631121        5.3345872718
  H         7.3845954928        5.9892582179        7.6654116091
  H         7.3846008812        7.0107379034        5.3346099399
       8
 i =        4, E =       -79.7265001830
  C         6.4999983788        6.4999916108        7.2611538177
  C         6.4999967471        6.5000086105        5.7388609012
  H         6.4999892226        7.5214415677        7.6654158864
  H         5.6154000567        7.0107416247        5.3346008836
  H         5.6153891097        5.9892624342        7.6653937803
  H         6.5000036668        5.4785631121        5.3345872718
  H         7.3845954928        5.9892582179        7.6654116091
  H         7.3846008812        7.0107379034        5.3346099399
