       5
 i =        1, E =      -189.4596804973
  C         6.5035877676        6.5005227776        6.7972984757
  O         6.9879365560        7.0794432161        5.6260845371
  O         6.0336077519        5.9237021814        5.6191703080
  H         7.2240144894        5.9021130172        7.3761527901
  H         5.7761702533        7.0979648044        7.3683768946
       5
 i =        2, E =      -189.4597675899
  C         6.5036000083        6.5005637772        6.8010531643
  O         6.9850974300        7.0758737133        5.6256143875
  O         6.0364607467        5.9272917078        5.6188319171
  H         7.2204700705        5.9050939400        7.3746660392
  H         5.7796885646        7.0949228623        7.3669178025
       5
 i =        3, E =      -189.4597703572
  C         6.5035596477        6.5005164860        6.8013255550
  O         6.9847106529        7.0754478914        5.6251987613
  O         6.0368477486        5.9277109836        5.6183545476
  H         7.2210397601        5.9046396874        7.3749787926
  H         5.7791589922        7.0954309632        7.3672258261
       5
 i =        4, E =      -189.4597703573
  C         6.5035596477        6.5005164860        6.8013255550
  O         6.9847106529        7.0754478914        5.6251987613
  O         6.0368477486        5.9277109836        5.6183545476
  H         7.2210397601        5.9046396874        7.3749787926
  H         5.7791589922        7.0954309632        7.3672258261
