       4
 i =        1, E =     -1269.7953548513
 Cr         6.6029502850        7.0000000227        7.0000002950
  O         5.8074034123        8.3779271043        6.9999998646
  O         5.8074031517        5.6220730851        6.9999999824
  O         8.1940436876        6.9999997880        6.9999998580
       4
 i =        2, E =     -1269.7953676103
 Cr         6.6029501928        6.9999999853        7.0000005216
  O         5.8063571436        8.3797394559        6.9999997887
  O         5.8063567987        5.6202607174        6.9999999079
  O         8.1961363818        6.9999998413        6.9999997820
       4
 i =        3, E =     -1269.7953676157
 Cr         6.6029501843        6.9999999850        7.0000007427
  O         5.8063422678        8.3797650796        6.9999997150
  O         5.8063419088        5.6202350807        6.9999998342
  O         8.1961660244        6.9999998547        6.9999997083
       4
 i =        4, E =     -1269.7953676198
 Cr         6.6029501843        6.9999999850        7.0000007427
  O         5.8063422678        8.3797650796        6.9999997150
  O         5.8063419088        5.6202350807        6.9999998342
  O         8.1961660244        6.9999998547        6.9999997083
