       2
 i =        1, E =     -1884.2544242139
 Cu         6.5074560450        6.4952435549        5.4064890855
 Cl         6.4925438909        6.5047565141        7.5935154371
       2
 i =        2, E =     -2408.5170482824
 Cu         6.4955760523        6.5025551811        5.4468643703
 Cl         6.5044239672        6.4974447997        7.5531402199
       2
 i =        3, E =     -1873.1217893415
 Cu         6.4704310749        6.5195777895        5.4277635957
 Cl         6.5295688417        6.4804222792        7.5722409089
       2
 i =        4, E =     -2258.1467326908
 Cu         6.4456132626        6.5463169359        5.4318029142
 Cl         6.5543861197        6.4536835889        7.5682015119
       2
 i =        5, E =     -2457.7268354948
 Cu         6.4472581176        6.5497584539        5.6818028792
 Cl         6.5527412387        6.4502421273        7.3182015119
       2
 i =        6, E =     -2095.2338625826
 Cu         6.4489224849        6.5493801073        5.9318028737
 Cl         6.5510768774        6.4506204758        7.0682015119
       2
 i =        7, E =    -13842.6895732420
 Cu         6.4308019743        6.5325194312        6.1818028737
 Cl         6.5691973881        6.4674811505        6.8182015138
       2
 i =        8, E =     -4219.7210459966
 Cu         6.3416313537        6.7825194138        6.3886518517
 Cl         6.6583680260        6.2174811505        6.6113525189
       2
 i =        9, E =    -23148.6835619912
 Cu         6.4363901017        6.6546666663        6.6386518095
 Cl         6.5636110041        6.3453325034        6.3613525189
       2
 i =       10, E =     -4518.8513697561
 Cu         6.6863901017        6.7041834979        6.7103840105
 Cl         6.3136126543        6.2958143000        6.2896201263
       2
 i =       11, E =    -34119.7350026319
 Cu         6.4442746630        6.5924272279        6.6529439169
 Cl         6.5636126543        6.4060625872        6.3451086829
       2
 i =       12, E =     -4925.5208388766
 Cu         6.2044675384        6.5432784993        6.5376107610
 Cl         6.8136126543        6.4578499307        6.4571824505
       2
 i =       13, E =    -34361.5781997268
 Cu         6.3644197917        6.5986105733        6.5938357578
 Cl         6.6828321161        6.4249808093        6.4118110806
       2
 i =       14, E =    -14260.0216397068
 Cu         6.6144197917        6.6664061102        6.6812695430
 Cl         6.4328321242        6.3571852660        6.3243773014
       2
 i =       15, E =    -22235.8026223923
 Cu         6.5466802707        6.5707524671        6.6989590246
 Cl         6.5147746886        6.4376153692        6.3107140280
       2
 i =       16, E =    -22295.8909213565
 Cu         6.4715645336        6.6728210385        6.5897682044
 Cl         6.6000247804        6.3169032008        6.4428255502
       2
 i =       17, E =    -53711.6497745551
 Cu         6.5103868296        6.5912081976        6.6543248413
 Cl         6.5689657352        6.3794787953        6.3779704157
       2
 i =       18, E =    -18700.2046960880
 Cu         6.5171333614        6.3907197354        6.7647917716
 Cl         6.6285242098        6.5212671961        6.3460574824
       2
 i =       19, E =    -95093.0412270631
 Cu         6.4858131331        6.4859376791        6.6686810829
 Cl         6.6239582405        6.4151806033        6.3832357938
       2
 i =       20, E =     -7517.3264669913
 Cu         6.4035318315        6.6758521362        6.4508287168
 Cl         6.6410291598        6.1651806033        6.5109912943
       2
 i =       21, E =    -10971.1738471599
 Cu         6.4170123782        6.6419228877        6.4797231541
 Cl         6.6409294231        6.2036784868        6.4866992262
       2
 i =       22, E =    -25441.4556648306
 Cu         6.5043098604        6.3919229409        6.6791035785
 Cl         6.5536319882        6.4536784868        6.2873188405
       2
 i =       23, E =    -54230.4911127510
 Cu         6.4579877146        6.5563528813        6.5524358873
 Cl         6.6031480599        6.2966788226        6.4109758938
       2
 i =       24, E =    -74110.9467544124
 Cu         6.5018553651        6.4288823178        6.6453865064
 Cl         6.5513764111        6.4223290080        6.3002932402
       2
 i =       25, E =   -154714.5392896368
 Cu         6.4962024330        6.5198194214        6.5934236512
 Cl         6.5667494317        6.3536361349        6.3671123112
       2
 i =       26, E =   -105340.4019764797
 Cu         6.3829156659        6.4932993151        6.4828273337
 Cl         6.7447380498        6.3493612568        6.3774800034
       2
 i =       27, E =     -2963.2812417118
 Cu         6.2837920882        6.6316509223        6.2328273337
 Cl         6.8438616261        6.2110096511        6.6274799989
       2
 i =       28, E =     -2098.4282078564
 Cu         6.2835325643        6.6358122578        6.2331093708
 Cl         6.8400745361        6.2145616511        6.6261536348
       2
 i =       29, E =    -11920.8979864957
 Cu         6.5335325643        6.6670678891        6.3582960672
 Cl         6.5900752314        6.1833060212        6.5009675472
       2
 i =       30, E =     -3827.5480412136
 Cu         6.7835325643        6.6927366265        6.4879852503
 Cl         6.3484715007        6.1531237911        6.3792423126
       2
 i =       31, E =     -8812.2301825052
 Cu         6.6449193394        6.6752007278        6.4179761567
 Cl         6.4948087608        6.1716931034        6.4514578808
       2
 i =       32, E =    -65947.1822653423
 Cu         6.5677365908        6.4252007421        6.6085855722
 Cl         6.5719916124        6.4216931034        6.2608485459
       2
 i =       33, E =     -5115.8460884094
 Cu         6.3177365908        6.2953892307        6.5727187905
 Cl         6.7833056994        6.5481115501        6.2670830853
       2
 i =       34, E =   -142887.6038103607
 Cu         6.5677365908        6.4392918793        6.5934489800
 Cl         6.5645437348        6.4028210641        6.2727386611
       2
 i =       35, E =     -1902.8828879684
 Cu         6.3177365908        6.2946135771        6.5695579784
 Cl         6.7702619528        6.5392188496        6.2640180617
       2
 i =       36, E =     -6060.5991697440
 Cu         6.3270903393        6.2991885117        6.5704133473
 Cl         6.7650254357        6.5343598511        6.2652450799
       2
 i =       37, E =    -97418.8091643759
 Cu         6.5770902831        6.4656694977        6.5631152570
 Cl         6.5150254357        6.3678788195        6.2725431100
       2
 i =       38, E =     -2690.5007971100
 Cu         6.3329402333        6.3034336075        6.5669436952
 Cl         6.7539092862        6.5265421552        6.2631077083
       2
 i =       39, E =     -9847.5672825369
 Cu         6.3411612337        6.3083550153        6.5681868759
 Cl         6.7468859904        6.5208423694        6.2655567232
       2
 i =       40, E =   -133824.6824083158
 Cu         6.5911612301        6.4837523431        6.5441399394
 Cl         6.4968859904        6.3454450393        6.2896036530
       2
 i =       41, E =     -1627.6991343641
 Cu         6.3504596924        6.3149789425        6.5657059542
 Cl         6.7364094919        6.5133473710        6.2660717048
       2
 i =       42, E =     -8590.3112022219
 Cu         6.3607611206        6.3179281521        6.5632293904
 Cl         6.7450037037        6.5150695753        6.2638591245
       2
 i =       43, E =   -292867.6747963133
 Cu         6.6107611206        6.4929750918        6.4905952675
 Cl         6.4950037268        6.3400226640        6.3364932479
       2
 i =       44, E =    -20682.3313566489
 Cu         6.3711407418        6.3281654872        6.5611595853
 Cl         6.7450037268        6.5179671002        6.2655039118
       2
 i =       45, E =    -13234.6993191557
 Cu         6.3987869090        6.3523040313        6.5561597427
 Cl         6.7197415562        6.5074892698        6.2776991919
       2
 i =       46, E =    -16581.5599475594
 Cu         6.4284344526        6.3660863357        6.5427668411
 Cl         6.7336383178        6.5099359644        6.2701479458
       2
 i =       47, E =   -335165.7384005882
 Cu         6.5300038572        6.3917500548        6.2927668411
 Cl         6.5686070190        6.3506854984        6.1168649749
       2
 i =       48, E =   -136757.7775053289
 Cu         6.4920668174        6.3893202931        6.4300144413
 Cl         6.6878818732        6.4592796947        6.2030546174
       2
 i =       49, E =   -816327.5473544643
 Cu         6.6713423166        6.4849734206        6.2634303679
 Cl         6.7076710450        6.4511491613        6.1222308138
       2
 i =       50, E =     -8163.1924905336
 Cu         6.7192182447        6.7349734156        6.2605439995
 Cl         6.6597951102        6.2011491613        6.1251171806
       2
 i =        1, E =     -1887.2476931107
 Cu         6.5045219386        6.4973629384        5.5256434639
 Cl         6.4954782917        6.5026371180        7.4743682194
       2
 i =        2, E =     -2100.3296841419
 Cu         6.5059622849        6.4965194655        5.4774975582
 Cl         6.4940380247        6.5034805299        7.5225142011
       2
 i =        3, E =     -2100.3296945582
 Cu         6.5059773714        6.4965106637        5.4765940821
 Cl         6.4940223373        6.5034895561        7.5234177788
       2
 i =        4, E =     -1887.2810579237
 Cu         6.5060589697        6.4964629419        5.4718345204
 Cl         6.4939370418        6.5035387131        7.5281789868
       2
 i =        5, E =     -1887.1847178523
 Cu         6.5078320661        6.4954636129        5.2218351461
 Cl         6.4921629545        6.5045383592        7.7781789868
