       4
 i =        1, E =     -2375.9815463499
 Ge         7.4057428528        7.0000006163        7.3276136983
  F         8.2149617533        5.5983889292        6.6700829666
  F         8.2149622382        8.4016107758        6.6700830267
  F         5.7873016871        6.9999996787        6.6700833804
       4
 i =        2, E =     -2375.9816089327
 Ge         7.4057416202        7.0000000779        7.3278279073
  F         8.2113037086        5.6047260485        6.6700124148
  F         8.2113038721        8.3952738203        6.6700122336
  F         5.7946179545        7.0000000535        6.6700124960
       4
 i =        3, E =     -2375.9816094031
 Ge         7.4057413976        7.0000000767        7.3288046295
  F         8.2111180633        5.6050474936        6.6696872374
  F         8.2111182338        8.3949523764        6.6696870495
  F         5.7949888856        7.0000000536        6.6696870988
       4
 i =        4, E =     -2375.9816093974
 Ge         7.4057413976        7.0000000767        7.3288046295
  F         8.2111180633        5.6050474936        6.6696872374
  F         8.2111182338        8.3949523764        6.6696870495
  F         5.7949888856        7.0000000536        6.6696870988
