       2
 i =        1, E =     -2151.8097138994
 Ge         6.7499997532        6.5848442183        5.7069937986
  O         6.2500000000        6.4151556687        7.2930061325
       2
 i =        2, E =     -2151.8105401477
 Ge         6.7232976466        6.5757815763        5.7170186580
  O         6.2767023472        6.4242178509        7.2829813758
       2
 i =        3, E =     -2151.8105521155
 Ge         6.7261144160        6.5767369412        5.7158822462
  O         6.2738862189        6.4232621223        7.2841176919
       2
 i =        4, E =     -2151.8105521185
 Ge         6.7260023097        6.5766983141        5.7159273838
  O         6.2739990505        6.4233004065        7.2840724866
       2
 i =        5, E =     -2151.8105521275
 Ge         6.7260023097        6.5766983141        5.7159273838
  O         6.2739990505        6.4233004065        7.2840724866
