       3
 i =        1, E =      -351.6899552341
 Hg         7.4999999860        7.4999999833        7.5000000045
  F         7.5000000046        7.5000000183        5.5474134259
  F         7.5000000094        7.4999999984        9.4525865695
       3
 i =        2, E =      -351.6899554331
 Hg         7.4999999947        7.4999999937        7.4999999951
  F         7.5000000003        7.5000000131        5.5479195861
  F         7.5000000050        7.4999999932        9.4520804188
       3
 i =        3, E =      -351.6899554330
 Hg         7.4999999947        7.4999999937        7.4999999951
  F         7.5000000003        7.5000000131        5.5479195861
  F         7.5000000050        7.4999999932        9.4520804188
