       2
 i =        1, E =     -3173.5310686289
  K         7.0000001342        7.0000003080        5.5737215698
 Br         6.9999998658        6.9999996920        8.4262784422
       2
 i =        2, E =     -3173.5310895754
  K         7.0000001386        7.0000003185        5.5831024446
 Br         6.9999998614        6.9999996815        8.4168973891
       2
 i =        3, E =     -3173.5310900477
  K         7.0000001355        7.0000003110        5.5818804369
 Br         6.9999998645        6.9999996890        8.4181191355
       2
 i =        4, E =     -3173.5310900583
  K         7.0000001355        7.0000003110        5.5818804369
 Br         6.9999998645        6.9999996890        8.4181191355
