       3
 i =        1, E =     -1223.7875731730
 Mn         7.4979405386        7.5123237170        7.5304878223
  F         7.5209193361        7.5143380604        9.1997832088
  F         7.4811394983        7.4733368287        5.7697422408
       3
 i =        2, E =      -913.4102950307
 Mn         7.2922812114        7.5654176127        7.6002660325
  F         7.6976549092        7.5332727739        8.9497832088
  F         7.5100628361        7.4013053819        5.9499734063
       3
 i =        3, E =      -893.1051294105
 Mn         7.1727016998        7.6354714036        7.6539888660
  F         7.8970100130        7.5115658414        8.6997832088
  F         7.4302877598        7.3529567418        6.1462421815
       3
 i =        4, E =      -910.1692756056
 Mn         7.4081460456        7.6767973486        7.5625905843
  F         7.6793274472        7.4120794327        8.9497832088
  F         7.4125276710        7.4111200990        5.9876093474
       3
 i =        5, E =      -926.6830890041
 Mn         7.3448650211        7.7753239073        7.5036120055
  F         7.7681232441        7.1620794327        8.9310442673
  F         7.3870082473        7.5625876994        6.0654173843
       3
 i =        6, E =     -1120.3943013138
 Mn         7.2479564376        8.0253239073        7.6458185782
  F         7.7821675087        6.9757833022        8.9934768019
  F         7.4698731057        7.4988841789        5.8607781517
       3
 i =        7, E =      -928.9644765402
 Mn         7.2524243553        7.8636111519        7.4909414650
  F         7.8515804615        6.8874900696        8.9399904569
  F         7.3959867215        7.7488841789        6.0692345332
       3
 i =        8, E =     -1280.2795195274
 Mn         7.4150354842        7.6136111519        7.4117920019
  F         7.7274593255        7.0587600153        8.8667792135
  F         7.3574968129        7.8276142564        6.2215937621
       3
 i =        9, E =     -1326.7585120066
 Mn         7.4500990064        7.4218021324        7.5596703355
  F         7.6105143952        7.0005780277        8.9323953760
  F         7.4393862636        8.0776142564        6.0079854362
       3
 i =       10, E =     -1321.1778742345
 Mn         7.4119229384        7.2854321295        7.4866729965
  F         7.8340887219        6.8869441736        9.0429093050
  F         7.2539812515        8.3276142564        5.9705416376
       3
 i =       11, E =     -1642.2399721199
 Mn         7.4153650890        7.3381344846        7.4737728249
  F         7.8392102150        6.9498569757        9.0409342130
  F         7.2454173882        8.2119977893        5.9854197869
       3
 i =       12, E =     -1404.7322475085
 Mn         7.4107645268        7.3473780366        7.4801393188
  F         7.8334879733        6.9761693171        9.0237884713
  F         7.2557400855        8.1764442239        5.9961939277
       3
 i =       13, E =     -1702.4613294042
 Mn         7.3981618936        7.3162710559        7.4844849718
  F         7.8517134717        6.9594101569        9.0176600141
  F         7.2501171721        8.2243134132        5.9979790369
       3
 i =       14, E =      -881.4183893288
 Mn         7.3261316863        7.1449720733        7.4741232259
  F         8.0414739156        6.8979560753        9.0344834280
  F         7.1323879572        8.4570774601        5.9915472201
       3
 i =       15, E =     -1747.1223057368
 Mn         7.2928624237        7.0571891706        7.4694198946
  F         8.1249786494        6.8496981650        9.0426234147
  F         7.0821521358        8.5931238630        5.9881250420
       3
 i =       16, E =     -1301.4577180217
 Mn         7.3058965458        7.1011284755        7.4682879602
  F         8.0953019037        6.8791130668        9.0403100269
  F         7.0987932898        8.5197664412        5.9915663518
       3
 i =       17, E =     -1339.7085462507
 Mn         7.3884734156        7.2618381297        7.5577391205
  F         7.8453019037        6.9188706651        8.9341647254
  F         7.2662196524        8.3192982132        6.0082483212
       3
 i =       18, E =     -1400.7696782658
 Mn         7.3495498839        7.2897759493        7.5159911433
  F         7.9893774084        7.0508137251        8.9521472008
  F         7.1610553684        8.1594108154        6.0320452698
       3
 i =       19, E =     -1347.5565301181
 Mn         7.2779245611        7.4148890465        7.4239640437
  F         8.1632034559        7.1698741190        8.9231312274
  F         7.0588284506        7.9152195410        6.1531891628
       3
 i =       20, E =      -853.1251090884
 Mn         7.3255694745        7.3213321561        7.4786552692
  F         8.0191789120        7.0134410931        8.9400856666
  F         7.1552269719        8.1652195410        6.0814815449
       3
 i =       21, E =     -1507.7891289287
 Mn         7.4105217899        7.4027439624        7.5729769977
  F         7.8109399861        7.0691352055        8.8824085152
  F         7.2785236864        8.0281171169        6.0447945823
       3
 i =       22, E =     -1130.1233273716
 Mn         7.4417679406        7.3372900181        7.8229769977
  F         7.7292981145        7.1028315203        8.7008762444
  F         7.3289200654        8.0598749682        5.9763243720
       3
 i =       23, E =     -1256.0567076533
 Mn         7.3267491220        7.2274057612        7.7783989409
  F         7.8898125184        6.9627207403        8.7196713053
  F         7.2834417474        8.3098749682        6.0020723926
       3
 i =       24, E =     -1284.5907163772
 Mn         7.2342069165        7.1388070644        7.8407817352
  F         8.0793117641        7.2127207403        8.6517050693
  F         7.1864981731        8.1484819744        6.0076238983
       3
 i =       25, E =     -1499.5814352411
 Mn         7.1022204481        7.0146363190        7.8876566245
  F         8.3293117641        7.4404983751        8.5906830015
  F         7.0685040324        8.0448859024        6.0217255352
       3
 i =       26, E =     -1356.6066401645
 Mn         7.1351928865        7.0692970108        7.8675601856
  F         8.2910075289        7.4981137295        8.6100605233
  F         7.0738282722        7.9326103549        6.0224586501
       3
 i =       27, E =     -1701.5993258981
 Mn         7.1497672407        7.1329073496        7.8502700981
  F         8.3013202629        7.6573461948        8.6180494713
  F         7.0489330291        7.7097671917        6.0317696532
       3
 i =       28, E =      -917.7130554272
 Mn         7.1631300592        7.1882867368        7.8313360109
  F         8.3222717464        7.8519701033        8.6310418178
  F         7.0146124307        7.4597671917        6.0377172634
       3
 i =       29, E =      -942.8542521581
 Mn         7.1773547205        7.2410537884        7.8046046195
  F         8.3395190669        8.0492072360        8.6410677910
  F         6.9831335837        7.2097671917        6.0544368057
       3
 i =       30, E =     -1329.0634590669
 Mn         7.1467070395        7.1900534646        7.8264916957
  F         8.3449368569        7.8724656642        8.6082875151
  F         7.0083718111        7.4375069152        6.0653197761
       3
 i =       31, E =     -1218.4083120743
 Mn         7.1486365218        7.2014394239        7.8210580868
  F         8.3456937786        7.8887322867        8.6038781058
  F         7.0056856017        7.4098533887        6.0751626756
       3
 i =       32, E =      -832.6326822670
 Mn         7.0739466996        7.4498916925        7.8782239363
  F         8.4808119609        7.7531013929        8.7967121778
  F         6.9452572626        7.2970320214        5.8251626756
       3
 i =       33, E =      -896.6917365543
 Mn         7.0925459481        7.5498652943        7.8264625540
  F         8.4861421614        7.9031190496        8.7533603032
  F         6.9213297621        7.0470320214        5.9202751545
       3
 i =       34, E =     -1283.3624542583
 Mn         7.0776637046        7.4671007763        7.8678073773
  F         8.4812518251        7.7830368064        8.7862283543
  F         6.9410997499        7.2498877673        5.8460640270
       3
 i =       35, E =     -1651.2151773164
 Mn         7.0810371278        7.4724169078        7.8634669503
  F         8.4809799835        7.7935658056        8.7832499110
  F         6.9379969936        7.2340407828        5.8533811303
       3
 i =       36, E =     -1581.1951675716
 Mn         7.0801036369        7.4724964701        7.8643545557
  F         8.4838445744        7.7933601638        8.7833921663
  F         6.9360640309        7.2341657379        5.8523495150
       3
 i =       37, E =     -1298.2216904842
 Mn         7.0717844846        7.5736487988        7.8313506259
  F         8.5555669979        7.9421767009        8.7310822308
  F         6.8726302855        6.9841657379        5.9376300916
       3
 i =       38, E =      -894.2791682257
 Mn         7.0605543346        7.6735347110        7.7989241316
  F         8.6312100915        8.0922684087        8.6782401254
  F         6.8081915311        6.7341657379        6.0228720907
       3
 i =       39, E =      -926.3519099104
 Mn         7.0618191365        7.6502326878        7.8059995134
  F         8.6183809211        8.0619327372        8.6865781647
  F         6.8197592377        6.7878089418        6.0074617837
       3
 i =       40, E =     -1024.9223909465
 Mn         7.0653648860        7.5489980132        7.8357740986
  F         8.5341614634        7.9131730495        8.7410756560
  F         6.9004413033        7.0378089418        5.9232042304
       3
 i =       41, E =     -1482.4790590575
 Mn         7.0625650411        7.6168325975        7.8150821787
  F         8.5927432470        8.0169501231        8.7014721478
  F         6.8446518534        6.8661932304        5.9834885384
       3
 i =       42, E =     -1253.9124693188
 Mn         7.0647596884        7.6020066374        7.8193858655
  F         8.5771950492        7.9926641322        8.7115786418
  F         6.8580066096        6.9053044231        5.9690791495
       3
 i =       43, E =     -1645.4011363029
 Mn         7.0718378213        7.4977948773        7.8480372526
  F         8.4990889512        7.8468789556        8.7587735851
  F         6.9290343062        7.1553044231        5.8932266359
       3
 i =       44, E =      -887.4472760039
 Mn         7.0648720886        7.5874621013        7.8231009447
  F         8.5711384438        7.9759246089        8.7143480614
  F         6.8639483157        6.9365875197        5.9625898455
       3
 i =       45, E =     -1367.0547188019
 Mn         7.0662003536        7.5010190249        7.8454700734
  F         8.5630612023        7.9065787342        8.7109464825
  F         6.8706820685        7.0923636333        5.9435951061
       3
 i =       46, E =     -1728.9168117545
 Mn         7.0843985433        7.5157788402        7.8364815957
  F         8.5701123352        7.9028379245        8.7186219736
  F         6.8454306921        7.0813421787        5.9448861461
       3
 i =       47, E =      -942.0780967811
 Mn         7.0846121239        7.5163292011        7.8359805188
  F         8.5741347536        7.9064440957        8.7161111896
  F         6.8411991098        7.0771895732        5.9478975270
       3
 i =       48, E =      -950.9886089387
 Mn         6.8611388887        7.4991054351        7.7791073989
  F         8.8241347536        7.9651071480        8.6529631697
  F         6.8146712051        7.0357498803        6.0679194671
       3
 i =       49, E =      -874.6588105560
 Mn         7.0668776463        7.5170076594        7.8290659753
  F         8.5947410293        7.9110646760        8.7111207743
  F         6.8383288907        7.0718928556        5.9598034437
       3
 i =       50, E =     -1496.1848433327
 Mn         7.0652074727        7.5163952784        7.8286667668
  F         8.5968960325        7.9112427753        8.7105543991
  F         6.8378428671        7.0723263301        5.9607682533
