      13
 i =        1, E =      -747.1784739707
 Mo         8.4999999915        8.4999998485        8.5000003143
  C         8.5000000550       10.5430804496        8.5000003720
  C         8.5000000027        8.5000001487       10.5430800809
  C        10.5430803407        8.4999998971        8.5000001465
  C         8.5000000200        8.5000001982        6.4569197433
  C         6.4569197243        8.4999998538        8.4999999483
  C         8.5000001891        6.4569195573        8.4999999233
  O         8.4999999298       11.6958225876        8.4999998656
  O         8.4999999309        8.4999999201       11.6958219729
  O        11.6958224250        8.5000001032        8.4999999254
  O         8.4999998894        8.4999998882        5.3041774143
  O         5.3041776977        8.5000000814        8.5000000351
  O         8.4999998041        5.3041774663        8.5000002580
      13
 i =        2, E =      -747.1784805400
 Mo         8.5000001672        8.5000001445        8.4999998168
  C         8.4999998775       10.5418573686        8.5000003034
  C         8.4999998930        8.4999997153       10.5418570959
  C        10.5418574014        8.4999999647        8.5000002838
  C         8.4999999469        8.4999998691        6.4581425795
  C         6.4581427960        8.4999998997        8.5000002564
  C         8.4999998853        6.4581427196        8.5000002887
  O         8.4999999932       11.6940647421        8.4999999823
  O         8.4999999596        8.5000000758       11.6940643089
  O        11.6940647896        8.5000000589        8.4999999441
  O         8.4999999194        8.5000000376        5.3059350159
  O         5.3059354377        8.5000000355        8.4999999688
  O         8.4999999331        5.3059353687        8.5000001559
      13
 i =        3, E =      -747.1784805572
 Mo         8.4999999120        8.4999998021        8.5000001233
  C         8.5000001250       10.5419424247        8.4999998683
  C         8.5000001047        8.5000001379       10.5419425382
  C        10.5419425171        8.5000001723        8.4999998289
  C         8.5000001201        8.5000001935        6.4580575268
  C         6.4580575180        8.5000001373        8.4999998102
  C         8.5000001255        6.4580574406        8.4999998735
  O         8.4999998898       11.6941416499        8.5000002092
  O         8.4999998731        8.4999998935       11.6941414157
  O        11.6941417209        8.4999999757        8.5000001759
  O         8.4999998541        8.4999999055        5.3058580808
  O         5.3058584009        8.4999999376        8.5000001915
  O         8.4999998388        5.3058583295        8.5000003580
      13
 i =        4, E =      -747.1784805573
 Mo         8.4999999120        8.4999998021        8.5000001233
  C         8.5000001250       10.5419424247        8.4999998683
  C         8.5000001047        8.5000001379       10.5419425382
  C        10.5419425171        8.5000001723        8.4999998289
  C         8.5000001201        8.5000001935        6.4580575268
  C         6.4580575180        8.5000001373        8.4999998102
  C         8.5000001255        6.4580574406        8.4999998735
  O         8.4999998898       11.6941416499        8.5000002092
  O         8.4999998731        8.4999998935       11.6941414157
  O        11.6941417209        8.4999999757        8.5000001759
  O         8.4999998541        8.4999999055        5.3058580808
  O         5.3058584009        8.4999999376        8.5000001915
  O         8.4999998388        5.3058583295        8.5000003580
