       3
 i =        1, E =      -217.9545425795
 Mo         6.9999999254        7.0000003579        7.5142308554
  O         8.3711979557        6.9999998188        6.5041020453
  O         5.6288021189        6.9999998233        6.5041020523
       3
 i =        2, E =      -217.9554015078
 Mo         6.9999999900        7.0000003538        7.5330473149
  O         8.3223503126        6.9999998212        6.4946901877
  O         5.6776496974        6.9999998255        6.4946901117
       3
 i =        3, E =      -217.9554343041
 Mo         6.9999999819        7.0000003507        7.5300999268
  O         8.3303556174        6.9999998229        6.4961622033
  O         5.6696444007        6.9999998272        6.4961621460
       3
 i =        4, E =      -217.9554343817
 Mo         6.9999999837        7.0000003533        7.5302255566
  O         8.3299922866        6.9999998218        6.4960970606
  O         5.6700077296        6.9999998260        6.4960969971
       3
 i =        5, E =      -217.9554343821
 Mo         6.9999999837        7.0000003533        7.5302255566
  O         8.3299922866        6.9999998218        6.4960970606
  O         5.6700077296        6.9999998260        6.4960969971
