       4
 i =        1, E =      -827.7474207643
  P         7.9267466176        7.6633475070        8.1532260126
 Na         8.7264972894        5.5583904021        6.8449157093
 Na         9.3191530993        9.4435547721        6.8466790365
 Na         5.6789540302        8.0169351725        6.8529193615
       4
 i =        2, E =      -827.7474792736
  P         7.9191218084        7.6681249712        8.1465977387
 Na         8.7247394961        5.5642377201        6.8444434543
 Na         9.3137280975        9.4355020514        6.8484609194
 Na         5.6937607621        8.0143643261        6.8582397115
       4
 i =        3, E =      -827.7474999204
  P         7.9230968541        7.6649509923        8.1542246847
 Na         8.7204452147        5.5792199872        6.8436216192
 Na         9.3081744676        9.4252488582        6.8459190696
 Na         5.6996274697        8.0128139995        6.8539784824
       4
 i =        4, E =      -827.7475320305
  P         7.9190037745        7.6678838252        8.1825951047
 Na         8.7175170769        5.5951137119        6.8324826944
 Na         9.3016137371        9.4099259516        6.8363427635
 Na         5.7131954641        8.0093222889        6.8463305216
       4
 i =        5, E =      -827.7475324284
  P         7.9179524717        7.6682576620        8.1824620835
 Na         8.7175291390        5.5956637159        6.8322365017
 Na         9.3014775140        9.4092731631        6.8362444390
 Na         5.7143707735        8.0090536228        6.8468111745
       4
 i =        6, E =      -827.7475324284
  P         7.9179624781        7.6682542498        8.1824662467
 Na         8.7175287223        5.5956598737        6.8322378248
 Na         9.3014782013        9.4092780852        6.8362444523
 Na         5.7143604967        8.0090559328        6.8468056448
