       4
 i =        1, E =      -342.9773556923
  P         6.2003240393        6.5000048424        6.1050676731
  H         7.3955468675        6.5000044347        6.8980914982
  H         5.6024610715        7.5352761005        6.8976931517
  H         5.6024662311        5.4647237726        6.8976837430
       4
 i =        2, E =      -342.9773790547
  P         6.2003307528        6.5000049933        6.1063698854
  H         7.3911905599        6.5000043468        6.8976526982
  H         5.6046358331        7.5314704470        6.8972605596
  H         5.6046410187        5.4685293637        6.8972513111
       4
 i =        3, E =      -342.9773792719
  P         6.2003311431        6.5000049721        6.1058219241
  H         7.3907892297        6.5000043634        6.8978350990
  H         5.6048362983        7.5311206440        6.8974432581
  H         5.6048414636        5.4688791717        6.8974339944
       4
 i =        4, E =      -342.9773792717
  P         6.2003311431        6.5000049721        6.1058219241
  H         7.3907892297        6.5000043634        6.8978350990
  H         5.6048362983        7.5311206440        6.8974432581
  H         5.6048414636        5.4688791717        6.8974339944
