       4
 i =        1, E =      -363.7148495947
  P         6.5409655735        7.6390153601        6.9999999720
 Li         8.3627018818        6.3253143749        7.0000000094
 Li         5.6298824273        6.3265493041        8.5786700350
 Li         5.6298824298        6.3265492951        5.4213299837
       4
 i =        2, E =      -363.7149663687
  P         6.5409828525        7.6172299464        6.9999999941
 Li         8.3650120495        6.3325866984        7.0000000089
 Li         5.6287187636        6.3338057139        8.5805782792
 Li         5.6287187542        6.3338056866        5.4194217177
       4
 i =        3, E =      -363.7150426074
  P         6.5409953526        7.6019945058        6.9999999948
 Li         8.3743644788        6.3376699134        7.0000000085
 Li         5.6240363576        6.3388816468        8.5885493422
 Li         5.6240363485        6.3388816177        5.4114506545
       4
 i =        4, E =      -363.7151859300
  P         6.5410912425        7.5652196049        6.9999999926
 Li         8.4069440351        6.3499656949        7.0000000072
 Li         5.6076987350        6.3511206074        8.6164253097
 Li         5.6076987297        6.3511205751        5.3835746905
       4
 i =        5, E =      -363.7152058093
  P         6.5411496815        7.5549312202        6.9999999901
 Li         8.4202825622        6.3534169101        7.0000000067
 Li         5.6010003264        6.3545389391        8.6278665006
 Li         5.6010003237        6.3545389066        5.3721335027
       4
 i =        6, E =      -363.7152067181
  P         6.5411603208        7.5550216534        6.9999999897
 Li         8.4218692242        6.3533901846        7.0000000064
 Li         5.6002017274        6.3545070412        8.6292267365
 Li         5.6002017253        6.3545070088        5.3707732674
       4
 i =        7, E =      -363.7152067186
  P         6.5411603208        7.5550216534        6.9999999897
 Li         8.4218692242        6.3533901846        7.0000000064
 Li         5.6002017274        6.3545070412        8.6292267365
 Li         5.6002017253        6.3545070088        5.3707732674
