       2
 i =        1, E =       -24.4862503703
 Rb         6.5000000000        6.5000000002        5.3036825252
  H         6.5000000000        6.4999999998        7.7029568432
       2
 i =        2, E =       -24.4864083415
 Rb         6.5000000000        6.4999999998        5.3193332491
  H         6.5000000000        6.4999999998        7.6784008781
       2
 i =        3, E =       -24.4859790359
 Rb         6.4999999998        6.4999999985        5.3720485701
  H         6.5000000000        6.4999999998        7.6345769296
       2
 i =        4, E =       -24.4864164739
 Rb         6.4999999999        6.4999999995        5.3341192694
  H         6.5000000000        6.4999999998        7.6705917949
       2
 i =        5, E =       -24.4863841591
 Rb         6.4999999998        6.4999999982        5.3148547602
  H         6.5000000000        6.4999999998        7.6802131423
       2
 i =        6, E =       -24.4864314672
 Rb         6.4999999997        6.4999999973        5.3244647228
  H         6.5000000000        6.4999999998        7.6742297550
       2
 i =        7, E =       -24.4864141273
 Rb         6.4999999997        6.4999999974        5.3346449766
  H         6.5000000000        6.4999999998        7.6706112955
       2
 i =        8, E =       -24.4864350321
 Rb         6.4999999994        6.4999999953        5.3279135183
  H         6.5000000000        6.4999999998        7.6731326452
       2
 i =        9, E =       -24.4864351641
 Rb         6.5000000002        6.5000000015        5.3268707199
  H         6.5000000000        6.4999999998        7.6732953045
       2
 i =       10, E =       -24.4864351641
 Rb         6.5000000002        6.5000000015        5.3268707199
  H         6.5000000000        6.4999999998        7.6732953045
