       5
 i =        1, E =      -392.9872656324
 Ru         6.4139720641        6.5003334610        6.5004951722
  O         7.5108329119        7.5161544524        7.5095086643
  O         5.5323121420        5.4026873919        7.5904142640
  O         7.5102643535        5.4843610651        5.4906783951
  O         5.5325751872        7.5965317238        5.4089436142
       5
 i =        2, E =      -392.9993570213
 Ru         6.2652748531        6.5002510381        6.5004444408
  O         7.5520310710        7.4729209917        7.4638353209
  O         5.5654790799        5.3178792958        7.6735305572
  O         7.5514034636        5.5275250731        5.5363384177
  O         5.5657684812        7.6814916151        5.3258913302
       5
 i =        3, E =      -393.9601614532
 Ru         6.1685279607        6.5001335269        6.5002849692
  O         7.6279362181        7.4069516460        7.3985393920
  O         5.5379005809        5.3158310919        7.6768403888
  O         7.6274698603        5.5933765967        5.6015263808
  O         5.5381224990        7.6837751151        5.3228489211
       5
 i =        4, E =      -393.0368048867
 Ru         5.9214493521        6.4905320203        6.4959643094
  O         7.8539516054        7.2061265031        7.1889607473
  O         5.4208485087        5.3540384523        7.6540193562
  O         7.8774698603        5.8022244800        5.7955866762
  O         5.4262375169        7.6471461681        5.3655089413
       5
 i =        5, E =      -393.0633860277
 Ru         5.8848439413        6.5079594489        6.5047744613
  O         7.9293387276        7.1114570937        7.1213336962
  O         5.3913684866        5.3657297385        7.6239597028
  O         7.9043322981        5.8777771540        5.8914923284
  O         5.3900743028        7.6371448145        5.3584799070
       5
 i =        6, E =      -393.0126846904
 Ru         5.8612765853        6.5359105262        6.3991811764
  O         7.8859168244        7.0608477711        7.0101690827
  O         5.3842717045        5.1249766977        7.8739597028
  O         8.0006335932        6.0050322799        5.9802898819
  O         5.3678638043        7.7732985225        5.2364385165
       5
 i =        7, E =      -392.6509669647
 Ru         5.8057881581        6.5977845106        6.4324800291
  O         8.0960614808        6.8108477711        6.8574256605
  O         5.2960670431        5.1776729857        7.7594805178
  O         8.0261896128        6.1818221083        6.2302694604
  O         5.2758582721        7.7319408754        5.2203832116
       5
 i =        8, E =      -393.1459563266
 Ru         6.0103969343        6.5907257279        6.5251935754
  O         7.9894319578        6.9309505834        7.0317034964
  O         5.3958112884        5.3677064331        7.5329863450
  O         7.7761896128        6.0061671734        6.0956735461
  O         5.3281355279        7.6045198347        5.3144822658
       5
 i =        9, E =      -393.1530661650
 Ru         6.0927569214        6.5745112475        6.5250395471
  O         7.9183899487        6.9342362535        7.0484581471
  O         5.4064780227        5.4136317030        7.4885340816
  O         7.7481345981        6.0033385468        6.0858766212
  O         5.3342087641        7.5743529798        5.3521306380
       5
 i =       10, E =      -393.1601038467
 Ru         6.1059260690        6.5409227221        6.4861376188
  O         7.8424241144        6.9620011286        7.0478679229
  O         5.3720158702        5.4020196392        7.5198018503
  O         7.8501520190        6.0156397284        6.0578067702
  O         5.3294509214        7.5794872890        5.3884243972
       5
 i =       11, E =      -393.1612161921
 Ru         6.0929419579        6.5001593541        6.4778986218
  O         7.8403345423        6.9724215279        7.0367727042
  O         5.3192805225        5.4401959572        7.5125164367
  O         7.9252384714        6.0163295184        6.0343272325
  O         5.3221726847        7.5709648445        5.4385240187
       5
 i =       12, E =      -393.1623774385
 Ru         6.1088972550        6.4972732515        6.4800173134
  O         7.8423945046        6.9794257341        7.0299941839
  O         5.3114641168        5.4301798803        7.5204136472
  O         7.9111296295        6.0176854311        6.0295312249
  O         5.3260827214        7.5755068432        5.4400826313
       5
 i =       13, E =      -393.1626255327
 Ru         6.1145366675        6.4986462635        6.4865580552
  O         7.8606612732        6.9823154928        7.0245128102
  O         5.3044045038        5.4287900511        7.5172229725
  O         7.8962119535        6.0183253567        6.0264922067
  O         5.3241538667        7.5719940929        5.4452530942
       5
 i =       14, E =      -393.1627173838
 Ru         6.1197848645        6.4952114156        6.4905625561
  O         7.8690407805        6.9873054293        7.0218336283
  O         5.2934498839        5.4310648186        7.5127113589
  O         7.8957637284        6.0203964863        6.0207671436
  O         5.3219296678        7.5660931857        5.4541649538
       5
 i =       15, E =      -393.1627400063
 Ru         6.1197564340        6.4954915489        6.4928424552
  O         7.8731564933        6.9890642470        7.0225020913
  O         5.2906726250        5.4306216863        7.5104298256
  O         7.8956433064        6.0218236436        6.0189180110
  O         5.3207410273        7.5630703477        5.4553476043
       5
 i =       16, E =      -393.1627530588
 Ru         6.1197964697        6.4965884243        6.4942255371
  O         7.8735317771        6.9905168351        7.0246622008
  O         5.2908604480        5.4292681614        7.5082898151
  O         7.8955454525        6.0226297305        6.0183157478
  O         5.3202370802        7.5610684726        5.4545471582
       5
 i =       17, E =      -393.1627620128
 Ru         6.1192455543        6.4982003956        6.4949029668
  O         7.8730278571        6.9916570514        7.0269682211
  O         5.2930336794        5.4269342927        7.5071710040
  O         7.8944078390        6.0225462049        6.0185446841
  O         5.3202582576        7.5607337380        5.4524541842
       5
 i =       18, E =      -393.1627649743
 Ru         6.1189175331        6.4987911397        6.4944951956
  O         7.8719962335        6.9919594150        7.0278437086
  O         5.2950725479        5.4258549158        7.5073105526
  O         7.8933822596        6.0217024674        6.0189680689
  O         5.3206060726        7.5617638215        5.4514240045
       5
 i =       19, E =      -393.1627656881
 Ru         6.1187427336        6.4986508393        6.4939145496
  O         7.8715070828        6.9918279977        7.0277844570
  O         5.2959850735        5.4258048907        7.5078666143
  O         7.8928598040        6.0210044780        6.0190778349
  O         5.3208810522        7.5627835139        5.4513986490
       5
 i =       20, E =      -393.1627656880
 Ru         6.1187427336        6.4986508393        6.4939145496
  O         7.8715070828        6.9918279977        7.0277844570
  O         5.2959850735        5.4258048907        7.5078666143
  O         7.8928598040        6.0210044780        6.0190778349
  O         5.3208810522        7.5627835139        5.4513986490
