       3
 i =        1, E =      -597.4978600383
  S         7.0000000338        6.9999999958        7.5271380025
  F         8.2473645590        7.0000000023        6.4739599521
  F         5.7526354072        7.0000000019        6.4739599514
       3
 i =        2, E =      -597.4980435155
  S         7.0000000119        6.9999999958        7.5253713467
  F         8.2322900104        7.0000000023        6.4748439616
  F         5.7677099777        7.0000000018        6.4748439793
       3
 i =        3, E =      -597.4980449256
  S         7.0000000194        6.9999999957        7.5242473147
  F         8.2338586182        7.0000000024        6.4754062459
  F         5.7661413624        7.0000000019        6.4754062637
       3
 i =        4, E =      -597.4980449638
  S         6.9999999833        6.9999999957        7.5240012226
  F         8.2340944755        7.0000000024        6.4755296010
  F         5.7659055412        7.0000000019        6.4755296272
       3
 i =        5, E =      -597.4980449644
  S         6.9999999833        6.9999999957        7.5240012226
  F         8.2340944755        7.0000000024        6.4755296010
  F         5.7659055412        7.0000000019        6.4755296272
