       3
 i =        1, E =      -230.2155283098
 Sr         7.5000000333        7.5000000670        7.9949094729
  F         9.3791167583        7.4999999558        7.0142711083
  F         5.6208832082        7.4999999773        7.0142711118
       3
 i =        2, E =      -230.2155351688
 Sr         7.4999999992        7.5000000092        7.9910898611
  F         9.3784685090        7.4999999558        7.0156151666
  F         5.6215314668        7.4999999774        7.0156151756
       3
 i =        3, E =      -230.2155358234
 Sr         7.4999999950        7.4999999947        7.9918029608
  F         9.3786750750        7.4999999558        7.0163903714
  F         5.6213249036        7.4999999774        7.0163903815
       3
 i =        4, E =      -230.2155358234
 Sr         7.4999999950        7.4999999947        7.9918029608
  F         9.3786750750        7.4999999558        7.0163903714
  F         5.6213249036        7.4999999774        7.0163903815
