       4
 i =        1, E =      -554.7400608473
 Te         6.5033041862        7.0000003521        7.1407754653
  F         5.5368446733        8.6739465659        6.8696387208
  F         5.5368446216        5.3260531936        6.8696388491
  F         8.4362136468        6.9999998883        6.8696387392
       4
 i =        2, E =      -554.7413194603
 Te         6.5033081611        6.9999997992        7.1960544553
  F         5.5520679013        8.6475790901        6.8512177111
  F         5.5520677223        5.3524209686        6.8512179831
  F         8.4057733293        7.0000001427        6.8512171860
       4
 i =        3, E =      -554.7417480177
 Te         6.5033137039        7.0000000720        7.2803931626
  F         5.5641648728        8.6266283290        6.8231122337
  F         5.5641647698        5.3733715986        6.8231124245
  F         8.3815908352        7.0000000009        6.8231098740
       4
 i =        4, E =      -554.7418287184
 Te         6.5033139210        6.9999997730        7.2534023807
  F         5.5594616394        8.6347754509        6.8321078567
  F         5.5594616767        5.3652247550        6.8321083050
  F         8.3909980113        7.0000000216        6.8321053537
       4
 i =        5, E =      -554.7418317358
 Te         6.5033158389        6.9999999818        7.2572612255
  F         5.5597842952        8.6342181591        6.8308227239
  F         5.5597844289        5.3657819634        6.8308230578
  F         8.3903573044        6.9999998960        6.8308192603
       4
 i =        6, E =      -554.7418317711
 Te         6.5033179621        7.0000000674        7.2575530954
  F         5.5597607249        8.6342610258        6.8307286976
  F         5.5597608724        5.3657390476        6.8307289736
  F         8.3904096932        6.9999998594        6.8307242004
       4
 i =        7, E =      -554.7418317704
 Te         6.5033179621        7.0000000674        7.2575530954
  F         5.5597607249        8.6342610258        6.8307286976
  F         5.5597608724        5.3657390476        6.8307289736
  F         8.3904096932        6.9999998594        6.8307242004
