       2
 i =        1, E =      -330.4787887456
 Te         6.4999997099        6.4999996381        5.6196869974
  O         6.5000002901        6.5000003619        7.3803131922
       2
 i =        2, E =      -330.4787888174
 Te         6.4999997129        6.4999996418        5.6192354470
  O         6.5000002871        6.5000003582        7.3807645558
       2
 i =        3, E =      -330.4787888173
 Te         6.4999997129        6.4999996418        5.6192339271
  O         6.5000002871        6.5000003582        7.3807660776
