       5
 i =        1, E =     -2813.4505377818
 Ti         6.9251399965        7.0879614967        6.9032345389
 Cl         8.4261129144        5.5781304317        8.4178919952
 Cl         5.6342544150        8.3734448060        8.3896822567
 Cl         5.6416811403        5.6143791422        5.6341411011
 Cl         8.3728122241        8.3460828957        5.6550521329
       5
 i =        2, E =     -2384.9793276123
 Ti         7.0540960051        6.9375388255        7.0448290439
 Cl         8.4317785880        5.6042457723        8.3631825056
 Cl         5.6216926557        8.3882899710        8.3642324383
 Cl         5.5939436090        5.6842768371        5.6002355937
 Cl         8.2984843634        8.3856498381        5.6275232995
       5
 i =        3, E =     -2691.1899859229
 Ti         7.0229142851        6.9784520260        7.0017763453
 Cl         8.2314748406        5.7818393107        8.2084065946
 Cl         5.7972690597        8.2001406970        8.1963389299
 Cl         5.7785206607        5.8258402927        5.7949629532
 Cl         8.1696295212        8.2137296248        5.7983385951
       5
 i =        4, E =     -2778.7345793329
 Ti         6.7729142851        7.1728335389        6.9680916176
 Cl         8.3087044278        5.7203463555        8.2644235392
 Cl         5.9461156301        8.0535234507        8.1278513730
 Cl         5.8313394732        5.8757608856        5.8327241444
 Cl         8.1407851651        8.1775333499        5.8067796222
       5
 i =        5, E =     -2620.4170751297
 Ti         6.6414559417        7.3536576608        6.8471531268
 Cl         8.1061814108        5.8362730651        8.1450992219
 Cl         6.1458651286        7.8283701109        7.8994349573
 Cl         6.0419596065        5.9710911651        6.0827241444
 Cl         8.0641260931        8.0106075327        6.0251998440
       5
 i =        6, E =     -2371.5115333510
 Ti         6.5978474973        7.4376239151        6.6512213716
 Cl         7.9621723211        5.9496551866        7.9778707805
 Cl         6.2707199312        7.6811811570        8.1494349573
 Cl         6.0900167863        5.9454188110        6.1546979034
 Cl         8.0787737677        7.9861144162        6.0663313719
       5
 i =        7, E =     -2036.1401128584
 Ti         6.5575923430        7.5186096885        6.4919975447
 Cl         7.8541594057        6.0369452116        7.7905034722
 Cl         6.3707583882        7.5541847634        8.3994349573
 Cl         6.1415886194        5.9199639554        6.2167463640
 Cl         8.0753756048        7.9702849079        6.1008205274
       5
 i =        8, E =     -2118.6693654330
 Ti         6.4514947251        7.5865915427        6.3618793803
 Cl         7.7472599664        6.2425633848        7.6218026564
 Cl         6.4425693379        7.4826077084        8.6494349573
 Cl         6.1680833191        5.7534903708        6.2224825553
 Cl         8.1900375258        7.9347333387        6.1438694472
       5
 i =        9, E =     -2532.9315591160
 Ti         6.3355936377        7.7071077463        6.2787974187
 Cl         7.5724851490        6.2899096312        7.4104753345
 Cl         6.5108048238        7.4569719296        8.8994349573
 Cl         6.1850373821        5.6476792961        6.1853407989
 Cl         8.3955258528        7.8983126454        6.2254157150
       5
 i =       10, E =     -2664.8252404409
 Ti         6.2412866047        7.6352685659        6.1951928735
 Cl         7.4413674684        6.1583484938        7.3335301425
 Cl         6.4916465125        7.4722186115        8.8894071747
 Cl         6.4350373821        5.8723561940        6.3647044700
 Cl         8.3901086960        7.8617893551        6.2166298061
       5
 i =       11, E =     -2670.0433685652
 Ti         6.3344316531        7.5029473046        6.2631133730
 Cl         7.5860792210        6.0892995840        7.5263816828
 Cl         6.4152653704        7.5057314348        8.6394071747
 Cl         6.4745643948        6.0169773508        6.4400242197
 Cl         8.1891026792        7.8850312593        6.1305412037
       5
 i =       12, E =     -2642.0950950210
 Ti         6.1967584283        7.6344284800        6.1856239140
 Cl         7.5007630158        6.1798309993        7.2763816828
 Cl         6.4741698828        7.4912755210        8.8757841539
 Cl         6.4549048861        5.9001183825        6.4379862810
 Cl         8.3728474591        7.7943271676        6.2236892682
       5
 i =       13, E =     -2177.5478145959
 Ti         6.0986638825        7.5602065887        6.2608893943
 Cl         7.6772807163        6.2853258284        7.2684057675
 Cl         6.2834628593        7.5011746390        8.9687821117
 Cl         6.4953483451        6.0869250534        6.1879862810
 Cl         8.4447205224        7.5663292156        6.3134671465
       5
 i =       14, E =     -2761.1380393392
 Ti         6.0941281028        7.5713547934        6.3516460842
 Cl         7.7756117376        6.3650083912        7.3334344533
 Cl         6.0856534994        7.5460714578        9.0040122705
 Cl         6.5958126094        6.2011864117        5.9906515090
 Cl         8.4483197035        7.3163292156        6.3198620567
       5
 i =       15, E =     -2645.1621834859
 Ti         6.1099925095        7.6494815015        6.4699361768
 Cl         7.8759008146        6.4438192285        7.4025408340
 Cl         5.8484666363        7.5344479659        9.0830769740
 Cl         6.6846063158        6.3058516094        5.8606793810
 Cl         8.4806265995        7.0663292156        6.1834514040
       5
 i =       16, E =     -2704.6387982585
 Ti         6.1976067918        7.7148276023        6.5881707127
 Cl         7.9800725674        6.4102931653        7.5475982612
 Cl         5.6698339857        7.5088084758        9.0134916712
 Cl         6.8053970597        6.2736302566        5.9170807060
 Cl         8.3467513345        7.0923487430        5.9334514040
       5
 i =       17, E =     -2536.3678012047
 Ti         6.2794598514        7.7424704417        6.7107906065
 Cl         8.0784533818        6.3558666670        7.7114006161
 Cl         5.5551933828        7.5568460063        8.9250182861
 Cl         6.9164337158        6.2331153653        5.9692339389
 Cl         8.1701979477        7.1115868395        5.6834514040
       5
 i =       18, E =     -2681.9509738027
 Ti         6.3824664164        7.7801987810        6.8237196938
 Cl         8.1713247361        6.2859333059        7.8609847355
 Cl         5.4184666834        7.6007257779        8.8195885334
 Cl         7.0005505728        6.1776389521        6.0622614613
 Cl         8.0270280867        7.1553670479        5.4334514040
       5
 i =       19, E =     -2742.9131818320
 Ti         6.4789045217        7.8279096366        6.9083210184
 Cl         8.2070768935        6.2113132716        7.9586734846
 Cl         5.3455925300        7.6602831203        8.7641327557
 Cl         6.9896855619        6.1380991522        6.1855262131
 Cl         7.9786559142        7.1622412011        5.1834514040
       5
 i =       20, E =     -2604.3689357085
 Ti         6.5566572297        7.8752996088        6.9922258160
 Cl         8.2349071242        6.1288709268        8.0339086696
 Cl         5.3185217784        7.7917880486        8.7335703042
 Cl         6.9750187754        6.0583304931        6.3070350207
 Cl         7.9148748348        7.1455411397        4.9334514040
       5
 i =       21, E =     -2304.6708083148
 Ti         6.5835358147        7.8927521842        7.0613869632
 Cl         8.2690310976        6.0970473195        8.0927247183
 Cl         5.2982809029        7.8883322680        8.7372191552
 Cl         6.9887025064        6.0388606550        6.3221856701
 Cl         7.8604423803        7.0828240850        4.7867397657
       5
 i =       22, E =     -2437.8368121884
 Ti         6.5941804439        7.9201276312        7.1821311948
 Cl         8.3109121802        6.0560287647        8.1774862026
 Cl         5.3293133481        8.0923029883        8.7931151719
 Cl         7.0050499701        6.0084821213        6.3108739756
 Cl         7.7605262879        6.9228554866        4.5367397657
       5
 i =       23, E =     -2521.8473734112
 Ti         6.3864957719        7.8111187453        7.2095535076
 Cl         8.2332851944        6.0389727515        8.1799356763
 Cl         5.5759187402        8.3267439501        9.0315144542
 Cl         7.1838826286        5.8944510237        6.2926065526
 Cl         7.6203977710        6.9285046888        4.2867397657
       5
 i =       24, E =     -2754.7090570643
 Ti         6.2697038406        7.7763527063        7.0826355453
 Cl         8.0795442541        6.0866313236        8.0823860787
 Cl         5.8259187402        8.2027804506        9.1608992713
 Cl         7.1886890574        5.8701342649        6.3217898270
 Cl         7.6360729840        7.0639157535        4.3524321587
       5
 i =       25, E =     -2788.0513113337
 Ti         6.2713777157        7.7770299868        7.1264593673
 Cl         8.0955054002        6.0947573080        8.1515174523
 Cl         5.8149933130        8.1841822626        9.1679100847
 Cl         7.2411940158        5.8965267977        6.3064535136
 Cl         7.5768626468        7.0473073878        4.2479442076
       5
 i =       26, E =     -2253.5353530237
 Ti         6.2796696169        7.7719589928        7.1201042179
 Cl         8.1035106630        6.0985280349        8.1500792632
 Cl         5.7961139998        8.1728312329        9.1649682191
 Cl         7.2381361226        5.9051470732        6.2948945422
 Cl         7.5825051616        7.0513398849        4.2702586189
       5
 i =       27, E =     -2429.7369785990
 Ti         6.2758822152        7.8195366712        7.0548260081
 Cl         8.1031871235        6.0944246415        8.0860587988
 Cl         5.8463716198        8.0913527261        9.0134736134
 Cl         7.2559432582        5.8465166119        6.3256876294
 Cl         7.5185526434        7.1479779290        4.5202586189
       5
 i =       28, E =     -2425.3476718133
 Ti         6.2795944741        7.7853452640        7.0152171161
 Cl         8.1338288135        6.1515704962        8.1444719336
 Cl         5.8180605895        7.8413527261        9.0084484929
 Cl         7.3555681832        5.9459396982        6.2358154246
 Cl         7.4128297254        7.2756007641        4.5964354524
       5
 i =       29, E =     -2622.1806276193
 Ti         6.5033295539        7.7764059467        6.8464277446
 Cl         8.2532371292        6.1774566351        8.1336565399
 Cl         5.6318847069        7.7578383366        9.0683905618
 Cl         7.3059173897        6.0687257121        6.1055025813
 Cl         7.3055135549        7.2193741151        4.8464354524
       5
 i =       30, E =     -2326.4883614890
 Ti         6.3870826031        7.7734182360        6.8102153711
 Cl         8.1740883473        6.2165983175        8.1444023166
 Cl         5.8263762478        7.5078383366        9.0688861508
 Cl         7.4228985154        6.0803495404        6.1241447923
 Cl         7.1893414696        7.4215865434        4.8527176022
       5
 i =       31, E =     -2429.0376334212
 Ti         6.1933731715        7.8102937929        7.0293185025
 Cl         8.2209079154        6.1832790096        8.1790327163
 Cl         5.9215689256        7.5925265956        8.8188861508
 Cl         7.4908937001        5.9763585993        6.0731226735
 Cl         7.1730477468        7.4373321709        4.9000062265
       5
 i =       32, E =     -2389.6651416264
 Ti         6.2524591611        7.8194061717        7.1002230317
 Cl         8.2923199212        6.1367630266        8.1671281703
 Cl         5.7699974462        7.8425265956        8.7687158725
 Cl         7.4046444515        5.9341986282        6.0658788223
 Cl         7.2804709828        7.2668780040        4.8985048194
       5
 i =       33, E =     -2397.4242534104
 Ti         6.3193978090        7.8292651867        7.1664790379
 Cl         8.3664259763        6.0901189897        8.1551718620
 Cl         5.6118020607        8.0925265956        8.7201932089
 Cl         7.3157931449        5.8945554410        6.0579977028
 Cl         7.3865755334        7.0932942737        4.9006876236
       5
 i =       34, E =     -2191.4395196606
 Ti         6.3842784542        7.8306700162        7.3016340025
 Cl         8.4881531036        6.0499821369        8.2091935994
 Cl         5.3737841979        8.3425265956        8.6468112324
 Cl         7.2673754664        5.8990941831        6.0063899431
 Cl         7.4865432879        6.8775174096        4.8365836382
       5
 i =       35, E =     -2766.2374261759
 Ti         6.4500067567        7.8337795216        7.4346170805
 Cl         8.6075020547        6.0089290157        8.2609123622
 Cl         5.1404134027        8.5925265956        8.5736770657
 Cl         7.2155668243        5.9010369312        5.9579307379
 Cl         7.5867911412        6.6635531333        4.7735492865
       5
 i =       36, E =     -2671.4545688109
 Ti         6.4645520063        7.8185614554        7.4957941989
 Cl         8.6395977930        5.9926494450        8.3339094259
 Cl         5.0612447598        8.5702957138        8.6082898228
 Cl         7.2561184427        5.9503633785        5.9752784301
 Cl         7.5787026084        6.6679320201        4.5876578769
       5
 i =       37, E =     -2822.3793600577
 Ti         6.4164589056        7.9068760929        7.4828174459
 Cl         8.5433314830        6.0336907903        8.3652342986
 Cl         5.2235119544        8.3689186867        8.7444787940
 Cl         7.3238717577        6.1017276389        6.0707510117
 Cl         7.4930359749        6.5885854244        4.3376578769
       5
 i =       38, E =     -2630.1436361438
 Ti         6.4709343349        7.8669358867        7.6264328094
 Cl         8.6664364629        5.9724683116        8.4693382468
 Cl         4.9735119544        8.5096280556        8.7394331905
 Cl         7.3500352189        6.1334775248        6.0650540871
 Cl         7.5391817836        6.5172181789        4.1011271157
       5
 i =       39, E =     -2351.3438710148
 Ti         6.4539369962        7.8459017667        7.5576236687
 Cl         8.6277620708        5.9988107823        8.4211263926
 Cl         5.0392364729        8.4874423395        8.7528474088
 Cl         7.3394853282        6.1031362256        6.0406129904
 Cl         7.5396884043        6.5644161940        4.2289900267
       5
 i =       40, E =     -2241.3576620133
 Ti         6.4321912029        7.9075281709        7.5063862650
 Cl         8.5773314593        6.0280228204        8.3434007058
 Cl         5.1883846006        8.4863374156        8.6571874700
 Cl         7.2577508190        6.0356969141        6.0150547097
 Cl         7.5443843205        6.5421396718        4.4789900267
       5
 i =       41, E =     -2646.9191945573
 Ti         6.3418465863        7.8495801596        7.4138439471
 Cl         8.5344552800        6.0194119712        8.2323225343
 Cl         5.2857716677        8.5434802338        8.7362361196
 Cl         7.3155187357        5.9676974893        6.0272023002
 Cl         7.5224457904        6.6195324189        4.5916408723
       5
 i =       42, E =     -2001.9103604287
 Ti         6.2181087389        7.8283111616        7.2527697933
 Cl         8.4147483082        6.0434569939        8.0836931512
 Cl         5.5357716677        8.4874927499        8.8370649104
 Cl         7.3770465483        5.9080678307        6.0684240366
 Cl         7.4543814165        6.7323750077        4.7593152770
       5
 i =       43, E =     -2640.7582033687
 Ti         6.2545171644        7.8131937979        7.3145961317
 Cl         8.4640973897        6.0218408706        8.1435898952
 Cl         5.4330677255        8.5273100869        8.8146412491
 Cl         7.3787996796        5.9129597667        6.0637523578
 Cl         7.4696409983        6.7245041122        4.6648794289
       5
 i =       44, E =     -2788.3971015657
 Ti         6.3311292781        7.7578247832        7.4487774240
 Cl         8.5933574165        5.9519971241        8.2405632036
 Cl         5.2157393123        8.7215302059        8.7031806006
 Cl         7.3413387026        5.8226517877        6.0211885728
 Cl         7.5186800809        6.7461825013        4.5885215208
       5
 i =       45, E =     -2611.6792256355
 Ti         6.3095969504        7.7208197967        7.4366202819
 Cl         8.5964657109        5.9368177056        8.2223066428
 Cl         5.2252793341        8.7671167533        8.7272852234
 Cl         7.3568227933        5.7819238105        6.0149834909
 Cl         7.5121257366        6.7936280854        4.6012099630
       5
 i =       46, E =     -2739.1616076364
 Ti         6.2136772380        7.4708197967        7.3144964408
 Cl         8.4976862086        6.0647572481        8.2451816716
 Cl         5.2195035157        8.9621538517        8.9337967959
 Cl         7.4686508088        5.7071741171        5.8305916277
 Cl         7.6007879264        6.7954003282        4.6783388944
       5
 i =       47, E =     -2582.7117547700
 Ti         6.2511170648        7.5235859441        7.3671664391
 Cl         8.5294896445        6.0458315042        8.2719097182
 Cl         5.1838102905        8.9480830903        8.8850088682
 Cl         7.4340403641        5.7355567681        5.8505327902
 Cl         7.6018556657        6.7471734812        4.6278897262
       5
 i =       48, E =     -2385.9210919920
 Ti         6.2466415297        7.5690897816        7.3453382669
 Cl         8.4672240923        6.1204718173        8.2860161589
 Cl         5.2407434130        8.8874977914        8.9210336576
 Cl         7.4201313965        5.8196025064        5.8252018204
 Cl         7.6255843495        6.6032096216        4.6246570133
       5
 i =       49, E =     -2585.1523904414
 Ti         6.2127091547        7.6868099577        7.2589548330
 Cl         8.3119203275        6.2700781927        8.2677547915
 Cl         5.4317665900        8.6928193658        9.0017545111
 Cl         7.4017551101        5.9962130615        5.8099607364
 Cl         7.6421551912        6.3532096216        4.6631115148
       5
 i =       50, E =     -2645.0995143760
 Ti         6.1553523741        7.5893342471        7.1701570509
 Cl         8.2497724681        6.3189154490        8.2481958495
 Cl         5.4719742749        8.7000784059        9.0691865359
 Cl         7.4739885134        5.9520880164        5.7730928298
 Cl         7.6493504274        6.4386875334        4.7407765698
       5
 i =        1, E =     -2689.6193382430
 Ti         6.9999998191        6.9999987977        7.0000008804
 Cl         8.2582317264        5.7417680146        8.2582319983
 Cl         5.7417689202        8.2582320746        8.2582309800
 Cl         5.7417679445        5.7417684026        5.7417681389
 Cl         8.2582315898        8.2582327105        5.7417680026
       5
 i =        2, E =     -2689.6193385215
 Ti         7.0000002282        6.9999995577        7.0000000275
 Cl         8.2584952383        5.7415043984        8.2584955321
 Cl         5.7415051418        8.2584956097        8.2584948776
 Cl         5.7415044872        5.7415047439        5.7415047314
 Cl         8.2584949037        8.2584956845        5.7415048358
       5
 i =        3, E =     -2689.6193385223
 Ti         7.0000002282        6.9999995577        7.0000000275
 Cl         8.2584952383        5.7415043984        8.2584955321
 Cl         5.7415051418        8.2584956097        8.2584948776
 Cl         5.7415044872        5.7415047439        5.7415047314
 Cl         8.2584949037        8.2584956845        5.7415048358
