       2
 i =        1, E =      -142.8801828589
  W         6.4595865742        6.4015820560        5.5230921738
  O         6.5404105749        6.5984154438        7.4768919090
       2
 i =        2, E =      -142.9123129700
  W         6.4849390132        6.4633241200        5.5679751586
  O         6.5150580261        6.5366732614        7.4320085269
       2
 i =        3, E =      -142.8005028807
  W         6.5295629951        6.5719932199        5.8179722238
  O         6.4704350087        6.4280035334        7.1820085269
       2
 i =        4, E =      -142.9394302877
  W         6.5266558034        6.5649115477        5.6220750877
  O         6.4733417733        6.4350855314        7.3779068561
       2
 i =        5, E =      -142.9481812473
  W         6.5324391831        6.5789959889        5.6487165893
  O         6.4675584622        6.4210010217        7.3512642719
       2
 i =        6, E =      -142.9521732654
  W         6.5363548383        6.5885324715        5.6956377727
  O         6.4636433291        6.4114644118        7.3043404841
       2
 i =        7, E =      -142.9529317223
  W         6.5357951425        6.5871685304        5.6807171557
  O         6.4642031124        6.4128284563        7.3192612362
       2
 i =        8, E =      -142.9529569010
  W         6.5359094294        6.5874461633        5.6828988083
  O         6.4640891106        6.4125508249        7.3170784846
       2
 i =        9, E =      -142.9529569627
  W         6.5359179048        6.5874653380        5.6830520369
  O         6.4640811687        6.4125314877        7.3169238819
       2
 i =       10, E =      -142.9529569829
  W         6.5359179048        6.5874653380        5.6830520369
  O         6.4640811687        6.4125314877        7.3169238819
