       4
 i =        1, E =      -220.5641336361
 Co         7.5471186959        6.9517786867        7.0167199151
  F         8.3016614241        5.4826897851        6.9987182055
  F         8.3114919144        8.5509467725        6.9946822429
  F         5.5889156961        7.0143975827        6.9899204766
       4
 i =        2, E =      -220.1883200617
 Co         7.4715824263        7.0154529379        7.0147067201
  F         8.3223433566        5.4387578677        6.9982001189
  F         8.3048376645        8.5304271303        6.9938736919
  F         5.6529628466        7.0146281161        6.9885428723
       4
 i =        3, E =      -219.8193682557
 Co         7.4564671819        7.0223500699        7.0226273443
  F         8.3270427686        5.4244758618        6.9962124577
  F         8.3121712482        8.5391902596        6.9880037767
  F         5.6572011626        7.0131495334        6.9869067805
       4
 i =        4, E =      -219.8476918498
 Co         7.4519278154        7.0207318733        7.0243566026
  F         8.3278946992        5.4242105196        6.9954496840
  F         8.3141480933        8.5407696114        6.9873630417
  F         5.6593119832        7.0132358849        6.9859396979
       4
 i =        5, E =      -220.0341170396
 Co         7.4520037924        7.0187244341        7.0252545047
  F         8.3274470555        5.4253233260        6.9951635086
  F         8.3143488181        8.5413337792        6.9869392915
  F         5.6595731480        7.0135182403        6.9856104024
       4
 i =        6, E =      -216.7258445499
 Co         7.4511537108        7.0173710468        7.0250384693
  F         8.3274881719        5.4255794494        6.9952013977
  F         8.3151216413        8.5422909889        6.9869618134
  F         5.6597039820        7.0136055646        6.9856022999
       4
 i =        7, E =      -216.7288360112
 Co         7.4350009900        6.9786102700        7.0189231854
  F         8.3130734725        5.4591510654        6.9954883140
  F         8.3210638481        8.5403650390        6.9853469351
  F         5.6900510971        7.0176450926        6.9837542601
       4
 i =        8, E =      -216.7309974301
 Co         7.4446484810        6.9839108692        7.0123543469
  F         8.3008972367        5.4911500785        6.9949011527
  F         8.3088898996        8.5017911781        6.9821682655
  F         5.7124651622        7.0223365448        6.9800216972
       4
 i =        9, E =      -216.7312240352
 Co         7.4444285140        6.9950392766        7.0103673148
  F         8.3020348659        5.4847038685        6.9940689407
  F         8.3067931445        8.4974561587        6.9801707497
  F         5.7145327070        7.0242011304        6.9778596529
       4
 i =       10, E =      -216.7313860295
 Co         7.4517175117        6.9960176770        6.9983872545
  F         8.2914295403        5.4754716256        6.9875399827
  F         8.3100684212        8.5040197761        6.9670962658
  F         5.7164502911        7.0351034395        6.9646527840
       4
 i =       11, E =      -216.7314846753
 Co         7.4529964871        6.9965616655        6.9900336230
  F         8.2791529258        5.4740565086        6.9797728702
  F         8.3140220125        8.5095983371        6.9624775014
  F         5.7230017989        7.0367991271        6.9617981012
       4
 i =       12, E =      -216.7315679359
 Co         7.4564540241        7.0039007967        6.9827037977
  F         8.2695065747        5.4728169395        6.9696781331
  F         8.3186262422        8.5124275649        6.9623614574
  F         5.7249493510        7.0345530764        6.9637933217
       4
 i =       13, E =      -216.7316500628
 Co         7.4583779252        7.0099698231        6.9796776759
  F         8.2744641308        5.4752376549        6.9667073697
  F         8.3268568439        8.5144270726        6.9677173511
  F         5.7206350382        7.0304923185        6.9698411099
       4
 i =       14, E =      -216.7316837432
 Co         7.4572051869        7.0104581477        6.9786344122
  F         8.2762619942        5.4789733615        6.9672048427
  F         8.3324376494        8.5155768505        6.9700864606
  F         5.7228529531        7.0297348163        6.9714872384
       4
 i =       15, E =      -216.7316995525
 Co         7.4588175664        7.0130090594        6.9782441102
  F         8.2762998061        5.4811094159        6.9691159409
  F         8.3350521632        8.5135780923        6.9704307287
  F         5.7245775821        7.0311768826        6.9701580322
       4
 i =       16, E =      -216.7316996798
 Co         7.4595178946        7.0132287325        6.9781753823
  F         8.2760668612        5.4808888231        6.9696931201
  F         8.3362267634        8.5142891639        6.9699423545
  F         5.7244769383        7.0319111728        6.9691518523
       4
 i =       17, E =      -216.7316997460
 Co         7.4594976395        7.0133015596        6.9781700957
  F         8.2759855107        5.4803829517        6.9695265744
  F         8.3359779120        8.5147897416        6.9696774009
  F         5.7246531485        7.0317918306        6.9691500971
       4
 i =       18, E =      -216.7316997459
 Co         7.4594977731        7.0133008191        6.9781701544
  F         8.2759863396        5.4803879872        6.9695281697
  F         8.3359802647        8.5147847105        6.9696800741
  F         5.7246514143        7.0317929424        6.9691502119
