       2
 i =        1, E =       -12.0981796826
  I         6.4999999933        6.5000000168        5.6927344489
  H         6.5000000067        6.4999999832        7.3072605275
       2
 i =        2, E =       -12.0981962426
  I         6.4999999932        6.5000000170        5.6892833004
  H         6.5000000068        6.4999999830        7.3107006204
       2
 i =        3, E =       -12.0981962670
  I         6.4999999932        6.5000000169        5.6894171898
  H         6.5000000067        6.4999999831        7.3105698372
       2
 i =        4, E =       -12.0981962670
  I         6.4999999932        6.5000000169        5.6894171898
  H         6.5000000067        6.4999999831        7.3105698372
