       4
 i =        1, E =      -253.0482606672
 Mg         7.6437895306        5.3562104694        7.6437895123
 Mg         5.3562104694        7.6437895306        7.6437895123
 Mg         5.3562104694        5.3562104694        5.3562104877
 Mg         7.6437895306        7.6437895306        5.3562104877
       4
 i =        2, E =      -253.0482606674
 Mg         7.6438769848        5.3561230152        7.6438769663
 Mg         5.3561230152        7.6438769848        7.6438769663
 Mg         5.3561230152        5.3561230152        5.3561230337
 Mg         7.6438769848        7.6438769848        5.3561230337
       4
 i =        3, E =      -253.0482606674
 Mg         7.6438769863        5.3561230137        7.6438769679
 Mg         5.3561230137        7.6438769863        7.6438769678
 Mg         5.3561230137        5.3561230137        5.3561230321
 Mg         7.6438769863        7.6438769863        5.3561230322
       4
 i =        4, E =      -253.0482606676
 Mg         7.6438769844        5.3561230157        7.6438769659
 Mg         5.3561230156        7.6438769843        7.6438769658
 Mg         5.3561230157        5.3561230156        5.3561230341
 Mg         7.6438769843        7.6438769844        5.3561230342
       4
 i =        5, E =      -253.0482606676
 Mg         7.6438769844        5.3561230157        7.6438769659
 Mg         5.3561230156        7.6438769843        7.6438769658
 Mg         5.3561230157        5.3561230156        5.3561230341
 Mg         7.6438769843        7.6438769844        5.3561230342
       4
 i =        6, E =      -253.0482606676
 Mg         7.6438769844        5.3561230157        7.6438769659
 Mg         5.3561230156        7.6438769843        7.6438769658
 Mg         5.3561230157        5.3561230156        5.3561230341
 Mg         7.6438769843        7.6438769844        5.3561230342
       4
 i =        7, E =      -253.0482606676
 Mg         7.6438769844        5.3561230157        7.6438769659
 Mg         5.3561230156        7.6438769843        7.6438769658
 Mg         5.3561230157        5.3561230156        5.3561230341
 Mg         7.6438769843        7.6438769844        5.3561230342
       4
 i =        8, E =      -253.0482606676
 Mg         7.6438769844        5.3561230157        7.6438769659
 Mg         5.3561230156        7.6438769843        7.6438769658
 Mg         5.3561230157        5.3561230156        5.3561230341
 Mg         7.6438769843        7.6438769844        5.3561230342
       4
 i =        9, E =      -253.0482606676
 Mg         7.6438769844        5.3561230157        7.6438769659
 Mg         5.3561230156        7.6438769843        7.6438769658
 Mg         5.3561230157        5.3561230156        5.3561230341
 Mg         7.6438769843        7.6438769844        5.3561230342
       4
 i =       10, E =      -253.0482606676
 Mg         7.6438769844        5.3561230157        7.6438769659
 Mg         5.3561230156        7.6438769843        7.6438769658
 Mg         5.3561230157        5.3561230156        5.3561230341
 Mg         7.6438769843        7.6438769844        5.3561230342
       4
 i =       11, E =      -253.0482606676
 Mg         7.6438769844        5.3561230157        7.6438769659
 Mg         5.3561230156        7.6438769843        7.6438769658
 Mg         5.3561230157        5.3561230156        5.3561230341
 Mg         7.6438769843        7.6438769844        5.3561230342
       4
 i =       12, E =      -253.0482606676
 Mg         7.6438769844        5.3561230157        7.6438769659
 Mg         5.3561230156        7.6438769843        7.6438769658
 Mg         5.3561230157        5.3561230156        5.3561230341
 Mg         7.6438769843        7.6438769844        5.3561230342
       4
 i =       13, E =      -253.0482606676
 Mg         7.6438769844        5.3561230157        7.6438769659
 Mg         5.3561230156        7.6438769843        7.6438769658
 Mg         5.3561230157        5.3561230156        5.3561230341
 Mg         7.6438769843        7.6438769844        5.3561230342
       4
 i =       14, E =      -253.0482606676
 Mg         7.6438769844        5.3561230157        7.6438769659
 Mg         5.3561230156        7.6438769843        7.6438769658
 Mg         5.3561230157        5.3561230156        5.3561230341
 Mg         7.6438769843        7.6438769844        5.3561230342
       4
 i =       15, E =      -253.0482606676
 Mg         7.6438769844        5.3561230157        7.6438769659
 Mg         5.3561230156        7.6438769843        7.6438769658
 Mg         5.3561230157        5.3561230156        5.3561230341
 Mg         7.6438769843        7.6438769844        5.3561230342
       4
 i =       16, E =      -253.0482606676
 Mg         7.6438769844        5.3561230157        7.6438769659
 Mg         5.3561230156        7.6438769843        7.6438769658
 Mg         5.3561230157        5.3561230156        5.3561230341
 Mg         7.6438769843        7.6438769844        5.3561230342
       4
 i =       17, E =      -253.0482606676
 Mg         7.6438769844        5.3561230157        7.6438769659
 Mg         5.3561230156        7.6438769843        7.6438769658
 Mg         5.3561230157        5.3561230156        5.3561230341
 Mg         7.6438769843        7.6438769844        5.3561230342
       4
 i =       18, E =      -253.0482606676
 Mg         7.6438769844        5.3561230157        7.6438769659
 Mg         5.3561230156        7.6438769843        7.6438769658
 Mg         5.3561230157        5.3561230156        5.3561230341
 Mg         7.6438769843        7.6438769844        5.3561230342
       4
 i =       19, E =      -253.0482606676
 Mg         7.6438769844        5.3561230157        7.6438769659
 Mg         5.3561230156        7.6438769843        7.6438769658
 Mg         5.3561230157        5.3561230156        5.3561230341
 Mg         7.6438769843        7.6438769844        5.3561230342
       4
 i =       20, E =      -253.0482606676
 Mg         7.6438769844        5.3561230157        7.6438769659
 Mg         5.3561230156        7.6438769843        7.6438769658
 Mg         5.3561230157        5.3561230156        5.3561230341
 Mg         7.6438769843        7.6438769844        5.3561230342
       4
 i =       21, E =      -253.0482606676
 Mg         7.6438769844        5.3561230157        7.6438769659
 Mg         5.3561230156        7.6438769843        7.6438769658
 Mg         5.3561230157        5.3561230156        5.3561230341
 Mg         7.6438769843        7.6438769844        5.3561230342
       4
 i =       22, E =      -253.0482606676
 Mg         7.6438769844        5.3561230157        7.6438769659
 Mg         5.3561230156        7.6438769843        7.6438769658
 Mg         5.3561230157        5.3561230156        5.3561230341
 Mg         7.6438769843        7.6438769844        5.3561230342
       4
 i =       23, E =      -253.0482606676
 Mg         7.6438769844        5.3561230157        7.6438769659
 Mg         5.3561230156        7.6438769843        7.6438769658
 Mg         5.3561230157        5.3561230156        5.3561230341
 Mg         7.6438769843        7.6438769844        5.3561230342
       4
 i =       24, E =      -253.0482606676
 Mg         7.6438769844        5.3561230157        7.6438769659
 Mg         5.3561230156        7.6438769843        7.6438769658
 Mg         5.3561230157        5.3561230156        5.3561230341
 Mg         7.6438769843        7.6438769844        5.3561230342
       4
 i =       25, E =      -253.0482606676
 Mg         7.6438769844        5.3561230157        7.6438769659
 Mg         5.3561230156        7.6438769843        7.6438769658
 Mg         5.3561230157        5.3561230156        5.3561230341
 Mg         7.6438769843        7.6438769844        5.3561230342
       4
 i =       26, E =      -253.0482606676
 Mg         7.6438769844        5.3561230157        7.6438769659
 Mg         5.3561230156        7.6438769843        7.6438769658
 Mg         5.3561230157        5.3561230156        5.3561230341
 Mg         7.6438769843        7.6438769844        5.3561230342
       4
 i =       27, E =      -253.0482606676
 Mg         7.6438769844        5.3561230157        7.6438769659
 Mg         5.3561230156        7.6438769843        7.6438769658
 Mg         5.3561230157        5.3561230156        5.3561230341
 Mg         7.6438769843        7.6438769844        5.3561230342
       4
 i =       28, E =      -253.0482606676
 Mg         7.6438769844        5.3561230157        7.6438769659
 Mg         5.3561230156        7.6438769843        7.6438769658
 Mg         5.3561230157        5.3561230156        5.3561230341
 Mg         7.6438769843        7.6438769844        5.3561230342
       4
 i =       29, E =      -253.0482606676
 Mg         7.6438769844        5.3561230157        7.6438769659
 Mg         5.3561230156        7.6438769843        7.6438769658
 Mg         5.3561230157        5.3561230156        5.3561230341
 Mg         7.6438769843        7.6438769844        5.3561230342
       4
 i =       30, E =      -253.0482606676
 Mg         7.6438769844        5.3561230157        7.6438769659
 Mg         5.3561230156        7.6438769843        7.6438769658
 Mg         5.3561230157        5.3561230156        5.3561230341
 Mg         7.6438769843        7.6438769844        5.3561230342
       4
 i =       31, E =      -253.0482606676
 Mg         7.6438769844        5.3561230157        7.6438769659
 Mg         5.3561230156        7.6438769843        7.6438769658
 Mg         5.3561230157        5.3561230156        5.3561230341
 Mg         7.6438769843        7.6438769844        5.3561230342
       4
 i =       32, E =      -253.0482606676
 Mg         7.6438769844        5.3561230157        7.6438769659
 Mg         5.3561230156        7.6438769843        7.6438769658
 Mg         5.3561230157        5.3561230156        5.3561230341
 Mg         7.6438769843        7.6438769844        5.3561230342
       4
 i =       33, E =      -253.0482606676
 Mg         7.6438769844        5.3561230157        7.6438769659
 Mg         5.3561230156        7.6438769843        7.6438769658
 Mg         5.3561230157        5.3561230156        5.3561230341
 Mg         7.6438769843        7.6438769844        5.3561230342
       4
 i =       34, E =      -253.0482606676
 Mg         7.6438769844        5.3561230157        7.6438769659
 Mg         5.3561230156        7.6438769843        7.6438769658
 Mg         5.3561230157        5.3561230156        5.3561230341
 Mg         7.6438769843        7.6438769844        5.3561230342
       4
 i =       35, E =      -253.0482606676
 Mg         7.6438769844        5.3561230157        7.6438769659
 Mg         5.3561230156        7.6438769843        7.6438769658
 Mg         5.3561230157        5.3561230156        5.3561230341
 Mg         7.6438769843        7.6438769844        5.3561230342
       4
 i =       36, E =      -253.0482606676
 Mg         7.6438769844        5.3561230157        7.6438769659
 Mg         5.3561230156        7.6438769843        7.6438769658
 Mg         5.3561230157        5.3561230156        5.3561230341
 Mg         7.6438769843        7.6438769844        5.3561230342
       4
 i =       37, E =      -253.0482606676
 Mg         7.6438769844        5.3561230157        7.6438769659
 Mg         5.3561230156        7.6438769843        7.6438769658
 Mg         5.3561230157        5.3561230156        5.3561230341
 Mg         7.6438769843        7.6438769844        5.3561230342
       4
 i =       38, E =      -253.0482606676
 Mg         7.6438769844        5.3561230157        7.6438769659
 Mg         5.3561230156        7.6438769843        7.6438769658
 Mg         5.3561230157        5.3561230156        5.3561230341
 Mg         7.6438769843        7.6438769844        5.3561230342
       4
 i =       39, E =      -253.0482606676
 Mg         7.6438769844        5.3561230157        7.6438769659
 Mg         5.3561230156        7.6438769843        7.6438769658
 Mg         5.3561230157        5.3561230156        5.3561230341
 Mg         7.6438769843        7.6438769844        5.3561230342
       4
 i =       40, E =      -253.0482606676
 Mg         7.6438769844        5.3561230157        7.6438769659
 Mg         5.3561230156        7.6438769843        7.6438769658
 Mg         5.3561230157        5.3561230156        5.3561230341
 Mg         7.6438769843        7.6438769844        5.3561230342
       4
 i =       41, E =      -253.0482606676
 Mg         7.6438769844        5.3561230157        7.6438769659
 Mg         5.3561230156        7.6438769843        7.6438769658
 Mg         5.3561230157        5.3561230156        5.3561230341
 Mg         7.6438769843        7.6438769844        5.3561230342
       4
 i =       42, E =      -253.0482606676
 Mg         7.6438769844        5.3561230157        7.6438769659
 Mg         5.3561230156        7.6438769843        7.6438769658
 Mg         5.3561230157        5.3561230156        5.3561230341
 Mg         7.6438769843        7.6438769844        5.3561230342
       4
 i =       43, E =      -253.0482606676
 Mg         7.6438769844        5.3561230157        7.6438769659
 Mg         5.3561230156        7.6438769843        7.6438769658
 Mg         5.3561230157        5.3561230156        5.3561230341
 Mg         7.6438769843        7.6438769844        5.3561230342
       4
 i =       44, E =      -253.0482606676
 Mg         7.6438769844        5.3561230157        7.6438769659
 Mg         5.3561230156        7.6438769843        7.6438769658
 Mg         5.3561230157        5.3561230156        5.3561230341
 Mg         7.6438769843        7.6438769844        5.3561230342
       4
 i =       45, E =      -253.0482606676
 Mg         7.6438769844        5.3561230157        7.6438769659
 Mg         5.3561230156        7.6438769843        7.6438769658
 Mg         5.3561230157        5.3561230156        5.3561230341
 Mg         7.6438769843        7.6438769844        5.3561230342
       4
 i =       46, E =      -253.0482606676
 Mg         7.6438769844        5.3561230157        7.6438769659
 Mg         5.3561230156        7.6438769843        7.6438769658
 Mg         5.3561230157        5.3561230156        5.3561230341
 Mg         7.6438769843        7.6438769844        5.3561230342
       4
 i =       47, E =      -253.0482606676
 Mg         7.6438769844        5.3561230157        7.6438769659
 Mg         5.3561230156        7.6438769843        7.6438769658
 Mg         5.3561230157        5.3561230156        5.3561230341
 Mg         7.6438769843        7.6438769844        5.3561230342
       4
 i =       48, E =      -253.0482606676
 Mg         7.6438769844        5.3561230157        7.6438769659
 Mg         5.3561230156        7.6438769843        7.6438769658
 Mg         5.3561230157        5.3561230156        5.3561230341
 Mg         7.6438769843        7.6438769844        5.3561230342
       4
 i =       49, E =      -253.0482606676
 Mg         7.6438769844        5.3561230157        7.6438769659
 Mg         5.3561230156        7.6438769843        7.6438769658
 Mg         5.3561230157        5.3561230156        5.3561230341
 Mg         7.6438769843        7.6438769844        5.3561230342
       4
 i =       50, E =      -253.0482606676
 Mg         7.6438769844        5.3561230157        7.6438769659
 Mg         5.3561230156        7.6438769843        7.6438769658
 Mg         5.3561230157        5.3561230156        5.3561230341
 Mg         7.6438769843        7.6438769844        5.3561230342
