       3
 i =        1, E =       -89.3752075008
 Ti         7.0000000117        7.0000000376        7.4722585728
  O         5.6459852710        6.9999999600        6.5289271891
  O         8.3540147172        7.0000000023        6.5289271853
       3
 i =        2, E =       -89.3752332935
 Ti         7.0000000061        7.0000000399        7.4761591905
  O         5.6435970532        6.9999999421        6.5297302147
  O         8.3564029406        7.0000000039        6.5297302070
       3
 i =        3, E =       -89.3752338310
 Ti         7.0000000056        7.0000000378        7.4770775023
  O         5.6431228462        6.9999999249        6.5310423847
  O         8.3568771475        7.0000000063        6.5310423739
       3
 i =        4, E =       -89.3752338310
 Ti         7.0000000056        7.0000000378        7.4770775023
  O         5.6431228462        6.9999999249        6.5310423847
  O         8.3568771475        7.0000000063        6.5310423739
