       4
 i =        1, E =        -8.0417404700
 As         6.1820707741        6.5000000048        6.9395676628
  H         5.5494374036        7.5957560871        6.0636180271
  H         5.5494373986        5.4042439023        6.0636180309
  H         7.4473421146        6.5000000057        6.0636190971
       4
 i =        2, E =        -8.0417512272
 As         6.1820675408        6.4999999993        6.9425085617
  H         5.5519813476        7.5913474500        6.0626393892
  H         5.5519813492        5.4086525469        6.0626393978
  H         7.4422497408        6.5000000038        6.0626431022
       4
 i =        3, E =        -8.0417512377
 As         6.1820664194        6.5000000013        6.9424211777
  H         5.5519964160        7.5913197745        6.0626700069
  H         5.5519964187        5.4086802217        6.0626700139
  H         7.4422171111        6.5000000025        6.0626751419
       4
 i =        4, E =        -8.0417512377
 As         6.1820664194        6.5000000013        6.9424211777
  H         5.5519964160        7.5913197745        6.0626700069
  H         5.5519964187        5.4086802217        6.0626700139
  H         7.4422171111        6.5000000025        6.0626751419
