       8
 i =        1, E =       -13.5340096991
  B         7.5979026343        7.5979001539        7.5979032158
  B         6.4021019075        7.5978982963        6.4021025282
  B         6.4021000676        6.4020978514        7.5979032075
  B         7.5979031149        6.4020965496        6.4021001290
  H         8.2872600545        8.2872551702        8.2872596389
  H         5.7127432713        8.2872569873        5.7127430584
  H         5.7127448391        5.7127400197        8.2872598688
  H         8.2872579104        5.7127402020        5.7127467719
       8
 i =        2, E =       -13.5341480142
  B         7.5955577603        7.5955549965        7.5955583942
  B         6.4044452278        7.5955549140        6.4044459290
  B         6.4044449268        6.4044425611        7.5955586015
  B         7.5955575105        6.4044420034        6.4044459771
  H         8.2810784128        8.2810738964        8.2810781379
  H         5.7189262746        8.2810739584        5.7189261629
  H         5.7189261551        5.7189219647        8.2810783095
  H         8.2810775237        5.7189209435        5.7189268947
       8
 i =        3, E =       -13.5341520878
  B         7.5952617783        7.5952585457        7.5952622384
  B         6.4047415423        7.5952585925        6.4047420613
  B         6.4047413550        6.4047385307        7.5952624659
  B         7.5952614885        6.4047380592        6.4047422903
  H         8.2811493065        8.2811450020        8.2811491218
  H         5.7188549794        8.2811452418        5.7188549489
  H         5.7188549274        5.7188510919        8.2811494016
  H         8.2811484058        5.7188501828        5.7188558651
       8
 i =        4, E =       -13.5341520878
  B         7.5952617783        7.5952585457        7.5952622384
  B         6.4047415423        7.5952585925        6.4047420613
  B         6.4047413550        6.4047385307        7.5952624659
  B         7.5952614885        6.4047380592        6.4047422903
  H         8.2811493065        8.2811450020        8.2811491218
  H         5.7188549794        8.2811452418        5.7188549489
  H         5.7188549274        5.7188510919        8.2811494016
  H         8.2811484058        5.7188501828        5.7188558651
