       8
 i =        1, E =       -16.3368398299
  B         6.3853582265        6.5000008057        7.3530116366
  N         6.3853363846        6.4999975547        5.7029184557
  H         5.7967812733        7.5194703516        7.6725906230
  H         5.4300030966        6.4999998089        5.3272854959
  H         5.7967747246        5.4805339480        7.6726044894
  H         6.8630398127        5.6726566236        5.3272681732
  H         7.5625099869        6.4999993383        7.6725863261
  H         6.8630386794        7.3273408323        5.3272710037
       8
 i =        2, E =       -16.3368902115
  B         6.3853384264        6.5000002982        7.3534264754
  N         6.3853456708        6.4999982249        5.7019111232
  H         5.7995810453        7.5146051589        7.6701235835
  H         5.4304106816        6.4999979175        5.3300945097
  H         5.7995758575        5.4854012826        7.6701330788
  H         6.8628011139        5.6729914305        5.3300976780
  H         7.5568990491        6.4999994071        7.6701096811
  H         6.8628020926        7.3270055652        5.3301003457
       8
 i =        3, E =       -16.3368905781
  B         6.3853402279        6.5000008082        7.3541321580
  N         6.3853204358        6.4999975628        5.7021861487
  H         5.7993675422        7.5149631281        7.6699140732
  H         5.4304133295        6.4999987314        5.3300632044
  H         5.7993627172        5.4850435601        7.6699219735
  H         6.8627951165        5.6730271808        5.3300730809
  H         7.5573152221        6.4999992950        7.6699040863
  H         6.8627948152        7.3269690250        5.3300751259
       8
 i =        4, E =       -16.3368905781
  B         6.3853402279        6.5000008082        7.3541321580
  N         6.3853204358        6.4999975628        5.7021861487
  H         5.7993675422        7.5149631281        7.6699140732
  H         5.4304133295        6.4999987314        5.3300632044
  H         5.7993627172        5.4850435601        7.6699219735
  H         6.8627951165        5.6730271808        5.3300730809
  H         7.5573152221        6.4999992950        7.6699040863
  H         6.8627948152        7.3269690250        5.3300751259
