       4
 i =        1, E =       -12.4706982778
  C         6.9999999964        7.0000000032        7.6057319048
  C         7.0000000052        6.9999999977        6.3943219914
  H         6.9999999970        6.9999999962        8.6790901140
  H         7.0000000014        7.0000000029        5.3209456765
       4
 i =        2, E =       -12.4707054865
  C         6.9999999985        7.0000000003        7.6055773792
  C         7.0000000024        7.0000000002        6.3944674358
  H         6.9999999964        6.9999999974        8.6767692035
  H         7.0000000027        7.0000000021        5.3232756459
       4
 i =        3, E =       -12.4707055107
  C         6.9999999988        6.9999999997        7.6056251030
  C         7.0000000018        7.0000000007        6.3944196753
  H         6.9999999964        6.9999999977        8.6767554145
  H         7.0000000031        7.0000000020        5.3232894552
       4
 i =        4, E =       -12.4707055107
  C         6.9999999988        6.9999999997        7.6056251030
  C         7.0000000018        7.0000000007        6.3944196753
  H         6.9999999964        6.9999999977        8.6767554145
  H         7.0000000031        7.0000000020        5.3232894552
