       4
 i =        1, E =       -76.2955474295
 Ga         7.3913371895        6.9999999974        6.9999999997
  H         8.1785523623        5.6425613355        6.9999999999
  H         8.1785523643        8.3574386669        7.0000000012
  H         5.8242643444        7.0000000002        6.9999999992
       4
 i =        2, E =       -76.2955693944
 Ga         7.3867767980        7.0000000019        7.0000000004
  H         8.1746860287        5.6477495280        6.9999999998
  H         8.1746860304        8.3522504735        7.0000000011
  H         5.8251649403        7.0000000000        6.9999999991
       4
 i =        3, E =       -76.2955765801
 Ga         7.3831567977        7.0000000010        6.9999999999
  H         8.1722584064        5.6491375594        6.9999999999
  H         8.1722584073        8.3508624413        7.0000000012
  H         5.8222388075        7.0000000004        6.9999999991
       4
 i =        4, E =       -76.2955853671
 Ga         7.3708474008        6.9999999986        7.0000000000
  H         8.1625153194        5.6514251229        6.9999999998
  H         8.1625153179        8.3485748756        7.0000000013
  H         5.8091311782        7.0000000014        6.9999999989
       4
 i =        5, E =       -76.2955920482
 Ga         7.3749473319        6.9999999991        6.9999999995
  H         8.1637700290        5.6492796670        6.9999999999
  H         8.1637700283        8.3507203321        7.0000000014
  H         5.8115406835        7.0000000011        6.9999999990
       4
 i =        6, E =       -76.2955949800
 Ga         7.3748770547        6.9999999995        6.9999999999
  H         8.1611707012        5.6474956337        6.9999999998
  H         8.1611707009        8.3525043656        7.0000000013
  H         5.8101467201        7.0000000008        6.9999999989
       4
 i =        7, E =       -76.2955967328
 Ga         7.3738167814        7.0000000001        7.0000000000
  H         8.1571038206        5.6455617317        6.9999999998
  H         8.1571038209        8.3544382678        7.0000000013
  H         5.8085557759        7.0000000004        6.9999999989
       4
 i =        8, E =       -76.2955970173
 Ga         7.3732962005        7.0000000001        7.0000000001
  H         8.1556607349        5.6450877438        6.9999999997
  H         8.1556607354        8.3549122559        7.0000000013
  H         5.8084391690        7.0000000003        6.9999999989
       4
 i =        9, E =       -76.2955970173
 Ga         7.3732962005        7.0000000001        7.0000000001
  H         8.1556607349        5.6450877438        6.9999999997
  H         8.1556607354        8.3549122559        7.0000000013
  H         5.8084391690        7.0000000003        6.9999999989
