       3
 i =        1, E =       -17.2158786300
  O         6.4999995881        6.7930702139        6.4999999897
  H         7.2734783542        6.1993869463        6.5000000060
  H         5.7265215482        6.1993861639        6.5000000043
       3
 i =        2, E =       -17.2159116165
  O         6.4999996354        6.7982072792        6.4999999938
  H         7.2673805929        6.1976932335        6.5000000061
  H         5.7326193230        6.1976924760        6.5000000044
       3
 i =        3, E =       -17.2159118890
  O         6.4999997047        6.7987429382        6.4999999987
  H         7.2672078697        6.1981648508        6.5000000061
  H         5.7327920908        6.1981641337        6.5000000044
       3
 i =        4, E =       -17.2159118890
  O         6.4999997047        6.7987429382        6.4999999987
  H         7.2672078697        6.1981648508        6.5000000061
  H         5.7327920908        6.1981641337        6.5000000044
