       3
 i =        1, E =       -12.7800541116
  P         7.0000000092        6.9999999988        5.6819816362
  H         6.9999999985        7.0000000011        8.3168108149
  C         6.9999999923        7.0000000001        7.2337369078
       3
 i =        2, E =       -12.7800741351
  P         7.0000000064        6.9999999988        5.6853405261
  H         6.9999999946        7.0000000011        8.3134119472
  C         6.9999999990        7.0000000001        7.2336751545
       3
 i =        3, E =       -12.7800745288
  P         7.0000000063        6.9999999988        5.6854069228
  H         6.9999999944        7.0000000011        8.3135348761
  C         6.9999999992        7.0000000001        7.2334171057
       3
 i =        4, E =       -12.7800745288
  P         7.0000000063        6.9999999988        5.6854069228
  H         6.9999999944        7.0000000011        8.3135348761
  C         6.9999999992        7.0000000001        7.2334171057
