       3
 i =        1, E =       -16.1511638391
  H         6.4999999948        6.4999999986        5.4037762563
  N         6.4999999850        6.4999999892        6.4119820921
  C         6.5000000202        6.5000000121        7.5982286924
       3
 i =        2, E =       -16.1511648988
  H         6.4999999918        6.4999999965        5.4044307043
  N         6.4999999902        6.4999999930        6.4115485170
  C         6.5000000179        6.5000000105        7.5978115243
       3
 i =        3, E =       -16.1511648988
  H         6.4999999918        6.4999999965        5.4044307043
  N         6.4999999902        6.4999999930        6.4115485170
  C         6.5000000179        6.5000000105        7.5978115243
