       3
 i =        1, E =       -11.3864185971
  S         6.4999943813        6.9720381723        6.4999999989
  H         7.4709858732        6.0265438858        6.5000000009
  H         5.5290126653        6.0265374232        6.5000000002
       3
 i =        2, E =       -11.3864361943
  S         6.4999953671        6.9708390369        6.4999999989
  H         7.4666785801        6.0271442277        6.5000000009
  H         5.5333189725        6.0271368084        6.5000000001
       3
 i =        3, E =       -11.3864362324
  S         6.4999952929        6.9710404368        6.4999999989
  H         7.4665535585        6.0270432073        6.5000000009
  H         5.5334440684        6.0270358635        6.5000000001
       3
 i =        4, E =       -11.3864362324
  S         6.4999952929        6.9710404368        6.4999999989
  H         7.4665535585        6.0270432073        6.5000000009
  H         5.5334440684        6.0270358635        6.5000000001
