       3
 i =        1, E =      -151.9321880024
 Mn         7.4967816134        7.4928464072        7.4697346088
  F         7.5226583180        7.5204097504        9.3105243330
  F         7.4808120170        7.4869034611        5.7216716236
       3
 i =        2, E =      -153.9698815853
 Mn         7.4966576834        7.4896949139        7.4836386420
  F         7.5297204590        7.5343982727        9.3049103496
  F         7.4722940449        7.4738758627        5.7320478761
       3
 i =        3, E =      -152.1152116452
 Mn         7.5500504462        7.4891776154        7.5387478634
  F         7.5332779517        7.5168764173        9.2951353691
  F         7.4055117573        7.4681719303        5.7646675800
       3
 i =        4, E =      -153.2071004631
 Mn         7.5350493386        7.4593944774        7.5327191599
  F         7.5350866338        7.5282308497        9.2966500553
  F         7.4137186565        7.4934552616        5.7636084839
       3
 i =        5, E =      -151.9327827983
 Mn         7.5754437090        7.2792510531        7.5953449239
  F         7.4966743337        7.5529130886        9.0466500553
  F         7.3662998986        7.5867255259        5.9771784137
       3
 i =        6, E =      -153.6015653031
 Mn         7.3917242126        7.0292510531        7.4921726592
  F         7.5066516882        7.6751741760        9.0349059779
  F         7.5122370497        7.8061469254        5.9575864189
       3
 i =        7, E =      -152.2845165789
 Mn         7.2690302037        6.7792510531        7.4423035166
  F         7.5082857579        7.7783153254        8.9750642315
  F         7.6220952597        8.0079265724        5.9725048802
       3
 i =        8, E =      -153.0040312747
 Mn         7.4093883718        7.0097619318        7.5089696142
  F         7.5043293667        7.6852799653        9.0559647686
  F         7.5325599589        7.8106333646        5.9183934751
       3
 i =        9, E =      -154.1522434646
 Mn         7.3602323350        6.9882086877        7.4730337287
  F         7.5158669828        7.7096268801        9.0448153662
  F         7.5616895321        7.7996018318        5.9552939908
       3
 i =       10, E =      -153.8794491090
 Mn         7.3194423390        6.9924617257        7.4839364583
  F         7.5550056033        7.6894647371        9.0696406144
  F         7.5746936988        7.8177126652        5.9310981096
       3
 i =       11, E =      -154.1902890942
 Mn         7.3318341882        7.0431513032        7.5010275370
  F         7.5738252864        7.6653853544        9.0953741641
  F         7.5628266902        7.7947353902        5.9100777657
       3
 i =       12, E =      -153.6889187830
 Mn         7.4197493311        7.2931513032        7.5808178140
  F         7.6760466495        7.5394247383        9.2356131053
  F         7.4951164213        7.6200603953        5.8043840007
       3
 i =       13, E =      -153.2445710973
 Mn         7.4646368663        7.5431513032        7.6345626990
  F         7.7287415518        7.3930977764        9.3626829517
  F         7.4611679976        7.4994027630        5.6972385806
       3
 i =       14, E =      -153.0226664689
 Mn         7.4463971498        7.4465780464        7.5956445622
  F         7.6691953201        7.4441586771        9.2946037327
  F         7.4916296401        7.5790003736        5.7542127441
       3
 i =       15, E =      -153.3878194413
 Mn         7.4599550427        7.4128490411        7.5842371944
  F         7.6409955328        7.4992856349        9.2654649274
  F         7.4593017379        7.6064002950        5.7723091259
       3
 i =       16, E =      -153.7888230834
 Mn         7.4053921987        7.3553883364        7.5301292149
  F         7.6204543014        7.5968867964        9.2059835654
  F         7.4149179274        7.7246909085        5.8037002128
       3
 i =       17, E =      -151.9332780514
 Mn         7.4138992957        7.3569580304        7.5330964915
  F         7.5982920049        7.5893581545        9.2182263435
  F         7.4350624201        7.7133322263        5.7806188933
       3
 i =       18, E =      -151.9335583916
 Mn         7.4166276628        7.3757282211        7.5334680975
  F         7.5935519342        7.5886082704        9.2230483323
  F         7.4254303025        7.7096674679        5.7739674626
       3
 i =       19, E =      -153.7385465121
 Mn         7.4390273800        7.6257282211        7.5070184360
  F         7.5121005792        7.6613956274        9.2558686958
  F         7.2120615421        7.7263861686        5.6884482363
       3
 i =       20, E =      -151.9394373466
 Mn         7.4073795844        7.4448421815        7.5042318999
  F         7.5329312436        7.6449969432        9.2104858620
  F         7.3475959300        7.7486683962        5.7567802422
       3
 i =       21, E =      -151.8029510990
 Mn         7.4005584474        7.4907488275        7.4787517540
  F         7.4916077956        7.6808661087        9.1965583880
  F         7.3069256685        7.7725260143        5.7367282640
       3
 i =       22, E =      -151.9445361749
 Mn         7.3725729212        7.5314787614        7.4689403650
  F         7.4768562330        7.6845242823        9.1952415209
  F         7.2892223501        7.7646167544        5.7167858785
       3
 i =       23, E =      -152.9037802400
 Mn         7.2964197827        7.6678042003        7.4322140366
  F         7.3836773338        7.7314824286        9.1898582847
  F         7.2022271766        7.7863238346        5.6700620263
       3
 i =       24, E =      -153.4786089761
 Mn         7.3331069011        7.5686989188        7.4530934476
  F         7.4237580267        7.7139261185        9.1896773451
  F         7.2616251165        7.7889479055        5.7091895836
       3
 i =       25, E =      -153.7112114279
 Mn         7.3826372345        7.4338581365        7.4959132843
  F         7.5044924760        7.6790974595        9.2025660540
  F         7.3416206589        7.7672680415        5.7560861566
       3
 i =       26, E =      -154.1596090081
 Mn         7.3330105840        7.4770571285        7.4646863295
  F         7.4458256840        7.7253354023        9.1847239333
  F         7.3123329415        7.7925963603        5.7361463198
       3
 i =       27, E =      -153.9618896842
 Mn         7.3359747428        7.4941851438        7.4669367114
  F         7.4538839231        7.7243825000        9.1875357893
  F         7.2912488076        7.7788139030        5.7400021465
       3
 i =       28, E =      -152.3981160998
 Mn         7.3631119631        7.6387238468        7.4989050166
  F         7.5337350883        7.6744546179        9.2353633445
  F         7.1532585328        7.6650461934        5.7422069485
       3
 i =       29, E =      -152.4930986512
 Mn         7.4025237288        7.8887238468        7.5328789653
  F         7.6282281655        7.5951944799        9.3018448549
  F         6.9356565372        7.4902362491        5.7280068133
       3
 i =       30, E =      -154.2217503107
 Mn         7.3668456515        7.6901535839        7.5077884359
  F         7.5528360091        7.6478093893        9.2515271325
  F         7.1068381677        7.6225732805        5.7443878807
       3
 i =       31, E =      -153.7167385829
 Mn         7.3585493129        7.7048461807        7.5089964703
  F         7.5474496187        7.6461850515        9.2549874658
  F         7.0822536904        7.6233024860        5.7461417988
       3
 i =       32, E =      -152.9654655638
 Mn         7.3073644838        7.7637847981        7.4970385436
  F         7.4866553509        7.6655147254        9.2540549933
  F         7.0090349698        7.6483648022        5.7462484642
       3
 i =       33, E =      -151.9362856918
 Mn         7.2790072475        7.7496405950        7.4888738196
  F         7.4468663088        7.6835475094        9.2459778015
  F         7.0016429090        7.6847003174        5.7478885775
       3
 i =       34, E =      -151.9350793251
 Mn         7.2943886061        7.7375291119        7.4957377521
  F         7.4729367306        7.6770136225        9.2495460287
  F         7.0161296478        7.6705713713        5.7517791389
       3
 i =       35, E =      -151.9331984770
 Mn         7.4477920119        7.6159129601        7.5595191911
  F         7.7229367306        7.6068578596        9.2817115495
  F         7.1664888394        7.5299978086        5.7844727825
       3
 i =       36, E =      -151.9320210762
 Mn         7.3516738727        7.6839340453        7.5213973039
  F         7.5725035311        7.6429159141        9.2621691557
  F         7.0719637537        7.6127584037        5.7678550313
       3
 i =       37, E =      -151.9323472152
 Mn         7.3918327405        7.6480220348        7.5358784241
  F         7.6420670074        7.6228024480        9.2677504163
  F         7.1119019133        7.5747147899        5.7762340419
       3
 i =       38, E =      -151.9253369541
 Mn         7.3823442237        7.6518523978        7.5281234054
  F         7.6309263687        7.6242727320        9.2613796376
  F         7.1029486880        7.5836092678        5.7730314099
       3
 i =       39, E =      -151.8878353840
 Mn         7.3272993392        7.6712767278        7.4817206171
  F         7.5597474771        7.6359390191        9.2231892982
  F         7.0634255021        7.6577622638        5.7584529484
       3
 i =       40, E =      -153.3111645115
 Mn         7.2868067011        7.6997118153        7.4517257330
  F         7.4963473714        7.6602125891        9.2020914805
  F         7.0278945098        7.7021004848        5.7390807710
       3
 i =       41, E =      -152.0060124045
 Mn         7.1349941709        7.4865697281        7.4017180354
  F         7.5263899364        7.6558981552        9.1746409404
  F         7.1589236981        7.9521004848        5.8405946535
       3
 i =       42, E =      -151.8839263764
 Mn         7.2466205226        7.3004269023        7.4919461424
  F         7.7763899364        7.5579666802        9.2345016728
  F         7.3443457621        7.8764140346        5.9395552360
       3
 i =       43, E =      -153.3400497543
 Mn         7.3534147975        7.1070115537        7.5804630743
  F         8.0263899364        7.4614694676        9.2935395817
  F         7.5346590674        7.8095134361        6.0409525056
       3
 i =       44, E =      -153.4754264296
 Mn         7.3658650465        7.1037278713        7.6016982456
  F         8.0017847822        7.4940200124        9.3194716288
  F         7.5870620586        7.8579708521        6.0434222293
       3
 i =       45, E =      -153.5568128224
 Mn         7.3246308929        7.2106859754        7.5494835149
  F         7.8702355942        7.5441166835        9.2827157052
  F         7.4917820517        7.8935801129        5.9799926454
       3
 i =       46, E =      -152.0159133871
 Mn         7.2743417171        7.3180528940        7.5007214181
  F         7.7236533837        7.5966759446        9.2519425261
  F         7.4053483377        7.9553822167        5.9207891538
       3
 i =       47, E =      -153.3703856776
 Mn         7.4682861843        7.4125267377        7.6029837735
  F         7.4736533837        7.8036234036        9.3948268909
  F         7.5563102440        8.0714079733        5.8123433301
       3
 i =       48, E =      -152.0443887386
 Mn         7.2960976408        7.5518651956        7.4650366423
  F         7.3193021725        7.7849312463        9.2690955368
  F         7.3136235852        8.1084759047        5.7444822688
       3
 i =       49, E =      -153.6820292757
 Mn         7.1507742698        7.4526187194        7.3828862069
  F         7.5693021725        7.5800943384        9.1447356424
  F         7.2073974595        8.0004018831        5.8483891839
       3
 i =       50, E =      -151.9799841082
 Mn         7.2614974313        7.4734622557        7.4475957918
  F         7.4835232438        7.6825539048        9.2265847382
  F         7.3135262512        8.0465288194        5.8081498303
