       2
 i =        1, E =       -68.1104776370
 Mo         6.4973146207        6.4974734642        5.6452443064
  H         6.5026858820        6.5025271792        7.3547592421
       2
 i =        2, E =       -68.1104524781
 Mo         6.4947238581        6.4950367467        5.6533208786
  H         6.5052789680        6.5049662522        7.3466943442
       2
 i =        3, E =       -68.1104822427
 Mo         6.4965870581        6.4967894778        5.6474935828
  H         6.5034153211        6.5032129807        7.3525167271
       2
 i =        4, E =       -68.1104822448
 Mo         6.4965720032        6.4967746880        5.6475441068
  H         6.5034316101        6.5032289353        7.3524700317
       2
 i =        5, E =       -68.1104822448
 Mo         6.4965720032        6.4967746880        5.6475441068
  H         6.5034316101        6.5032289353        7.3524700317
