       4
 i =        1, E =       -82.4990975715
  N         6.1871180241        6.8242961166        6.5000001723
  F         7.4411213243        6.1950860047        6.4999998103
  F         5.5568290914        6.1948833338        7.5831840303
  F         5.5568292923        6.1948834178        5.4168159874
       4
 i =        2, E =       -82.4987143843
  N         6.1824188008        6.8274593851        6.5000001040
  F         7.4657289325        6.2112326362        6.5000006178
  F         5.5261003185        6.2121130500        7.6030566580
  F         5.5261003907        6.2121132140        5.3969431723
       4
 i =        3, E =       -82.4994473370
  N         6.1803275208        6.8299719794        6.5000000225
  F         7.4463036159        6.1975035343        6.5000001588
  F         5.5445616121        6.2008804592        7.5949075471
  F         5.5445616807        6.2008805156        5.4050923090
       4
 i =        4, E =       -82.4994469469
  N         6.1815780559        6.8300548118        6.5000000377
  F         7.4473810923        6.1991067511        6.4999997372
  F         5.5380248747        6.1961178564        7.5861069374
  F         5.5380250121        6.1961178109        5.4138929971
       4
 i =        5, E =       -82.4994819805
  N         6.1794114207        6.8292151164        6.4999999937
  F         7.4469002371        6.1992076414        6.5000000080
  F         5.5399771848        6.1992156811        7.5912716626
  F         5.5399770916        6.1992157114        5.4087282802
       4
 i =        6, E =       -82.4994837504
  N         6.1785994194        6.8288872281        6.5000000290
  F         7.4465059315        6.1990335048        6.4999999899
  F         5.5396314047        6.1987292329        7.5907867345
  F         5.5396314687        6.1987291930        5.4092132513
       4
 i =        7, E =       -82.4994849973
  N         6.1769044400        6.8288654587        6.4999999587
  F         7.4458229920        6.1990739913        6.5000001524
  F         5.5389460991        6.1985564919        7.5902857615
  F         5.5389458327        6.1985566399        5.4097142200
       4
 i =        8, E =       -82.4994851247
  N         6.1764869497        6.8288787421        6.5000001523
  F         7.4458011832        6.1992323266        6.4999995586
  F         5.5390500757        6.1985342388        7.5903585069
  F         5.5390506794        6.1985339524        5.4096415929
       4
 i =        9, E =       -82.4994851247
  N         6.1764869497        6.8288787421        6.5000001523
  F         7.4458011832        6.1992323266        6.4999995586
  F         5.5390500757        6.1985342388        7.5903585069
  F         5.5390506794        6.1985339524        5.4096415929
