      11
 i =        1, E =      -200.1069695352
 Os         9.2829669595        8.5000000273        8.4999999616
  C        10.2549846412        6.8165921194        8.4999999851
  C        10.2549845342       10.1834079293        8.5000000011
  C         7.3390027409        8.5000000193        8.5000000044
  C         9.2830491560        8.4999999804       10.4528759313
  C         9.2830491806        8.4999999808        6.5471241180
  O        10.8405772843        5.8072009497        8.5000000061
  O        10.8405772736       11.1927990127        8.4999999841
  O         6.1719865293        8.4999999850        8.4999999899
  O         9.2804254416        8.4999999890       11.6132660092
  O         9.2804254387        8.5000000070        5.3867340091
      11
 i =        2, E =      -200.1070214836
 Os         9.2838462870        8.4999999884        8.5000000012
  C        10.2551638085        6.8177644893        8.4999999784
  C        10.2551637383       10.1822355306        8.4999999794
  C         7.3412678423        8.5000000105        8.4999999775
  C         9.2818263885        8.5000000063       10.4589689800
  C         9.2818263890        8.5000000179        6.5410310601
  O        10.8411391879        5.8072818532        8.5000000054
  O        10.8411391591       11.1927181386        8.4999999940
  O         6.1733360815        8.4999999959        8.4999999996
  O         9.2785830797        8.4999999795       11.6207432090
  O         9.2785830890        8.4999999887        5.3792568187
      11
 i =        3, E =      -200.1070275576
 Os         9.2841454536        8.5000000145        8.4999999922
  C        10.2564852310        6.8177475138        8.5000000068
  C        10.2564852147       10.1822525035        8.5000000058
  C         7.3416401805        8.4999999849        8.5000000052
  C         9.2816483453        8.4999999720       10.4587747349
  C         9.2816483470        8.4999999792        6.5412252741
  O        10.8419907559        5.8067466221        8.4999999934
  O        10.8419907166       11.1932534051        8.4999999866
  O         6.1736332440        8.5000000078        8.4999999900
  O         9.2760689235        8.4999999979       11.6204397518
  O         9.2760689325        8.5000000062        5.3795602576
      11
 i =        4, E =      -200.1070366123
 Os         9.2886762794        8.4999999689        8.5000000219
  C        10.2624392939        6.8172248976        8.5000000367
  C        10.2624393385       10.1827750745        8.5000000282
  C         7.3457971896        8.4999999928        8.5000000325
  C         9.2775839825        8.5000000195       10.4581089841
  C         9.2775839921        8.5000000087        6.5418909606
  O        10.8470668824        5.8050901286        8.4999999804
  O        10.8470667907       11.1949099473        8.4999999935
  O         6.1774595645        8.5000000024        8.4999999870
  O         9.2640507157        8.4999999958       11.6193795361
  O         9.2640507184        8.4999999958        5.3806204380
      11
 i =        5, E =      -200.1070421436
 Os         9.2879449076        8.5000000174        8.5000000129
  C        10.2621012646        6.8181416964        8.5000000139
  C        10.2621012897       10.1818583092        8.5000000106
  C         7.3460488821        8.4999999790        8.5000000111
  C         9.2788300993        8.4999999712       10.4584786802
  C         9.2788301061        8.4999999666        6.5415212990
  O        10.8463225849        5.8062448209        8.4999999931
  O        10.8463225185       11.1937552401        8.4999999989
  O         6.1780590642        8.5000000066        8.4999999960
  O         9.2667571141        8.5000000150       11.6199344307
  O         9.2667571177        8.5000000140        5.3800655593
      11
 i =        6, E =      -200.1070459720
 Os         9.2890372517        8.4999999991        8.4999999904
  C        10.2635389657        6.8186584360        8.5000000157
  C        10.2635389280       10.1813415818        8.5000000166
  C         7.3476607704        8.5000000025        8.5000000139
  C         9.2793182691        8.5000000028       10.4586678683
  C         9.2793182728        8.5000000011        6.5413321215
  O        10.8477664344        5.8070749795        8.4999999966
  O        10.8477663826       11.1929250446        8.4999999983
  O         6.1798519925        8.4999999951        8.4999999972
  O         9.2676204958        8.5000000006       11.6202311188
  O         9.2676204996        8.4999999976        5.3797688727
      11
 i =        7, E =      -200.1070552978
 Os         9.2952635446        8.5000000648        8.4999999967
  C        10.2719252172        6.8206731902        8.4999999306
  C        10.2719251145       10.1793268989        8.4999999432
  C         7.3556344443        8.4999999874        8.4999999325
  C         9.2819073410        8.4999999562       10.4591774085
  C         9.2819073354        8.4999999614        6.5408226720
  O        10.8563785754        5.8100175131        8.5000000425
  O        10.8563785741       11.1899824832        8.5000000344
  O         6.1882959358        8.5000000003        8.5000000366
  O         9.2682000018        8.5000000245       11.6210306951
  O         9.2682000016        8.5000000139        5.3789693461
      11
 i =        8, E =      -200.1070594041
 Os         9.2969946767        8.4999999246        8.4999999424
  C        10.2737407525        6.8207241584        8.5000000072
  C        10.2737405453       10.1792758904        8.5000000175
  C         7.3565979340        8.5000000744        8.5000000101
  C         9.2832626107        8.5000001223       10.4589258935
  C         9.2832626024        8.5000001271        6.5410741270
  O        10.8583538429        5.8100035893        8.5000000108
  O        10.8583538316       11.1899963463        8.5000000031
  O         6.1890255500        8.4999999629        8.5000000015
  O         9.2692580743        8.4999999467       11.6206749724
  O         9.2692580761        8.4999999398        5.3793250279
      11
 i =        9, E =      -200.1070634264
 Os         9.3000119880        8.5000002872        8.5000000711
  C        10.2771067863        6.8208251753        8.4999998981
  C        10.2771070109       10.1791749396        8.4999998985
  C         7.3584128690        8.4999998134        8.4999998979
  C         9.2863342372        8.4999996755       10.4585877683
  C         9.2863342364        8.4999996768        6.5414123041
  O        10.8612289488        5.8092554776        8.5000000417
  O        10.8612289338       11.1907447226        8.5000000405
  O         6.1904130567        8.5000000913        8.5000000373
  O         9.2694962198        8.5000001483       11.6200913162
  O         9.2694962144        8.5000001493        5.3799087367
      11
 i =       10, E =      -200.1070640672
 Os         9.3006072194        8.4999996673        8.4999999289
  C        10.2772131177        6.8204705372        8.5000000896
  C        10.2772127855       10.1795294171        8.5000000887
  C         7.3589300528        8.5000002373        8.5000000895
  C         9.2867457835        8.5000004217       10.4585405713
  C         9.2867457785        8.5000004221        6.5414593608
  O        10.8610317493        5.8086683076        8.4999999655
  O        10.8610316964       11.1913315575        8.4999999654
  O         6.1909555926        8.4999998878        8.4999999587
  O         9.2698208252        8.4999998116       11.6199954028
  O         9.2698208273        8.4999998136        5.3800045474
      11
 i =       11, E =      -200.1070640672
 Os         9.3006072194        8.4999996673        8.4999999289
  C        10.2772131177        6.8204705372        8.5000000896
  C        10.2772127855       10.1795294171        8.5000000887
  C         7.3589300528        8.5000002373        8.5000000895
  C         9.2867457835        8.5000004217       10.4585405713
  C         9.2867457785        8.5000004221        6.5414593608
  O        10.8610317493        5.8086683076        8.4999999655
  O        10.8610316964       11.1913315575        8.4999999654
  O         6.1909555926        8.4999998878        8.4999999587
  O         9.2698208252        8.4999998116       11.6199954028
  O         9.2698208273        8.4999998136        5.3800045474
