       5
 i =        1, E =      -155.6345202143
 Os         6.5000000090        6.5000000100        6.5000000038
  O         7.4890113643        5.5109886518        7.4890113654
  O         5.5109886438        7.4890113640        7.4890113765
  O         5.5109886317        5.5109886370        5.5109886267
  O         7.4890113512        7.4890113371        5.5109886276
       5
 i =        2, E =      -155.6345354572
 Os         6.4999999914        6.5000000095        6.4999999550
  O         7.4877839011        5.5122161236        7.4877838926
  O         5.5122161317        7.4877838926        7.4877838885
  O         5.5122161249        5.5122161314        5.5122161257
  O         7.4877838481        7.4877838402        5.5122161371
       5
 i =        3, E =      -155.6345355870
 Os         6.4999999942        6.4999999955        6.4999999994
  O         7.4878877167        5.5121123037        7.4878876896
  O         5.5121123174        7.4878877069        7.4878876729
  O         5.5121123348        5.5121123503        5.5121123266
  O         7.4878876354        7.4878876381        5.5121123204
       5
 i =        4, E =      -155.6345355870
 Os         6.4999999942        6.4999999955        6.4999999994
  O         7.4878877167        5.5121123037        7.4878876896
  O         5.5121123174        7.4878877069        7.4878876729
  O         5.5121123348        5.5121123503        5.5121123266
  O         7.4878876354        7.4878876381        5.5121123204
