       5
 i =        1, E =      -118.2222743002
 Ti         6.9999999836        6.9999999559        6.9999999752
 Cl         8.2619581777        5.7380418293        8.2619581829
 Cl         5.7380418224        8.2619581869        8.2619581635
 Cl         5.7380418471        5.7380418583        5.7380418472
 Cl         8.2619581691        8.2619581697        5.7380418312
       5
 i =        2, E =      -118.2222743834
 Ti         6.9999999954        6.9999999948        7.0000000032
 Cl         8.2618150750        5.7381849229        8.2618150802
 Cl         5.7381849259        8.2618150748        8.2618150549
 Cl         5.7381849361        5.7381849432        5.7381849356
 Cl         8.2618150679        8.2618150651        5.7381849266
       5
 i =        3, E =      -118.2222743834
 Ti         6.9999999954        6.9999999948        7.0000000032
 Cl         8.2618150750        5.7381849229        8.2618150802
 Cl         5.7381849259        8.2618150748        8.2618150549
 Cl         5.7381849361        5.7381849432        5.7381849356
 Cl         8.2618150679        8.2618150651        5.7381849266
