       2
 i =        1, E =       -64.9167492874
 Tl         7.0000000030        7.0000000016        5.7243632735
 Cl         6.9999999970        6.9999999984        8.2756390900
       2
 i =        2, E =       -64.9167606596
 Tl         7.0000000030        7.0000000015        5.7285876876
 Cl         6.9999999970        6.9999999985        8.2714146430
       2
 i =        3, E =       -64.9167606768
 Tl         7.0000000030        7.0000000015        5.7287607786
 Cl         6.9999999970        6.9999999985        8.2712426079
       2
 i =        4, E =       -64.9167606768
 Tl         7.0000000030        7.0000000015        5.7287607786
 Cl         6.9999999970        6.9999999985        8.2712426079
