7
Lattice="17.0 0.0 0.0 0.0 17.0 0.0 0.0 0.0 17.0" Properties=species:S:1:pos:R:3:Z:I:1 unique_id=45c723ea4cfafe872f827eb096bd5dfb pbc="F F F"
S       8.49998570       8.50000130       8.70848447       16 
O       9.77239581       8.49999911       9.43746580        8 
O       7.22760419       8.49999910       9.43745854        8 
O       8.49999358       9.67923399       7.56253420        8 
O       8.49999357       7.32075585       7.56254398        8 
H       8.49999351      10.52889556       8.05627853        1 
H       8.49999351       6.47110444       8.05630306        1 
