5
Lattice="16.0 0.0 0.0 0.0 16.0 0.0 0.0 0.0 16.0" Properties=species:S:1:pos:R:3:Z:I:1:initial_charges:R:1 unique_id=404526037a115a449389849083204d47 pbc="F F F"
I       8.00000000       8.00000000       8.00000000       53       3.00000000 
O       9.07485958       6.92514042       9.07485958        8      -1.00000000 
O       6.92514042       9.07485958       9.07485958        8      -1.00000000 
O       6.92514042       6.92514042       6.92514042        8      -1.00000000 
O       9.07485958       9.07485958       6.92514042        8      -1.00000000 
