9
Lattice="17.0 0.0 0.0 0.0 17.0 0.0 0.0 0.0 17.0" Properties=species:S:1:pos:R:3:Z:I:1 unique_id=9a6e224a8536831be43aa84bc6f17889 pbc="F F F"
Pd       8.50000891       8.50000884       8.49998999       46 
C       9.65546924       9.65546949       9.65546429        6 
C       7.34454457       7.34454711       9.65545542        6 
C       9.65547039       7.34453561       7.34452901        6 
C       7.34453521       9.65547023       7.34452942        6 
O      10.32071446      10.32071478      10.32072264        8 
O       6.67929361       6.67930820      10.32072435        8 
O      10.32072377       6.67927615       6.67927565        8 
O       6.67927623      10.32072385       6.67927590        8 
