13
Lattice="20.0 0.0 0.0 0.0 20.0 0.0 0.0 0.0 20.0" Properties=species:S:1:pos:R:3:Z:I:1 unique_id=bbd4fc848df78e6f3b6c9121af060223 pbc="F F F"
W      10.00000000      10.00000000      10.00000000       74 
C      10.00000000      12.08347727      10.00000000        6 
C      10.00000000      10.00000000      12.08347727        6 
C      12.08347727      10.00000000      10.00000000        6 
C      10.00000000      10.00000000       7.91652273        6 
C       7.91652273      10.00000000      10.00000000        6 
C      10.00000000       7.91652273      10.00000000        6 
O      10.00000000      13.24157340      10.00000000        8 
O      10.00000000      10.00000000      13.24157340        8 
O      13.24157340      10.00000000      10.00000000        8 
O      10.00000000      10.00000000       6.75842660        8 
O       6.75842660      10.00000000      10.00000000        8 
O      10.00000000       6.75842660      10.00000000        8 
