 Entering Gaussian System, Link 0=g16
 Initial command:
 /sw-ng/spack/opt/spack/linux-opensuse_leap15-sandybridge/pgi-18.10/gaussian-src-16-C.01-zldqaomctopxhethwccpmxmwefdscg3m/g16/l1.exe "/data/hutter/SMG16/PBE0/Gau-87872.inp" -scrdir="/data/hutter/SMG16/PBE0/"
 Entering Link 1 = /sw-ng/spack/opt/spack/linux-opensuse_leap15-sandybridge/pgi-18.10/gaussian-src-16-C.01-zldqaomctopxhethwccpmxmwefdscg3m/g16/l1.exe PID=     87882.
  
 Copyright (c) 1988-2019, Gaussian, Inc.  All Rights Reserved.
  
 This is part of the Gaussian(R) 16 program.  It is based on
 the Gaussian(R) 09 system (copyright 2009, Gaussian, Inc.),
 the Gaussian(R) 03 system (copyright 2003, Gaussian, Inc.),
 the Gaussian(R) 98 system (copyright 1998, Gaussian, Inc.),
 the Gaussian(R) 94 system (copyright 1995, Gaussian, Inc.),
 the Gaussian 92(TM) system (copyright 1992, Gaussian, Inc.),
 the Gaussian 90(TM) system (copyright 1990, Gaussian, Inc.),
 the Gaussian 88(TM) system (copyright 1988, Gaussian, Inc.),
 the Gaussian 86(TM) system (copyright 1986, Carnegie Mellon
 University), and the Gaussian 82(TM) system (copyright 1983,
 Carnegie Mellon University). Gaussian is a federally registered
 trademark of Gaussian, Inc.
  
 This software contains proprietary and confidential information,
 including trade secrets, belonging to Gaussian, Inc.
  
 This software is provided under written license and may be
 used, copied, transmitted, or stored only in accord with that
 written license.
  
 The following legend is applicable only to US Government
 contracts under FAR:
  
                    RESTRICTED RIGHTS LEGEND
  
 Use, reproduction and disclosure by the US Government is
 subject to restrictions as set forth in subparagraphs (a)
 and (c) of the Commercial Computer Software - Restricted
 Rights clause in FAR 52.227-19.
  
 Gaussian, Inc.
 340 Quinnipiac St., Bldg. 40, Wallingford CT 06492
  
  
 ---------------------------------------------------------------
 Warning -- This program may not be used in any manner that
 competes with the business of Gaussian, Inc. or will provide
 assistance to any competitor of Gaussian, Inc.  The licensee
 of this program is prohibited from giving any competitor of
 Gaussian, Inc. access to this program.  By using this program,
 the user acknowledges that Gaussian, Inc. is engaged in the
 business of creating and licensing software in the field of
 computational chemistry and represents and warrants to the
 licensee that it is not a competitor of Gaussian, Inc. and that
 it will not use this program in any manner prohibited above.
 ---------------------------------------------------------------
  

 Cite this work as:
 Gaussian 16, Revision C.01,
 M. J. Frisch, G. W. Trucks, H. B. Schlegel, G. E. Scuseria, 
 M. A. Robb, J. R. Cheeseman, G. Scalmani, V. Barone, 
 G. A. Petersson, H. Nakatsuji, X. Li, M. Caricato, A. V. Marenich, 
 J. Bloino, B. G. Janesko, R. Gomperts, B. Mennucci, H. P. Hratchian, 
 J. V. Ortiz, A. F. Izmaylov, J. L. Sonnenberg, D. Williams-Young, 
 F. Ding, F. Lipparini, F. Egidi, J. Goings, B. Peng, A. Petrone, 
 T. Henderson, D. Ranasinghe, V. G. Zakrzewski, J. Gao, N. Rega, 
 G. Zheng, W. Liang, M. Hada, M. Ehara, K. Toyota, R. Fukuda, 
 J. Hasegawa, M. Ishida, T. Nakajima, Y. Honda, O. Kitao, H. Nakai, 
 T. Vreven, K. Throssell, J. A. Montgomery, Jr., J. E. Peralta, 
 F. Ogliaro, M. J. Bearpark, J. J. Heyd, E. N. Brothers, K. N. Kudin, 
 V. N. Staroverov, T. A. Keith, R. Kobayashi, J. Normand, 
 K. Raghavachari, A. P. Rendell, J. C. Burant, S. S. Iyengar, 
 J. Tomasi, M. Cossi, J. M. Millam, M. Klene, C. Adamo, R. Cammi, 
 J. W. Ochterski, R. L. Martin, K. Morokuma, O. Farkas, 
 J. B. Foresman, and D. J. Fox, Gaussian, Inc., Wallingford CT, 2019.
 
 ******************************************
 Gaussian 16:  ES64L-G16RevC.01  3-Jul-2019
                 1-Aug-2021 
 ******************************************
 %mem=8GB
 %NProcShare=8
 Will use up to    8 processors via shared memory.
 ------------------------------------------------------------
 #N RPBE1PBE/Def2QZVPP scf=tight Int(Grid=ultrafine) OPT FREQ
 ------------------------------------------------------------
 1/18=20,19=15,26=4,38=1/1,3;
 2/9=110,12=2,17=6,18=5,40=1/2;
 3/5=45,7=202,11=2,25=1,30=1,71=1,74=-13,75=-5,116=1/1,2,3;
 4//1;
 5/5=2,32=2,38=5/2;
 6/7=2,8=2,9=2,10=2,28=1/1;
 7//1,2,3,16;
 1/18=20,19=15,26=4/3(2);
 2/9=110/2;
 99//99;
 2/9=110/2;
 3/5=45,7=202,11=2,25=1,30=1,71=1,74=-13,75=-5,116=1/1,2,3;
 4/5=5,16=3,69=1/1;
 5/5=2,32=2,38=5/2;
 7//1,2,3,16;
 1/18=20,19=15,26=4/3(-5);
 2/9=110/2;
 6/7=2,8=2,9=2,10=2,19=2,28=1/1;
 99/9=1/99;
 ---------
 Mol job 1
 ---------
 Symbolic Z-matrix:
 Charge =  0 Multiplicity = 1
 S                     10.       10.       10. 
 Na                    10.       10.       7.59402 
 Na                    10.       10.       12.40598 
 

 GradGradGradGradGradGradGradGradGradGradGradGradGradGradGradGradGradGrad
 Berny optimization.
 Initialization pass.
                           ----------------------------
                           !    Initial Parameters    !
                           ! (Angstroms and Degrees)  !
 --------------------------                            --------------------------
 ! Name  Definition              Value          Derivative Info.                !
 --------------------------------------------------------------------------------
 ! R1    R(1,2)                  2.406          estimate D2E/DX2                !
 ! R2    R(1,3)                  2.406          estimate D2E/DX2                !
 ! A1    L(2,1,3,-1,-1)        180.0            estimate D2E/DX2                !
 ! A2    L(2,1,3,-2,-2)        180.0            estimate D2E/DX2                !
 --------------------------------------------------------------------------------
 Trust Radius=3.00D-01 FncErr=1.00D-07 GrdErr=1.00D-06 EigMax=2.50D+02 EigMin=1.00D-04
 Number of steps in this run=     20 maximum allowed number of steps=    100.
 GradGradGradGradGradGradGradGradGradGradGradGradGradGradGradGradGradGrad

                          Input orientation:                          
 ---------------------------------------------------------------------
 Center     Atomic      Atomic             Coordinates (Angstroms)
 Number     Number       Type             X           Y           Z
 ---------------------------------------------------------------------
      1         16           0       10.000000   10.000000   10.000000
      2         11           0       10.000000   10.000000    7.594018
      3         11           0       10.000000   10.000000   12.405982
 ---------------------------------------------------------------------
                    Distance matrix (angstroms):
                    1          2          3
     1  S    0.000000
     2  Na   2.405982   0.000000
     3  Na   2.405982   4.811965   0.000000
 Stoichiometry    Na2S
 Framework group  D*H[O(S),C*(Na.Na)]
 Deg. of freedom     1
 Full point group                 D*H     NOp   8
 Largest Abelian subgroup         D2H     NOp   8
 Largest concise Abelian subgroup C2      NOp   2
                         Standard orientation:                         
 ---------------------------------------------------------------------
 Center     Atomic      Atomic             Coordinates (Angstroms)
 Number     Number       Type             X           Y           Z
 ---------------------------------------------------------------------
      1         16           0        0.000000    0.000000    0.000000
      2         11           0        0.000000    0.000000    2.405982
      3         11           0        0.000000    0.000000   -2.405982
 ---------------------------------------------------------------------
 Rotational constants (GHZ):           0.0000000           1.8987497           1.8987497
 Standard basis: def2QZVPP (5D, 7F)
 There are    59 symmetry adapted cartesian basis functions of AG  symmetry.
 There are    13 symmetry adapted cartesian basis functions of B1G symmetry.
 There are    22 symmetry adapted cartesian basis functions of B2G symmetry.
 There are    22 symmetry adapted cartesian basis functions of B3G symmetry.
 There are     8 symmetry adapted cartesian basis functions of AU  symmetry.
 There are    44 symmetry adapted cartesian basis functions of B1U symmetry.
 There are    27 symmetry adapted cartesian basis functions of B2U symmetry.
 There are    27 symmetry adapted cartesian basis functions of B3U symmetry.
 There are    46 symmetry adapted basis functions of AG  symmetry.
 There are    12 symmetry adapted basis functions of B1G symmetry.
 There are    19 symmetry adapted basis functions of B2G symmetry.
 There are    19 symmetry adapted basis functions of B3G symmetry.
 There are     8 symmetry adapted basis functions of AU  symmetry.
 There are    36 symmetry adapted basis functions of B1U symmetry.
 There are    23 symmetry adapted basis functions of B2U symmetry.
 There are    23 symmetry adapted basis functions of B3U symmetry.
   186 basis functions,   321 primitive gaussians,   222 cartesian basis functions
    19 alpha electrons       19 beta electrons
       nuclear repulsion energy        90.7261856343 Hartrees.
 NAtoms=    3 NActive=    3 NUniq=    2 SFac= 2.25D+00 NAtFMM=   60 NAOKFM=F Big=F
 Integral buffers will be    131072 words long.
 Raffenetti 2 integral format.
 Two-electron integral symmetry is turned on.
 One-electron integrals computed using PRISM.
   8 Symmetry operations used in ECPInt.
 ECPInt:  NShTT=    1953 NPrTT=    7132 LenC2=    1845 LenP2D=    5355.
 LDataN:  DoStor=T MaxTD1= 8 Len=  415
 NBasis=   186 RedAO= T EigKep=  6.29D-04  NBF=    46    12    19    19     8    36    23    23
 NBsUse=   186 1.00D-06 EigRej= -1.00D+00 NBFU=    46    12    19    19     8    36    23    23
 ExpMin= 1.55D-02 ExpMax= 1.27D+06 ExpMxC= 1.45D+03 IAcc=3 IRadAn=         5 AccDes= 0.00D+00
 Harris functional with IExCor= 1009 and IRadAn=       5 diagonalized for initial guess.
 HarFok:  IExCor= 1009 AccDes= 0.00D+00 IRadAn=         5 IDoV= 1 UseB2=F ITyADJ=14
 ICtDFT=  3500011 ScaDFX=  1.000000  1.000000  1.000000  1.000000
 FoFCou: FMM=F IPFlag=           0 FMFlag=      100000 FMFlg1=           0
         NFxFlg=           0 DoJE=T BraDBF=F KetDBF=T FulRan=T
         wScrn=  0.000000 ICntrl=       500 IOpCl=  0 I1Cent=   200000004 NGrid=           0
         NMat0=    1 NMatS0=      1 NMatT0=    0 NMatD0=    1 NMtDS0=    0 NMtDT0=    0
 Petite list used in FoFCou.
 Initial guess orbital symmetries:
       Occupied  (SGG) (SGU) (SGG) (SGG) (SGU) (PIU) (PIU) (SGG)
                 (SGU) (SGG) (SGU) (PIU) (PIU) (PIG) (PIG) (SGG)
                 (SGU) (PIU) (PIU)
       Virtual   (SGG) (SGU) (PIU) (PIU) (PIG) (PIG) (SGG) (SGG)
                 (SGU) (SGU) (PIG) (PIG) (PIU) (PIU) (SGG) (SGU)
                 (DLTG) (DLTG) (SGG) (PIG) (PIG) (DLTU) (DLTU)
                 (PIU) (PIU) (SGU) (SGG) (DLTG) (DLTG) (SGG) (SGU)
                 (PIG) (PIG) (PIU) (PIU) (PIU) (PIU) (SGU) (PIG)
                 (PIG) (SGG) (PHIU) (PHIU) (PHIG) (PHIG) (DLTU)
                 (DLTU) (SGG) (DLTG) (DLTG) (SGU) (PIG) (PIG) (SGG)
                 (PIU) (PIU) (DLTG) (DLTG) (DLTU) (DLTU) (PIU)
                 (PIU) (SGU) (PIG) (PIG) (SGU) (PIG) (PIG) (SGG)
                 (PIU) (PIU) (DLTG) (DLTG) (PHIU) (PHIU) (SGU)
                 (SGG) (PIU) (PIU) (SGG) (DLTU) (DLTU) (SGU) (PIG)
                 (PIG) (SGU) (PIU) (PIU) (SGG) (SGG) (SGU) (DLTG)
                 (DLTG) (PIG) (PIG) (SGG) (PHIG) (PHIG) (?A) (?A)
                 (DLTG) (DLTG) (PIG) (PIG) (PHIU) (PHIU) (DLTU)
                 (DLTU) (SGG) (SGU) (PIU) (PIU) (DLTG) (DLTG) (DLTU)
                 (DLTU) (PIU) (PIU) (PIG) (PIG) (PIU) (PIU) (SGG)
                 (SGU) (SGU) (SGG) (SGU) (SGG) (DLTG) (DLTG) (PIG)
                 (PIG) (SGG) (DLTG) (DLTG) (DLTU) (DLTU) (PIU)
                 (PIU) (PIG) (PIG) (SGU) (SGG) (DLTU) (DLTU) (DLTG)
                 (DLTG) (PHIG) (PHIG) (PHIU) (PHIU) (PIG) (PIG)
                 (PIU) (PIU) (SGG) (SGU) (SGG) (SGU) (SGG) (PIU)
                 (PIU) (SGU) (SGG) (SGG) (SGU) (SGG)
 The electronic state of the initial guess is 1-SGG.
 Keep R1 ints in memory in symmetry-blocked form, NReq=170717461.
 Requested convergence on RMS density matrix=1.00D-08 within 128 cycles.
 Requested convergence on MAX density matrix=1.00D-06.
 Requested convergence on             energy=1.00D-06.
 No special actions if energy rises.
 SCF Done:  E(RPBE1PBE) =  -722.523108042     A.U. after   12 cycles
            NFock= 12  Conv=0.77D-09     -V/T= 2.0026

 **********************************************************************

            Population analysis using the SCF Density.

 **********************************************************************

 Orbital symmetries:
       Occupied  (SGG) (SGU) (SGG) (SGG) (SGU) (PIU) (PIU) (SGG)
                 (SGU) (PIU) (PIU) (PIG) (PIG) (SGG) (SGU) (SGG)
                 (SGU) (PIU) (PIU)
       Virtual   (SGG) (SGU) (PIG) (PIG) (PIU) (PIU) (SGG) (SGU)
                 (SGG) (SGU) (PIG) (PIG) (PIU) (PIU) (SGG) (SGU)
                 (SGG) (DLTG) (DLTG) (DLTU) (DLTU) (SGU) (PIG)
                 (PIG) (PIU) (PIU) (SGG) (SGU) (PIG) (PIG) (PIU)
                 (PIU) (SGG) (DLTG) (DLTG) (PIU) (PIU) (SGU) (PIG)
                 (PIG) (SGG) (PHIU) (PHIU) (PHIG) (PHIG) (DLTU)
                 (DLTU) (SGG) (SGU) (DLTG) (DLTG) (PIG) (PIG) (PIU)
                 (PIU) (DLTU) (DLTU) (DLTG) (DLTG) (SGG) (PIU)
                 (PIU) (SGU) (PIG) (PIG) (SGU) (SGG) (PIG) (PIG)
                 (PIU) (PIU) (SGU) (SGG) (DLTG) (DLTG) (PHIU) (PHIU)
                 (SGG) (PIU) (PIU) (SGU) (DLTU) (DLTU) (PIG) (PIG)
                 (SGU) (PIU) (PIU) (SGG) (SGU) (SGG) (DLTG) (DLTG)
                 (PIG) (PIG) (SGG) (PHIG) (PHIG) (?A) (?A) (DLTG)
                 (DLTG) (PIG) (PIG) (PHIU) (PHIU) (DLTU) (DLTU)
                 (SGG) (DLTG) (DLTG) (PIU) (PIU) (SGU) (DLTU) (DLTU)
                 (PIG) (PIG) (PIU) (PIU) (SGG) (SGU) (PIU) (PIU)
                 (SGU) (SGG) (SGU) (SGG) (DLTG) (DLTG) (PIG) (PIG)
                 (SGG) (DLTG) (DLTG) (DLTU) (DLTU) (PIU) (PIU)
                 (PIG) (PIG) (SGU) (SGG) (PHIG) (PHIG) (PHIU) (PHIU)
                 (DLTU) (DLTU) (DLTG) (DLTG) (PIG) (PIG) (PIU)
                 (PIU) (SGG) (SGU) (SGG) (SGU) (SGG) (PIU) (PIU)
                 (SGU) (SGG) (SGG) (SGU) (SGG)
 The electronic state is 1-SGG.
 Alpha  occ. eigenvalues --  -88.85806 -38.56466 -38.56466  -7.83685  -5.77116
 Alpha  occ. eigenvalues --   -5.76945  -5.76945  -2.24085  -2.24084  -1.15331
 Alpha  occ. eigenvalues --   -1.15331  -1.15331  -1.15331  -1.15183  -1.15174
 Alpha  occ. eigenvalues --   -0.52635  -0.17252  -0.13782  -0.13782
 Alpha virt. eigenvalues --   -0.04103  -0.02813   0.01808   0.01808   0.01848
 Alpha virt. eigenvalues --    0.01848   0.02659   0.03140   0.03272   0.05227
 Alpha virt. eigenvalues --    0.07739   0.07739   0.08075   0.08075   0.11153
 Alpha virt. eigenvalues --    0.12738   0.16215   0.16260   0.16260   0.18280
 Alpha virt. eigenvalues --    0.18280   0.18613   0.20223   0.20223   0.20695
 Alpha virt. eigenvalues --    0.20695   0.20750   0.27040   0.28778   0.28778
 Alpha virt. eigenvalues --    0.29081   0.29081   0.33522   0.37825   0.37825
 Alpha virt. eigenvalues --    0.39853   0.39853   0.40066   0.46126   0.46126
 Alpha virt. eigenvalues --    0.46923   0.49119   0.49119   0.49722   0.49722
 Alpha virt. eigenvalues --    0.50706   0.50706   0.54981   0.57745   0.60374
 Alpha virt. eigenvalues --    0.60374   0.60779   0.60779   0.64963   0.64963
 Alpha virt. eigenvalues --    0.65772   0.65772   0.65818   0.65819   0.67813
 Alpha virt. eigenvalues --    0.70209   0.70209   0.72200   0.86926   0.86926
 Alpha virt. eigenvalues --    0.90542   1.00376   1.00707   1.00707   1.03479
 Alpha virt. eigenvalues --    1.03479   1.05424   1.06198   1.18209   1.18209
 Alpha virt. eigenvalues --    1.19470   1.19470   1.21334   1.21366   1.21366
 Alpha virt. eigenvalues --    1.25868   1.30702   1.30702   1.40119   1.40119
 Alpha virt. eigenvalues --    1.46195   1.53932   1.53932   1.64963   2.01716
 Alpha virt. eigenvalues --    2.02178   2.84466   2.84466   2.95761   2.95761
 Alpha virt. eigenvalues --    2.99455   3.12596   3.12596   3.13290   3.13290
 Alpha virt. eigenvalues --    3.13866   3.13867   3.21877   3.21877   3.33096
 Alpha virt. eigenvalues --    3.33096   3.38762   3.38762   3.41058   3.45638
 Alpha virt. eigenvalues --    3.45638   3.46175   3.46175   3.46812   3.47578
 Alpha virt. eigenvalues --    3.47578   3.57751   3.57751   3.58242   3.58242
 Alpha virt. eigenvalues --    3.68734   3.74423   3.79030   3.79030   4.21973
 Alpha virt. eigenvalues --    5.77708   5.79796   7.11190   8.85442   8.85442
 Alpha virt. eigenvalues --    8.97134   8.97134   9.01147  14.09498  14.09498
 Alpha virt. eigenvalues --   14.09899  14.09899  14.12756  14.12756  14.14314
 Alpha virt. eigenvalues --   14.14314  14.22288  14.23606  14.59258  14.59258
 Alpha virt. eigenvalues --   14.59259  14.59259  14.59407  14.59407  14.59417
 Alpha virt. eigenvalues --   14.59417  14.59543  14.59543  14.59659  14.59659
 Alpha virt. eigenvalues --   14.60240  14.61081  21.12082  21.13371  24.27530
 Alpha virt. eigenvalues --   28.94894  28.94894  29.13505  83.83517 126.46377
 Alpha virt. eigenvalues --  126.49528 450.63022
          Condensed to atoms (all electrons):
               1          2          3
     1  S   16.141159   0.365800   0.365800
     2  Na   0.365800  10.236319  -0.038498
     3  Na   0.365800  -0.038498  10.236319
 Mulliken charges:
               1
     1  S   -0.872759
     2  Na   0.436379
     3  Na   0.436379
 Sum of Mulliken charges =  -0.00000
 Mulliken charges with hydrogens summed into heavy atoms:
               1
     1  S   -0.872759
     2  Na   0.436379
     3  Na   0.436379
 Electronic spatial extent (au):  <R**2>=            487.0743
 Charge=             -0.0000 electrons
 Dipole moment (field-independent basis, Debye):
    X=             -0.0000    Y=             -0.0000    Z=              0.0000  Tot=              0.0000
 Quadrupole moment (field-independent basis, Debye-Ang):
   XX=            -30.4244   YY=            -30.4244   ZZ=             17.4174
   XY=              0.0000   XZ=              0.0000   YZ=              0.0000
 Traceless Quadrupole moment (field-independent basis, Debye-Ang):
   XX=            -15.9473   YY=            -15.9473   ZZ=             31.8946
   XY=              0.0000   XZ=              0.0000   YZ=              0.0000
 Octapole moment (field-independent basis, Debye-Ang**2):
  XXX=             -0.0000  YYY=             -0.0000  ZZZ=              0.0000  XYY=             -0.0000
  XXY=              0.0000  XXZ=              0.0000  XZZ=             -0.0000  YZZ=             -0.0000
  YYZ=              0.0000  XYZ=              0.0000
 Hexadecapole moment (field-independent basis, Debye-Ang**3):
 XXXX=            -65.4894 YYYY=            -65.4894 ZZZZ=            -34.9803 XXXY=              0.0000
 XXXZ=              0.0000 YYYX=              0.0000 YYYZ=              0.0000 ZZZX=              0.0000
 ZZZY=              0.0000 XXYY=            -21.8298 XXZZ=            -67.4557 YYZZ=            -67.4557
 XXYZ=              0.0000 YYXZ=              0.0000 ZZXY=              0.0000
 N-N= 9.072618563433D+01 E-N=-1.911046075682D+03  KE= 7.206527800014D+02
 Symmetry AG   KE= 4.217079705455D+02
 Symmetry B1G  KE= 1.781262564729D-33
 Symmetry B2G  KE= 1.170924107755D+01
 Symmetry B3G  KE= 1.170924107752D+01
 Symmetry AU   KE= 1.302142213431D-33
 Symmetry B1U  KE= 1.760139816227D+02
 Symmetry B2U  KE= 4.975617283690D+01
 Symmetry B3U  KE= 4.975617284120D+01
   8 Symmetry operations used in ECPInt.
 ECPInt:  NShTT=    1953 NPrTT=    7132 LenC2=    1845 LenP2D=    5355.
 LDataN:  DoStor=T MaxTD1= 9 Len=  602
 Calling FoFJK, ICntrl=      2127 FMM=F ISym2X=1 I1Cent= 0 IOpClX= 0 NMat=1 NMatS=1 NMatT=0.
 ***** Axes restored to original set *****
 -------------------------------------------------------------------
 Center     Atomic                   Forces (Hartrees/Bohr)
 Number     Number              X              Y              Z
 -------------------------------------------------------------------
      1       16           0.000000000   -0.000000000   -0.000000000
      2       11          -0.000000000    0.000000000    0.000999544
      3       11          -0.000000000    0.000000000   -0.000999544
 -------------------------------------------------------------------
 Cartesian Forces:  Max     0.000999544 RMS     0.000471189

 GradGradGradGradGradGradGradGradGradGradGradGradGradGradGradGradGradGrad
 Berny optimization.
 FormGI is forming the generalized inverse of G from B-inverse, IUseBI=4.
 Internal  Forces:  Max     0.000999544 RMS     0.000706784
 Search for a local minimum.
 Step number   1 out of a maximum of   20
 All quantities printed in internal units (Hartrees-Bohrs-Radians)
 Mixed Optimization -- En-DIIS/RFO-DIIS
 Second derivative matrix not updated -- first step.
 The second derivative matrix:
                          R1        R2        A1        A2
           R1           0.11387
           R2           0.00000   0.11387
           A1           0.00000   0.00000   0.02014
           A2           0.00000   0.00000   0.00000   0.02014
 ITU=  0
     Eigenvalues ---    0.02014   0.02014   0.11387   0.11387
 RFO step:  Lambda=-1.75480464D-05 EMin= 2.01405236D-02
 Linear search not attempted -- first point.
 Iteration  1 RMS(Cart)=  0.00620605 RMS(Int)=  0.00000000
 Iteration  2 RMS(Cart)=  0.00000000 RMS(Int)=  0.00000001
 ClnCor:  largest displacement from symmetrization is 2.98D-13 for atom     1.
 Variable       Old X    -DE/DX   Delta X   Delta X   Delta X     New X
                                 (Linear)    (Quad)   (Total)
    R1        4.54665  -0.00100   0.00000  -0.00878  -0.00878   4.53787
    R2        4.54665  -0.00100   0.00000  -0.00878  -0.00878   4.53787
    A1        3.14159   0.00000   0.00000   0.00000   0.00000   3.14159
    A2        3.14159   0.00000   0.00000   0.00000   0.00000   3.14159
         Item               Value     Threshold  Converged?
 Maximum Force            0.001000     0.000450     NO 
 RMS     Force            0.000707     0.000300     NO 
 Maximum Displacement     0.008777     0.001800     NO 
 RMS     Displacement     0.006206     0.001200     NO 
 Predicted change in Energy=-8.774023D-06
 GradGradGradGradGradGradGradGradGradGradGradGradGradGradGradGradGradGrad

                          Input orientation:                          
 ---------------------------------------------------------------------
 Center     Atomic      Atomic             Coordinates (Angstroms)
 Number     Number       Type             X           Y           Z
 ---------------------------------------------------------------------
      1         16           0       10.000000   10.000000   10.000000
      2         11           0       10.000000   10.000000    7.598662
      3         11           0       10.000000   10.000000   12.401338
 ---------------------------------------------------------------------
                    Distance matrix (angstroms):
                    1          2          3
     1  S    0.000000
     2  Na   2.401338   0.000000
     3  Na   2.401338   4.802676   0.000000
 Stoichiometry    Na2S
 Framework group  D*H[O(S),C*(Na.Na)]
 Deg. of freedom     1
 Full point group                 D*H     NOp   8
 Largest Abelian subgroup         D2H     NOp   8
 Largest concise Abelian subgroup C2      NOp   2
                         Standard orientation:                         
 ---------------------------------------------------------------------
 Center     Atomic      Atomic             Coordinates (Angstroms)
 Number     Number       Type             X           Y           Z
 ---------------------------------------------------------------------
      1         16           0        0.000000    0.000000    0.000000
      2         11           0        0.000000    0.000000    2.401338
      3         11           0        0.000000    0.000000   -2.401338
 ---------------------------------------------------------------------
 Rotational constants (GHZ):           0.0000000           1.9061015           1.9061015
 Standard basis: def2QZVPP (5D, 7F)
 There are    59 symmetry adapted cartesian basis functions of AG  symmetry.
 There are    13 symmetry adapted cartesian basis functions of B1G symmetry.
 There are    22 symmetry adapted cartesian basis functions of B2G symmetry.
 There are    22 symmetry adapted cartesian basis functions of B3G symmetry.
 There are     8 symmetry adapted cartesian basis functions of AU  symmetry.
 There are    44 symmetry adapted cartesian basis functions of B1U symmetry.
 There are    27 symmetry adapted cartesian basis functions of B2U symmetry.
 There are    27 symmetry adapted cartesian basis functions of B3U symmetry.
 There are    46 symmetry adapted basis functions of AG  symmetry.
 There are    12 symmetry adapted basis functions of B1G symmetry.
 There are    19 symmetry adapted basis functions of B2G symmetry.
 There are    19 symmetry adapted basis functions of B3G symmetry.
 There are     8 symmetry adapted basis functions of AU  symmetry.
 There are    36 symmetry adapted basis functions of B1U symmetry.
 There are    23 symmetry adapted basis functions of B2U symmetry.
 There are    23 symmetry adapted basis functions of B3U symmetry.
   186 basis functions,   321 primitive gaussians,   222 cartesian basis functions
    19 alpha electrons       19 beta electrons
       nuclear repulsion energy        90.9016587645 Hartrees.
 NAtoms=    3 NActive=    3 NUniq=    2 SFac= 2.25D+00 NAtFMM=   60 NAOKFM=F Big=F
 Integral buffers will be    131072 words long.
 Raffenetti 2 integral format.
 Two-electron integral symmetry is turned on.
 One-electron integrals computed using PRISM.
   8 Symmetry operations used in ECPInt.
 ECPInt:  NShTT=    1953 NPrTT=    7132 LenC2=    1845 LenP2D=    5355.
 LDataN:  DoStor=T MaxTD1= 8 Len=  415
 NBasis=   186 RedAO= T EigKep=  6.25D-04  NBF=    46    12    19    19     8    36    23    23
 NBsUse=   186 1.00D-06 EigRej= -1.00D+00 NBFU=    46    12    19    19     8    36    23    23
 Initial guess from the checkpoint file:  "/data/hutter/SMG16/PBE0/Gau-87882.chk"
 B after Tr=     0.000000    0.000000    0.000000
         Rot=    1.000000    0.000000    0.000000    0.000000 Ang=   0.00 deg.
 Initial guess orbital symmetries:
       Occupied  (SGG) (SGU) (SGG) (SGG) (SGU) (PIU) (PIU) (SGG)
                 (SGU) (PIU) (PIU) (PIG) (PIG) (SGG) (SGU) (SGG)
                 (SGU) (PIU) (PIU)
       Virtual   (SGG) (SGU) (PIG) (PIG) (PIU) (PIU) (SGG) (SGU)
                 (SGG) (SGU) (PIG) (PIG) (PIU) (PIU) (SGG) (SGU)
                 (SGG) (DLTG) (DLTG) (DLTU) (DLTU) (SGU) (PIG)
                 (PIG) (PIU) (PIU) (SGG) (SGU) (PIG) (PIG) (PIU)
                 (PIU) (SGG) (DLTG) (DLTG) (PIU) (PIU) (SGU) (PIG)
                 (PIG) (SGG) (PHIU) (PHIU) (PHIG) (PHIG) (DLTU)
                 (DLTU) (SGG) (SGU) (DLTG) (DLTG) (PIG) (PIG) (PIU)
                 (PIU) (DLTU) (DLTU) (DLTG) (DLTG) (SGG) (PIU)
                 (PIU) (SGU) (PIG) (PIG) (SGU) (SGG) (PIG) (PIG)
                 (PIU) (PIU) (SGU) (SGG) (DLTG) (DLTG) (PHIU) (PHIU)
                 (SGG) (PIU) (PIU) (SGU) (DLTU) (DLTU) (PIG) (PIG)
                 (SGU) (PIU) (PIU) (SGG) (SGU) (SGG) (DLTG) (DLTG)
                 (PIG) (PIG) (SGG) (PHIG) (PHIG) (?A) (?A) (DLTG)
                 (DLTG) (PIG) (PIG) (PHIU) (PHIU) (DLTU) (DLTU)
                 (SGG) (DLTG) (DLTG) (PIU) (PIU) (SGU) (DLTU) (DLTU)
                 (PIG) (PIG) (PIU) (PIU) (SGG) (SGU) (PIU) (PIU)
                 (SGU) (SGG) (SGU) (SGG) (DLTG) (DLTG) (PIG) (PIG)
                 (SGG) (DLTG) (DLTG) (DLTU) (DLTU) (PIU) (PIU)
                 (PIG) (PIG) (SGU) (SGG) (PHIG) (PHIG) (PHIU) (PHIU)
                 (DLTU) (DLTU) (DLTG) (DLTG) (PIG) (PIG) (PIU)
                 (PIU) (SGG) (SGU) (SGG) (SGU) (SGG) (PIU) (PIU)
                 (SGU) (SGG) (SGG) (SGU) (SGG)
 Keep R1 ints in memory in symmetry-blocked form, NReq=170717461.
 Requested convergence on RMS density matrix=1.00D-08 within 128 cycles.
 Requested convergence on MAX density matrix=1.00D-06.
 Requested convergence on             energy=1.00D-06.
 No special actions if energy rises.
 SCF Done:  E(RPBE1PBE) =  -722.523120290     A.U. after    6 cycles
            NFock=  6  Conv=0.53D-08     -V/T= 2.0026
   8 Symmetry operations used in ECPInt.
 ECPInt:  NShTT=    1953 NPrTT=    7132 LenC2=    1845 LenP2D=    5355.
 LDataN:  DoStor=T MaxTD1= 9 Len=  602
 Calling FoFJK, ICntrl=      2127 FMM=F ISym2X=1 I1Cent= 0 IOpClX= 0 NMat=1 NMatS=1 NMatT=0.
 ***** Axes restored to original set *****
 -------------------------------------------------------------------
 Center     Atomic                   Forces (Hartrees/Bohr)
 Number     Number              X              Y              Z
 -------------------------------------------------------------------
      1       16           0.000000000   -0.000000000   -0.000000000
      2       11          -0.000000000    0.000000000    0.000394293
      3       11          -0.000000000    0.000000000   -0.000394293
 -------------------------------------------------------------------
 Cartesian Forces:  Max     0.000394293 RMS     0.000185872

 GradGradGradGradGradGradGradGradGradGradGradGradGradGradGradGradGradGrad
 Berny optimization.
 Using GEDIIS/GDIIS optimizer.
 Internal  Forces:  Max     0.000394293 RMS     0.000278807
 Search for a local minimum.
 Step number   2 out of a maximum of   20
 All quantities printed in internal units (Hartrees-Bohrs-Radians)
 Mixed Optimization -- En-DIIS/RFO-DIIS
 Swapping is turned off.
 Update second derivatives using D2CorX and points    1    2
 DE= -1.22D-05 DEPred=-8.77D-06 R= 1.40D+00
 TightC=F SS=  1.41D+00  RLast= 1.24D-02 DXNew= 5.0454D-01 3.7236D-02
 Trust test= 1.40D+00 RLast= 1.24D-02 DXMaxT set to 3.00D-01
 The second derivative matrix:
                          R1        R2        A1        A2
           R1           0.09142
           R2          -0.02245   0.09142
           A1           0.00000   0.00000   0.02014
           A2           0.00000   0.00000   0.00000   0.02014
 ITU=  1  0
     Eigenvalues ---    0.02014   0.02014   0.06896   0.11387
 En-DIIS/RFO-DIIS/Sim-DIIS IScMMF=       -3 using points:     2    1
 RFO step:  Lambda=-4.50862449D-06.
 DidBck=F Rises=F RFO-DIIS coefs:    1.65145   -0.65145
 Iteration  1 RMS(Cart)=  0.00404296 RMS(Int)=  0.00000000
 Iteration  2 RMS(Cart)=  0.00000000 RMS(Int)=  0.00000000
 ClnCor:  largest displacement from symmetrization is 3.04D-13 for atom     1.
 Variable       Old X    -DE/DX   Delta X   Delta X   Delta X     New X
                                 (Linear)    (Quad)   (Total)
    R1        4.53787  -0.00039  -0.00572  -0.00000  -0.00572   4.53215
    R2        4.53787  -0.00039  -0.00572   0.00000  -0.00572   4.53215
    A1        3.14159   0.00000   0.00000   0.00000   0.00000   3.14159
    A2        3.14159   0.00000   0.00000   0.00000   0.00000   3.14159
         Item               Value     Threshold  Converged?
 Maximum Force            0.000394     0.000450     YES
 RMS     Force            0.000279     0.000300     YES
 Maximum Displacement     0.005718     0.001800     NO 
 RMS     Displacement     0.004043     0.001200     NO 
 Predicted change in Energy=-2.254415D-06
 GradGradGradGradGradGradGradGradGradGradGradGradGradGradGradGradGradGrad

                          Input orientation:                          
 ---------------------------------------------------------------------
 Center     Atomic      Atomic             Coordinates (Angstroms)
 Number     Number       Type             X           Y           Z
 ---------------------------------------------------------------------
      1         16           0       10.000000   10.000000   10.000000
      2         11           0       10.000000   10.000000    7.601688
      3         11           0       10.000000   10.000000   12.398312
 ---------------------------------------------------------------------
                    Distance matrix (angstroms):
                    1          2          3
     1  S    0.000000
     2  Na   2.398312   0.000000
     3  Na   2.398312   4.796625   0.000000
 Stoichiometry    Na2S
 Framework group  D*H[O(S),C*(Na.Na)]
 Deg. of freedom     1
 Full point group                 D*H     NOp   8
 Largest Abelian subgroup         D2H     NOp   8
 Largest concise Abelian subgroup C2      NOp   2
                         Standard orientation:                         
 ---------------------------------------------------------------------
 Center     Atomic      Atomic             Coordinates (Angstroms)
 Number     Number       Type             X           Y           Z
 ---------------------------------------------------------------------
      1         16           0        0.000000    0.000000    0.000000
      2         11           0        0.000000    0.000000    2.398312
      3         11           0        0.000000    0.000000   -2.398312
 ---------------------------------------------------------------------
 Rotational constants (GHZ):           0.0000000           1.9109139           1.9109139
 Standard basis: def2QZVPP (5D, 7F)
 There are    59 symmetry adapted cartesian basis functions of AG  symmetry.
 There are    13 symmetry adapted cartesian basis functions of B1G symmetry.
 There are    22 symmetry adapted cartesian basis functions of B2G symmetry.
 There are    22 symmetry adapted cartesian basis functions of B3G symmetry.
 There are     8 symmetry adapted cartesian basis functions of AU  symmetry.
 There are    44 symmetry adapted cartesian basis functions of B1U symmetry.
 There are    27 symmetry adapted cartesian basis functions of B2U symmetry.
 There are    27 symmetry adapted cartesian basis functions of B3U symmetry.
 There are    46 symmetry adapted basis functions of AG  symmetry.
 There are    12 symmetry adapted basis functions of B1G symmetry.
 There are    19 symmetry adapted basis functions of B2G symmetry.
 There are    19 symmetry adapted basis functions of B3G symmetry.
 There are     8 symmetry adapted basis functions of AU  symmetry.
 There are    36 symmetry adapted basis functions of B1U symmetry.
 There are    23 symmetry adapted basis functions of B2U symmetry.
 There are    23 symmetry adapted basis functions of B3U symmetry.
   186 basis functions,   321 primitive gaussians,   222 cartesian basis functions
    19 alpha electrons       19 beta electrons
       nuclear repulsion energy        91.0163371849 Hartrees.
 NAtoms=    3 NActive=    3 NUniq=    2 SFac= 2.25D+00 NAtFMM=   60 NAOKFM=F Big=F
 Integral buffers will be    131072 words long.
 Raffenetti 2 integral format.
 Two-electron integral symmetry is turned on.
 One-electron integrals computed using PRISM.
   8 Symmetry operations used in ECPInt.
 ECPInt:  NShTT=    1953 NPrTT=    7132 LenC2=    1845 LenP2D=    5355.
 LDataN:  DoStor=T MaxTD1= 8 Len=  415
 NBasis=   186 RedAO= T EigKep=  6.23D-04  NBF=    46    12    19    19     8    36    23    23
 NBsUse=   186 1.00D-06 EigRej= -1.00D+00 NBFU=    46    12    19    19     8    36    23    23
 Initial guess from the checkpoint file:  "/data/hutter/SMG16/PBE0/Gau-87882.chk"
 B after Tr=     0.000000    0.000000    0.000000
         Rot=    1.000000    0.000000    0.000000    0.000000 Ang=   0.00 deg.
 Initial guess orbital symmetries:
       Occupied  (SGG) (SGU) (SGG) (SGG) (SGU) (PIU) (PIU) (SGG)
                 (SGU) (PIU) (PIU) (PIG) (PIG) (SGG) (SGU) (SGG)
                 (SGU) (PIU) (PIU)
       Virtual   (SGG) (SGU) (PIG) (PIG) (PIU) (PIU) (SGG) (SGU)
                 (SGG) (SGU) (PIG) (PIG) (PIU) (PIU) (SGG) (SGU)
                 (SGG) (DLTG) (DLTG) (DLTU) (DLTU) (SGU) (PIG)
                 (PIG) (PIU) (PIU) (SGG) (SGU) (PIG) (PIG) (PIU)
                 (PIU) (SGG) (DLTG) (DLTG) (PIU) (PIU) (SGU) (PIG)
                 (PIG) (SGG) (PHIU) (PHIU) (PHIG) (PHIG) (DLTU)
                 (DLTU) (SGG) (SGU) (DLTG) (DLTG) (PIG) (PIG) (PIU)
                 (PIU) (DLTU) (DLTU) (DLTG) (DLTG) (SGG) (PIU)
                 (PIU) (SGU) (PIG) (PIG) (SGU) (SGG) (PIG) (PIG)
                 (PIU) (PIU) (SGU) (SGG) (DLTG) (DLTG) (PHIU) (PHIU)
                 (PIU) (PIU) (SGG) (SGU) (DLTU) (DLTU) (PIG) (PIG)
                 (SGU) (PIU) (PIU) (SGG) (SGU) (SGG) (DLTG) (DLTG)
                 (PIG) (PIG) (SGG) (PHIG) (PHIG) (?A) (?A) (DLTG)
                 (DLTG) (PIG) (PIG) (PHIU) (PHIU) (DLTU) (DLTU)
                 (SGG) (DLTG) (DLTG) (PIU) (PIU) (SGU) (DLTU) (DLTU)
                 (PIG) (PIG) (PIU) (PIU) (SGG) (SGU) (PIU) (PIU)
                 (SGU) (SGG) (SGU) (SGG) (DLTG) (DLTG) (PIG) (PIG)
                 (SGG) (DLTG) (DLTG) (DLTU) (DLTU) (PIU) (PIU)
                 (PIG) (PIG) (SGU) (SGG) (PHIG) (PHIG) (PHIU) (PHIU)
                 (DLTU) (DLTU) (DLTG) (DLTG) (PIG) (PIG) (PIU)
                 (PIU) (SGG) (SGU) (SGG) (SGU) (SGG) (PIU) (PIU)
                 (SGU) (SGG) (SGG) (SGU) (SGG)
 Keep R1 ints in memory in symmetry-blocked form, NReq=170717461.
 Requested convergence on RMS density matrix=1.00D-08 within 128 cycles.
 Requested convergence on MAX density matrix=1.00D-06.
 Requested convergence on             energy=1.00D-06.
 No special actions if energy rises.
 SCF Done:  E(RPBE1PBE) =  -722.523122516     A.U. after    6 cycles
            NFock=  6  Conv=0.35D-08     -V/T= 2.0026
   8 Symmetry operations used in ECPInt.
 ECPInt:  NShTT=    1953 NPrTT=    7132 LenC2=    1845 LenP2D=    5355.
 LDataN:  DoStor=T MaxTD1= 9 Len=  602
 Calling FoFJK, ICntrl=      2127 FMM=F ISym2X=1 I1Cent= 0 IOpClX= 0 NMat=1 NMatS=1 NMatT=0.
 ***** Axes restored to original set *****
 -------------------------------------------------------------------
 Center     Atomic                   Forces (Hartrees/Bohr)
 Number     Number              X              Y              Z
 -------------------------------------------------------------------
      1       16           0.000000000   -0.000000000    0.000000000
      2       11          -0.000000000    0.000000000   -0.000005732
      3       11          -0.000000000    0.000000000    0.000005732
 -------------------------------------------------------------------
 Cartesian Forces:  Max     0.000005732 RMS     0.000002702

 GradGradGradGradGradGradGradGradGradGradGradGradGradGradGradGradGradGrad
 Berny optimization.
 Using GEDIIS/GDIIS optimizer.
 Internal  Forces:  Max     0.000005732 RMS     0.000004053
 Search for a local minimum.
 Step number   3 out of a maximum of   20
 All quantities printed in internal units (Hartrees-Bohrs-Radians)
 Mixed Optimization -- En-DIIS/RFO-DIIS
 Swapping is turned off.
 Update second derivatives using D2CorX and points    1    2    3
 DE= -2.23D-06 DEPred=-2.25D-06 R= 9.87D-01
 TightC=F SS=  1.41D+00  RLast= 8.09D-03 DXNew= 5.0454D-01 2.4258D-02
 Trust test= 9.87D-01 RLast= 8.09D-03 DXMaxT set to 3.00D-01
 The second derivative matrix:
                          R1        R2        A1        A2
           R1           0.09192
           R2          -0.02195   0.09192
           A1           0.00000   0.00000   0.02014
           A2           0.00000   0.00000   0.00000   0.02014
 ITU=  1  1  0
     Eigenvalues ---    0.02014   0.02014   0.06996   0.11387
 En-DIIS/RFO-DIIS/Sim-DIIS IScMMF=       -3 using points:     3    2    1
 RFO step:  Lambda=-6.58376970D-10.
 DIIS inversion failure, remove point   3.
 RFO-DIIS uses    2 points instead of    3
 DidBck=F Rises=F RFO-DIIS coefs:    0.98567    0.01433    0.00000
 Iteration  1 RMS(Cart)=  0.00005794 RMS(Int)=  0.00000000
 Iteration  2 RMS(Cart)=  0.00000000 RMS(Int)=  0.00000000
 ClnCor:  largest displacement from symmetrization is 2.97D-13 for atom     1.
 Variable       Old X    -DE/DX   Delta X   Delta X   Delta X     New X
                                 (Linear)    (Quad)   (Total)
    R1        4.53215   0.00001   0.00008   0.00000   0.00008   4.53224
    R2        4.53215   0.00001   0.00008  -0.00000   0.00008   4.53224
    A1        3.14159   0.00000   0.00000   0.00000   0.00000   3.14159
    A2        3.14159   0.00000   0.00000   0.00000   0.00000   3.14159
         Item               Value     Threshold  Converged?
 Maximum Force            0.000006     0.000450     YES
 RMS     Force            0.000004     0.000300     YES
 Maximum Displacement     0.000082     0.001800     YES
 RMS     Displacement     0.000058     0.001200     YES
 Predicted change in Energy=-4.696811D-10
 Optimization completed.
    -- Stationary point found.
                           ----------------------------
                           !   Optimized Parameters   !
                           ! (Angstroms and Degrees)  !
 --------------------------                            --------------------------
 ! Name  Definition              Value          Derivative Info.                !
 --------------------------------------------------------------------------------
 ! R1    R(1,2)                  2.3983         -DE/DX =    0.0                 !
 ! R2    R(1,3)                  2.3983         -DE/DX =    0.0                 !
 ! A1    L(2,1,3,-1,-1)        180.0            -DE/DX =    0.0                 !
 ! A2    L(2,1,3,-2,-2)        180.0            -DE/DX =    0.0                 !
 --------------------------------------------------------------------------------
 GradGradGradGradGradGradGradGradGradGradGradGradGradGradGradGradGradGrad

                          Input orientation:                          
 ---------------------------------------------------------------------
 Center     Atomic      Atomic             Coordinates (Angstroms)
 Number     Number       Type             X           Y           Z
 ---------------------------------------------------------------------
      1         16           0       10.000000   10.000000   10.000000
      2         11           0       10.000000   10.000000    7.601688
      3         11           0       10.000000   10.000000   12.398312
 ---------------------------------------------------------------------
                    Distance matrix (angstroms):
                    1          2          3
     1  S    0.000000
     2  Na   2.398312   0.000000
     3  Na   2.398312   4.796625   0.000000
 Stoichiometry    Na2S
 Framework group  D*H[O(S),C*(Na.Na)]
 Deg. of freedom     1
 Full point group                 D*H     NOp   8
 Largest Abelian subgroup         D2H     NOp   8
 Largest concise Abelian subgroup C2      NOp   2
                         Standard orientation:                         
 ---------------------------------------------------------------------
 Center     Atomic      Atomic             Coordinates (Angstroms)
 Number     Number       Type             X           Y           Z
 ---------------------------------------------------------------------
      1         16           0        0.000000    0.000000    0.000000
      2         11           0        0.000000    0.000000    2.398312
      3         11           0        0.000000    0.000000   -2.398312
 ---------------------------------------------------------------------
 Rotational constants (GHZ):           0.0000000           1.9109139           1.9109139

 **********************************************************************

            Population analysis using the SCF Density.

 **********************************************************************

 Orbital symmetries:
       Occupied  (SGG) (SGU) (SGG) (SGG) (SGU) (PIU) (PIU) (SGG)
                 (SGU) (PIU) (PIU) (PIG) (PIG) (SGG) (SGU) (SGG)
                 (SGU) (PIU) (PIU)
       Virtual   (SGG) (SGU) (PIG) (PIG) (PIU) (PIU) (SGG) (SGU)
                 (SGG) (SGU) (PIG) (PIG) (PIU) (PIU) (SGG) (SGU)
                 (SGG) (DLTG) (DLTG) (DLTU) (DLTU) (SGU) (PIG)
                 (PIG) (PIU) (PIU) (SGG) (SGU) (PIG) (PIG) (PIU)
                 (PIU) (SGG) (DLTG) (DLTG) (PIU) (PIU) (SGU) (PIG)
                 (PIG) (SGG) (PHIU) (PHIU) (PHIG) (PHIG) (DLTU)
                 (DLTU) (SGG) (SGU) (DLTG) (DLTG) (PIG) (PIG) (PIU)
                 (PIU) (DLTU) (DLTU) (DLTG) (DLTG) (SGG) (PIU)
                 (PIU) (SGU) (PIG) (PIG) (SGU) (SGG) (PIG) (PIG)
                 (PIU) (PIU) (SGU) (SGG) (DLTG) (DLTG) (PHIU) (PHIU)
                 (PIU) (PIU) (SGG) (SGU) (DLTU) (DLTU) (PIG) (PIG)
                 (SGU) (PIU) (PIU) (SGG) (SGG) (SGU) (DLTG) (DLTG)
                 (PIG) (PIG) (SGG) (PHIG) (PHIG) (?A) (?A) (DLTG)
                 (DLTG) (PIG) (PIG) (PHIU) (PHIU) (DLTU) (DLTU)
                 (SGG) (DLTG) (DLTG) (SGU) (PIU) (PIU) (DLTU) (DLTU)
                 (PIG) (PIG) (PIU) (PIU) (SGG) (SGU) (PIU) (PIU)
                 (SGU) (SGG) (SGU) (SGG) (DLTG) (DLTG) (PIG) (PIG)
                 (SGG) (DLTG) (DLTG) (DLTU) (DLTU) (PIU) (PIU)
                 (PIG) (PIG) (SGU) (SGG) (PHIG) (PHIG) (PHIU) (PHIU)
                 (DLTU) (DLTU) (DLTG) (DLTG) (PIG) (PIG) (PIU)
                 (PIU) (SGG) (SGU) (SGG) (SGU) (SGG) (PIU) (PIU)
                 (SGU) (SGG) (SGG) (SGU) (SGG)
 The electronic state is 1-SGG.
 Alpha  occ. eigenvalues --  -88.85797 -38.56401 -38.56401  -7.83687  -5.77115
 Alpha  occ. eigenvalues --   -5.76947  -5.76947  -2.24031  -2.24031  -1.15277
 Alpha  occ. eigenvalues --   -1.15277  -1.15276  -1.15276  -1.15135  -1.15125
 Alpha  occ. eigenvalues --   -0.52672  -0.17279  -0.13822  -0.13822
 Alpha virt. eigenvalues --   -0.04081  -0.02791   0.01818   0.01818   0.01851
 Alpha virt. eigenvalues --    0.01851   0.02667   0.03151   0.03277   0.05238
 Alpha virt. eigenvalues --    0.07751   0.07751   0.08093   0.08093   0.11170
 Alpha virt. eigenvalues --    0.12752   0.16237   0.16253   0.16253   0.18302
 Alpha virt. eigenvalues --    0.18302   0.18630   0.20261   0.20261   0.20680
 Alpha virt. eigenvalues --    0.20680   0.20754   0.27064   0.28785   0.28785
 Alpha virt. eigenvalues --    0.29124   0.29124   0.33653   0.37820   0.37820
 Alpha virt. eigenvalues --    0.39907   0.39907   0.40143   0.46179   0.46179
 Alpha virt. eigenvalues --    0.46892   0.49124   0.49124   0.49743   0.49743
 Alpha virt. eigenvalues --    0.50752   0.50752   0.54982   0.57797   0.60387
 Alpha virt. eigenvalues --    0.60387   0.60791   0.60791   0.64935   0.64935
 Alpha virt. eigenvalues --    0.65802   0.65802   0.65899   0.65899   0.67963
 Alpha virt. eigenvalues --    0.70299   0.70299   0.72306   0.87176   0.87176
 Alpha virt. eigenvalues --    0.91016   0.99800   1.00722   1.00722   1.03600
 Alpha virt. eigenvalues --    1.03600   1.05416   1.05996   1.18273   1.18273
 Alpha virt. eigenvalues --    1.19465   1.19465   1.21405   1.21405   1.21802
 Alpha virt. eigenvalues --    1.25534   1.30799   1.30799   1.40200   1.40200
 Alpha virt. eigenvalues --    1.45987   1.54223   1.54223   1.65156   2.02225
 Alpha virt. eigenvalues --    2.02491   2.84498   2.84498   2.95729   2.95729
 Alpha virt. eigenvalues --    2.99596   3.12563   3.12563   3.13257   3.13257
 Alpha virt. eigenvalues --    3.13853   3.13853   3.22105   3.22105   3.33089
 Alpha virt. eigenvalues --    3.33089   3.38808   3.38808   3.40891   3.45709
 Alpha virt. eigenvalues --    3.45709   3.46243   3.46432   3.46432   3.47669
 Alpha virt. eigenvalues --    3.47670   3.57853   3.57853   3.58181   3.58181
 Alpha virt. eigenvalues --    3.68876   3.74761   3.79113   3.79113   4.22405
 Alpha virt. eigenvalues --    5.78461   5.80292   7.11263   8.85479   8.85480
 Alpha virt. eigenvalues --    8.97157   8.97157   9.01066  14.09557  14.09557
 Alpha virt. eigenvalues --   14.09965  14.09965  14.12813  14.12813  14.14436
 Alpha virt. eigenvalues --   14.14436  14.22404  14.23624  14.59315  14.59315
 Alpha virt. eigenvalues --   14.59315  14.59315  14.59463  14.59463  14.59473
 Alpha virt. eigenvalues --   14.59473  14.59601  14.59601  14.59722  14.59722
 Alpha virt. eigenvalues --   14.60297  14.61197  21.12691  21.13701  24.27602
 Alpha virt. eigenvalues --   28.94937  28.94937  29.13616  83.83589 126.47348
 Alpha virt. eigenvalues --  126.50052 450.63143
          Condensed to atoms (all electrons):
               1          2          3
     1  S   16.142802   0.366006   0.366006
     2  Na   0.366006  10.234808  -0.038220
     3  Na   0.366006  -0.038220  10.234808
 Mulliken charges:
               1
     1  S   -0.874813
     2  Na   0.437407
     3  Na   0.437407
 Sum of Mulliken charges =   0.00000
 Mulliken charges with hydrogens summed into heavy atoms:
               1
     1  S   -0.874813
     2  Na   0.437407
     3  Na   0.437407
 Electronic spatial extent (au):  <R**2>=            484.3365
 Charge=              0.0000 electrons
 Dipole moment (field-independent basis, Debye):
    X=             -0.0000    Y=             -0.0000    Z=              0.0000  Tot=              0.0000
 Quadrupole moment (field-independent basis, Debye-Ang):
   XX=            -30.4034   YY=            -30.4034   ZZ=             17.1641
   XY=              0.0000   XZ=              0.0000   YZ=              0.0000
 Traceless Quadrupole moment (field-independent basis, Debye-Ang):
   XX=            -15.8558   YY=            -15.8558   ZZ=             31.7117
   XY=              0.0000   XZ=              0.0000   YZ=              0.0000
 Octapole moment (field-independent basis, Debye-Ang**2):
  XXX=             -0.0000  YYY=             -0.0000  ZZZ=              0.0000  XYY=             -0.0000
  XXY=             -0.0000  XXZ=             -0.0000  XZZ=             -0.0000  YZZ=             -0.0000
  YYZ=              0.0000  XYZ=              0.0000
 Hexadecapole moment (field-independent basis, Debye-Ang**3):
 XXXX=            -65.3110 YYYY=            -65.3110 ZZZZ=            -36.4554 XXXY=             -0.0000
 XXXZ=              0.0000 YYYX=             -0.0000 YYYZ=              0.0000 ZZZX=              0.0000
 ZZZY=              0.0000 XXYY=            -21.7703 XXZZ=            -67.0402 YYZZ=            -67.0402
 XXYZ=              0.0000 YYXZ=              0.0000 ZZXY=              0.0000
 N-N= 9.101633718493D+01 E-N=-1.911642963086D+03  KE= 7.206620960723D+02
 Symmetry AG   KE= 4.217079927300D+02
 Symmetry B1G  KE= 1.816315052308D-33
 Symmetry B2G  KE= 1.170874346134D+01
 Symmetry B3G  KE= 1.170874346134D+01
 Symmetry AU   KE= 1.324885664376D-33
 Symmetry B1U  KE= 1.760242438586D+02
 Symmetry B2U  KE= 4.975618628050D+01
 Symmetry B3U  KE= 4.975618628050D+01
 Unable to Open any file for archive entry.
 1\1\GINC-TCOPT10\FOpt\RPBE1PBE\def2QZVPP\Na2S1\HUTTER\01-Aug-2021\0\\#
 N RPBE1PBE/Def2QZVPP scf=tight Int(Grid=ultrafine) OPT FREQ\\Mol job 1
 \\0,1\S,10.,10.,10.\Na,10.,10.,7.6016877161\Na,10.,10.,12.3983122839\\
 Version=ES64L-G16RevC.01\State=1-SGG\HF=-722.5231225\RMSD=3.518e-09\RM
 SF=2.702e-06\Dipole=0.,0.,0.\Quadrupole=-11.7884311,-11.7884311,23.576
 8622,0.,0.,0.\PG=D*H [O(S1),C*(Na1.Na1)]\\@
 The archive entry for this job was punched.


 Life may have no meaning.  Or even worse, it may have a
 meaning of which I disapprove.
                                 -- Ashleigh Brilliant
 Job cpu time:       0 days  0 hours  6 minutes 30.5 seconds.
 Elapsed time:       0 days  0 hours  1 minutes 17.5 seconds.
 File lengths (MBytes):  RWF=     22 Int=      0 D2E=      0 Chk=      4 Scr=      1
 Normal termination of Gaussian 16 at Sun Aug  1 12:45:08 2021.
 Link1:  Proceeding to internal job step number  2.
 ----------------------------------------------------------------------
 #N Geom=AllCheck Guess=TCheck SCRF=Check GenChk RPBE1PBE/def2QZVPP Fre
 q
 ----------------------------------------------------------------------
 1/10=4,29=7,30=1,38=1,40=1/1,3;
 2/12=2,40=1/2;
 3/5=45,7=202,11=2,14=-4,25=1,30=1,70=2,71=2,74=-13,75=-5,116=1,140=1/1,2,3;
 4/5=101/1;
 5/5=2,32=2,38=6,98=1/2;
 8/6=4,10=90,11=11/1;
 11/6=1,8=1,9=11,15=111,16=1/1,2,10;
 10/6=1/2;
 6/7=2,8=2,9=2,10=2,28=1/1;
 7/8=1,10=1,25=1/1,2,3,16;
 1/10=4,30=1/3;
 99//99;
 Structure from the checkpoint file:  "/data/hutter/SMG16/PBE0/Gau-87882.chk"
 ---------
 Mol job 1
 ---------
 Charge =  0 Multiplicity = 1
 Redundant internal coordinates found in file.  (old form).
 S,0,10.,10.,10.
 Na,0,10.,10.,7.6016877161
 Na,0,10.,10.,12.3983122839
 Recover connectivity data from disk.

 GradGradGradGradGradGradGradGradGradGradGradGradGradGradGradGradGradGrad
 Berny optimization.
 Initialization pass.
                           ----------------------------
                           !    Initial Parameters    !
                           ! (Angstroms and Degrees)  !
 --------------------------                            --------------------------
 ! Name  Definition              Value          Derivative Info.                !
 --------------------------------------------------------------------------------
 ! R1    R(1,2)                  2.3983         calculate D2E/DX2 analytically  !
 ! R2    R(1,3)                  2.3983         calculate D2E/DX2 analytically  !
 ! A1    L(2,1,3,-1,-1)        180.0            calculate D2E/DX2 analytically  !
 ! A2    L(2,1,3,-2,-2)        180.0            calculate D2E/DX2 analytically  !
 --------------------------------------------------------------------------------
 Trust Radius=3.00D-01 FncErr=1.00D-07 GrdErr=1.00D-07 EigMax=2.50D+02 EigMin=1.00D-04
 Number of steps in this run=      2 maximum allowed number of steps=      2.
 GradGradGradGradGradGradGradGradGradGradGradGradGradGradGradGradGradGrad

                          Input orientation:                          
 ---------------------------------------------------------------------
 Center     Atomic      Atomic             Coordinates (Angstroms)
 Number     Number       Type             X           Y           Z
 ---------------------------------------------------------------------
      1         16           0       10.000000   10.000000   10.000000
      2         11           0       10.000000   10.000000    7.601688
      3         11           0       10.000000   10.000000   12.398312
 ---------------------------------------------------------------------
                    Distance matrix (angstroms):
                    1          2          3
     1  S    0.000000
     2  Na   2.398312   0.000000
     3  Na   2.398312   4.796625   0.000000
 Stoichiometry    Na2S
 Framework group  D*H[O(S),C*(Na.Na)]
 Deg. of freedom     1
 Full point group                 D*H     NOp   8
 Largest Abelian subgroup         D2H     NOp   8
 Largest concise Abelian subgroup C2      NOp   2
                         Standard orientation:                         
 ---------------------------------------------------------------------
 Center     Atomic      Atomic             Coordinates (Angstroms)
 Number     Number       Type             X           Y           Z
 ---------------------------------------------------------------------
      1         16           0        0.000000    0.000000    0.000000
      2         11           0        0.000000    0.000000    2.398312
      3         11           0        0.000000    0.000000   -2.398312
 ---------------------------------------------------------------------
 Rotational constants (GHZ):           0.0000000           1.9109139           1.9109139
 Standard basis: def2QZVPP (5D, 7F)
 There are    59 symmetry adapted cartesian basis functions of AG  symmetry.
 There are    13 symmetry adapted cartesian basis functions of B1G symmetry.
 There are    22 symmetry adapted cartesian basis functions of B2G symmetry.
 There are    22 symmetry adapted cartesian basis functions of B3G symmetry.
 There are     8 symmetry adapted cartesian basis functions of AU  symmetry.
 There are    44 symmetry adapted cartesian basis functions of B1U symmetry.
 There are    27 symmetry adapted cartesian basis functions of B2U symmetry.
 There are    27 symmetry adapted cartesian basis functions of B3U symmetry.
 There are    46 symmetry adapted basis functions of AG  symmetry.
 There are    12 symmetry adapted basis functions of B1G symmetry.
 There are    19 symmetry adapted basis functions of B2G symmetry.
 There are    19 symmetry adapted basis functions of B3G symmetry.
 There are     8 symmetry adapted basis functions of AU  symmetry.
 There are    36 symmetry adapted basis functions of B1U symmetry.
 There are    23 symmetry adapted basis functions of B2U symmetry.
 There are    23 symmetry adapted basis functions of B3U symmetry.
   186 basis functions,   321 primitive gaussians,   222 cartesian basis functions
    19 alpha electrons       19 beta electrons
       nuclear repulsion energy        91.0163371849 Hartrees.
 NAtoms=    3 NActive=    3 NUniq=    2 SFac= 2.25D+00 NAtFMM=   60 NAOKFM=F Big=F
 Integral buffers will be    131072 words long.
 Raffenetti 2 integral format.
 Two-electron integral symmetry is turned on.
 One-electron integrals computed using PRISM.
   8 Symmetry operations used in ECPInt.
 ECPInt:  NShTT=    1953 NPrTT=    7132 LenC2=    1845 LenP2D=    5355.
 LDataN:  DoStor=T MaxTD1= 8 Len=  415
 NBasis=   186 RedAO= T EigKep=  6.23D-04  NBF=    46    12    19    19     8    36    23    23
 NBsUse=   186 1.00D-06 EigRej= -1.00D+00 NBFU=    46    12    19    19     8    36    23    23
 Initial guess from the checkpoint file:  "/data/hutter/SMG16/PBE0/Gau-87882.chk"
 B after Tr=     0.000000    0.000000    0.000000
         Rot=    1.000000    0.000000    0.000000    0.000000 Ang=   0.00 deg.
 Initial guess orbital symmetries:
       Occupied  (SGG) (SGU) (SGG) (SGG) (SGU) (PIU) (PIU) (SGG)
                 (SGU) (PIU) (PIU) (PIG) (PIG) (SGG) (SGU) (SGG)
                 (SGU) (PIU) (PIU)
       Virtual   (SGG) (SGU) (PIG) (PIG) (PIU) (PIU) (SGG) (SGU)
                 (SGG) (SGU) (PIG) (PIG) (PIU) (PIU) (SGG) (SGU)
                 (SGG) (DLTG) (DLTG) (DLTU) (DLTU) (SGU) (PIG)
                 (PIG) (PIU) (PIU) (SGG) (SGU) (PIG) (PIG) (PIU)
                 (PIU) (SGG) (DLTG) (DLTG) (PIU) (PIU) (SGU) (PIG)
                 (PIG) (SGG) (PHIU) (PHIU) (PHIG) (PHIG) (DLTU)
                 (DLTU) (SGG) (SGU) (DLTG) (DLTG) (PIG) (PIG) (PIU)
                 (PIU) (DLTU) (DLTU) (DLTG) (DLTG) (SGG) (PIU)
                 (PIU) (SGU) (PIG) (PIG) (SGU) (SGG) (PIG) (PIG)
                 (PIU) (PIU) (SGU) (SGG) (DLTG) (DLTG) (PHIU) (PHIU)
                 (PIU) (PIU) (SGG) (SGU) (DLTU) (DLTU) (PIG) (PIG)
                 (SGU) (PIU) (PIU) (SGG) (SGG) (SGU) (DLTG) (DLTG)
                 (PIG) (PIG) (SGG) (PHIG) (PHIG) (?A) (?A) (DLTG)
                 (DLTG) (PIG) (PIG) (PHIU) (PHIU) (DLTU) (DLTU)
                 (SGG) (DLTG) (DLTG) (SGU) (PIU) (PIU) (DLTU) (DLTU)
                 (PIG) (PIG) (PIU) (PIU) (SGG) (SGU) (PIU) (PIU)
                 (SGU) (SGG) (SGU) (SGG) (DLTG) (DLTG) (PIG) (PIG)
                 (SGG) (DLTG) (DLTG) (DLTU) (DLTU) (PIU) (PIU)
                 (PIG) (PIG) (SGU) (SGG) (PHIG) (PHIG) (PHIU) (PHIU)
                 (DLTU) (DLTU) (DLTG) (DLTG) (PIG) (PIG) (PIU)
                 (PIU) (SGG) (SGU) (SGG) (SGU) (SGG) (PIU) (PIU)
                 (SGU) (SGG) (SGG) (SGU) (SGG)
 Keep R1 ints in memory in symmetry-blocked form, NReq=170717461.
 Requested convergence on RMS density matrix=1.00D-08 within 128 cycles.
 Requested convergence on MAX density matrix=1.00D-06.
 Requested convergence on             energy=1.00D-06.
 No special actions if energy rises.
 SCF Done:  E(RPBE1PBE) =  -722.523122516     A.U. after    1 cycles
            NFock=  1  Conv=0.11D-08     -V/T= 2.0026
 DoSCS=F DFT=T ScalE2(SS,OS)=  1.000000  1.000000
 Range of M.O.s used for correlation:     1   186
 NBasis=   186 NAE=    19 NBE=    19 NFC=     0 NFV=     0
 NROrb=    186 NOA=    19 NOB=    19 NVA=   167 NVB=   167

 **** Warning!!: The largest alpha MO coefficient is  0.16815029D+02


 **** Warning!!: The smallest alpha delta epsilon is  0.97412908D-01

   8 Symmetry operations used in ECPInt.
 ECPInt:  NShTT=    1953 NPrTT=    7132 LenC2=    1845 LenP2D=    5355.
 LDataN:  DoStor=T MaxTD1= 9 Len=  602
 Symmetrizing basis deriv contribution to polar:
 IMax=3 JMax=2 DiffMx= 0.00D+00
 G2DrvN: will do     4 centers at a time, making    1 passes.
 Calling FoFCou, ICntrl=  3107 FMM=F I1Cent=   0 AccDes= 0.00D+00.
 End of G2Drv F.D. properties file   721 does not exist.
 End of G2Drv F.D. properties file   722 does not exist.
 End of G2Drv F.D. properties file   788 does not exist.
          IDoAtm=111
          Differentiating once with respect to electric field.
                with respect to dipole field.
          Differentiating once with respect to nuclear coordinates.
 Keep R1 ints in memory in symmetry-blocked form, NReq=170719370.
          There are     9 degrees of freedom in the 1st order CPHF.  IDoFFX=4 NUNeed=     9.
      9 vectors produced by pass  0 Test12= 3.53D-14 1.11D-08 XBig12= 2.52D+02 1.24D+01.
 AX will form     9 AO Fock derivatives at one time.
      9 vectors produced by pass  1 Test12= 3.53D-14 1.11D-08 XBig12= 1.62D+01 1.96D+00.
      9 vectors produced by pass  2 Test12= 3.53D-14 1.11D-08 XBig12= 3.86D-01 1.94D-01.
      9 vectors produced by pass  3 Test12= 3.53D-14 1.11D-08 XBig12= 4.20D-03 1.84D-02.
      9 vectors produced by pass  4 Test12= 3.53D-14 1.11D-08 XBig12= 6.59D-05 2.51D-03.
      9 vectors produced by pass  5 Test12= 3.53D-14 1.11D-08 XBig12= 3.96D-07 2.15D-04.
      7 vectors produced by pass  6 Test12= 3.53D-14 1.11D-08 XBig12= 1.47D-09 1.13D-05.
      4 vectors produced by pass  7 Test12= 3.53D-14 1.11D-08 XBig12= 3.91D-12 7.20D-07.
      4 vectors produced by pass  8 Test12= 3.53D-14 1.11D-08 XBig12= 1.23D-14 5.32D-08.
 InvSVY:  IOpt=1 It=  1 EMax= 1.64D-15
 Solved reduced A of dimension    69 with     9 vectors.
 Isotropic polarizability for W=    0.000000      101.29 Bohr**3.
 End of Minotr F.D. properties file   721 does not exist.
 End of Minotr F.D. properties file   722 does not exist.
 End of Minotr F.D. properties file   788 does not exist.

 **********************************************************************

            Population analysis using the SCF Density.

 **********************************************************************

 Orbital symmetries:
       Occupied  (SGG) (SGU) (SGG) (SGG) (SGU) (PIU) (PIU) (SGG)
                 (SGU) (PIU) (PIU) (PIG) (PIG) (SGG) (SGU) (SGG)
                 (SGU) (PIU) (PIU)
       Virtual   (SGG) (SGU) (PIG) (PIG) (PIU) (PIU) (SGG) (SGU)
                 (SGG) (SGU) (PIG) (PIG) (PIU) (PIU) (SGG) (SGU)
                 (SGG) (DLTG) (DLTG) (DLTU) (DLTU) (SGU) (PIG)
                 (PIG) (PIU) (PIU) (SGG) (SGU) (PIG) (PIG) (PIU)
                 (PIU) (SGG) (DLTG) (DLTG) (PIU) (PIU) (SGU) (PIG)
                 (PIG) (SGG) (PHIU) (PHIU) (PHIG) (PHIG) (DLTU)
                 (DLTU) (SGG) (SGU) (DLTG) (DLTG) (PIG) (PIG) (PIU)
                 (PIU) (DLTU) (DLTU) (DLTG) (DLTG) (SGG) (PIU)
                 (PIU) (SGU) (PIG) (PIG) (SGU) (SGG) (PIG) (PIG)
                 (PIU) (PIU) (SGU) (SGG) (DLTG) (DLTG) (PHIU) (PHIU)
                 (PIU) (PIU) (SGG) (SGU) (DLTU) (DLTU) (PIG) (PIG)
                 (SGU) (PIU) (PIU) (SGG) (SGG) (SGU) (DLTG) (DLTG)
                 (PIG) (PIG) (SGG) (PHIG) (PHIG) (?A) (?A) (DLTG)
                 (DLTG) (PIG) (PIG) (PHIU) (PHIU) (DLTU) (DLTU)
                 (SGG) (DLTG) (DLTG) (SGU) (PIU) (PIU) (DLTU) (DLTU)
                 (PIG) (PIG) (PIU) (PIU) (SGG) (SGU) (PIU) (PIU)
                 (SGU) (SGG) (SGU) (SGG) (DLTG) (DLTG) (PIG) (PIG)
                 (SGG) (DLTG) (DLTG) (DLTU) (DLTU) (PIU) (PIU)
                 (PIG) (PIG) (SGU) (SGG) (PHIG) (PHIG) (PHIU) (PHIU)
                 (DLTU) (DLTU) (DLTG) (DLTG) (PIG) (PIG) (PIU)
                 (PIU) (SGG) (SGU) (SGG) (SGU) (SGG) (PIU) (PIU)
                 (SGU) (SGG) (SGG) (SGU) (SGG)
 The electronic state is 1-SGG.
 Alpha  occ. eigenvalues --  -88.85797 -38.56401 -38.56401  -7.83687  -5.77115
 Alpha  occ. eigenvalues --   -5.76947  -5.76947  -2.24031  -2.24031  -1.15277
 Alpha  occ. eigenvalues --   -1.15277  -1.15276  -1.15276  -1.15135  -1.15125
 Alpha  occ. eigenvalues --   -0.52672  -0.17279  -0.13822  -0.13822
 Alpha virt. eigenvalues --   -0.04081  -0.02791   0.01818   0.01818   0.01851
 Alpha virt. eigenvalues --    0.01851   0.02667   0.03151   0.03277   0.05238
 Alpha virt. eigenvalues --    0.07751   0.07751   0.08093   0.08093   0.11170
 Alpha virt. eigenvalues --    0.12752   0.16237   0.16253   0.16253   0.18302
 Alpha virt. eigenvalues --    0.18302   0.18630   0.20261   0.20261   0.20680
 Alpha virt. eigenvalues --    0.20680   0.20754   0.27064   0.28785   0.28785
 Alpha virt. eigenvalues --    0.29124   0.29124   0.33653   0.37820   0.37820
 Alpha virt. eigenvalues --    0.39907   0.39907   0.40143   0.46179   0.46179
 Alpha virt. eigenvalues --    0.46892   0.49124   0.49124   0.49743   0.49743
 Alpha virt. eigenvalues --    0.50752   0.50752   0.54982   0.57797   0.60387
 Alpha virt. eigenvalues --    0.60387   0.60791   0.60791   0.64935   0.64935
 Alpha virt. eigenvalues --    0.65802   0.65802   0.65899   0.65899   0.67963
 Alpha virt. eigenvalues --    0.70299   0.70299   0.72306   0.87176   0.87176
 Alpha virt. eigenvalues --    0.91016   0.99800   1.00722   1.00722   1.03600
 Alpha virt. eigenvalues --    1.03600   1.05416   1.05996   1.18273   1.18273
 Alpha virt. eigenvalues --    1.19465   1.19465   1.21405   1.21405   1.21802
 Alpha virt. eigenvalues --    1.25534   1.30799   1.30799   1.40200   1.40200
 Alpha virt. eigenvalues --    1.45987   1.54223   1.54223   1.65156   2.02225
 Alpha virt. eigenvalues --    2.02491   2.84498   2.84498   2.95729   2.95729
 Alpha virt. eigenvalues --    2.99596   3.12563   3.12563   3.13257   3.13257
 Alpha virt. eigenvalues --    3.13853   3.13853   3.22105   3.22105   3.33089
 Alpha virt. eigenvalues --    3.33089   3.38808   3.38808   3.40891   3.45709
 Alpha virt. eigenvalues --    3.45709   3.46243   3.46432   3.46432   3.47669
 Alpha virt. eigenvalues --    3.47670   3.57853   3.57853   3.58181   3.58181
 Alpha virt. eigenvalues --    3.68876   3.74761   3.79113   3.79113   4.22405
 Alpha virt. eigenvalues --    5.78461   5.80292   7.11263   8.85479   8.85480
 Alpha virt. eigenvalues --    8.97157   8.97157   9.01066  14.09557  14.09557
 Alpha virt. eigenvalues --   14.09965  14.09965  14.12813  14.12813  14.14436
 Alpha virt. eigenvalues --   14.14436  14.22404  14.23624  14.59315  14.59315
 Alpha virt. eigenvalues --   14.59315  14.59315  14.59463  14.59463  14.59473
 Alpha virt. eigenvalues --   14.59473  14.59601  14.59601  14.59722  14.59722
 Alpha virt. eigenvalues --   14.60297  14.61197  21.12691  21.13701  24.27602
 Alpha virt. eigenvalues --   28.94937  28.94937  29.13616  83.83589 126.47348
 Alpha virt. eigenvalues --  126.50052 450.63143
          Condensed to atoms (all electrons):
               1          2          3
     1  S   16.142802   0.366006   0.366006
     2  Na   0.366006  10.234808  -0.038220
     3  Na   0.366006  -0.038220  10.234808
 Mulliken charges:
               1
     1  S   -0.874813
     2  Na   0.437407
     3  Na   0.437407
 Sum of Mulliken charges =   0.00000
 Mulliken charges with hydrogens summed into heavy atoms:
               1
     1  S   -0.874813
     2  Na   0.437407
     3  Na   0.437407
 APT charges:
               1
     1  S   -1.232894
     2  Na   0.616447
     3  Na   0.616447
 Sum of APT charges =  -0.00000
 APT charges with hydrogens summed into heavy atoms:
               1
     1  S   -1.232894
     2  Na   0.616447
     3  Na   0.616447
 Electronic spatial extent (au):  <R**2>=            484.3365
 Charge=             -0.0000 electrons
 Dipole moment (field-independent basis, Debye):
    X=              0.0000    Y=              0.0000    Z=              0.0000  Tot=              0.0000
 Quadrupole moment (field-independent basis, Debye-Ang):
   XX=            -30.4034   YY=            -30.4034   ZZ=             17.1641
   XY=             -0.0000   XZ=              0.0000   YZ=              0.0000
 Traceless Quadrupole moment (field-independent basis, Debye-Ang):
   XX=            -15.8558   YY=            -15.8558   ZZ=             31.7117
   XY=             -0.0000   XZ=              0.0000   YZ=              0.0000
 Octapole moment (field-independent basis, Debye-Ang**2):
  XXX=              0.0000  YYY=              0.0000  ZZZ=              0.0000  XYY=              0.0000
  XXY=              0.0000  XXZ=             -0.0000  XZZ=             -0.0000  YZZ=             -0.0000
  YYZ=             -0.0000  XYZ=              0.0000
 Hexadecapole moment (field-independent basis, Debye-Ang**3):
 XXXX=            -65.3110 YYYY=            -65.3110 ZZZZ=            -36.4553 XXXY=             -0.0000
 XXXZ=              0.0000 YYYX=             -0.0000 YYYZ=              0.0000 ZZZX=              0.0000
 ZZZY=              0.0000 XXYY=            -21.7703 XXZZ=            -67.0402 YYZZ=            -67.0402
 XXYZ=              0.0000 YYXZ=              0.0000 ZZXY=             -0.0000
 N-N= 9.101633718493D+01 E-N=-1.911642969362D+03  KE= 7.206620983769D+02
 Symmetry AG   KE= 4.217079931822D+02
 Symmetry B1G  KE= 1.816315084240D-33
 Symmetry B2G  KE= 1.170874357167D+01
 Symmetry B3G  KE= 1.170874357167D+01
 Symmetry AU   KE= 1.324885714545D-33
 Symmetry B1U  KE= 1.760242443140D+02
 Symmetry B2U  KE= 4.975618686866D+01
 Symmetry B3U  KE= 4.975618686866D+01
  Exact polarizability:      79.783       0.000      79.783      -0.000      -0.000     144.296
 Approx polarizability:      88.818      -0.000      88.818      -0.000      -0.000     170.229
   8 Symmetry operations used in ECPInt.
 ECPInt:  NShTT=    1953 NPrTT=    7132 LenC2=    1845 LenP2D=    5355.
 LDataN:  DoStor=T MaxTD1=10 Len=  848
 Calling FoFJK, ICntrl=    100127 FMM=F ISym2X=1 I1Cent= 0 IOpClX= 0 NMat=1 NMatS=1 NMatT=0.
 Full mass-weighted force constant matrix:
 Low frequencies ---  -40.8930  -40.8930   -0.0058   -0.0058   -0.0036    1.8708
 Low frequencies ---    1.8708  284.3836  434.0414
 ******    2 imaginary frequencies (negative Signs) ****** 
 Diagonal vibrational polarizability:
     1037.8308972    1037.8308970      15.8446782
 Harmonic frequencies (cm**-1), IR intensities (KM/Mole), Raman scattering
 activities (A**4/AMU), depolarization ratios for plane and unpolarized
 incident light, reduced masses (AMU), force constants (mDyne/A),
 and normal coordinates:
                      1                      2                      3
                     PIU                    PIU                    SGG
 Frequencies --    -40.8930               -40.8930               284.3836
 Red. masses --     27.5562                27.5562                22.9898
 Frc consts  --      0.0271                 0.0271                 1.0955
 IR Inten    --     64.4898                64.4898                 0.0000
  Atom  AN      X      Y      Z        X      Y      Z        X      Y      Z
     1  16    -0.00   0.71  -0.00     0.71   0.00  -0.00    -0.00  -0.00  -0.00
     2  11     0.00  -0.50   0.00    -0.50  -0.00   0.00     0.00   0.00   0.71
     3  11     0.00  -0.50  -0.00    -0.50  -0.00  -0.00     0.00   0.00  -0.71
                      4
                     SGU
 Frequencies --    434.0414
 Red. masses --     27.5562
 Frc consts  --      3.0587
 IR Inten    --    110.9207
  Atom  AN      X      Y      Z
     1  16     0.00   0.00   0.71
     2  11    -0.00  -0.00  -0.50
     3  11    -0.00  -0.00  -0.50

 -------------------
 - Thermochemistry -
 -------------------
 Temperature   298.150 Kelvin.  Pressure   1.00000 Atm.
 Atom     1 has atomic number 16 and mass  31.97207
 Atom     2 has atomic number 11 and mass  22.98977
 Atom     3 has atomic number 11 and mass  22.98977
 Molecular mass:    77.95161 amu.
 Principal axes and moments of inertia in atomic units:
                           1         2         3
     Eigenvalues --     0.00000 944.43879 944.43879
           X            0.00000  -0.00000   1.00000
           Y            0.00000   1.00000   0.00000
           Z            1.00000   0.00000   0.00000
 This molecule is a prolate symmetric top.
 Rotational symmetry number  2.
 Warning -- assumption of classical behavior for rotation
           may cause significant error
 Rotational temperature (Kelvin)      0.09171
 Rotational constant (GHZ):           1.910914
    2 imaginary frequencies ignored.
 Zero-point vibrational energy       4297.1 (Joules/Mol)
                                    1.02704 (Kcal/Mol)
 Warning -- explicit consideration of   2 degrees of freedom as
           vibrations may cause significant error
 Vibrational temperatures:    409.16   624.49
          (Kelvin)
 
 Zero-point correction=                           0.001637 (Hartree/Particle)
 Thermal correction to Energy=                    0.004715
 Thermal correction to Enthalpy=                  0.005659
 Thermal correction to Gibbs Free Energy=        -0.021902
 Sum of electronic and zero-point Energies=           -722.521486
 Sum of electronic and thermal Energies=              -722.518408
 Sum of electronic and thermal Enthalpies=            -722.517463
 Sum of electronic and thermal Free Energies=         -722.545025
 
                     E (Thermal)             CV                S
                      KCal/Mol        Cal/Mol-Kelvin    Cal/Mol-Kelvin
 Total                    2.959              8.067             58.008
 Electronic               0.000              0.000              0.000
 Translational            0.889              2.981             38.976
 Rotational               0.592              1.987             16.680
 Vibrational              1.477              3.099              2.353
 Vibration     1          0.683              1.703              1.507
 Vibration     2          0.795              1.396              0.846
                       Q            Log10(Q)             Ln(Q)
 Total Bot       0.118685D+11         10.074397         23.197156
 Total V=0       0.671773D+11         10.827222         24.930601
 Vib (Bot)       0.269907D+00         -0.568786         -1.309677
 Vib (Bot)    1  0.674491D+00         -0.171024         -0.393797
 Vib (Bot)    2  0.400164D+00         -0.397762         -0.915881
 Vib (V=0)       0.152771D+01          0.184040          0.423768
 Vib (V=0)    1  0.133961D+01          0.126977          0.292376
 Vib (V=0)    2  0.114041D+01          0.057063          0.131392
 Electronic      0.100000D+01          0.000000          0.000000
 Translational   0.270515D+08          7.432192         17.113253
 Rotational      0.162551D+04          3.210991          7.393580
 ***** Axes restored to original set *****
 -------------------------------------------------------------------
 Center     Atomic                   Forces (Hartrees/Bohr)
 Number     Number              X              Y              Z
 -------------------------------------------------------------------
      1       16           0.000000000   -0.000000000   -0.000000000
      2       11          -0.000000000    0.000000000   -0.000005738
      3       11           0.000000000   -0.000000000    0.000005738
 -------------------------------------------------------------------
 Cartesian Forces:  Max     0.000005738 RMS     0.000002705
 FormGI is forming the generalized inverse of G from B-inverse, IUseBI=4.

 GradGradGradGradGradGradGradGradGradGradGradGradGradGradGradGradGradGrad
 Berny optimization.
 Internal  Forces:  Max     0.000005738 RMS     0.000004057
 Search for a local minimum.
 Step number   1 out of a maximum of    2
 All quantities printed in internal units (Hartrees-Bohrs-Radians)
 Second derivative matrix not updated -- analytic derivatives used.
 The second derivative matrix:
                          R1        R2        A1        A2
           R1           0.06879
           R2           0.00157   0.06879
           A1          -0.00000   0.00000  -0.00612
           A2          -0.00000   0.00000  -0.00000  -0.00612
 ITU=  0
     Eigenvalues ---   -0.00612  -0.00612   0.06723   0.07036
 Eigenvalue     1 is  -6.12D-03 should be greater than     0.000000 Eigenvector:
                          A1        R1        R2        A2
   1                   -1.00000  -0.00000   0.00000  -0.00000
 Eigenvalue     2 is  -6.12D-03 should be greater than     0.000000 Eigenvector:
                          A2        R1        R2        A1
   1                   -1.00000  -0.00000   0.00000   0.00000
 Angle between quadratic step and forces=   0.00 degrees.
 Linear search not attempted -- first point.
 Iteration  1 RMS(Cart)=  0.00005766 RMS(Int)=  0.00000000
 Iteration  2 RMS(Cart)=  0.00000000 RMS(Int)=  0.00000000
 ClnCor:  largest displacement from symmetrization is 1.09D-13 for atom     1.
 Variable       Old X    -DE/DX   Delta X   Delta X   Delta X     New X
                                 (Linear)    (Quad)   (Total)
    R1        4.53215   0.00001   0.00000   0.00008   0.00008   4.53223
    R2        4.53215   0.00001   0.00000   0.00008   0.00008   4.53223
    A1        3.14159   0.00000   0.00000   0.00000   0.00000   3.14159
    A2        3.14159   0.00000   0.00000   0.00000   0.00000   3.14159
         Item               Value     Threshold  Converged?
 Maximum Force            0.000006     0.000450     YES
 RMS     Force            0.000004     0.000300     YES
 Maximum Displacement     0.000082     0.001800     YES
 RMS     Displacement     0.000058     0.001200     YES
 Predicted change in Energy=-4.679122D-10
 Optimization completed.
    -- Stationary point found.
                           ----------------------------
                           !   Optimized Parameters   !
                           ! (Angstroms and Degrees)  !
 --------------------------                            --------------------------
 ! Name  Definition              Value          Derivative Info.                !
 --------------------------------------------------------------------------------
 ! R1    R(1,2)                  2.3983         -DE/DX =    0.0                 !
 ! R2    R(1,3)                  2.3983         -DE/DX =    0.0                 !
 ! A1    L(2,1,3,-1,-1)        180.0            -DE/DX =    0.0                 !
 ! A2    L(2,1,3,-2,-2)        180.0            -DE/DX =    0.0                 !
 --------------------------------------------------------------------------------
 GradGradGradGradGradGradGradGradGradGradGradGradGradGradGradGradGradGrad

 Dipole is zero, so no output in dipole orientation.

 ----------------------------------------------------------------------

 Electric dipole moment (input orientation):
 (Debye = 10**-18 statcoulomb cm , SI units = C m)
                  (au)            (Debye)         (10**-30 SI)
   Tot        0.000000D+00      0.000000D+00      0.000000D+00
   x          0.000000D+00      0.000000D+00      0.000000D+00
   y          0.000000D+00      0.000000D+00      0.000000D+00
   z          0.000000D+00      0.000000D+00      0.000000D+00

 Dipole polarizability, Alpha (input orientation).
 (esu units = cm**3 , SI units = C**2 m**2 J**-1)
 Alpha(0;0):
               (au)            (10**-24 esu)      (10**-40 SI)
   iso        0.101288D+03      0.150093D+02      0.167001D+02
   aniso      0.645134D+02      0.955991D+01      0.106368D+02
   xx         0.797831D+02      0.118226D+02      0.131544D+02
   yx         0.000000D+00      0.000000D+00      0.000000D+00
   yy         0.797831D+02      0.118226D+02      0.131544D+02
   zx         0.000000D+00      0.000000D+00      0.000000D+00
   zy         0.000000D+00      0.000000D+00      0.000000D+00
   zz         0.144296D+03      0.213825D+02      0.237913D+02

 ----------------------------------------------------------------------
 Unable to Open any file for archive entry.
 1\1\GINC-TCOPT10\Freq\RPBE1PBE\def2QZVPP\Na2S1\HUTTER\01-Aug-2021\0\\#
 N Geom=AllCheck Guess=TCheck SCRF=Check GenChk RPBE1PBE/def2QZVPP Freq
 \\Mol job 1\\0,1\S,10.,10.,10.\Na,10.,10.,7.6016877161\Na,10.,10.,12.3
 983122839\\Version=ES64L-G16RevC.01\State=1-SGG\HF=-722.5231225\RMSD=1
 .054e-09\RMSF=2.705e-06\ZeroPoint=0.0016367\Thermal=0.0047149\ETot=-72
 2.5184076\HTot=-722.5174634\GTot=-722.5450249\Dipole=0.,0.,0.\DipoleDe
 riv=-1.1169281,0.,0.,0.,-1.1169281,0.,0.,0.,-1.4648253,0.558464,0.,0.,
 0.,0.558464,0.,0.,0.,0.7324126,0.558464,0.,0.,0.,0.558464,0.,0.,0.,0.7
 324126\Polar=79.7830519,0.,79.7830519,0.,0.,144.2964935\Quadrupole=-11
 .7884313,-11.7884313,23.5768627,0.,0.,0.\PG=D*H [O(S1),C*(Na1.Na1)]\NI
 mag=2\\-0.00119344,0.,-0.00119344,0.,0.,0.13445100,0.00059672,0.,0.,-0
 .00029684,0.,0.00059672,0.,0.,-0.00029684,0.,0.,-0.06722550,0.,0.,0.06
 879349,0.00059672,0.,0.,-0.00029988,0.,0.,-0.00029684,0.,0.00059672,0.
 ,0.,-0.00029988,0.,0.,-0.00029684,0.,0.,-0.06722550,0.,0.,-0.00156799,
 0.,0.,0.06879349\\0.,0.,0.,0.,0.,0.00000574,0.,0.,-0.00000574\\\@
 The archive entry for this job was punched.


 THE RED LIGHT IS ALWAYS LONGER THAN THE GREEN LIGHT.

                     -- PETER'S THEORY OF RELATIVITY
 Job cpu time:       0 days  0 hours  6 minutes 40.7 seconds.
 Elapsed time:       0 days  0 hours  1 minutes 14.8 seconds.
 File lengths (MBytes):  RWF=     22 Int=      0 D2E=      0 Chk=      4 Scr=      1
 Normal termination of Gaussian 16 at Sun Aug  1 12:46:23 2021.
