 Entering Gaussian System, Link 0=g16
 Initial command:
 /sw-ng/spack/opt/spack/linux-opensuse_leap15-sandybridge/pgi-18.10/gaussian-src-16-C.01-zldqaomctopxhethwccpmxmwefdscg3m/g16/l1.exe "/data/hutter/SMG16/PBE0/Gau-74371.inp" -scrdir="/data/hutter/SMG16/PBE0/"
 Entering Link 1 = /sw-ng/spack/opt/spack/linux-opensuse_leap15-sandybridge/pgi-18.10/gaussian-src-16-C.01-zldqaomctopxhethwccpmxmwefdscg3m/g16/l1.exe PID=     74377.
  
 Copyright (c) 1988-2019, Gaussian, Inc.  All Rights Reserved.
  
 This is part of the Gaussian(R) 16 program.  It is based on
 the Gaussian(R) 09 system (copyright 2009, Gaussian, Inc.),
 the Gaussian(R) 03 system (copyright 2003, Gaussian, Inc.),
 the Gaussian(R) 98 system (copyright 1998, Gaussian, Inc.),
 the Gaussian(R) 94 system (copyright 1995, Gaussian, Inc.),
 the Gaussian 92(TM) system (copyright 1992, Gaussian, Inc.),
 the Gaussian 90(TM) system (copyright 1990, Gaussian, Inc.),
 the Gaussian 88(TM) system (copyright 1988, Gaussian, Inc.),
 the Gaussian 86(TM) system (copyright 1986, Carnegie Mellon
 University), and the Gaussian 82(TM) system (copyright 1983,
 Carnegie Mellon University). Gaussian is a federally registered
 trademark of Gaussian, Inc.
  
 This software contains proprietary and confidential information,
 including trade secrets, belonging to Gaussian, Inc.
  
 This software is provided under written license and may be
 used, copied, transmitted, or stored only in accord with that
 written license.
  
 The following legend is applicable only to US Government
 contracts under FAR:
  
                    RESTRICTED RIGHTS LEGEND
  
 Use, reproduction and disclosure by the US Government is
 subject to restrictions as set forth in subparagraphs (a)
 and (c) of the Commercial Computer Software - Restricted
 Rights clause in FAR 52.227-19.
  
 Gaussian, Inc.
 340 Quinnipiac St., Bldg. 40, Wallingford CT 06492
  
  
 ---------------------------------------------------------------
 Warning -- This program may not be used in any manner that
 competes with the business of Gaussian, Inc. or will provide
 assistance to any competitor of Gaussian, Inc.  The licensee
 of this program is prohibited from giving any competitor of
 Gaussian, Inc. access to this program.  By using this program,
 the user acknowledges that Gaussian, Inc. is engaged in the
 business of creating and licensing software in the field of
 computational chemistry and represents and warrants to the
 licensee that it is not a competitor of Gaussian, Inc. and that
 it will not use this program in any manner prohibited above.
 ---------------------------------------------------------------
  

 Cite this work as:
 Gaussian 16, Revision C.01,
 M. J. Frisch, G. W. Trucks, H. B. Schlegel, G. E. Scuseria, 
 M. A. Robb, J. R. Cheeseman, G. Scalmani, V. Barone, 
 G. A. Petersson, H. Nakatsuji, X. Li, M. Caricato, A. V. Marenich, 
 J. Bloino, B. G. Janesko, R. Gomperts, B. Mennucci, H. P. Hratchian, 
 J. V. Ortiz, A. F. Izmaylov, J. L. Sonnenberg, D. Williams-Young, 
 F. Ding, F. Lipparini, F. Egidi, J. Goings, B. Peng, A. Petrone, 
 T. Henderson, D. Ranasinghe, V. G. Zakrzewski, J. Gao, N. Rega, 
 G. Zheng, W. Liang, M. Hada, M. Ehara, K. Toyota, R. Fukuda, 
 J. Hasegawa, M. Ishida, T. Nakajima, Y. Honda, O. Kitao, H. Nakai, 
 T. Vreven, K. Throssell, J. A. Montgomery, Jr., J. E. Peralta, 
 F. Ogliaro, M. J. Bearpark, J. J. Heyd, E. N. Brothers, K. N. Kudin, 
 V. N. Staroverov, T. A. Keith, R. Kobayashi, J. Normand, 
 K. Raghavachari, A. P. Rendell, J. C. Burant, S. S. Iyengar, 
 J. Tomasi, M. Cossi, J. M. Millam, M. Klene, C. Adamo, R. Cammi, 
 J. W. Ochterski, R. L. Martin, K. Morokuma, O. Farkas, 
 J. B. Foresman, and D. J. Fox, Gaussian, Inc., Wallingford CT, 2019.
 
 ******************************************
 Gaussian 16:  ES64L-G16RevC.01  3-Jul-2019
                 1-Aug-2021 
 ******************************************
 %mem=32GB
 %NProcShare=8
 Will use up to    8 processors via shared memory.
 ------------------------------------------------------------
 #N RPBE1PBE/Def2QZVPP scf=tight Int(Grid=ultrafine) OPT FREQ
 ------------------------------------------------------------
 1/18=20,19=15,26=4,38=1/1,3;
 2/9=110,12=2,17=6,18=5,40=1/2;
 3/5=45,7=202,11=2,25=1,30=1,71=1,74=-13,75=-5,116=1/1,2,3;
 4//1;
 5/5=2,32=2,38=5/2;
 6/7=2,8=2,9=2,10=2,28=1/1;
 7//1,2,3,16;
 1/18=20,19=15,26=4/3(2);
 2/9=110/2;
 99//99;
 2/9=110/2;
 3/5=45,7=202,11=2,25=1,30=1,71=1,74=-13,75=-5,116=1/1,2,3;
 4/5=5,16=3,69=1/1;
 5/5=2,32=2,38=5/2;
 7//1,2,3,16;
 1/18=20,19=15,26=4/3(-5);
 2/9=110/2;
 6/7=2,8=2,9=2,10=2,19=2,28=1/1;
 99/9=1/99;
 ---------
 Mol job 1
 ---------
 Symbolic Z-matrix:
 Charge =  0 Multiplicity = 1
 Li                    10.45223   7.97312   9. 
 Li                    8.99999   10.02688   10.45224 
 Li                    7.54775   7.97313   9. 
 Li                    8.99999   10.02688   7.54776 
 Cl                    10.82862   10.29304   9. 
 Cl                    8.99999   7.70696   10.82862 
 Cl                    7.17138   10.29304   9. 
 Cl                    8.99999   7.70696   7.17138 
 

 GradGradGradGradGradGradGradGradGradGradGradGradGradGradGradGradGradGrad
 Berny optimization.
 Initialization pass.
                           ----------------------------
                           !    Initial Parameters    !
                           ! (Angstroms and Degrees)  !
 --------------------------                            --------------------------
 ! Name  Definition              Value          Derivative Info.                !
 --------------------------------------------------------------------------------
 ! R1    R(1,2)                  2.9045         estimate D2E/DX2                !
 ! R2    R(1,3)                  2.9045         estimate D2E/DX2                !
 ! R3    R(1,4)                  2.9045         estimate D2E/DX2                !
 ! R4    R(1,5)                  2.3502         estimate D2E/DX2                !
 ! R5    R(1,6)                  2.3503         estimate D2E/DX2                !
 ! R6    R(1,8)                  2.3503         estimate D2E/DX2                !
 ! R7    R(2,3)                  2.9045         estimate D2E/DX2                !
 ! R8    R(2,4)                  2.9045         estimate D2E/DX2                !
 ! R9    R(2,5)                  2.3503         estimate D2E/DX2                !
 ! R10   R(2,6)                  2.3503         estimate D2E/DX2                !
 ! R11   R(2,7)                  2.3502         estimate D2E/DX2                !
 ! R12   R(3,4)                  2.9045         estimate D2E/DX2                !
 ! R13   R(3,6)                  2.3503         estimate D2E/DX2                !
 ! R14   R(3,7)                  2.3502         estimate D2E/DX2                !
 ! R15   R(3,8)                  2.3503         estimate D2E/DX2                !
 ! R16   R(4,5)                  2.3503         estimate D2E/DX2                !
 ! R17   R(4,7)                  2.3502         estimate D2E/DX2                !
 ! R18   R(4,8)                  2.3503         estimate D2E/DX2                !
 ! A1    A(2,1,8)               99.2158         estimate D2E/DX2                !
 ! A2    A(3,1,5)               99.2153         estimate D2E/DX2                !
 ! A3    A(4,1,6)               99.2158         estimate D2E/DX2                !
 ! A4    A(5,1,6)              102.166          estimate D2E/DX2                !
 ! A5    A(5,1,8)              102.166          estimate D2E/DX2                !
 ! A6    A(6,1,8)              102.1651         estimate D2E/DX2                !
 ! A7    A(1,2,7)               99.2156         estimate D2E/DX2                !
 ! A8    A(3,2,5)               99.2157         estimate D2E/DX2                !
 ! A9    A(4,2,6)               99.2152         estimate D2E/DX2                !
 ! A10   A(5,2,6)              102.1658         estimate D2E/DX2                !
 ! A11   A(5,2,7)              102.1649         estimate D2E/DX2                !
 ! A12   A(6,2,7)              102.1659         estimate D2E/DX2                !
 ! A13   A(1,3,7)               99.2151         estimate D2E/DX2                !
 ! A14   A(2,3,8)               99.2157         estimate D2E/DX2                !
 ! A15   A(4,3,6)               99.2157         estimate D2E/DX2                !
 ! A16   A(6,3,7)              102.1658         estimate D2E/DX2                !
 ! A17   A(6,3,8)              102.1649         estimate D2E/DX2                !
 ! A18   A(7,3,8)              102.1658         estimate D2E/DX2                !
 ! A19   A(1,4,7)               99.2156         estimate D2E/DX2                !
 ! A20   A(2,4,8)               99.2152         estimate D2E/DX2                !
 ! A21   A(3,4,5)               99.2157         estimate D2E/DX2                !
 ! A22   A(5,4,7)              102.1649         estimate D2E/DX2                !
 ! A23   A(5,4,8)              102.1658         estimate D2E/DX2                !
 ! A24   A(7,4,8)              102.1659         estimate D2E/DX2                !
 ! D1    D(8,1,2,7)             -0.0012         estimate D2E/DX2                !
 ! D2    D(5,1,3,7)              0.0            estimate D2E/DX2                !
 ! D3    D(6,1,4,7)              0.0012         estimate D2E/DX2                !
 ! D4    D(5,2,3,8)              0.0012         estimate D2E/DX2                !
 ! D5    D(6,2,4,8)              0.0            estimate D2E/DX2                !
 ! D6    D(4,2,5,1)            -78.9775         estimate D2E/DX2                !
 ! D7    D(3,2,6,1)             78.9782         estimate D2E/DX2                !
 ! D8    D(6,3,4,5)             -0.0012         estimate D2E/DX2                !
 ! D9    D(4,3,7,2)            -78.9784         estimate D2E/DX2                !
 ! D10   D(4,3,8,1)             78.9775         estimate D2E/DX2                !
 --------------------------------------------------------------------------------
 Trust Radius=3.00D-01 FncErr=1.00D-07 GrdErr=1.00D-06 EigMax=2.50D+02 EigMin=1.00D-04
 Number of steps in this run=     62 maximum allowed number of steps=    100.
 GradGradGradGradGradGradGradGradGradGradGradGradGradGradGradGradGradGrad

                          Input orientation:                          
 ---------------------------------------------------------------------
 Center     Atomic      Atomic             Coordinates (Angstroms)
 Number     Number       Type             X           Y           Z
 ---------------------------------------------------------------------
      1          3           0       10.452232    7.973123    9.000000
      2          3           0        8.999995   10.026876   10.452242
      3          3           0        7.547749    7.973129    9.000000
      4          3           0        8.999995   10.026876    7.547758
      5         17           0       10.828617   10.293038    9.000000
      6         17           0        8.999992    7.706956   10.828619
      7         17           0        7.171383   10.293044    9.000000
      8         17           0        8.999992    7.706956    7.171381
 ---------------------------------------------------------------------
                    Distance matrix (angstroms):
                    1          2          3          4          5
     1  Li   0.000000
     2  Li   2.904462   0.000000
     3  Li   2.904483   2.904463   0.000000
     4  Li   2.904462   2.904485   2.904463   0.000000
     5  Cl   2.350249   2.350257   4.018218   2.350257   0.000000
     6  Cl   2.350253   2.350252   2.350257   4.018218   3.657258
     7  Cl   4.018209   2.350249   2.350246   2.350249   3.657233
     8  Cl   2.350253   4.018218   2.350257   2.350252   3.657258
                    6          7          8
     6  Cl   0.000000
     7  Cl   3.657254   0.000000
     8  Cl   3.657238   3.657254   0.000000
 This structure is nearly, but not quite of a higher symmetry.
 Consider Symm=Loose if the higher symmetry is desired.
 Stoichiometry    Cl4Li4
 Framework group  CS[SG(Cl2Li2),X(Cl2Li2)]
 Deg. of freedom    11
 Full point group                 CS      NOp   2
 Largest Abelian subgroup         CS      NOp   2
 Largest concise Abelian subgroup CS      NOp   2
                         Standard orientation:                         
 ---------------------------------------------------------------------
 Center     Atomic      Atomic             Coordinates (Angstroms)
 Number     Number       Type             X           Y           Z
 ---------------------------------------------------------------------
      1          3           0       -1.452237    1.026875   -0.000000
      2          3           0        0.000002   -1.026877    1.452242
      3          3           0        1.452246    1.026871   -0.000000
      4          3           0        0.000002   -1.026877   -1.452242
      5         17           0       -1.828620   -1.293041    0.000000
      6         17           0        0.000002    1.293043    1.828619
      7         17           0        1.828613   -1.293043    0.000000
      8         17           0        0.000002    1.293043   -1.828619
 ---------------------------------------------------------------------
 Rotational constants (GHZ):           0.9591399           0.9591324           0.9591312
 Standard basis: def2QZVPP (5D, 7F)
 There are   298 symmetry adapted cartesian basis functions of A'  symmetry.
 There are   206 symmetry adapted cartesian basis functions of A"  symmetry.
 There are   245 symmetry adapted basis functions of A'  symmetry.
 There are   175 symmetry adapted basis functions of A"  symmetry.
   420 basis functions,   704 primitive gaussians,   504 cartesian basis functions
    40 alpha electrons       40 beta electrons
       nuclear repulsion energy       425.3977255698 Hartrees.
 NAtoms=    8 NActive=    8 NUniq=    6 SFac= 1.78D+00 NAtFMM=   60 NAOKFM=F Big=F
 Integral buffers will be    131072 words long.
 Raffenetti 2 integral format.
 Two-electron integral symmetry is turned on.
 One-electron integrals computed using PRISM.
   2 Symmetry operations used in ECPInt.
 ECPInt:  NShTT=    9870 NPrTT=   34398 LenC2=    9339 LenP2D=   24412.
 LDataN:  DoStor=T MaxTD1= 8 Len=  415
 NBasis=   420 RedAO= T EigKep=  2.61D-05  NBF=   245   175
 NBsUse=   420 1.00D-06 EigRej= -1.00D+00 NBFU=   245   175
 ExpMin= 2.05D-02 ExpMax= 1.47D+06 ExpMxC= 1.67D+03 IAcc=3 IRadAn=         5 AccDes= 0.00D+00
 Harris functional with IExCor= 1009 and IRadAn=       5 diagonalized for initial guess.
 HarFok:  IExCor= 1009 AccDes= 0.00D+00 IRadAn=         5 IDoV= 1 UseB2=F ITyADJ=14
 ICtDFT=  3500011 ScaDFX=  1.000000  1.000000  1.000000  1.000000
 FoFCou: FMM=F IPFlag=           0 FMFlag=      100000 FMFlg1=           0
         NFxFlg=           0 DoJE=T BraDBF=F KetDBF=T FulRan=T
         wScrn=  0.000000 ICntrl=       500 IOpCl=  0 I1Cent=   200000004 NGrid=           0
         NMat0=    1 NMatS0=      1 NMatT0=    0 NMatD0=    1 NMtDS0=    0 NMtDT0=    0
 Petite list used in FoFCou.
 Initial guess orbital symmetries:
       Occupied  (A') (A") (A') (A') (A') (A") (A') (A') (A') (A')
                 (A") (A') (A') (A") (A') (A') (A") (A") (A') (A")
                 (A') (A') (A") (A') (A') (A') (A') (A") (A') (A")
                 (A') (A') (A') (A") (A') (A') (A") (A") (A') (A")
       Virtual   (A') (A") (A') (A') (A') (A") (A') (A') (A") (A')
                 (A') (A') (A") (A') (A") (A') (A") (A") (A') (A')
                 (A") (A') (A') (A') (A") (A') (A") (A') (A") (A")
                 (A') (A') (A') (A") (A') (A') (A") (A') (A") (A')
                 (A") (A') (A") (A") (A') (A') (A') (A") (A') (A')
                 (A") (A") (A') (A') (A") (A') (A') (A') (A") (A')
                 (A") (A') (A") (A") (A') (A') (A") (A') (A") (A")
                 (A') (A') (A") (A') (A") (A") (A') (A") (A') (A')
                 (A") (A') (A') (A") (A') (A") (A') (A') (A') (A')
                 (A') (A") (A") (A") (A') (A') (A") (A') (A") (A")
                 (A') (A') (A') (A") (A') (A") (A') (A") (A') (A")
                 (A") (A') (A') (A") (A') (A') (A") (A") (A') (A')
                 (A") (A') (A") (A') (A") (A') (A") (A') (A') (A")
                 (A') (A') (A") (A') (A') (A") (A') (A') (A") (A")
                 (A') (A") (A') (A") (A') (A') (A") (A') (A") (A')
                 (A") (A') (A") (A') (A') (A") (A') (A") (A') (A")
                 (A') (A') (A") (A') (A") (A') (A') (A") (A') (A")
                 (A') (A') (A") (A') (A") (A') (A") (A') (A") (A")
                 (A') (A") (A') (A") (A') (A") (A") (A") (A') (A')
                 (A") (A') (A') (A") (A') (A') (A") (A') (A") (A')
                 (A') (A') (A') (A") (A') (A') (A") (A') (A") (A")
                 (A') (A') (A") (A') (A") (A') (A') (A') (A") (A')
                 (A') (A") (A') (A") (A') (A') (A") (A') (A") (A')
                 (A") (A') (A') (A") (A") (A") (A') (A') (A") (A')
                 (A") (A") (A') (A") (A") (A') (A') (A") (A') (A")
                 (A") (A') (A") (A') (A') (A') (A') (A") (A') (A")
                 (A') (A') (A') (A") (A') (A") (A') (A') (A") (A")
                 (A') (A") (A') (A") (A") (A') (A') (A") (A') (A")
                 (A") (A') (A') (A") (A') (A") (A') (A") (A") (A')
                 (A") (A") (A') (A') (A") (A') (A") (A') (A') (A")
                 (A') (A") (A') (A") (A") (A') (A') (A') (A") (A')
                 (A") (A') (A') (A') (A') (A") (A') (A") (A') (A")
                 (A") (A') (A") (A') (A') (A') (A") (A') (A') (A')
                 (A") (A') (A') (A') (A") (A') (A") (A') (A') (A")
                 (A') (A") (A') (A") (A') (A') (A") (A') (A') (A")
                 (A") (A') (A") (A') (A") (A') (A') (A') (A") (A')
                 (A") (A') (A") (A") (A') (A") (A') (A') (A') (A")
                 (A') (A') (A') (A') (A") (A') (A') (A') (A") (A')
 The electronic state of the initial guess is 1-A'.
 Requested convergence on RMS density matrix=1.00D-08 within 128 cycles.
 Requested convergence on MAX density matrix=1.00D-06.
 Requested convergence on             energy=1.00D-06.
 No special actions if energy rises.
 SCF Done:  E(RPBE1PBE) =  -1870.83334920     A.U. after    8 cycles
            NFock=  8  Conv=0.73D-08     -V/T= 2.0016

 **********************************************************************

            Population analysis using the SCF Density.

 **********************************************************************

 Orbital symmetries:
       Occupied  (A') (A") (A') (A') (A') (A") (A') (A') (A') (A")
                 (A') (A') (A') (A") (A") (A") (A') (A') (A") (A')
                 (A') (A') (A") (A') (A') (A') (A') (A") (A') (A")
                 (A') (A") (A') (A') (A") (A') (A") (A') (A') (A")
       Virtual   (A') (A") (A') (A') (A') (A") (A') (A") (A') (A')
                 (A") (A') (A') (A') (A") (A') (A") (A") (A') (A')
                 (A") (A') (A') (A') (A") (A') (A") (A') (A") (A')
                 (A") (A") (A') (A') (A') (A") (A') (A') (A") (A')
                 (A") (A") (A') (A') (A') (A") (A") (A') (A') (A')
                 (A") (A') (A") (A') (A') (A") (A') (A") (A') (A')
                 (A") (A') (A") (A") (A') (A') (A') (A") (A') (A")
                 (A") (A") (A') (A") (A') (A") (A') (A") (A') (A')
                 (A") (A') (A') (A") (A') (A") (A') (A') (A') (A')
                 (A') (A") (A") (A") (A') (A') (A") (A') (A") (A")
                 (A') (A') (A") (A") (A') (A") (A') (A') (A") (A')
                 (A") (A') (A') (A") (A') (A") (A") (A') (A') (A')
                 (A") (A') (A') (A") (A") (A") (A') (A') (A') (A")
                 (A') (A') (A") (A') (A") (A') (A') (A') (A") (A")
                 (A') (A") (A") (A') (A') (A') (A") (A') (A") (A')
                 (A") (A') (A") (A') (A") (A") (A') (A') (A') (A")
                 (A') (A') (A") (A') (A") (A') (A') (A") (A') (A")
                 (A') (A') (A") (A') (A") (A') (A") (A') (A") (A")
                 (A') (A") (A') (A") (A') (A") (A") (A') (A") (A')
                 (A") (A') (A') (A") (A') (A") (A') (A') (A") (A')
                 (A') (A') (A') (A") (A') (A") (A') (A') (A") (A")
                 (A') (A") (A') (A') (A") (A') (A') (A') (A") (A')
                 (A") (A') (A') (A") (A') (A') (A") (A') (A") (A')
                 (A') (A") (A') (A") (A") (A") (A') (A') (A") (A')
                 (A") (A") (A') (A") (A') (A") (A') (A") (A') (A")
                 (A") (A') (A') (A") (A') (A') (A") (A') (A') (A")
                 (A') (A') (A') (A") (A') (A") (A") (A') (A") (A')
                 (A') (A") (A') (A") (A") (A') (A') (A") (A') (A")
                 (A") (A') (A') (A") (A') (A") (A') (A") (A") (A")
                 (A') (A') (A") (A') (A") (A") (A') (A') (A") (A')
                 (A') (A") (A') (A') (A") (A") (A') (A') (A") (A')
                 (A") (A') (A') (A') (A') (A") (A') (A") (A') (A")
                 (A") (A') (A") (A') (A') (A') (A") (A') (A') (A')
                 (A") (A') (A') (A') (A") (A') (A") (A') (A') (A")
                 (A') (A") (A') (A") (A') (A') (A") (A') (A') (A")
                 (A") (A') (A") (A') (A") (A') (A') (A') (A") (A')
                 (A') (A") (A") (A") (A') (A") (A') (A') (A') (A")
                 (A') (A') (A') (A') (A") (A') (A') (A') (A") (A')
 The electronic state is 1-A'.
 Alpha  occ. eigenvalues -- -101.66591-101.66591-101.66591-101.66591  -9.48910
 Alpha  occ. eigenvalues --   -9.48910  -9.48910  -9.48910  -7.21830  -7.21830
 Alpha  occ. eigenvalues --   -7.21830  -7.21830  -7.21818  -7.21818  -7.21818
 Alpha  occ. eigenvalues --   -7.21818  -7.21818  -7.21818  -7.21818  -7.21818
 Alpha  occ. eigenvalues --   -2.01252  -2.01206  -2.01206  -2.01206  -0.79956
 Alpha  occ. eigenvalues --   -0.79088  -0.79088  -0.79088  -0.37253  -0.34452
 Alpha  occ. eigenvalues --   -0.34452  -0.34412  -0.34412  -0.34412  -0.31752
 Alpha  occ. eigenvalues --   -0.31752  -0.31752  -0.31413  -0.31413  -0.31413
 Alpha virt. eigenvalues --   -0.02738  -0.00059  -0.00059  -0.00059   0.02592
 Alpha virt. eigenvalues --    0.02592   0.02592   0.03754   0.03754   0.04423
 Alpha virt. eigenvalues --    0.05497   0.05497   0.05497   0.05975   0.06042
 Alpha virt. eigenvalues --    0.06042   0.06043   0.08576   0.08576   0.08576
 Alpha virt. eigenvalues --    0.11288   0.11288   0.11288   0.11563   0.12251
 Alpha virt. eigenvalues --    0.12252   0.13752   0.13752   0.13752   0.17335
 Alpha virt. eigenvalues --    0.17335   0.18484   0.18484   0.18484   0.19712
 Alpha virt. eigenvalues --    0.20055   0.20055   0.20055   0.21119   0.21119
 Alpha virt. eigenvalues --    0.21119   0.21852   0.21852   0.21852   0.22565
 Alpha virt. eigenvalues --    0.22565   0.25566   0.25566   0.25566   0.26731
 Alpha virt. eigenvalues --    0.28965   0.28965   0.28965   0.30118   0.31223
 Alpha virt. eigenvalues --    0.31223   0.31223   0.32937   0.32937   0.32937
 Alpha virt. eigenvalues --    0.34127   0.34127   0.34127   0.34292   0.34292
 Alpha virt. eigenvalues --    0.36209   0.36209   0.36209   0.38905   0.38905
 Alpha virt. eigenvalues --    0.40231   0.40231   0.40231   0.41706   0.41706
 Alpha virt. eigenvalues --    0.41706   0.43005   0.43005   0.43006   0.46661
 Alpha virt. eigenvalues --    0.46661   0.46661   0.46733   0.46733   0.47912
 Alpha virt. eigenvalues --    0.47913   0.47913   0.49356   0.54332   0.58777
 Alpha virt. eigenvalues --    0.58777   0.58777   0.60333   0.60333   0.60333
 Alpha virt. eigenvalues --    0.63387   0.63387   0.63387   0.64655   0.67630
 Alpha virt. eigenvalues --    0.67630   0.70157   0.70704   0.70704   0.70704
 Alpha virt. eigenvalues --    0.71143   0.71143   0.71912   0.71912   0.71912
 Alpha virt. eigenvalues --    0.73391   0.73391   0.73391   0.75108   0.75108
 Alpha virt. eigenvalues --    0.75108   0.76615   0.76616   0.78164   0.80780
 Alpha virt. eigenvalues --    0.80780   0.80780   0.83365   0.83366   0.83366
 Alpha virt. eigenvalues --    0.83895   0.83895   0.83896   0.87074   0.87074
 Alpha virt. eigenvalues --    0.88362   0.91469   0.91469   0.91469   0.94565
 Alpha virt. eigenvalues --    0.94565   0.94566   0.96488   0.96489   0.99464
 Alpha virt. eigenvalues --    0.99465   0.99465   1.02324   1.02324   1.02324
 Alpha virt. eigenvalues --    1.03241   1.03242   1.03242   1.05265   1.05265
 Alpha virt. eigenvalues --    1.05265   1.09459   1.29945   1.29945   1.29945
 Alpha virt. eigenvalues --    1.30734   1.30734   1.30734   1.31005   1.33920
 Alpha virt. eigenvalues --    1.33920   1.37281   1.37281   1.37282   1.41134
 Alpha virt. eigenvalues --    1.41134   1.41956   1.41956   1.41956   1.42824
 Alpha virt. eigenvalues --    1.42824   1.42824   1.44291   1.44291   1.44292
 Alpha virt. eigenvalues --    1.48585   1.48585   1.48585   1.50123   1.50124
 Alpha virt. eigenvalues --    1.50124   1.52343   1.52344   1.57006   1.57007
 Alpha virt. eigenvalues --    1.57007   1.59435   1.59435   1.59435   1.60658
 Alpha virt. eigenvalues --    1.60956   1.61404   1.63911   1.63911   1.63911
 Alpha virt. eigenvalues --    1.67454   1.67454   1.67454   1.71318   1.71318
 Alpha virt. eigenvalues --    1.71318   1.79894   1.85940   1.85940   1.85940
 Alpha virt. eigenvalues --    1.88268   1.88269   1.88269   1.89042   1.89042
 Alpha virt. eigenvalues --    1.89042   2.01224   2.01225   2.02119   2.02119
 Alpha virt. eigenvalues --    2.02119   2.46065   2.48183   2.48184   2.48184
 Alpha virt. eigenvalues --    3.42016   3.42016   3.44228   3.44228   3.44229
 Alpha virt. eigenvalues --    3.47138   3.47175   3.47175   3.47176   3.52427
 Alpha virt. eigenvalues --    3.52427   3.52427   3.53290   3.53291   3.56075
 Alpha virt. eigenvalues --    3.56076   3.56076   3.56374   3.56374   3.56374
 Alpha virt. eigenvalues --    3.60629   3.61322   3.61322   3.61322   3.62199
 Alpha virt. eigenvalues --    3.62199   3.63164   3.63164   3.63164   3.63662
 Alpha virt. eigenvalues --    3.63662   3.63662   3.63834   3.64004   3.64004
 Alpha virt. eigenvalues --    3.65107   3.65107   3.65107   3.65492   3.66208
 Alpha virt. eigenvalues --    3.66208   3.66455   3.66455   3.66455   3.66900
 Alpha virt. eigenvalues --    3.66900   3.66900   3.67301   3.67301   3.67301
 Alpha virt. eigenvalues --    3.69048   3.69048   3.69048   3.69657   3.69657
 Alpha virt. eigenvalues --    3.69657   4.01795   4.01795   4.01795   4.04270
 Alpha virt. eigenvalues --    4.04271   4.04271   4.07641   4.07641   4.07641
 Alpha virt. eigenvalues --    4.07908   4.07908   4.07908   4.12735   4.12735
 Alpha virt. eigenvalues --    4.12735   4.13213   4.13213   4.13213   4.13629
 Alpha virt. eigenvalues --    4.13943   4.13943   4.14160   4.24862   4.24862
 Alpha virt. eigenvalues --    4.24862   4.24944   4.24944   4.26822   4.27351
 Alpha virt. eigenvalues --    4.27351   4.27351   4.33062   4.33062   4.33062
 Alpha virt. eigenvalues --    4.44317   4.44317   4.49008   4.52752   4.52752
 Alpha virt. eigenvalues --    4.52753   6.18334   6.18334   6.18335   6.42153
 Alpha virt. eigenvalues --    6.42154   6.42155   6.44110   6.44110   6.44111
 Alpha virt. eigenvalues --    6.52768   6.58788   6.58789   8.55054   8.57566
 Alpha virt. eigenvalues --    8.57566   8.57566   9.50237   9.54476   9.54476
 Alpha virt. eigenvalues --    9.54476  10.81050  10.81050  10.82731  10.82731
 Alpha virt. eigenvalues --   10.82731  10.85027  10.85027  10.85027  10.87038
 Alpha virt. eigenvalues --   10.89193  10.89193  10.89193  10.90431  10.90432
 Alpha virt. eigenvalues --   10.92296  10.92296  10.92296  10.94463  10.94464
 Alpha virt. eigenvalues --   10.94464  28.82060  28.83908  28.83908  28.83908
 Alpha virt. eigenvalues --   41.87952  41.87952  41.87952  41.88315  41.88315
 Alpha virt. eigenvalues --   41.89008  41.89008  41.89008  41.90394  41.90394
 Alpha virt. eigenvalues --   41.90394  41.91322  98.40284  98.41722  98.41723
 Alpha virt. eigenvalues --   98.41723 525.75281 525.77401 525.77401 525.77401
          Condensed to atoms (all electrons):
               1          2          3          4          5          6
     1  Li   2.270745  -0.057657  -0.057663  -0.057657   0.092105   0.092116
     2  Li  -0.057657   2.270743  -0.057656  -0.057662   0.092116   0.092105
     3  Li  -0.057663  -0.057656   2.270743  -0.057656   0.117228   0.092116
     4  Li  -0.057657  -0.057662  -0.057656   2.270743   0.092116   0.117228
     5  Cl   0.092105   0.092116   0.117228   0.092116  17.143407  -0.009434
     6  Cl   0.092116   0.092105   0.092116   0.117228  -0.009434  17.143407
     7  Cl   0.117230   0.092116   0.092105   0.092116  -0.009436  -0.009434
     8  Cl   0.092116   0.117228   0.092116   0.092105  -0.009434  -0.009436
               7          8
     1  Li   0.117230   0.092116
     2  Li   0.092116   0.117228
     3  Li   0.092105   0.092116
     4  Li   0.092116   0.092105
     5  Cl  -0.009436  -0.009434
     6  Cl  -0.009434  -0.009436
     7  Cl  17.143400  -0.009434
     8  Cl  -0.009434  17.143407
 Mulliken charges:
               1
     1  Li   0.508666
     2  Li   0.508667
     3  Li   0.508667
     4  Li   0.508667
     5  Cl  -0.508668
     6  Cl  -0.508668
     7  Cl  -0.508664
     8  Cl  -0.508668
 Sum of Mulliken charges =  -0.00000
 Mulliken charges with hydrogens summed into heavy atoms:
               1
     1  Li   0.508666
     2  Li   0.508667
     3  Li   0.508667
     4  Li   0.508667
     5  Cl  -0.508668
     6  Cl  -0.508668
     7  Cl  -0.508664
     8  Cl  -0.508668
 Electronic spatial extent (au):  <R**2>=           1498.2404
 Charge=              0.0000 electrons
 Dipole moment (field-independent basis, Debye):
    X=              0.0001    Y=             -0.0000    Z=             -0.0000  Tot=              0.0001
 Quadrupole moment (field-independent basis, Debye-Ang):
   XX=            -64.8651   YY=            -64.8657   ZZ=            -64.8651
   XY=             -0.0000   XZ=              0.0000   YZ=              0.0000
 Traceless Quadrupole moment (field-independent basis, Debye-Ang):
   XX=              0.0002   YY=             -0.0004   ZZ=              0.0002
   XY=             -0.0000   XZ=              0.0000   YZ=              0.0000
 Octapole moment (field-independent basis, Debye-Ang**2):
  XXX=              0.0005  YYY=             -0.0002  ZZZ=              0.0000  XYY=              0.0000
  XXY=             37.1628  XXZ=              0.0000  XZZ=              0.0000  YZZ=            -37.1630
  YYZ=              0.0000  XYZ=             -0.0000
 Hexadecapole moment (field-independent basis, Debye-Ang**3):
 XXXX=           -681.1596 YYYY=           -683.7466 ZZZZ=           -681.1615 XXXY=             -0.0004
 XXXZ=              0.0000 YYYX=             -0.0005 YYYZ=              0.0000 ZZZX=              0.0000
 ZZZY=              0.0000 XXYY=           -226.1981 XXZZ=           -228.7693 YYZZ=           -226.1982
 XXYZ=              0.0000 YYXZ=              0.0000 ZZXY=             -0.0002
 N-N= 4.253977255698D+02 E-N=-5.303208410377D+03  KE= 1.867822288898D+03
 Symmetry A'   KE= 1.309529046486D+03
 Symmetry A"   KE= 5.582932424129D+02
   2 Symmetry operations used in ECPInt.
 ECPInt:  NShTT=    9870 NPrTT=   34398 LenC2=    9339 LenP2D=   24412.
 LDataN:  DoStor=T MaxTD1= 9 Len=  602
 Calling FoFJK, ICntrl=      2127 FMM=F ISym2X=1 I1Cent= 0 IOpClX= 0 NMat=1 NMatS=1 NMatT=0.
 ***** Axes restored to original set *****
 -------------------------------------------------------------------
 Center     Atomic                   Forces (Hartrees/Bohr)
 Number     Number              X              Y              Z
 -------------------------------------------------------------------
      1        3          -0.003226841    0.002283170    0.000000000
      2        3           0.000000289   -0.002283346   -0.003226894
      3        3           0.003227147    0.002282986    0.000000000
      4        3           0.000000289   -0.002283346    0.003226894
      5       17          -0.003773106   -0.002667910   -0.000000000
      6       17          -0.000000111    0.002668054   -0.003772993
      7       17           0.003772443   -0.002667663   -0.000000000
      8       17          -0.000000111    0.002668054    0.003772993
 -------------------------------------------------------------------
 Cartesian Forces:  Max     0.003773106 RMS     0.002482562

 GradGradGradGradGradGradGradGradGradGradGradGradGradGradGradGradGradGrad
 Berny optimization.
 FormGI is forming the generalized inverse of G from B-inverse, IUseBI=4.
 Internal  Forces:  Max     0.002028051 RMS     0.001025007
 Search for a local minimum.
 Step number   1 out of a maximum of   62
 All quantities printed in internal units (Hartrees-Bohrs-Radians)
 Mixed Optimization -- RFO/linear search
 Second derivative matrix not updated -- first step.
 ITU=  0
     Eigenvalues ---    0.03899   0.04985   0.05053   0.05733   0.05862
     Eigenvalues ---    0.06021   0.07735   0.07841   0.07908   0.08023
     Eigenvalues ---    0.08042   0.09479   0.09564   0.09785   0.09892
     Eigenvalues ---    0.11443   0.11492   0.11719
 RFO step:  Lambda=-8.50714383D-04 EMin= 3.89869619D-02
 Linear search not attempted -- first point.
 Iteration  1 RMS(Cart)=  0.00979948 RMS(Int)=  0.00000560
 Iteration  2 RMS(Cart)=  0.00000156 RMS(Int)=  0.00000506
 Iteration  3 RMS(Cart)=  0.00000000 RMS(Int)=  0.00000506
 ClnCor:  largest displacement from symmetrization is 1.24D-05 for atom     8.
 Variable       Old X    -DE/DX   Delta X   Delta X   Delta X     New X
                                 (Linear)    (Quad)   (Total)
    R1        5.48864  -0.00073   0.00000  -0.03090  -0.03091   5.45773
    R2        5.48868  -0.00077   0.00000  -0.03089  -0.03089   5.45778
    R3        5.48864  -0.00084   0.00000  -0.03092  -0.03091   5.45773
    R4        4.44133  -0.00198   0.00000  -0.02922  -0.02922   4.41211
    R5        4.44134  -0.00197   0.00000  -0.02921  -0.02921   4.41212
    R6        4.44134  -0.00200   0.00000  -0.02922  -0.02921   4.41212
    R7        5.48864  -0.00069   0.00000  -0.03089  -0.03090   5.45774
    R8        5.48868  -0.00077   0.00000  -0.03089  -0.03089   5.45779
    R9        4.44134  -0.00203   0.00000  -0.02922  -0.02921   4.41213
   R10        4.44133  -0.00202   0.00000  -0.02922  -0.02922   4.41211
   R11        4.44133  -0.00198   0.00000  -0.02921  -0.02920   4.41212
   R12        5.48864  -0.00073   0.00000  -0.03090  -0.03090   5.45774
   R13        4.44134  -0.00198   0.00000  -0.02921  -0.02921   4.41213
   R14        4.44132  -0.00202   0.00000  -0.02922  -0.02922   4.41211
   R15        4.44134  -0.00203   0.00000  -0.02922  -0.02921   4.41213
   R16        4.44134  -0.00200   0.00000  -0.02922  -0.02921   4.41213
   R17        4.44133  -0.00197   0.00000  -0.02921  -0.02920   4.41212
   R18        4.44133  -0.00198   0.00000  -0.02922  -0.02922   4.41211
    A1        1.73164  -0.00031   0.00000  -0.00096  -0.00097   1.73067
    A2        1.73163  -0.00030   0.00000  -0.00097  -0.00097   1.73066
    A3        1.73164  -0.00032   0.00000  -0.00096  -0.00097   1.73067
    A4        1.78313  -0.00041   0.00000  -0.00117  -0.00118   1.78196
    A5        1.78313  -0.00035   0.00000  -0.00116  -0.00118   1.78196
    A6        1.78312  -0.00038   0.00000  -0.00117  -0.00118   1.78194
    A7        1.73164  -0.00034   0.00000  -0.00097  -0.00097   1.73067
    A8        1.73164  -0.00031   0.00000  -0.00097  -0.00097   1.73067
    A9        1.73163  -0.00032   0.00000  -0.00097  -0.00097   1.73066
   A10        1.78313  -0.00038   0.00000  -0.00117  -0.00118   1.78195
   A11        1.78311  -0.00037   0.00000  -0.00117  -0.00118   1.78193
   A12        1.78313  -0.00040   0.00000  -0.00117  -0.00118   1.78195
   A13        1.73163  -0.00032   0.00000  -0.00097  -0.00097   1.73066
   A14        1.73164  -0.00031   0.00000  -0.00097  -0.00097   1.73067
   A15        1.73164  -0.00034   0.00000  -0.00097  -0.00097   1.73067
   A16        1.78313  -0.00040   0.00000  -0.00117  -0.00118   1.78195
   A17        1.78311  -0.00037   0.00000  -0.00117  -0.00118   1.78193
   A18        1.78313  -0.00038   0.00000  -0.00117  -0.00118   1.78195
   A19        1.73164  -0.00032   0.00000  -0.00096  -0.00097   1.73067
   A20        1.73163  -0.00030   0.00000  -0.00097  -0.00097   1.73066
   A21        1.73164  -0.00031   0.00000  -0.00096  -0.00097   1.73067
   A22        1.78311  -0.00038   0.00000  -0.00117  -0.00118   1.78193
   A23        1.78313  -0.00035   0.00000  -0.00116  -0.00118   1.78195
   A24        1.78313  -0.00041   0.00000  -0.00117  -0.00118   1.78195
    D1       -0.00002   0.00000   0.00000  -0.00001  -0.00000  -0.00002
    D2        0.00000   0.00002   0.00000   0.00000   0.00000   0.00000
    D3        0.00002  -0.00004   0.00000   0.00000   0.00000   0.00002
    D4        0.00002  -0.00002   0.00000   0.00000   0.00000   0.00003
    D5       -0.00000   0.00002   0.00000   0.00000   0.00000   0.00000
    D6       -1.37842  -0.00029   0.00000  -0.00096  -0.00097  -1.37939
    D7        1.37843   0.00030   0.00000   0.00097   0.00097   1.37940
    D8       -0.00002   0.00000   0.00000  -0.00001  -0.00000  -0.00003
    D9       -1.37843  -0.00030   0.00000  -0.00097  -0.00097  -1.37941
   D10        1.37842   0.00029   0.00000   0.00096   0.00097   1.37939
         Item               Value     Threshold  Converged?
 Maximum Force            0.002028     0.000450     NO 
 RMS     Force            0.001025     0.000300     NO 
 Maximum Displacement     0.024363     0.001800     NO 
 RMS     Displacement     0.009799     0.001200     NO 
 Predicted change in Energy=-4.321865D-04
 GradGradGradGradGradGradGradGradGradGradGradGradGradGradGradGradGradGrad

                          Input orientation:                          
 ---------------------------------------------------------------------
 Center     Atomic      Atomic             Coordinates (Angstroms)
 Number     Number       Type             X           Y           Z
 ---------------------------------------------------------------------
      1          3           0       10.444057    7.978909    9.000000
      2          3           0        8.999996   10.021092   10.444070
      3          3           0        7.555922    7.978912    9.000000
      4          3           0        8.999996   10.021092    7.555930
      5         17           0       10.815724   10.283925    9.000000
      6         17           0        8.999993    7.716073   10.815727
      7         17           0        7.184274   10.283928    9.000000
      8         17           0        8.999993    7.716073    7.184273
 ---------------------------------------------------------------------
                    Distance matrix (angstroms):
                    1          2          3          4          5
     1  Li   0.000000
     2  Li   2.888106   0.000000
     3  Li   2.888135   2.888111   0.000000
     4  Li   2.888106   2.888139   2.888111   0.000000
     5  Cl   2.334788   2.334799   3.992418   2.334799   0.000000
     6  Cl   2.334795   2.334789   2.334800   3.992416   3.631475
     7  Cl   3.992405   2.334795   2.334786   2.334795   3.631451
     8  Cl   2.334795   3.992416   2.334800   2.334789   3.631475
                    6          7          8
     6  Cl   0.000000
     7  Cl   3.631471   0.000000
     8  Cl   3.631454   3.631471   0.000000
 Stoichiometry    Cl4Li4
 Framework group  CS[SG(Cl2Li2),X(Cl2Li2)]
 Deg. of freedom    11
 Full point group                 CS      NOp   2
 Largest Abelian subgroup         CS      NOp   2
 Largest concise Abelian subgroup CS      NOp   2
                         Standard orientation:                         
 ---------------------------------------------------------------------
 Center     Atomic      Atomic             Coordinates (Angstroms)
 Number     Number       Type             X           Y           Z
 ---------------------------------------------------------------------
      1          3           0       -1.444063    1.021089   -0.000000
      2          3           0        0.000001   -1.021092    1.444070
      3          3           0        1.444072    1.021090   -0.000000
      4          3           0        0.000001   -1.021092   -1.444070
      5         17           0       -1.815727   -1.283928    0.000000
      6         17           0        0.000001    1.283927    1.815727
      7         17           0        1.815724   -1.283926    0.000000
      8         17           0        0.000001    1.283927   -1.815727
 ---------------------------------------------------------------------
 Rotational constants (GHZ):           0.9724950           0.9724875           0.9724866
 Standard basis: def2QZVPP (5D, 7F)
 There are   298 symmetry adapted cartesian basis functions of A'  symmetry.
 There are   206 symmetry adapted cartesian basis functions of A"  symmetry.
 There are   245 symmetry adapted basis functions of A'  symmetry.
 There are   175 symmetry adapted basis functions of A"  symmetry.
   420 basis functions,   704 primitive gaussians,   504 cartesian basis functions
    40 alpha electrons       40 beta electrons
       nuclear repulsion energy       428.3207469200 Hartrees.
 NAtoms=    8 NActive=    8 NUniq=    6 SFac= 1.78D+00 NAtFMM=   60 NAOKFM=F Big=F
 Integral buffers will be    131072 words long.
 Raffenetti 2 integral format.
 Two-electron integral symmetry is turned on.
 One-electron integrals computed using PRISM.
   2 Symmetry operations used in ECPInt.
 ECPInt:  NShTT=    9870 NPrTT=   34398 LenC2=    9343 LenP2D=   24492.
 LDataN:  DoStor=T MaxTD1= 8 Len=  415
 NBasis=   420 RedAO= T EigKep=  2.58D-05  NBF=   245   175
 NBsUse=   420 1.00D-06 EigRej= -1.00D+00 NBFU=   245   175
 Initial guess from the checkpoint file:  "/data/hutter/SMG16/PBE0/Gau-74377.chk"
 B after Tr=    -0.000000   -0.000000    0.000000
         Rot=    1.000000    0.000000   -0.000000   -0.000001 Ang=  -0.00 deg.
 Initial guess orbital symmetries:
       Occupied  (A') (A") (A') (A') (A') (A") (A') (A') (A') (A")
                 (A') (A') (A') (A") (A") (A") (A') (A') (A") (A')
                 (A') (A') (A") (A') (A') (A') (A') (A") (A') (A")
                 (A') (A") (A') (A') (A") (A') (A") (A') (A') (A")
       Virtual   (A') (A") (A') (A') (A') (A") (A') (A") (A') (A')
                 (A") (A') (A') (A') (A") (A') (A") (A") (A') (A')
                 (A") (A') (A') (A') (A") (A') (A") (A') (A") (A')
                 (A") (A") (A') (A') (A') (A") (A') (A') (A") (A')
                 (A") (A") (A') (A') (A') (A") (A") (A') (A') (A')
                 (A") (A') (A") (A') (A') (A") (A') (A") (A') (A')
                 (A") (A') (A") (A") (A') (A') (A') (A") (A') (A")
                 (A") (A") (A') (A") (A') (A") (A') (A") (A') (A')
                 (A") (A') (A') (A") (A') (A") (A') (A') (A') (A')
                 (A') (A") (A") (A") (A') (A') (A") (A') (A") (A")
                 (A') (A') (A") (A") (A') (A") (A') (A') (A") (A')
                 (A") (A') (A') (A") (A') (A") (A") (A') (A') (A')
                 (A") (A') (A') (A") (A") (A") (A') (A') (A') (A")
                 (A') (A') (A") (A') (A") (A') (A') (A') (A") (A")
                 (A') (A") (A") (A') (A') (A') (A") (A') (A") (A')
                 (A") (A') (A") (A') (A") (A") (A') (A') (A') (A")
                 (A') (A') (A") (A') (A") (A') (A') (A") (A') (A")
                 (A') (A') (A") (A') (A") (A') (A") (A') (A") (A")
                 (A') (A") (A') (A") (A') (A") (A") (A') (A") (A')
                 (A") (A') (A') (A") (A') (A") (A') (A') (A") (A')
                 (A') (A') (A') (A") (A') (A") (A') (A') (A") (A")
                 (A') (A") (A') (A') (A") (A') (A') (A') (A") (A')
                 (A") (A') (A') (A") (A') (A') (A") (A') (A") (A')
                 (A') (A") (A') (A") (A") (A") (A') (A') (A") (A')
                 (A") (A") (A') (A") (A') (A") (A') (A") (A') (A")
                 (A") (A') (A') (A") (A') (A') (A") (A') (A') (A")
                 (A') (A') (A') (A") (A') (A") (A") (A') (A") (A')
                 (A') (A") (A') (A") (A") (A') (A') (A") (A') (A")
                 (A") (A') (A') (A") (A') (A") (A') (A") (A") (A")
                 (A') (A') (A") (A') (A") (A") (A') (A') (A") (A')
                 (A') (A") (A') (A') (A") (A") (A') (A') (A") (A')
                 (A") (A') (A') (A') (A') (A") (A') (A") (A') (A")
                 (A") (A') (A") (A') (A') (A') (A") (A') (A') (A')
                 (A") (A') (A') (A') (A") (A') (A") (A') (A') (A")
                 (A') (A") (A') (A") (A') (A') (A") (A') (A') (A")
                 (A") (A') (A") (A') (A") (A') (A') (A') (A") (A')
                 (A') (A") (A") (A") (A') (A") (A') (A') (A') (A")
                 (A') (A') (A') (A') (A") (A') (A') (A') (A") (A')
 ExpMin= 2.05D-02 ExpMax= 1.47D+06 ExpMxC= 1.67D+03 IAcc=3 IRadAn=         5 AccDes= 0.00D+00
 Harris functional with IExCor= 1009 and IRadAn=       5 diagonalized for initial guess.
 HarFok:  IExCor= 1009 AccDes= 0.00D+00 IRadAn=         5 IDoV= 1 UseB2=F ITyADJ=14
 ICtDFT=  3500011 ScaDFX=  1.000000  1.000000  1.000000  1.000000
 FoFCou: FMM=F IPFlag=           0 FMFlag=      100000 FMFlg1=           0
         NFxFlg=           0 DoJE=T BraDBF=F KetDBF=T FulRan=T
         wScrn=  0.000000 ICntrl=       500 IOpCl=  0 I1Cent=   200000004 NGrid=           0
         NMat0=    1 NMatS0=      1 NMatT0=    0 NMatD0=    1 NMtDS0=    0 NMtDT0=    0
 Petite list used in FoFCou.
 Requested convergence on RMS density matrix=1.00D-08 within 128 cycles.
 Requested convergence on MAX density matrix=1.00D-06.
 Requested convergence on             energy=1.00D-06.
 No special actions if energy rises.
 SCF Done:  E(RPBE1PBE) =  -1870.83404830     A.U. after    7 cycles
            NFock=  7  Conv=0.23D-08     -V/T= 2.0016
   2 Symmetry operations used in ECPInt.
 ECPInt:  NShTT=    9870 NPrTT=   34398 LenC2=    9343 LenP2D=   24492.
 LDataN:  DoStor=T MaxTD1= 9 Len=  602
 Calling FoFJK, ICntrl=      2127 FMM=F ISym2X=1 I1Cent= 0 IOpClX= 0 NMat=1 NMatS=1 NMatT=0.
 ***** Axes restored to original set *****
 -------------------------------------------------------------------
 Center     Atomic                   Forces (Hartrees/Bohr)
 Number     Number              X              Y              Z
 -------------------------------------------------------------------
      1        3          -0.002505695    0.001772506    0.000000000
      2        3           0.000000153   -0.001772630   -0.002505936
      3        3           0.002506109    0.001772457    0.000000000
      4        3           0.000000153   -0.001772630    0.002505936
      5       17          -0.002136356   -0.001509048   -0.000000000
      6       17          -0.000000121    0.001509078   -0.002136205
      7       17           0.002135877   -0.001508812   -0.000000000
      8       17          -0.000000121    0.001509078    0.002136205
 -------------------------------------------------------------------
 Cartesian Forces:  Max     0.002506109 RMS     0.001646302

 GradGradGradGradGradGradGradGradGradGradGradGradGradGradGradGradGradGrad
 Berny optimization.
 Using GEDIIS/GDIIS optimizer.
 FormGI is forming the generalized inverse of G from B-inverse, IUseBI=4.
 Internal  Forces:  Max     0.001173448 RMS     0.000617824
 Search for a local minimum.
 Step number   2 out of a maximum of   62
 All quantities printed in internal units (Hartrees-Bohrs-Radians)
 Mixed Optimization -- En-DIIS/RFO-DIIS
 Update second derivatives using D2CorX and points    1    2
 DE= -6.99D-04 DEPred=-4.32D-04 R= 1.62D+00
 TightC=F SS=  1.41D+00  RLast= 1.26D-01 DXNew= 5.0454D-01 3.7949D-01
 Trust test= 1.62D+00 RLast= 1.26D-01 DXMaxT set to 3.79D-01
 ITU=  1  0
 Use linear search instead of GDIIS.
     Eigenvalues ---    0.01579   0.04992   0.05058   0.05742   0.05868
     Eigenvalues ---    0.06033   0.07737   0.07847   0.07895   0.08030
     Eigenvalues ---    0.08048   0.08797   0.09612   0.09682   0.09946
     Eigenvalues ---    0.11477   0.11520   0.11759
 RFO step:  Lambda=-5.53175579D-05 EMin= 1.57912838D-02
 Quartic linear search produced a step of  1.64588.
 Iteration  1 RMS(Cart)=  0.01667177 RMS(Int)=  0.00000489
 Iteration  2 RMS(Cart)=  0.00000234 RMS(Int)=  0.00000381
 Iteration  3 RMS(Cart)=  0.00000000 RMS(Int)=  0.00000381
 ClnCor:  largest displacement from symmetrization is 4.18D-06 for atom     8.
 Variable       Old X    -DE/DX   Delta X   Delta X   Delta X     New X
                                 (Linear)    (Quad)   (Total)
    R1        5.45773  -0.00071  -0.05087  -0.01328  -0.06416   5.39357
    R2        5.45778  -0.00073  -0.05085  -0.01326  -0.06411   5.39367
    R3        5.45773  -0.00076  -0.05087  -0.01327  -0.06416   5.39357
    R4        4.41211  -0.00115  -0.04809  -0.00104  -0.04912   4.36299
    R5        4.41212  -0.00115  -0.04808  -0.00107  -0.04915   4.36298
    R6        4.41212  -0.00116  -0.04808  -0.00107  -0.04915   4.36298
    R7        5.45774  -0.00069  -0.05086  -0.01328  -0.06414   5.39360
    R8        5.45779  -0.00073  -0.05084  -0.01326  -0.06411   5.39369
    R9        4.41213  -0.00117  -0.04808  -0.00107  -0.04915   4.36298
   R10        4.41211  -0.00117  -0.04809  -0.00103  -0.04913   4.36299
   R11        4.41212  -0.00115  -0.04807  -0.00107  -0.04913   4.36299
   R12        5.45774  -0.00071  -0.05086  -0.01328  -0.06414   5.39360
   R13        4.41213  -0.00115  -0.04808  -0.00107  -0.04914   4.36299
   R14        4.41211  -0.00117  -0.04809  -0.00103  -0.04912   4.36299
   R15        4.41213  -0.00117  -0.04808  -0.00107  -0.04914   4.36299
   R16        4.41213  -0.00116  -0.04808  -0.00107  -0.04915   4.36298
   R17        4.41212  -0.00115  -0.04807  -0.00107  -0.04913   4.36299
   R18        4.41211  -0.00115  -0.04809  -0.00104  -0.04913   4.36299
    A1        1.73067  -0.00013  -0.00160   0.00224   0.00064   1.73131
    A2        1.73066  -0.00013  -0.00160   0.00223   0.00063   1.73129
    A3        1.73067  -0.00013  -0.00160   0.00224   0.00064   1.73131
    A4        1.78196  -0.00017  -0.00194   0.00272   0.00078   1.78273
    A5        1.78196  -0.00015  -0.00194   0.00272   0.00078   1.78273
    A6        1.78194  -0.00016  -0.00194   0.00270   0.00075   1.78269
    A7        1.73067  -0.00014  -0.00160   0.00224   0.00064   1.73130
    A8        1.73067  -0.00013  -0.00160   0.00224   0.00064   1.73131
    A9        1.73066  -0.00014  -0.00160   0.00223   0.00062   1.73128
   A10        1.78195  -0.00016  -0.00193   0.00272   0.00078   1.78273
   A11        1.78193  -0.00016  -0.00194   0.00270   0.00075   1.78269
   A12        1.78195  -0.00017  -0.00194   0.00272   0.00077   1.78273
   A13        1.73066  -0.00014  -0.00160   0.00223   0.00062   1.73128
   A14        1.73067  -0.00013  -0.00160   0.00224   0.00064   1.73131
   A15        1.73067  -0.00014  -0.00160   0.00224   0.00064   1.73131
   A16        1.78195  -0.00017  -0.00194   0.00272   0.00078   1.78273
   A17        1.78193  -0.00016  -0.00194   0.00270   0.00075   1.78269
   A18        1.78195  -0.00016  -0.00194   0.00272   0.00078   1.78273
   A19        1.73067  -0.00013  -0.00160   0.00224   0.00064   1.73130
   A20        1.73066  -0.00013  -0.00160   0.00223   0.00062   1.73128
   A21        1.73067  -0.00013  -0.00160   0.00224   0.00064   1.73131
   A22        1.78193  -0.00016  -0.00194   0.00270   0.00075   1.78269
   A23        1.78195  -0.00015  -0.00193   0.00272   0.00078   1.78273
   A24        1.78195  -0.00017  -0.00194   0.00272   0.00077   1.78273
    D1       -0.00002  -0.00000  -0.00001  -0.00002  -0.00003  -0.00005
    D2       -0.00000   0.00001   0.00000  -0.00000   0.00000   0.00000
    D3        0.00002  -0.00001   0.00001   0.00003   0.00003   0.00005
    D4        0.00003  -0.00001   0.00001   0.00003   0.00003   0.00006
    D5        0.00000   0.00001   0.00000  -0.00000  -0.00000   0.00000
    D6       -1.37939  -0.00012  -0.00160   0.00224   0.00064  -1.37874
    D7        1.37940   0.00013   0.00160  -0.00223  -0.00062   1.37878
    D8       -0.00003  -0.00000  -0.00001  -0.00002  -0.00003  -0.00006
    D9       -1.37941  -0.00013  -0.00160   0.00223   0.00062  -1.37878
   D10        1.37939   0.00012   0.00160  -0.00224  -0.00064   1.37875
         Item               Value     Threshold  Converged?
 Maximum Force            0.001173     0.000450     NO 
 RMS     Force            0.000618     0.000300     NO 
 Maximum Displacement     0.037189     0.001800     NO 
 RMS     Displacement     0.016673     0.001200     NO 
 Predicted change in Energy=-5.160400D-04
 GradGradGradGradGradGradGradGradGradGradGradGradGradGradGradGradGradGrad

                          Input orientation:                          
 ---------------------------------------------------------------------
 Center     Atomic      Atomic             Coordinates (Angstroms)
 Number     Number       Type             X           Y           Z
 ---------------------------------------------------------------------
      1          3           0       10.427092    7.990919    9.000000
      2          3           0        9.000000   10.009082   10.427108
      3          3           0        7.572884    7.990919    9.000000
      4          3           0        9.000000   10.009082    7.572892
      5         17           0       10.796045   10.270042    9.000000
      6         17           0        8.999992    7.729957   10.796048
      7         17           0        7.203951   10.270044    9.000000
      8         17           0        8.999992    7.729957    7.203952
 ---------------------------------------------------------------------
                    Distance matrix (angstroms):
                    1          2          3          4          5
     1  Li   0.000000
     2  Li   2.854156   0.000000
     3  Li   2.854208   2.854169   0.000000
     4  Li   2.854156   2.854215   2.854169   0.000000
     5  Cl   2.308794   2.308791   3.947553   2.308791   0.000000
     6  Cl   2.308788   2.308793   2.308793   3.947549   3.592162
     7  Cl   3.947537   2.308794   2.308793   2.308794   3.592094
     8  Cl   2.308788   3.947549   2.308793   2.308793   3.592162
                    6          7          8
     6  Cl   0.000000
     7  Cl   3.592157   0.000000
     8  Cl   3.592096   3.592157   0.000000
 Stoichiometry    Cl4Li4
 Framework group  CS[SG(Cl2Li2),X(Cl2Li2)]
 Deg. of freedom    11
 Full point group                 CS      NOp   2
 Largest Abelian subgroup         CS      NOp   2
 Largest concise Abelian subgroup CS      NOp   2
                         Standard orientation:                         
 ---------------------------------------------------------------------
 Center     Atomic      Atomic             Coordinates (Angstroms)
 Number     Number       Type             X           Y           Z
 ---------------------------------------------------------------------
      1          3           0       -1.427101    1.009076    0.000000
      2          3           0       -0.000002   -1.009082    1.427108
      3          3           0        1.427107    1.009087    0.000000
      4          3           0       -0.000002   -1.009082   -1.427108
      5         17           0       -1.796046   -1.270048   -0.000000
      6         17           0       -0.000002    1.270043    1.796048
      7         17           0        1.796049   -1.270038   -0.000000
      8         17           0       -0.000002    1.270043   -1.796048
 ---------------------------------------------------------------------
 Rotational constants (GHZ):           0.9941276           0.9941001           0.9940994
 Standard basis: def2QZVPP (5D, 7F)
 There are   298 symmetry adapted cartesian basis functions of A'  symmetry.
 There are   206 symmetry adapted cartesian basis functions of A"  symmetry.
 There are   245 symmetry adapted basis functions of A'  symmetry.
 There are   175 symmetry adapted basis functions of A"  symmetry.
   420 basis functions,   704 primitive gaussians,   504 cartesian basis functions
    40 alpha electrons       40 beta electrons
       nuclear repulsion energy       433.0742904387 Hartrees.
 NAtoms=    8 NActive=    8 NUniq=    6 SFac= 1.78D+00 NAtFMM=   60 NAOKFM=F Big=F
 Integral buffers will be    131072 words long.
 Raffenetti 2 integral format.
 Two-electron integral symmetry is turned on.
 One-electron integrals computed using PRISM.
   2 Symmetry operations used in ECPInt.
 ECPInt:  NShTT=    9870 NPrTT=   34398 LenC2=    9343 LenP2D=   24616.
 LDataN:  DoStor=T MaxTD1= 8 Len=  415
 NBasis=   420 RedAO= T EigKep=  2.52D-05  NBF=   245   175
 NBsUse=   420 1.00D-06 EigRej= -1.00D+00 NBFU=   245   175
 Initial guess from the checkpoint file:  "/data/hutter/SMG16/PBE0/Gau-74377.chk"
 B after Tr=     0.000000    0.000000   -0.000000
         Rot=    1.000000    0.000000   -0.000000   -0.000001 Ang=  -0.00 deg.
 Initial guess orbital symmetries:
       Occupied  (A') (A") (A') (A') (A') (A") (A') (A') (A') (A")
                 (A') (A') (A') (A") (A") (A") (A') (A') (A") (A')
                 (A') (A') (A") (A') (A') (A') (A') (A") (A') (A')
                 (A") (A") (A') (A') (A") (A') (A") (A') (A") (A')
       Virtual   (A') (A") (A') (A') (A') (A") (A') (A") (A') (A')
                 (A") (A') (A') (A") (A') (A") (A') (A") (A') (A')
                 (A") (A') (A') (A') (A") (A') (A") (A') (A") (A')
                 (A") (A") (A') (A') (A') (A") (A') (A') (A") (A')
                 (A") (A") (A') (A') (A') (A") (A') (A") (A') (A')
                 (A") (A') (A") (A') (A') (A") (A') (A") (A') (A')
                 (A") (A') (A") (A') (A") (A") (A') (A') (A') (A")
                 (A") (A") (A') (A") (A') (A") (A") (A') (A') (A')
                 (A") (A') (A") (A') (A') (A") (A') (A') (A') (A')
                 (A') (A") (A") (A") (A') (A') (A') (A") (A") (A")
                 (A') (A') (A") (A") (A') (A') (A") (A') (A") (A')
                 (A") (A') (A') (A") (A') (A") (A") (A') (A') (A')
                 (A") (A') (A') (A") (A") (A') (A") (A') (A') (A")
                 (A') (A') (A") (A') (A") (A') (A') (A') (A") (A")
                 (A') (A") (A") (A') (A') (A') (A") (A') (A") (A')
                 (A") (A') (A") (A') (A") (A') (A") (A') (A') (A")
                 (A') (A') (A") (A') (A") (A') (A') (A") (A') (A")
                 (A') (A') (A') (A") (A") (A') (A') (A") (A") (A')
                 (A") (A") (A') (A") (A') (A") (A") (A") (A') (A")
                 (A') (A') (A') (A") (A') (A') (A") (A') (A") (A')
                 (A') (A') (A') (A") (A') (A") (A') (A') (A") (A")
                 (A') (A") (A') (A') (A") (A') (A') (A') (A") (A')
                 (A") (A') (A') (A") (A') (A') (A") (A') (A") (A')
                 (A") (A') (A') (A") (A") (A") (A') (A') (A") (A')
                 (A") (A") (A') (A") (A") (A') (A') (A") (A') (A")
                 (A") (A') (A") (A') (A') (A') (A") (A') (A') (A")
                 (A') (A') (A') (A") (A') (A") (A") (A') (A") (A')
                 (A') (A") (A') (A") (A") (A') (A') (A") (A') (A")
                 (A') (A") (A') (A") (A') (A") (A') (A") (A") (A")
                 (A') (A") (A') (A") (A') (A') (A") (A') (A") (A')
                 (A') (A") (A') (A') (A") (A") (A') (A') (A") (A')
                 (A") (A') (A') (A') (A') (A") (A') (A") (A') (A")
                 (A") (A') (A') (A") (A') (A') (A") (A') (A') (A')
                 (A") (A') (A') (A') (A") (A') (A") (A') (A') (A")
                 (A') (A') (A") (A") (A') (A') (A") (A') (A') (A")
                 (A") (A') (A") (A') (A") (A') (A') (A') (A") (A')
                 (A") (A') (A") (A") (A') (A') (A") (A') (A') (A")
                 (A') (A') (A') (A') (A") (A') (A') (A') (A") (A')
 ExpMin= 2.05D-02 ExpMax= 1.47D+06 ExpMxC= 1.67D+03 IAcc=3 IRadAn=         5 AccDes= 0.00D+00
 Harris functional with IExCor= 1009 and IRadAn=       5 diagonalized for initial guess.
 HarFok:  IExCor= 1009 AccDes= 0.00D+00 IRadAn=         5 IDoV= 1 UseB2=F ITyADJ=14
 ICtDFT=  3500011 ScaDFX=  1.000000  1.000000  1.000000  1.000000
 FoFCou: FMM=F IPFlag=           0 FMFlag=      100000 FMFlg1=           0
         NFxFlg=           0 DoJE=T BraDBF=F KetDBF=T FulRan=T
         wScrn=  0.000000 ICntrl=       500 IOpCl=  0 I1Cent=   200000004 NGrid=           0
         NMat0=    1 NMatS0=      1 NMatT0=    0 NMatD0=    1 NMtDS0=    0 NMtDT0=    0
 Petite list used in FoFCou.
 Requested convergence on RMS density matrix=1.00D-08 within 128 cycles.
 Requested convergence on MAX density matrix=1.00D-06.
 Requested convergence on             energy=1.00D-06.
 No special actions if energy rises.
 SCF Done:  E(RPBE1PBE) =  -1870.83455806     A.U. after    7 cycles
            NFock=  7  Conv=0.40D-08     -V/T= 2.0015
   2 Symmetry operations used in ECPInt.
 ECPInt:  NShTT=    9870 NPrTT=   34398 LenC2=    9343 LenP2D=   24616.
 LDataN:  DoStor=T MaxTD1= 9 Len=  602
 Calling FoFJK, ICntrl=      2127 FMM=F ISym2X=1 I1Cent= 0 IOpClX= 0 NMat=1 NMatS=1 NMatT=0.
 ***** Axes restored to original set *****
 -------------------------------------------------------------------
 Center     Atomic                   Forces (Hartrees/Bohr)
 Number     Number              X              Y              Z
 -------------------------------------------------------------------
      1        3          -0.000954339    0.000673539    0.000000000
      2        3          -0.000000215   -0.000673617   -0.000954753
      3        3           0.000954773    0.000673767    0.000000000
      4        3          -0.000000215   -0.000673617    0.000954753
      5       17           0.000616427    0.000437979    0.000000000
      6       17          -0.000000070   -0.000438066    0.000616420
      7       17          -0.000616289    0.000438081    0.000000000
      8       17          -0.000000070   -0.000438066   -0.000616420
 -------------------------------------------------------------------
 Cartesian Forces:  Max     0.000954773 RMS     0.000568180

 GradGradGradGradGradGradGradGradGradGradGradGradGradGradGradGradGradGrad
 Berny optimization.
 Using GEDIIS/GDIIS optimizer.
 FormGI is forming the generalized inverse of G from B-inverse, IUseBI=4.
 Internal  Forces:  Max     0.000538615 RMS     0.000246395
 Search for a local minimum.
 Step number   3 out of a maximum of   62
 All quantities printed in internal units (Hartrees-Bohrs-Radians)
 Mixed Optimization -- En-DIIS/RFO-DIIS
 Swapping is turned off.
 Update second derivatives using D2CorX and points    1    2    3
 DE= -5.10D-04 DEPred=-5.16D-04 R= 9.88D-01
 TightC=F SS=  1.41D+00  RLast= 2.32D-01 DXNew= 6.3822D-01 6.9498D-01
 Trust test= 9.88D-01 RLast= 2.32D-01 DXMaxT set to 6.38D-01
 ITU=  1  1  0
     Eigenvalues ---    0.01445   0.05009   0.05076   0.05762   0.05895
     Eigenvalues ---    0.06059   0.07753   0.07864   0.07931   0.08052
     Eigenvalues ---    0.08070   0.09670   0.09684   0.10028   0.10284
     Eigenvalues ---    0.11557   0.11621   0.11845
 En-DIIS/RFO-DIIS/Sim-DIIS IScMMF=       -3 using points:     3    2
 RFO step:  Lambda=-4.53646383D-05.
 DidBck=F Rises=F RFO-DIIS coefs:    1.13355   -0.13355
 Iteration  1 RMS(Cart)=  0.00245915 RMS(Int)=  0.00000439
 Iteration  2 RMS(Cart)=  0.00000290 RMS(Int)=  0.00000181
 Iteration  3 RMS(Cart)=  0.00000000 RMS(Int)=  0.00000181
 ClnCor:  largest displacement from symmetrization is 1.57D-05 for atom     8.
 Variable       Old X    -DE/DX   Delta X   Delta X   Delta X     New X
                                 (Linear)    (Quad)   (Total)
    R1        5.39357  -0.00052  -0.00857  -0.00570  -0.01427   5.37931
    R2        5.39367  -0.00050  -0.00856  -0.00570  -0.01426   5.37941
    R3        5.39357  -0.00046  -0.00857  -0.00568  -0.01427   5.37931
    R4        4.36299   0.00025  -0.00656   0.00380  -0.00276   4.36023
    R5        4.36298   0.00025  -0.00656   0.00377  -0.00278   4.36020
    R6        4.36298   0.00026  -0.00656   0.00378  -0.00278   4.36020
    R7        5.39360  -0.00054  -0.00857  -0.00571  -0.01428   5.37932
    R8        5.39369  -0.00050  -0.00856  -0.00570  -0.01427   5.37941
    R9        4.36298   0.00027  -0.00656   0.00379  -0.00278   4.36020
   R10        4.36299   0.00027  -0.00656   0.00380  -0.00276   4.36023
   R11        4.36299   0.00025  -0.00656   0.00377  -0.00279   4.36020
   R12        5.39360  -0.00052  -0.00857  -0.00571  -0.01428   5.37932
   R13        4.36299   0.00025  -0.00656   0.00377  -0.00279   4.36020
   R14        4.36299   0.00027  -0.00656   0.00380  -0.00276   4.36023
   R15        4.36299   0.00027  -0.00656   0.00378  -0.00279   4.36020
   R16        4.36298   0.00026  -0.00656   0.00378  -0.00278   4.36020
   R17        4.36299   0.00025  -0.00656   0.00377  -0.00279   4.36020
   R18        4.36299   0.00025  -0.00656   0.00380  -0.00276   4.36023
    A1        1.73131   0.00015   0.00009   0.00196   0.00205   1.73336
    A2        1.73129   0.00015   0.00008   0.00196   0.00204   1.73333
    A3        1.73131   0.00016   0.00009   0.00196   0.00205   1.73336
    A4        1.78273   0.00020   0.00010   0.00238   0.00248   1.78521
    A5        1.78273   0.00017   0.00010   0.00237   0.00248   1.78521
    A6        1.78269   0.00019   0.00010   0.00237   0.00247   1.78516
    A7        1.73130   0.00017   0.00009   0.00197   0.00205   1.73336
    A8        1.73131   0.00015   0.00009   0.00196   0.00205   1.73336
    A9        1.73128   0.00016   0.00008   0.00196   0.00204   1.73333
   A10        1.78273   0.00019   0.00010   0.00238   0.00248   1.78521
   A11        1.78269   0.00018   0.00010   0.00237   0.00247   1.78516
   A12        1.78273   0.00020   0.00010   0.00238   0.00248   1.78521
   A13        1.73128   0.00016   0.00008   0.00196   0.00204   1.73332
   A14        1.73131   0.00015   0.00009   0.00196   0.00205   1.73336
   A15        1.73131   0.00017   0.00009   0.00197   0.00205   1.73336
   A16        1.78273   0.00020   0.00010   0.00238   0.00248   1.78521
   A17        1.78269   0.00018   0.00010   0.00237   0.00247   1.78516
   A18        1.78273   0.00019   0.00010   0.00238   0.00248   1.78521
   A19        1.73130   0.00016   0.00009   0.00196   0.00205   1.73336
   A20        1.73128   0.00015   0.00008   0.00196   0.00204   1.73333
   A21        1.73131   0.00015   0.00009   0.00196   0.00205   1.73336
   A22        1.78269   0.00019   0.00010   0.00237   0.00247   1.78516
   A23        1.78273   0.00017   0.00010   0.00237   0.00248   1.78521
   A24        1.78273   0.00020   0.00010   0.00238   0.00248   1.78521
    D1       -0.00005  -0.00000  -0.00000  -0.00001  -0.00001  -0.00007
    D2        0.00000  -0.00001   0.00000  -0.00001   0.00000   0.00000
    D3        0.00005   0.00002   0.00000   0.00001   0.00001   0.00007
    D4        0.00006   0.00001   0.00000   0.00001   0.00001   0.00007
    D5       -0.00000  -0.00001  -0.00000  -0.00001   0.00000   0.00000
    D6       -1.37874   0.00014   0.00009   0.00196   0.00204  -1.37670
    D7        1.37878  -0.00015  -0.00008  -0.00196  -0.00204   1.37674
    D8       -0.00006  -0.00000  -0.00000  -0.00000  -0.00001  -0.00007
    D9       -1.37878   0.00015   0.00008   0.00196   0.00204  -1.37674
   D10        1.37875  -0.00014  -0.00009  -0.00196  -0.00204   1.37670
         Item               Value     Threshold  Converged?
 Maximum Force            0.000539     0.000450     NO 
 RMS     Force            0.000246     0.000300     YES
 Maximum Displacement     0.007136     0.001800     NO 
 RMS     Displacement     0.002460     0.001200     NO 
 Predicted change in Energy=-2.273747D-05
 GradGradGradGradGradGradGradGradGradGradGradGradGradGradGradGradGradGrad

                          Input orientation:                          
 ---------------------------------------------------------------------
 Center     Atomic      Atomic             Coordinates (Angstroms)
 Number     Number       Type             X           Y           Z
 ---------------------------------------------------------------------
      1          3           0       10.423320    7.993587    9.000000
      2          3           0        8.999999   10.006410   10.423331
      3          3           0        7.576660    7.993591    9.000000
      4          3           0        8.999999   10.006410    7.576669
      5         17           0       10.796688   10.270512    9.000000
      6         17           0        8.999991    7.729483   10.796691
      7         17           0        7.203308   10.270519    9.000000
      8         17           0        8.999991    7.729483    7.203309
 ---------------------------------------------------------------------
                    Distance matrix (angstroms):
                    1          2          3          4          5
     1  Li   0.000000
     2  Li   2.846607   0.000000
     3  Li   2.846659   2.846613   0.000000
     4  Li   2.846607   2.846663   2.846613   0.000000
     5  Cl   2.307334   2.307318   3.943722   2.307318   0.000000
     6  Cl   2.307318   2.307335   2.307319   3.943721   3.593473
     7  Cl   3.943716   2.307320   2.307334   2.307320   3.593380
     8  Cl   2.307318   3.943721   2.307319   2.307335   3.593473
                    6          7          8
     6  Cl   0.000000
     7  Cl   3.593471   0.000000
     8  Cl   3.593382   3.593471   0.000000
 Stoichiometry    Cl4Li4
 Framework group  CS[SG(Cl2Li2),X(Cl2Li2)]
 Deg. of freedom    11
 Full point group                 CS      NOp   2
 Largest Abelian subgroup         CS      NOp   2
 Largest concise Abelian subgroup CS      NOp   2
                         Standard orientation:                         
 ---------------------------------------------------------------------
 Center     Atomic      Atomic             Coordinates (Angstroms)
 Number     Number       Type             X           Y           Z
 ---------------------------------------------------------------------
      1          3           0       -1.423329    1.006407    0.000000
      2          3           0       -0.000001   -1.006411    1.423331
      3          3           0        1.423331    1.006413    0.000000
      4          3           0       -0.000001   -1.006411   -1.423331
      5         17           0       -1.796689   -1.270519   -0.000000
      6         17           0       -0.000001    1.270516    1.796691
      7         17           0        1.796691   -1.270514   -0.000000
      8         17           0       -0.000001    1.270516   -1.796691
 ---------------------------------------------------------------------
 Rotational constants (GHZ):           0.9940865           0.9940461           0.9940456
 Standard basis: def2QZVPP (5D, 7F)
 There are   298 symmetry adapted cartesian basis functions of A'  symmetry.
 There are   206 symmetry adapted cartesian basis functions of A"  symmetry.
 There are   245 symmetry adapted basis functions of A'  symmetry.
 There are   175 symmetry adapted basis functions of A"  symmetry.
   420 basis functions,   704 primitive gaussians,   504 cartesian basis functions
    40 alpha electrons       40 beta electrons
       nuclear repulsion energy       433.1240196196 Hartrees.
 NAtoms=    8 NActive=    8 NUniq=    6 SFac= 1.78D+00 NAtFMM=   60 NAOKFM=F Big=F
 Integral buffers will be    131072 words long.
 Raffenetti 2 integral format.
 Two-electron integral symmetry is turned on.
 One-electron integrals computed using PRISM.
   2 Symmetry operations used in ECPInt.
 ECPInt:  NShTT=    9870 NPrTT=   34398 LenC2=    9347 LenP2D=   24596.
 LDataN:  DoStor=T MaxTD1= 8 Len=  415
 NBasis=   420 RedAO= T EigKep=  2.50D-05  NBF=   245   175
 NBsUse=   420 1.00D-06 EigRej= -1.00D+00 NBFU=   245   175
 Initial guess from the checkpoint file:  "/data/hutter/SMG16/PBE0/Gau-74377.chk"
 B after Tr=    -0.000000   -0.000000    0.000000
         Rot=    1.000000   -0.000000   -0.000000    0.000000 Ang=   0.00 deg.
 Initial guess orbital symmetries:
       Occupied  (A') (A") (A') (A') (A') (A") (A') (A') (A') (A")
                 (A') (A') (A") (A") (A') (A") (A') (A') (A") (A')
                 (A') (A') (A") (A') (A') (A') (A") (A') (A') (A')
                 (A") (A') (A") (A') (A") (A") (A') (A') (A") (A')
       Virtual   (A') (A") (A') (A') (A') (A") (A') (A") (A') (A')
                 (A") (A') (A') (A") (A') (A") (A') (A') (A") (A')
                 (A") (A') (A') (A') (A") (A') (A") (A') (A") (A')
                 (A") (A") (A') (A') (A') (A") (A') (A') (A") (A")
                 (A') (A") (A') (A') (A') (A") (A") (A') (A') (A')
                 (A') (A") (A") (A') (A') (A') (A") (A") (A') (A')
                 (A") (A') (A') (A") (A") (A') (A") (A') (A') (A")
                 (A") (A") (A') (A") (A") (A') (A") (A') (A') (A')
                 (A") (A') (A") (A') (A') (A") (A') (A') (A') (A')
                 (A") (A') (A') (A") (A") (A') (A') (A") (A") (A")
                 (A') (A') (A") (A") (A') (A') (A") (A") (A') (A')
                 (A") (A') (A') (A') (A") (A") (A") (A') (A') (A')
                 (A") (A') (A') (A") (A") (A') (A') (A") (A') (A")
                 (A') (A") (A') (A') (A") (A') (A') (A') (A") (A")
                 (A') (A") (A') (A') (A") (A') (A") (A') (A") (A')
                 (A") (A') (A") (A') (A") (A") (A') (A') (A') (A")
                 (A') (A') (A") (A') (A") (A') (A') (A") (A') (A")
                 (A') (A') (A') (A") (A") (A') (A') (A") (A") (A')
                 (A") (A") (A') (A") (A') (A") (A") (A") (A") (A')
                 (A') (A') (A') (A') (A") (A') (A') (A") (A") (A')
                 (A') (A') (A') (A") (A') (A") (A') (A") (A") (A')
                 (A') (A") (A') (A") (A') (A') (A') (A') (A') (A")
                 (A") (A') (A") (A') (A') (A') (A') (A") (A") (A')
                 (A") (A') (A') (A") (A') (A") (A') (A") (A") (A')
                 (A") (A") (A") (A') (A") (A') (A') (A") (A') (A")
                 (A') (A") (A") (A') (A') (A') (A") (A') (A') (A")
                 (A') (A') (A") (A') (A") (A') (A") (A") (A') (A')
                 (A') (A") (A') (A") (A") (A') (A') (A") (A') (A")
                 (A') (A") (A') (A') (A") (A") (A') (A") (A") (A')
                 (A") (A") (A') (A') (A') (A") (A") (A') (A") (A')
                 (A') (A") (A') (A') (A") (A") (A') (A') (A") (A')
                 (A") (A') (A') (A') (A') (A") (A') (A") (A') (A")
                 (A') (A") (A') (A") (A') (A') (A") (A') (A') (A')
                 (A') (A") (A') (A') (A") (A') (A") (A') (A") (A')
                 (A') (A') (A") (A") (A') (A') (A") (A') (A') (A")
                 (A") (A") (A') (A') (A') (A") (A') (A') (A') (A")
                 (A") (A') (A") (A") (A') (A') (A') (A") (A") (A')
                 (A') (A') (A') (A') (A') (A") (A') (A') (A') (A")
 Requested convergence on RMS density matrix=1.00D-08 within 128 cycles.
 Requested convergence on MAX density matrix=1.00D-06.
 Requested convergence on             energy=1.00D-06.
 No special actions if energy rises.
 SCF Done:  E(RPBE1PBE) =  -1870.83459717     A.U. after    6 cycles
            NFock=  6  Conv=0.39D-08     -V/T= 2.0015
   2 Symmetry operations used in ECPInt.
 ECPInt:  NShTT=    9870 NPrTT=   34398 LenC2=    9347 LenP2D=   24596.
 LDataN:  DoStor=T MaxTD1= 9 Len=  602
 Calling FoFJK, ICntrl=      2127 FMM=F ISym2X=1 I1Cent= 0 IOpClX= 0 NMat=1 NMatS=1 NMatT=0.
 ***** Axes restored to original set *****
 -------------------------------------------------------------------
 Center     Atomic                   Forces (Hartrees/Bohr)
 Number     Number              X              Y              Z
 -------------------------------------------------------------------
      1        3          -0.000665484    0.000469428   -0.000000000
      2        3          -0.000000121   -0.000469514   -0.000665626
      3        3           0.000665622    0.000469575    0.000000000
      4        3          -0.000000121   -0.000469514    0.000665626
      5       17           0.000585743    0.000415378    0.000000000
      6       17          -0.000000000   -0.000415376    0.000585686
      7       17          -0.000585637    0.000415399   -0.000000000
      8       17          -0.000000000   -0.000415376   -0.000585686
 -------------------------------------------------------------------
 Cartesian Forces:  Max     0.000665626 RMS     0.000443287

 GradGradGradGradGradGradGradGradGradGradGradGradGradGradGradGradGradGrad
 Berny optimization.
 Using GEDIIS/GDIIS optimizer.
 FormGI is forming the generalized inverse of G from B-inverse, IUseBI=4.
 Internal  Forces:  Max     0.000404963 RMS     0.000206640
 Search for a local minimum.
 Step number   4 out of a maximum of   62
 All quantities printed in internal units (Hartrees-Bohrs-Radians)
 Mixed Optimization -- En-DIIS/RFO-DIIS
 Swapping is turned off.
 Update second derivatives using D2CorX and points    1    2    3    4
 DE= -3.91D-05 DEPred=-2.27D-05 R= 1.72D+00
 TightC=F SS=  1.41D+00  RLast= 3.81D-02 DXNew= 1.0733D+00 1.1444D-01
 Trust test= 1.72D+00 RLast= 3.81D-02 DXMaxT set to 6.38D-01
 ITU=  1  1  1  0
     Eigenvalues ---    0.00853   0.05015   0.05045   0.05219   0.05770
     Eigenvalues ---    0.05937   0.06067   0.07765   0.07872   0.07962
     Eigenvalues ---    0.08060   0.08080   0.09678   0.09721   0.10025
     Eigenvalues ---    0.11581   0.11612   0.11867
 En-DIIS/RFO-DIIS/Sim-DIIS IScMMF=       -3 using points:     4    3    2
 RFO step:  Lambda=-1.01890611D-04.
 DidBck=F Rises=F RFO-DIIS coefs:    2.88033   -2.00000    0.11967
 Iteration  1 RMS(Cart)=  0.00683079 RMS(Int)=  0.00005129
 Iteration  2 RMS(Cart)=  0.00002569 RMS(Int)=  0.00003562
 Iteration  3 RMS(Cart)=  0.00000000 RMS(Int)=  0.00003562
 ClnCor:  largest displacement from symmetrization is 1.75D-05 for atom     8.
 Variable       Old X    -DE/DX   Delta X   Delta X   Delta X     New X
                                 (Linear)    (Quad)   (Total)
    R1        5.37931  -0.00039  -0.01915  -0.01574  -0.03492   5.34438
    R2        5.37941  -0.00037  -0.01915  -0.01575  -0.03494   5.34447
    R3        5.37931  -0.00034  -0.01915  -0.01573  -0.03492   5.34438
    R4        4.36023   0.00025   0.00069  -0.00143  -0.00071   4.35952
    R5        4.36020   0.00025   0.00065  -0.00144  -0.00077   4.35943
    R6        4.36020   0.00026   0.00065  -0.00144  -0.00077   4.35943
    R7        5.37932  -0.00040  -0.01917  -0.01576  -0.03495   5.34436
    R8        5.37941  -0.00037  -0.01916  -0.01575  -0.03495   5.34446
    R9        4.36020   0.00027   0.00065  -0.00145  -0.00078   4.35942
   R10        4.36023   0.00027   0.00070  -0.00143  -0.00072   4.35951
   R11        4.36020   0.00025   0.00064  -0.00145  -0.00079   4.35942
   R12        5.37932  -0.00039  -0.01917  -0.01575  -0.03495   5.34436
   R13        4.36020   0.00025   0.00064  -0.00145  -0.00079   4.35942
   R14        4.36023   0.00027   0.00069  -0.00143  -0.00072   4.35951
   R15        4.36020   0.00027   0.00064  -0.00145  -0.00079   4.35942
   R16        4.36020   0.00026   0.00065  -0.00144  -0.00078   4.35942
   R17        4.36020   0.00025   0.00064  -0.00145  -0.00079   4.35942
   R18        4.36023   0.00025   0.00070  -0.00143  -0.00072   4.35951
    A1        1.73336   0.00013   0.00377   0.00263   0.00639   1.73975
    A2        1.73333   0.00012   0.00376   0.00263   0.00638   1.73971
    A3        1.73336   0.00013   0.00377   0.00263   0.00639   1.73975
    A4        1.78521   0.00017   0.00457   0.00318   0.00770   1.79291
    A5        1.78521   0.00014   0.00457   0.00318   0.00770   1.79291
    A6        1.78516   0.00016   0.00455   0.00318   0.00768   1.79283
    A7        1.73336   0.00014   0.00378   0.00264   0.00641   1.73976
    A8        1.73336   0.00013   0.00378   0.00264   0.00640   1.73976
    A9        1.73333   0.00013   0.00377   0.00263   0.00639   1.73971
   A10        1.78521   0.00016   0.00457   0.00318   0.00770   1.79291
   A11        1.78516   0.00015   0.00456   0.00318   0.00768   1.79284
   A12        1.78521   0.00017   0.00457   0.00319   0.00770   1.79291
   A13        1.73332   0.00013   0.00377   0.00264   0.00639   1.73972
   A14        1.73336   0.00013   0.00378   0.00264   0.00640   1.73976
   A15        1.73336   0.00014   0.00378   0.00264   0.00640   1.73976
   A16        1.78521   0.00017   0.00457   0.00319   0.00770   1.79291
   A17        1.78516   0.00015   0.00456   0.00318   0.00769   1.79284
   A18        1.78521   0.00016   0.00457   0.00319   0.00770   1.79291
   A19        1.73336   0.00013   0.00378   0.00264   0.00641   1.73976
   A20        1.73333   0.00012   0.00377   0.00263   0.00639   1.73971
   A21        1.73336   0.00013   0.00378   0.00263   0.00640   1.73976
   A22        1.78516   0.00016   0.00456   0.00318   0.00768   1.79284
   A23        1.78521   0.00014   0.00457   0.00318   0.00770   1.79291
   A24        1.78521   0.00017   0.00457   0.00319   0.00770   1.79291
    D1       -0.00007  -0.00000  -0.00002  -0.00000  -0.00002  -0.00009
    D2        0.00000  -0.00001   0.00000  -0.00000  -0.00000   0.00000
    D3        0.00007   0.00002   0.00002   0.00001   0.00002   0.00009
    D4        0.00007   0.00001   0.00002   0.00000   0.00002   0.00009
    D5       -0.00000  -0.00001  -0.00000  -0.00000   0.00000   0.00000
    D6       -1.37670   0.00012   0.00377   0.00262   0.00632  -1.37038
    D7        1.37674  -0.00012  -0.00376  -0.00262  -0.00631   1.37043
    D8       -0.00007  -0.00000  -0.00002  -0.00000  -0.00002  -0.00009
    D9       -1.37674   0.00012   0.00376   0.00262   0.00632  -1.37043
   D10        1.37670  -0.00012  -0.00377  -0.00262  -0.00632   1.37038
         Item               Value     Threshold  Converged?
 Maximum Force            0.000405     0.000450     YES
 RMS     Force            0.000207     0.000300     YES
 Maximum Displacement     0.017482     0.001800     NO 
 RMS     Displacement     0.006822     0.001200     NO 
 Predicted change in Energy=-5.115666D-05
 GradGradGradGradGradGradGradGradGradGradGradGradGradGradGradGradGradGrad

                          Input orientation:                          
 ---------------------------------------------------------------------
 Center     Atomic      Atomic             Coordinates (Angstroms)
 Number     Number       Type             X           Y           Z
 ---------------------------------------------------------------------
      1          3           0       10.414083    8.000119    9.000000
      2          3           0        8.999994    9.999875   10.414083
      3          3           0        7.585911    8.000131    9.000000
      4          3           0        8.999994    9.999875    7.585917
      5         17           0       10.801913   10.274243    9.000000
      6         17           0        8.999990    7.725753   10.801916
      7         17           0        7.198081   10.274253    9.000000
      8         17           0        8.999990    7.725753    7.198084
 ---------------------------------------------------------------------
                    Distance matrix (angstroms):
                    1          2          3          4          5
     1  Li   0.000000
     2  Li   2.828126   0.000000
     3  Li   2.828172   2.828115   0.000000
     4  Li   2.828126   2.828166   2.828115   0.000000
     5  Cl   2.306957   2.306907   3.938814   2.306907   0.000000
     6  Cl   2.306910   2.306955   2.306903   3.938817   3.603974
     7  Cl   3.938827   2.306904   2.306956   2.306904   3.603833
     8  Cl   2.306910   3.938817   2.306903   2.306955   3.603974
                    6          7          8
     6  Cl   0.000000
     7  Cl   3.603974   0.000000
     8  Cl   3.603831   3.603974   0.000000
 Stoichiometry    Cl4Li4
 Framework group  CS[SG(Cl2Li2),X(Cl2Li2)]
 Deg. of freedom    11
 Full point group                 CS      NOp   2
 Largest Abelian subgroup         CS      NOp   2
 Largest concise Abelian subgroup CS      NOp   2
                         Standard orientation:                         
 ---------------------------------------------------------------------
 Center     Atomic      Atomic             Coordinates (Angstroms)
 Number     Number       Type             X           Y           Z
 ---------------------------------------------------------------------
      1          3           0       -1.414091    0.999879    0.000000
      2          3           0        0.000001   -0.999874    1.414083
      3          3           0        1.414081    0.999872    0.000000
      4          3           0        0.000001   -0.999874   -1.414083
      5         17           0       -1.801917   -1.274246    0.000000
      6         17           0        0.000001    1.274247    1.801916
      7         17           0        1.801916   -1.274249    0.000000
      8         17           0        0.000001    1.274247   -1.801916
 ---------------------------------------------------------------------
 Rotational constants (GHZ):           0.9903965           0.9903310           0.9903304
 Standard basis: def2QZVPP (5D, 7F)
 There are   298 symmetry adapted cartesian basis functions of A'  symmetry.
 There are   206 symmetry adapted cartesian basis functions of A"  symmetry.
 There are   245 symmetry adapted basis functions of A'  symmetry.
 There are   175 symmetry adapted basis functions of A"  symmetry.
   420 basis functions,   704 primitive gaussians,   504 cartesian basis functions
    40 alpha electrons       40 beta electrons
       nuclear repulsion energy       432.5051706392 Hartrees.
 NAtoms=    8 NActive=    8 NUniq=    6 SFac= 1.78D+00 NAtFMM=   60 NAOKFM=F Big=F
 Integral buffers will be    131072 words long.
 Raffenetti 2 integral format.
 Two-electron integral symmetry is turned on.
 One-electron integrals computed using PRISM.
   2 Symmetry operations used in ECPInt.
 ECPInt:  NShTT=    9870 NPrTT=   34398 LenC2=    9351 LenP2D=   24588.
 LDataN:  DoStor=T MaxTD1= 8 Len=  415
 NBasis=   420 RedAO= T EigKep=  2.46D-05  NBF=   245   175
 NBsUse=   420 1.00D-06 EigRej= -1.00D+00 NBFU=   245   175
 Initial guess from the checkpoint file:  "/data/hutter/SMG16/PBE0/Gau-74377.chk"
 B after Tr=     0.000000    0.000000    0.000000
         Rot=    1.000000   -0.000000    0.000000    0.000001 Ang=   0.00 deg.
 Initial guess orbital symmetries:
       Occupied  (A') (A") (A') (A') (A') (A") (A') (A') (A') (A")
                 (A') (A') (A") (A') (A") (A") (A') (A') (A") (A')
                 (A') (A") (A') (A') (A') (A') (A") (A') (A') (A')
                 (A") (A') (A") (A') (A") (A") (A') (A') (A") (A')
       Virtual   (A') (A") (A') (A') (A') (A') (A") (A") (A') (A')
                 (A") (A') (A') (A") (A') (A") (A') (A') (A") (A')
                 (A") (A') (A') (A') (A") (A') (A") (A') (A") (A')
                 (A") (A") (A') (A') (A') (A") (A') (A') (A") (A")
                 (A') (A") (A') (A') (A') (A") (A") (A') (A') (A')
                 (A') (A") (A") (A') (A') (A') (A") (A") (A') (A')
                 (A") (A') (A') (A") (A") (A') (A") (A') (A') (A")
                 (A") (A") (A') (A") (A") (A') (A") (A') (A') (A')
                 (A") (A") (A') (A') (A') (A") (A') (A') (A') (A')
                 (A") (A') (A') (A") (A") (A') (A') (A") (A") (A")
                 (A') (A') (A") (A") (A') (A') (A") (A") (A') (A')
                 (A") (A') (A') (A") (A') (A") (A") (A') (A') (A')
                 (A") (A') (A') (A") (A") (A') (A') (A") (A') (A")
                 (A') (A") (A') (A') (A") (A') (A') (A') (A") (A")
                 (A') (A") (A') (A') (A") (A') (A") (A') (A") (A')
                 (A") (A') (A") (A') (A") (A") (A') (A') (A') (A")
                 (A') (A') (A") (A') (A") (A') (A') (A") (A') (A")
                 (A') (A') (A') (A") (A") (A') (A') (A") (A") (A')
                 (A") (A") (A') (A") (A') (A") (A") (A") (A") (A')
                 (A') (A') (A') (A") (A') (A') (A') (A") (A") (A')
                 (A') (A') (A') (A") (A') (A") (A') (A") (A") (A')
                 (A') (A") (A') (A") (A') (A') (A') (A') (A") (A')
                 (A") (A') (A") (A') (A') (A') (A') (A") (A") (A')
                 (A") (A') (A') (A") (A') (A") (A') (A") (A") (A')
                 (A") (A") (A") (A') (A") (A') (A') (A") (A') (A")
                 (A") (A') (A") (A') (A') (A') (A") (A') (A') (A")
                 (A') (A') (A') (A") (A") (A') (A") (A") (A') (A')
                 (A') (A") (A') (A") (A') (A") (A') (A") (A') (A")
                 (A') (A") (A') (A") (A') (A") (A') (A") (A") (A")
                 (A') (A") (A') (A') (A') (A") (A") (A') (A") (A')
                 (A') (A") (A') (A') (A") (A") (A') (A') (A") (A')
                 (A") (A') (A') (A') (A') (A") (A') (A') (A") (A")
                 (A") (A') (A') (A") (A') (A') (A") (A') (A') (A')
                 (A") (A') (A') (A') (A") (A') (A") (A') (A') (A")
                 (A') (A') (A") (A") (A') (A') (A") (A') (A') (A")
                 (A") (A") (A') (A') (A') (A") (A') (A') (A") (A')
                 (A") (A') (A") (A") (A') (A') (A') (A") (A') (A")
                 (A') (A') (A') (A') (A") (A') (A') (A') (A") (A')
 Requested convergence on RMS density matrix=1.00D-08 within 128 cycles.
 Requested convergence on MAX density matrix=1.00D-06.
 Requested convergence on             energy=1.00D-06.
 No special actions if energy rises.
 SCF Done:  E(RPBE1PBE) =  -1870.83465008     A.U. after    6 cycles
            NFock=  6  Conv=0.83D-08     -V/T= 2.0015
   2 Symmetry operations used in ECPInt.
 ECPInt:  NShTT=    9870 NPrTT=   34398 LenC2=    9351 LenP2D=   24588.
 LDataN:  DoStor=T MaxTD1= 9 Len=  602
 Calling FoFJK, ICntrl=      2127 FMM=F ISym2X=1 I1Cent= 0 IOpClX= 0 NMat=1 NMatS=1 NMatT=0.
 ***** Axes restored to original set *****
 -------------------------------------------------------------------
 Center     Atomic                   Forces (Hartrees/Bohr)
 Number     Number              X              Y              Z
 -------------------------------------------------------------------
      1        3          -0.000000662    0.000000355    0.000000000
      2        3           0.000000154   -0.000000183   -0.000000242
      3        3           0.000000125    0.000000090   -0.000000000
      4        3           0.000000154   -0.000000183    0.000000242
      5       17           0.000014273    0.000009127   -0.000000000
      6       17           0.000000186   -0.000009219    0.000014303
      7       17          -0.000014418    0.000009231    0.000000000
      8       17           0.000000186   -0.000009219   -0.000014303
 -------------------------------------------------------------------
 Cartesian Forces:  Max     0.000014418 RMS     0.000006953

 GradGradGradGradGradGradGradGradGradGradGradGradGradGradGradGradGradGrad
 Berny optimization.
 Using GEDIIS/GDIIS optimizer.
 FormGI is forming the generalized inverse of G from B-inverse, IUseBI=4.
 Internal  Forces:  Max     0.000007277 RMS     0.000003711
 Search for a local minimum.
 Step number   5 out of a maximum of   62
 All quantities printed in internal units (Hartrees-Bohrs-Radians)
 Mixed Optimization -- En-DIIS/RFO-DIIS
 Swapping is turned off.
 Update second derivatives using D2CorX and points    1    2    3    4    5
 DE= -5.29D-05 DEPred=-5.12D-05 R= 1.03D+00
 TightC=F SS=  1.41D+00  RLast= 9.32D-02 DXNew= 1.0733D+00 2.7971D-01
 Trust test= 1.03D+00 RLast= 9.32D-02 DXMaxT set to 6.38D-01
 ITU=  1  1  1  1  0
     Eigenvalues ---    0.00852   0.04208   0.05030   0.05104   0.05790
     Eigenvalues ---    0.05941   0.06087   0.07802   0.07895   0.07996
     Eigenvalues ---    0.08081   0.08108   0.09648   0.09689   0.10000
     Eigenvalues ---    0.11643   0.11677   0.11923
 En-DIIS/RFO-DIIS/Sim-DIIS IScMMF=       -3 using points:     5    4    3    2
 RFO step:  Lambda=-8.54330112D-09.
 DIIS inversion failure, remove point   4.
 RFO-DIIS uses    3 points instead of    4
 DidBck=F Rises=F RFO-DIIS coefs:    1.02762   -0.09018    0.06256    0.00000
 Iteration  1 RMS(Cart)=  0.00006850 RMS(Int)=  0.00000037
 Iteration  2 RMS(Cart)=  0.00000000 RMS(Int)=  0.00000037
 ClnCor:  largest displacement from symmetrization is 2.25D-07 for atom     8.
 Variable       Old X    -DE/DX   Delta X   Delta X   Delta X     New X
                                 (Linear)    (Quad)   (Total)
    R1        5.34438  -0.00000  -0.00007   0.00000  -0.00007   5.34431
    R2        5.34447  -0.00000  -0.00007  -0.00000  -0.00008   5.34439
    R3        5.34438  -0.00000  -0.00007   0.00000  -0.00007   5.34431
    R4        4.35952   0.00001   0.00015  -0.00001   0.00015   4.35966
    R5        4.35943   0.00001   0.00015   0.00000   0.00015   4.35958
    R6        4.35943   0.00001   0.00015   0.00000   0.00015   4.35958
    R7        5.34436  -0.00000  -0.00007   0.00000  -0.00007   5.34429
    R8        5.34446  -0.00000  -0.00007  -0.00000  -0.00008   5.34438
    R9        4.35942   0.00001   0.00015   0.00000   0.00015   4.35958
   R10        4.35951   0.00001   0.00015  -0.00000   0.00015   4.35966
   R11        4.35942   0.00001   0.00015   0.00000   0.00016   4.35957
   R12        5.34436  -0.00000  -0.00007   0.00000  -0.00007   5.34429
   R13        4.35942   0.00001   0.00015   0.00000   0.00016   4.35957
   R14        4.35951   0.00001   0.00015  -0.00000   0.00015   4.35966
   R15        4.35942   0.00001   0.00015   0.00000   0.00016   4.35957
   R16        4.35942   0.00001   0.00015   0.00000   0.00015   4.35958
   R17        4.35942   0.00001   0.00015   0.00000   0.00016   4.35957
   R18        4.35951   0.00001   0.00015  -0.00000   0.00015   4.35966
    A1        1.73975   0.00000   0.00005  -0.00000   0.00005   1.73980
    A2        1.73971   0.00000   0.00005   0.00000   0.00005   1.73976
    A3        1.73975   0.00000   0.00005  -0.00000   0.00005   1.73980
    A4        1.79291   0.00000   0.00006  -0.00000   0.00006   1.79296
    A5        1.79291   0.00000   0.00006  -0.00000   0.00006   1.79296
    A6        1.79283   0.00000   0.00006   0.00000   0.00006   1.79290
    A7        1.73976   0.00000   0.00005  -0.00000   0.00005   1.73981
    A8        1.73976   0.00000   0.00005  -0.00000   0.00005   1.73981
    A9        1.73971   0.00000   0.00005   0.00000   0.00005   1.73976
   A10        1.79291   0.00000   0.00006  -0.00000   0.00006   1.79297
   A11        1.79284   0.00000   0.00006   0.00000   0.00006   1.79290
   A12        1.79291   0.00000   0.00006  -0.00000   0.00006   1.79297
   A13        1.73972   0.00000   0.00005   0.00000   0.00005   1.73977
   A14        1.73976   0.00000   0.00005  -0.00000   0.00005   1.73981
   A15        1.73976   0.00000   0.00005  -0.00000   0.00005   1.73981
   A16        1.79291   0.00000   0.00006  -0.00000   0.00006   1.79297
   A17        1.79284   0.00000   0.00006   0.00000   0.00006   1.79290
   A18        1.79291   0.00000   0.00006  -0.00000   0.00006   1.79297
   A19        1.73976   0.00000   0.00005  -0.00000   0.00005   1.73981
   A20        1.73971   0.00000   0.00005   0.00000   0.00005   1.73976
   A21        1.73976   0.00000   0.00005  -0.00000   0.00005   1.73981
   A22        1.79284   0.00000   0.00006   0.00000   0.00006   1.79290
   A23        1.79291   0.00000   0.00006  -0.00000   0.00006   1.79297
   A24        1.79291   0.00000   0.00006  -0.00000   0.00006   1.79297
    D1       -0.00009   0.00000   0.00000   0.00001   0.00001  -0.00008
    D2        0.00000  -0.00000   0.00000   0.00000   0.00000   0.00000
    D3        0.00009  -0.00000  -0.00000  -0.00001  -0.00001   0.00008
    D4        0.00009  -0.00000  -0.00000  -0.00001  -0.00001   0.00008
    D5        0.00000  -0.00000   0.00000   0.00000   0.00000   0.00000
    D6       -1.37038   0.00000   0.00005  -0.00000   0.00005  -1.37033
    D7        1.37043  -0.00000  -0.00005  -0.00000  -0.00005   1.37038
    D8       -0.00009   0.00000   0.00000   0.00001   0.00001  -0.00008
    D9       -1.37043   0.00000   0.00005   0.00000   0.00005  -1.37038
   D10        1.37038  -0.00000  -0.00005   0.00000  -0.00005   1.37033
         Item               Value     Threshold  Converged?
 Maximum Force            0.000007     0.000450     YES
 RMS     Force            0.000004     0.000300     YES
 Maximum Displacement     0.000205     0.001800     YES
 RMS     Displacement     0.000069     0.001200     YES
 Predicted change in Energy=-8.478004D-09
 Optimization completed.
    -- Stationary point found.
                           ----------------------------
                           !   Optimized Parameters   !
                           ! (Angstroms and Degrees)  !
 --------------------------                            --------------------------
 ! Name  Definition              Value          Derivative Info.                !
 --------------------------------------------------------------------------------
 ! R1    R(1,2)                  2.8281         -DE/DX =    0.0                 !
 ! R2    R(1,3)                  2.8282         -DE/DX =    0.0                 !
 ! R3    R(1,4)                  2.8281         -DE/DX =    0.0                 !
 ! R4    R(1,5)                  2.307          -DE/DX =    0.0                 !
 ! R5    R(1,6)                  2.3069         -DE/DX =    0.0                 !
 ! R6    R(1,8)                  2.3069         -DE/DX =    0.0                 !
 ! R7    R(2,3)                  2.8281         -DE/DX =    0.0                 !
 ! R8    R(2,4)                  2.8282         -DE/DX =    0.0                 !
 ! R9    R(2,5)                  2.3069         -DE/DX =    0.0                 !
 ! R10   R(2,6)                  2.307          -DE/DX =    0.0                 !
 ! R11   R(2,7)                  2.3069         -DE/DX =    0.0                 !
 ! R12   R(3,4)                  2.8281         -DE/DX =    0.0                 !
 ! R13   R(3,6)                  2.3069         -DE/DX =    0.0                 !
 ! R14   R(3,7)                  2.307          -DE/DX =    0.0                 !
 ! R15   R(3,8)                  2.3069         -DE/DX =    0.0                 !
 ! R16   R(4,5)                  2.3069         -DE/DX =    0.0                 !
 ! R17   R(4,7)                  2.3069         -DE/DX =    0.0                 !
 ! R18   R(4,8)                  2.307          -DE/DX =    0.0                 !
 ! A1    A(2,1,8)               99.6805         -DE/DX =    0.0                 !
 ! A2    A(3,1,5)               99.6779         -DE/DX =    0.0                 !
 ! A3    A(4,1,6)               99.6805         -DE/DX =    0.0                 !
 ! A4    A(5,1,6)              102.7261         -DE/DX =    0.0                 !
 ! A5    A(5,1,8)              102.7261         -DE/DX =    0.0                 !
 ! A6    A(6,1,8)              102.7218         -DE/DX =    0.0                 !
 ! A7    A(1,2,7)               99.681          -DE/DX =    0.0                 !
 ! A8    A(3,2,5)               99.6808         -DE/DX =    0.0                 !
 ! A9    A(4,2,6)               99.6782         -DE/DX =    0.0                 !
 ! A10   A(5,2,6)              102.7262         -DE/DX =    0.0                 !
 ! A11   A(5,2,7)              102.7222         -DE/DX =    0.0                 !
 ! A12   A(6,2,7)              102.7263         -DE/DX =    0.0                 !
 ! A13   A(1,3,7)               99.6784         -DE/DX =    0.0                 !
 ! A14   A(2,3,8)               99.6809         -DE/DX =    0.0                 !
 ! A15   A(4,3,6)               99.6809         -DE/DX =    0.0                 !
 ! A16   A(6,3,7)              102.7263         -DE/DX =    0.0                 !
 ! A17   A(6,3,8)              102.7223         -DE/DX =    0.0                 !
 ! A18   A(7,3,8)              102.7263         -DE/DX =    0.0                 !
 ! A19   A(1,4,7)               99.681          -DE/DX =    0.0                 !
 ! A20   A(2,4,8)               99.6782         -DE/DX =    0.0                 !
 ! A21   A(3,4,5)               99.6808         -DE/DX =    0.0                 !
 ! A22   A(5,4,7)              102.7222         -DE/DX =    0.0                 !
 ! A23   A(5,4,8)              102.7262         -DE/DX =    0.0                 !
 ! A24   A(7,4,8)              102.7263         -DE/DX =    0.0                 !
 ! D1    D(8,1,2,7)             -0.0052         -DE/DX =    0.0                 !
 ! D2    D(5,1,3,7)              0.0            -DE/DX =    0.0                 !
 ! D3    D(6,1,4,7)              0.0052         -DE/DX =    0.0                 !
 ! D4    D(5,2,3,8)              0.005          -DE/DX =    0.0                 !
 ! D5    D(6,2,4,8)              0.0            -DE/DX =    0.0                 !
 ! D6    D(4,2,5,1)            -78.5168         -DE/DX =    0.0                 !
 ! D7    D(3,2,6,1)             78.5198         -DE/DX =    0.0                 !
 ! D8    D(6,3,4,5)             -0.005          -DE/DX =    0.0                 !
 ! D9    D(4,3,7,2)            -78.5198         -DE/DX =    0.0                 !
 ! D10   D(4,3,8,1)             78.5167         -DE/DX =    0.0                 !
 --------------------------------------------------------------------------------
 GradGradGradGradGradGradGradGradGradGradGradGradGradGradGradGradGradGrad

                          Input orientation:                          
 ---------------------------------------------------------------------
 Center     Atomic      Atomic             Coordinates (Angstroms)
 Number     Number       Type             X           Y           Z
 ---------------------------------------------------------------------
      1          3           0       10.414083    8.000119    9.000000
      2          3           0        8.999994    9.999875   10.414083
      3          3           0        7.585911    8.000131    9.000000
      4          3           0        8.999994    9.999875    7.585917
      5         17           0       10.801913   10.274243    9.000000
      6         17           0        8.999990    7.725753   10.801916
      7         17           0        7.198081   10.274253    9.000000
      8         17           0        8.999990    7.725753    7.198084
 ---------------------------------------------------------------------
                    Distance matrix (angstroms):
                    1          2          3          4          5
     1  Li   0.000000
     2  Li   2.828126   0.000000
     3  Li   2.828172   2.828115   0.000000
     4  Li   2.828126   2.828166   2.828115   0.000000
     5  Cl   2.306957   2.306907   3.938814   2.306907   0.000000
     6  Cl   2.306910   2.306955   2.306903   3.938817   3.603974
     7  Cl   3.938827   2.306904   2.306956   2.306904   3.603833
     8  Cl   2.306910   3.938817   2.306903   2.306955   3.603974
                    6          7          8
     6  Cl   0.000000
     7  Cl   3.603974   0.000000
     8  Cl   3.603831   3.603974   0.000000
 Stoichiometry    Cl4Li4
 Framework group  CS[SG(Cl2Li2),X(Cl2Li2)]
 Deg. of freedom    11
 Full point group                 CS      NOp   2
 Largest Abelian subgroup         CS      NOp   2
 Largest concise Abelian subgroup CS      NOp   2
                         Standard orientation:                         
 ---------------------------------------------------------------------
 Center     Atomic      Atomic             Coordinates (Angstroms)
 Number     Number       Type             X           Y           Z
 ---------------------------------------------------------------------
      1          3           0       -1.414091    0.999879    0.000000
      2          3           0        0.000001   -0.999874    1.414083
      3          3           0        1.414081    0.999872    0.000000
      4          3           0        0.000001   -0.999874   -1.414083
      5         17           0       -1.801917   -1.274246    0.000000
      6         17           0        0.000001    1.274247    1.801916
      7         17           0        1.801916   -1.274249    0.000000
      8         17           0        0.000001    1.274247   -1.801916
 ---------------------------------------------------------------------
 Rotational constants (GHZ):           0.9903965           0.9903310           0.9903304

 **********************************************************************

            Population analysis using the SCF Density.

 **********************************************************************

 Orbital symmetries:
       Occupied  (A') (A") (A') (A') (A') (A") (A') (A') (A') (A")
                 (A') (A') (A") (A') (A") (A") (A') (A') (A") (A')
                 (A') (A') (A") (A') (A') (A') (A') (A") (A') (A')
                 (A") (A') (A') (A") (A") (A') (A") (A') (A') (A")
       Virtual   (A') (A') (A") (A') (A') (A") (A') (A") (A') (A')
                 (A') (A") (A') (A') (A") (A") (A') (A") (A') (A')
                 (A') (A") (A') (A') (A") (A') (A') (A") (A") (A')
                 (A") (A') (A") (A') (A') (A') (A") (A') (A") (A')
                 (A") (A') (A") (A') (A') (A") (A') (A") (A') (A')
                 (A") (A') (A") (A') (A') (A") (A') (A') (A") (A')
                 (A") (A') (A') (A") (A") (A') (A') (A") (A') (A")
                 (A") (A') (A") (A") (A') (A") (A') (A") (A') (A')
                 (A") (A') (A") (A') (A') (A') (A") (A') (A') (A')
                 (A') (A") (A") (A') (A") (A') (A") (A') (A") (A')
                 (A") (A') (A') (A") (A") (A') (A") (A') (A") (A')
                 (A') (A") (A') (A") (A') (A") (A") (A') (A') (A")
                 (A') (A') (A") (A") (A') (A') (A") (A') (A') (A")
                 (A') (A') (A") (A') (A') (A") (A') (A') (A") (A')
                 (A") (A") (A') (A") (A') (A') (A') (A") (A') (A")
                 (A") (A') (A') (A") (A") (A') (A") (A') (A') (A")
                 (A') (A") (A') (A') (A') (A") (A') (A") (A') (A')
                 (A") (A') (A") (A') (A") (A') (A") (A') (A") (A")
                 (A') (A") (A') (A") (A") (A') (A") (A') (A") (A")
                 (A') (A') (A') (A') (A") (A') (A") (A') (A') (A")
                 (A') (A') (A') (A") (A') (A") (A') (A') (A") (A")
                 (A') (A") (A') (A') (A") (A') (A') (A') (A") (A')
                 (A") (A') (A') (A") (A') (A') (A") (A') (A") (A')
                 (A') (A") (A') (A") (A') (A') (A") (A") (A') (A")
                 (A") (A") (A') (A") (A") (A') (A') (A') (A") (A")
                 (A') (A") (A") (A') (A') (A') (A") (A') (A') (A")
                 (A') (A') (A') (A") (A") (A") (A') (A') (A") (A')
                 (A') (A") (A') (A") (A') (A") (A') (A") (A') (A")
                 (A") (A') (A') (A") (A') (A") (A") (A') (A") (A')
                 (A") (A") (A') (A") (A') (A') (A") (A') (A') (A")
                 (A") (A') (A') (A') (A') (A") (A") (A') (A') (A")
                 (A") (A') (A') (A') (A") (A') (A') (A') (A") (A')
                 (A") (A") (A") (A') (A') (A') (A') (A") (A') (A')
                 (A") (A') (A') (A') (A") (A') (A") (A') (A') (A")
                 (A') (A") (A') (A") (A') (A') (A') (A") (A') (A")
                 (A") (A') (A") (A') (A") (A') (A') (A') (A") (A')
                 (A') (A") (A") (A') (A") (A') (A") (A') (A") (A')
                 (A') (A') (A') (A') (A") (A') (A') (A') (A") (A')
 The electronic state is 1-A'.
 Alpha  occ. eigenvalues -- -101.66761-101.66761-101.66761-101.66761  -9.49117
 Alpha  occ. eigenvalues --   -9.49117  -9.49117  -9.49117  -7.22036  -7.22036
 Alpha  occ. eigenvalues --   -7.22036  -7.22036  -7.22021  -7.22021  -7.22021
 Alpha  occ. eigenvalues --   -7.22021  -7.22021  -7.22021  -7.22021  -7.22021
 Alpha  occ. eigenvalues --   -2.00860  -2.00798  -2.00797  -2.00797  -0.80399
 Alpha  occ. eigenvalues --   -0.79453  -0.79452  -0.79452  -0.37823  -0.34921
 Alpha  occ. eigenvalues --   -0.34920  -0.34809  -0.34808  -0.34808  -0.32006
 Alpha  occ. eigenvalues --   -0.32006  -0.32006  -0.31700  -0.31700  -0.31700
 Alpha virt. eigenvalues --   -0.02657   0.00071   0.00071   0.00071   0.02667
 Alpha virt. eigenvalues --    0.02667   0.02667   0.03781   0.03781   0.04296
 Alpha virt. eigenvalues --    0.05567   0.05567   0.05567   0.06090   0.06090
 Alpha virt. eigenvalues --    0.06090   0.06101   0.08670   0.08670   0.08670
 Alpha virt. eigenvalues --    0.11474   0.11474   0.11474   0.11996   0.12523
 Alpha virt. eigenvalues --    0.12525   0.13997   0.13997   0.13998   0.17159
 Alpha virt. eigenvalues --    0.17159   0.18447   0.18447   0.18447   0.19943
 Alpha virt. eigenvalues --    0.20179   0.20179   0.20179   0.20761   0.20762
 Alpha virt. eigenvalues --    0.20762   0.22180   0.22180   0.22180   0.22540
 Alpha virt. eigenvalues --    0.22541   0.25895   0.25895   0.25895   0.26703
 Alpha virt. eigenvalues --    0.28962   0.28962   0.28963   0.30489   0.31294
 Alpha virt. eigenvalues --    0.31294   0.31294   0.33238   0.33238   0.33239
 Alpha virt. eigenvalues --    0.34188   0.34188   0.34460   0.34460   0.34461
 Alpha virt. eigenvalues --    0.36573   0.36574   0.36574   0.38920   0.38920
 Alpha virt. eigenvalues --    0.40833   0.40834   0.40834   0.41991   0.41991
 Alpha virt. eigenvalues --    0.41991   0.43762   0.43762   0.43762   0.46328
 Alpha virt. eigenvalues --    0.46329   0.47194   0.47194   0.47195   0.47975
 Alpha virt. eigenvalues --    0.47975   0.47975   0.49386   0.55125   0.58756
 Alpha virt. eigenvalues --    0.58756   0.58756   0.60653   0.60653   0.60653
 Alpha virt. eigenvalues --    0.63819   0.63821   0.63821   0.65253   0.68930
 Alpha virt. eigenvalues --    0.68930   0.70760   0.71000   0.71000   0.71000
 Alpha virt. eigenvalues --    0.71371   0.71371   0.72893   0.72893   0.72894
 Alpha virt. eigenvalues --    0.74043   0.74043   0.74044   0.76098   0.76098
 Alpha virt. eigenvalues --    0.76099   0.77383   0.77385   0.78787   0.80625
 Alpha virt. eigenvalues --    0.80625   0.80625   0.83526   0.83526   0.83526
 Alpha virt. eigenvalues --    0.84447   0.84447   0.84447   0.86261   0.86262
 Alpha virt. eigenvalues --    0.88986   0.91570   0.91570   0.91570   0.96402
 Alpha virt. eigenvalues --    0.96402   0.96403   0.97414   0.97416   1.01326
 Alpha virt. eigenvalues --    1.01326   1.01327   1.03644   1.03645   1.03645
 Alpha virt. eigenvalues --    1.04894   1.04895   1.04895   1.07322   1.07322
 Alpha virt. eigenvalues --    1.07323   1.10252   1.30623   1.30623   1.30624
 Alpha virt. eigenvalues --    1.30842   1.30842   1.30842   1.31318   1.34254
 Alpha virt. eigenvalues --    1.34255   1.36856   1.36856   1.36857   1.42076
 Alpha virt. eigenvalues --    1.42076   1.42482   1.42483   1.42483   1.43396
 Alpha virt. eigenvalues --    1.43396   1.43398   1.45157   1.45157   1.45159
 Alpha virt. eigenvalues --    1.48943   1.48944   1.48944   1.51076   1.51078
 Alpha virt. eigenvalues --    1.51078   1.53668   1.53669   1.58104   1.58105
 Alpha virt. eigenvalues --    1.58105   1.61164   1.61164   1.61164   1.61338
 Alpha virt. eigenvalues --    1.61836   1.63955   1.65585   1.65585   1.65585
 Alpha virt. eigenvalues --    1.69125   1.69127   1.69127   1.72631   1.72631
 Alpha virt. eigenvalues --    1.72632   1.83054   1.89024   1.89024   1.89026
 Alpha virt. eigenvalues --    1.90756   1.90757   1.91773   1.91773   1.91773
 Alpha virt. eigenvalues --    1.92033   2.04135   2.04139   2.06797   2.06797
 Alpha virt. eigenvalues --    2.06798   2.45107   2.48916   2.48918   2.48918
 Alpha virt. eigenvalues --    3.41861   3.41861   3.44302   3.44302   3.44304
 Alpha virt. eigenvalues --    3.46537   3.47829   3.47829   3.47831   3.52401
 Alpha virt. eigenvalues --    3.52402   3.52402   3.53281   3.53283   3.56295
 Alpha virt. eigenvalues --    3.56296   3.56296   3.56326   3.56326   3.56326
 Alpha virt. eigenvalues --    3.60175   3.61001   3.61001   3.61001   3.62045
 Alpha virt. eigenvalues --    3.62045   3.63278   3.63279   3.63279   3.63603
 Alpha virt. eigenvalues --    3.63604   3.63604   3.63760   3.63761   3.64092
 Alpha virt. eigenvalues --    3.65108   3.65108   3.65108   3.65895   3.66504
 Alpha virt. eigenvalues --    3.66504   3.66646   3.66647   3.66647   3.66985
 Alpha virt. eigenvalues --    3.66986   3.66986   3.67678   3.67678   3.67679
 Alpha virt. eigenvalues --    3.69463   3.69463   3.69463   3.70248   3.70249
 Alpha virt. eigenvalues --    3.70249   4.02279   4.02279   4.02279   4.05508
 Alpha virt. eigenvalues --    4.05511   4.05511   4.08234   4.08236   4.08236
 Alpha virt. eigenvalues --    4.08944   4.08946   4.08946   4.13684   4.13684
 Alpha virt. eigenvalues --    4.13684   4.13925   4.14552   4.14553   4.14553
 Alpha virt. eigenvalues --    4.14741   4.15460   4.15461   4.26638   4.26638
 Alpha virt. eigenvalues --    4.27182   4.27182   4.27183   4.28952   4.30110
 Alpha virt. eigenvalues --    4.30110   4.30111   4.36329   4.36332   4.36332
 Alpha virt. eigenvalues --    4.46795   4.46796   4.52276   4.56070   4.56074
 Alpha virt. eigenvalues --    4.56074   6.24026   6.24030   6.24030   6.51585
 Alpha virt. eigenvalues --    6.51585   6.51587   6.51947   6.51947   6.51948
 Alpha virt. eigenvalues --    6.58073   6.68379   6.68381   8.54330   8.58221
 Alpha virt. eigenvalues --    8.58222   8.58222   9.59519   9.59522   9.59522
 Alpha virt. eigenvalues --    9.59529  10.80825  10.80826  10.82765  10.82765
 Alpha virt. eigenvalues --   10.82767  10.85750  10.85750  10.85751  10.86710
 Alpha virt. eigenvalues --   10.89663  10.89664  10.89664  10.90149  10.90151
 Alpha virt. eigenvalues --   10.92824  10.92824  10.92824  10.94375  10.94377
 Alpha virt. eigenvalues --   10.94377  28.81581  28.84537  28.84538  28.84539
 Alpha virt. eigenvalues --   41.87961  41.87961  41.87961  41.88380  41.88380
 Alpha virt. eigenvalues --   41.89022  41.89022  41.89022  41.90566  41.90566
 Alpha virt. eigenvalues --   41.90566  41.91642  98.39815  98.42329  98.42330
 Alpha virt. eigenvalues --   98.42330 525.74610 525.78555 525.78557 525.78557
          Condensed to atoms (all electrons):
               1          2          3          4          5          6
     1  Li   2.270818  -0.055628  -0.055627  -0.055628   0.098521   0.098539
     2  Li  -0.055628   2.270820  -0.055629  -0.055628   0.098538   0.098520
     3  Li  -0.055627  -0.055629   2.270821  -0.055629   0.114097   0.098538
     4  Li  -0.055628  -0.055628  -0.055629   2.270820   0.098538   0.114097
     5  Cl   0.098521   0.098538   0.114097   0.098538  17.105880  -0.009732
     6  Cl   0.098539   0.098520   0.098538   0.114097  -0.009732  17.105879
     7  Cl   0.114096   0.098539   0.098520   0.098539  -0.009739  -0.009732
     8  Cl   0.098539   0.114097   0.098538   0.098520  -0.009732  -0.009739
               7          8
     1  Li   0.114096   0.098539
     2  Li   0.098539   0.114097
     3  Li   0.098520   0.098538
     4  Li   0.098539   0.098520
     5  Cl  -0.009739  -0.009732
     6  Cl  -0.009732  -0.009739
     7  Cl  17.105878  -0.009732
     8  Cl  -0.009732  17.105879
 Mulliken charges:
               1
     1  Li   0.486369
     2  Li   0.486371
     3  Li   0.486371
     4  Li   0.486371
     5  Cl  -0.486371
     6  Cl  -0.486371
     7  Cl  -0.486370
     8  Cl  -0.486371
 Sum of Mulliken charges =  -0.00000
 Mulliken charges with hydrogens summed into heavy atoms:
               1
     1  Li   0.486369
     2  Li   0.486371
     3  Li   0.486371
     4  Li   0.486371
     5  Cl  -0.486371
     6  Cl  -0.486371
     7  Cl  -0.486370
     8  Cl  -0.486371
 Electronic spatial extent (au):  <R**2>=           1455.7061
 Charge=             -0.0000 electrons
 Dipole moment (field-independent basis, Debye):
    X=             -0.0000    Y=              0.0000    Z=              0.0000  Tot=              0.0000
 Quadrupole moment (field-independent basis, Debye-Ang):
   XX=            -64.7545   YY=            -64.7576   ZZ=            -64.7546
   XY=             -0.0001   XZ=             -0.0000   YZ=              0.0000
 Traceless Quadrupole moment (field-independent basis, Debye-Ang):
   XX=              0.0011   YY=             -0.0020   ZZ=              0.0010
   XY=             -0.0001   XZ=             -0.0000   YZ=              0.0000
 Octapole moment (field-independent basis, Debye-Ang**2):
  XXX=             -0.0002  YYY=              0.0000  ZZZ=              0.0000  XYY=             -0.0001
  XXY=             34.4379  XXZ=             -0.0000  XZZ=              0.0000  YZZ=            -34.4378
  YYZ=              0.0000  XYZ=              0.0000
 Hexadecapole moment (field-independent basis, Debye-Ang**3):
 XXXX=           -660.3843 YYYY=           -662.7483 ZZZZ=           -660.3841 XXXY=             -0.0003
 XXXZ=              0.0000 YYYX=             -0.0001 YYYZ=              0.0000 ZZZX=             -0.0000
 ZZZY=              0.0000 XXYY=           -219.3865 XXZZ=           -221.6450 YYZZ=           -219.3866
 XXYZ=              0.0000 YYXZ=             -0.0000 ZZXY=             -0.0000
 N-N= 4.325051706392D+02 E-N=-5.317374069311D+03  KE= 1.867951601909D+03
 Symmetry A'   KE= 1.309597788525D+03
 Symmetry A"   KE= 5.583538133841D+02
 Unable to Open any file for archive entry.
 1\1\GINC-TCOPT10\FOpt\RPBE1PBE\def2QZVPP\Cl4Li4\HUTTER\01-Aug-2021\0\\
 #N RPBE1PBE/Def2QZVPP scf=tight Int(Grid=ultrafine) OPT FREQ\\Mol job 
 1\\0,1\Li,10.4140832127,8.000119417,9.\Li,8.9999942542,9.999874661,10.
 4140829523\Li,7.5859111459,8.000130836,9.\Li,8.9999942542,9.999874661,
 7.5859170477\Cl,10.8019132862,10.2742433546,9.\Cl,8.9999904326,7.72575
 30528,10.8019157238\Cl,7.1980805282,10.2742528901,9.\Cl,8.9999904326,7
 .7257530528,7.1980842762\\Version=ES64L-G16RevC.01\State=1-A'\HF=-1870
 .8346501\RMSD=8.276e-09\RMSF=6.953e-06\Dipole=0.0000104,-0.0000037,0.\
 Quadrupole=0.0007831,-0.0015182,0.0007351,-0.0000703,0.,0.\PG=CS [SG(C
 l2Li2),X(Cl2Li2)]\\@
 The archive entry for this job was punched.


 THERE'S SMALL CHOICE IN A BOWL OF ROTTEN APPLES.
                     SHAKESPEARE
 Job cpu time:       0 days  2 hours  5 minutes 56.8 seconds.
 Elapsed time:       0 days  0 hours 16 minutes  4.8 seconds.
 File lengths (MBytes):  RWF=    111 Int=      0 D2E=      0 Chk=     14 Scr=      1
 Normal termination of Gaussian 16 at Sun Aug  1 12:30:33 2021.
 Link1:  Proceeding to internal job step number  2.
 ----------------------------------------------------------------------
 #N Geom=AllCheck Guess=TCheck SCRF=Check GenChk RPBE1PBE/def2QZVPP Fre
 q
 ----------------------------------------------------------------------
 1/10=4,29=7,30=1,38=1,40=1/1,3;
 2/12=2,40=1/2;
 3/5=45,7=202,11=2,14=-4,25=1,30=1,70=2,71=2,74=-13,75=-5,116=1,140=1/1,2,3;
 4/5=101/1;
 5/5=2,32=2,38=6,98=1/2;
 8/6=4,10=90,11=11/1;
 11/6=1,8=1,9=11,15=111,16=1/1,2,10;
 10/6=1/2;
 6/7=2,8=2,9=2,10=2,28=1/1;
 7/8=1,10=1,25=1/1,2,3,16;
 1/10=4,30=1/3;
 99//99;
 Structure from the checkpoint file:  "/data/hutter/SMG16/PBE0/Gau-74377.chk"
 ---------
 Mol job 1
 ---------
 Charge =  0 Multiplicity = 1
 Redundant internal coordinates found in file.  (old form).
 Li,0,10.4140832127,8.000119417,9.
 Li,0,8.9999942542,9.999874661,10.4140829523
 Li,0,7.5859111459,8.000130836,9.
 Li,0,8.9999942542,9.999874661,7.5859170477
 Cl,0,10.8019132862,10.2742433546,9.
 Cl,0,8.9999904326,7.7257530528,10.8019157238
 Cl,0,7.1980805282,10.2742528901,9.
 Cl,0,8.9999904326,7.7257530528,7.1980842762
 Recover connectivity data from disk.

 GradGradGradGradGradGradGradGradGradGradGradGradGradGradGradGradGradGrad
 Berny optimization.
 Initialization pass.
                           ----------------------------
                           !    Initial Parameters    !
                           ! (Angstroms and Degrees)  !
 --------------------------                            --------------------------
 ! Name  Definition              Value          Derivative Info.                !
 --------------------------------------------------------------------------------
 ! R1    R(1,2)                  2.8281         calculate D2E/DX2 analytically  !
 ! R2    R(1,3)                  2.8282         calculate D2E/DX2 analytically  !
 ! R3    R(1,4)                  2.8281         calculate D2E/DX2 analytically  !
 ! R4    R(1,5)                  2.307          calculate D2E/DX2 analytically  !
 ! R5    R(1,6)                  2.3069         calculate D2E/DX2 analytically  !
 ! R6    R(1,8)                  2.3069         calculate D2E/DX2 analytically  !
 ! R7    R(2,3)                  2.8281         calculate D2E/DX2 analytically  !
 ! R8    R(2,4)                  2.8282         calculate D2E/DX2 analytically  !
 ! R9    R(2,5)                  2.3069         calculate D2E/DX2 analytically  !
 ! R10   R(2,6)                  2.307          calculate D2E/DX2 analytically  !
 ! R11   R(2,7)                  2.3069         calculate D2E/DX2 analytically  !
 ! R12   R(3,4)                  2.8281         calculate D2E/DX2 analytically  !
 ! R13   R(3,6)                  2.3069         calculate D2E/DX2 analytically  !
 ! R14   R(3,7)                  2.307          calculate D2E/DX2 analytically  !
 ! R15   R(3,8)                  2.3069         calculate D2E/DX2 analytically  !
 ! R16   R(4,5)                  2.3069         calculate D2E/DX2 analytically  !
 ! R17   R(4,7)                  2.3069         calculate D2E/DX2 analytically  !
 ! R18   R(4,8)                  2.307          calculate D2E/DX2 analytically  !
 ! A1    A(2,1,8)               99.6805         calculate D2E/DX2 analytically  !
 ! A2    A(3,1,5)               99.6779         calculate D2E/DX2 analytically  !
 ! A3    A(4,1,6)               99.6805         calculate D2E/DX2 analytically  !
 ! A4    A(5,1,6)              102.7261         calculate D2E/DX2 analytically  !
 ! A5    A(5,1,8)              102.7261         calculate D2E/DX2 analytically  !
 ! A6    A(6,1,8)              102.7218         calculate D2E/DX2 analytically  !
 ! A7    A(1,2,7)               99.681          calculate D2E/DX2 analytically  !
 ! A8    A(3,2,5)               99.6808         calculate D2E/DX2 analytically  !
 ! A9    A(4,2,6)               99.6782         calculate D2E/DX2 analytically  !
 ! A10   A(5,2,6)              102.7262         calculate D2E/DX2 analytically  !
 ! A11   A(5,2,7)              102.7222         calculate D2E/DX2 analytically  !
 ! A12   A(6,2,7)              102.7263         calculate D2E/DX2 analytically  !
 ! A13   A(1,3,7)               99.6784         calculate D2E/DX2 analytically  !
 ! A14   A(2,3,8)               99.6809         calculate D2E/DX2 analytically  !
 ! A15   A(4,3,6)               99.6809         calculate D2E/DX2 analytically  !
 ! A16   A(6,3,7)              102.7263         calculate D2E/DX2 analytically  !
 ! A17   A(6,3,8)              102.7223         calculate D2E/DX2 analytically  !
 ! A18   A(7,3,8)              102.7263         calculate D2E/DX2 analytically  !
 ! A19   A(1,4,7)               99.681          calculate D2E/DX2 analytically  !
 ! A20   A(2,4,8)               99.6782         calculate D2E/DX2 analytically  !
 ! A21   A(3,4,5)               99.6808         calculate D2E/DX2 analytically  !
 ! A22   A(5,4,7)              102.7222         calculate D2E/DX2 analytically  !
 ! A23   A(5,4,8)              102.7262         calculate D2E/DX2 analytically  !
 ! A24   A(7,4,8)              102.7263         calculate D2E/DX2 analytically  !
 ! D1    D(8,1,2,7)             -0.0052         calculate D2E/DX2 analytically  !
 ! D2    D(5,1,3,7)              0.0            calculate D2E/DX2 analytically  !
 ! D3    D(6,1,4,7)              0.0052         calculate D2E/DX2 analytically  !
 ! D4    D(5,2,3,8)              0.005          calculate D2E/DX2 analytically  !
 ! D5    D(6,2,4,8)              0.0            calculate D2E/DX2 analytically  !
 ! D6    D(4,2,5,1)            -78.5168         calculate D2E/DX2 analytically  !
 ! D7    D(3,2,6,1)             78.5198         calculate D2E/DX2 analytically  !
 ! D8    D(6,3,4,5)             -0.005          calculate D2E/DX2 analytically  !
 ! D9    D(4,3,7,2)            -78.5198         calculate D2E/DX2 analytically  !
 ! D10   D(4,3,8,1)             78.5167         calculate D2E/DX2 analytically  !
 --------------------------------------------------------------------------------
 Trust Radius=3.00D-01 FncErr=1.00D-07 GrdErr=1.00D-07 EigMax=2.50D+02 EigMin=1.00D-04
 Number of steps in this run=      2 maximum allowed number of steps=      2.
 GradGradGradGradGradGradGradGradGradGradGradGradGradGradGradGradGradGrad

                          Input orientation:                          
 ---------------------------------------------------------------------
 Center     Atomic      Atomic             Coordinates (Angstroms)
 Number     Number       Type             X           Y           Z
 ---------------------------------------------------------------------
      1          3           0       10.414083    8.000119    9.000000
      2          3           0        8.999994    9.999875   10.414083
      3          3           0        7.585911    8.000131    9.000000
      4          3           0        8.999994    9.999875    7.585917
      5         17           0       10.801913   10.274243    9.000000
      6         17           0        8.999990    7.725753   10.801916
      7         17           0        7.198081   10.274253    9.000000
      8         17           0        8.999990    7.725753    7.198084
 ---------------------------------------------------------------------
                    Distance matrix (angstroms):
                    1          2          3          4          5
     1  Li   0.000000
     2  Li   2.828126   0.000000
     3  Li   2.828172   2.828115   0.000000
     4  Li   2.828126   2.828166   2.828115   0.000000
     5  Cl   2.306957   2.306907   3.938814   2.306907   0.000000
     6  Cl   2.306910   2.306955   2.306903   3.938817   3.603974
     7  Cl   3.938827   2.306904   2.306956   2.306904   3.603833
     8  Cl   2.306910   3.938817   2.306903   2.306955   3.603974
                    6          7          8
     6  Cl   0.000000
     7  Cl   3.603974   0.000000
     8  Cl   3.603831   3.603974   0.000000
 Stoichiometry    Cl4Li4
 Framework group  CS[SG(Cl2Li2),X(Cl2Li2)]
 Deg. of freedom    11
 Full point group                 CS      NOp   2
 Largest Abelian subgroup         CS      NOp   2
 Largest concise Abelian subgroup CS      NOp   2
                         Standard orientation:                         
 ---------------------------------------------------------------------
 Center     Atomic      Atomic             Coordinates (Angstroms)
 Number     Number       Type             X           Y           Z
 ---------------------------------------------------------------------
      1          3           0       -1.414091    0.999879    0.000000
      2          3           0        0.000001   -0.999874    1.414083
      3          3           0        1.414081    0.999872    0.000000
      4          3           0        0.000001   -0.999874   -1.414083
      5         17           0       -1.801917   -1.274246    0.000000
      6         17           0        0.000001    1.274247    1.801916
      7         17           0        1.801916   -1.274249    0.000000
      8         17           0        0.000001    1.274247   -1.801916
 ---------------------------------------------------------------------
 Rotational constants (GHZ):           0.9903965           0.9903310           0.9903304
 Standard basis: def2QZVPP (5D, 7F)
 There are   298 symmetry adapted cartesian basis functions of A'  symmetry.
 There are   206 symmetry adapted cartesian basis functions of A"  symmetry.
 There are   245 symmetry adapted basis functions of A'  symmetry.
 There are   175 symmetry adapted basis functions of A"  symmetry.
   420 basis functions,   704 primitive gaussians,   504 cartesian basis functions
    40 alpha electrons       40 beta electrons
       nuclear repulsion energy       432.5051706392 Hartrees.
 NAtoms=    8 NActive=    8 NUniq=    6 SFac= 1.78D+00 NAtFMM=   60 NAOKFM=F Big=F
 Integral buffers will be    131072 words long.
 Raffenetti 2 integral format.
 Two-electron integral symmetry is turned on.
 One-electron integrals computed using PRISM.
   2 Symmetry operations used in ECPInt.
 ECPInt:  NShTT=    9870 NPrTT=   34398 LenC2=    9351 LenP2D=   24588.
 LDataN:  DoStor=T MaxTD1= 8 Len=  415
 NBasis=   420 RedAO= T EigKep=  2.46D-05  NBF=   245   175
 NBsUse=   420 1.00D-06 EigRej= -1.00D+00 NBFU=   245   175
 Initial guess from the checkpoint file:  "/data/hutter/SMG16/PBE0/Gau-74377.chk"
 B after Tr=    -0.000000   -0.000000    0.000000
         Rot=    1.000000    0.000000   -0.000000   -0.000000 Ang=   0.00 deg.
 Initial guess orbital symmetries:
       Occupied  (A') (A") (A') (A') (A') (A") (A') (A') (A') (A")
                 (A') (A') (A") (A') (A") (A") (A') (A') (A") (A')
                 (A') (A') (A") (A') (A') (A') (A') (A") (A') (A')
                 (A") (A') (A') (A") (A") (A') (A") (A') (A') (A")
       Virtual   (A') (A') (A") (A') (A') (A") (A') (A") (A') (A')
                 (A') (A") (A') (A') (A") (A") (A') (A") (A') (A')
                 (A') (A") (A') (A') (A") (A') (A') (A") (A") (A')
                 (A") (A') (A") (A') (A') (A') (A") (A') (A") (A')
                 (A") (A') (A") (A') (A') (A") (A') (A") (A') (A')
                 (A") (A') (A") (A') (A') (A") (A') (A') (A") (A')
                 (A") (A') (A') (A") (A") (A') (A') (A") (A') (A")
                 (A") (A') (A") (A") (A') (A") (A') (A") (A') (A')
                 (A") (A') (A") (A') (A') (A') (A") (A') (A') (A')
                 (A') (A") (A") (A') (A") (A') (A") (A') (A") (A')
                 (A") (A') (A') (A") (A") (A') (A") (A') (A") (A')
                 (A') (A") (A') (A") (A') (A") (A") (A') (A') (A")
                 (A') (A') (A") (A") (A') (A') (A") (A') (A') (A")
                 (A') (A') (A") (A') (A') (A") (A') (A') (A") (A')
                 (A") (A") (A') (A") (A') (A') (A') (A") (A') (A")
                 (A") (A') (A') (A") (A") (A') (A") (A') (A') (A")
                 (A') (A") (A') (A') (A') (A") (A') (A") (A') (A')
                 (A") (A') (A") (A') (A") (A') (A") (A') (A") (A")
                 (A') (A") (A') (A") (A") (A') (A") (A') (A") (A")
                 (A') (A') (A') (A') (A") (A') (A") (A') (A') (A")
                 (A') (A') (A') (A") (A') (A") (A') (A') (A") (A")
                 (A') (A") (A') (A') (A") (A') (A') (A') (A") (A')
                 (A") (A') (A') (A") (A') (A') (A") (A') (A") (A')
                 (A') (A") (A') (A") (A') (A') (A") (A") (A') (A")
                 (A") (A") (A') (A") (A") (A') (A') (A') (A") (A")
                 (A') (A") (A") (A') (A') (A') (A") (A') (A') (A")
                 (A') (A') (A') (A") (A") (A") (A') (A') (A") (A')
                 (A') (A") (A') (A") (A') (A") (A') (A") (A') (A")
                 (A") (A') (A') (A") (A') (A") (A") (A') (A") (A')
                 (A") (A") (A') (A") (A') (A') (A") (A') (A') (A")
                 (A") (A') (A') (A') (A') (A") (A") (A') (A') (A")
                 (A") (A') (A') (A') (A") (A') (A') (A') (A") (A')
                 (A") (A") (A") (A') (A') (A') (A') (A") (A') (A')
                 (A") (A') (A') (A') (A") (A') (A") (A') (A') (A")
                 (A') (A") (A') (A") (A') (A') (A') (A") (A') (A")
                 (A") (A') (A") (A') (A") (A') (A') (A') (A") (A')
                 (A') (A") (A") (A') (A") (A') (A") (A') (A") (A')
                 (A') (A') (A') (A') (A") (A') (A') (A') (A") (A')
 Requested convergence on RMS density matrix=1.00D-08 within 128 cycles.
 Requested convergence on MAX density matrix=1.00D-06.
 Requested convergence on             energy=1.00D-06.
 No special actions if energy rises.
 SCF Done:  E(RPBE1PBE) =  -1870.83465008     A.U. after    1 cycles
            NFock=  1  Conv=0.24D-08     -V/T= 2.0015
 DoSCS=F DFT=T ScalE2(SS,OS)=  1.000000  1.000000
 Range of M.O.s used for correlation:     1   420
 NBasis=   420 NAE=    40 NBE=    40 NFC=     0 NFV=     0
 NROrb=    420 NOA=    40 NOB=    40 NVA=   380 NVB=   380

 **** Warning!!: The largest alpha MO coefficient is  0.50208468D+02

   2 Symmetry operations used in ECPInt.
 ECPInt:  NShTT=    9870 NPrTT=   34398 LenC2=    9351 LenP2D=   24588.
 LDataN:  DoStor=T MaxTD1= 9 Len=  602
 Symmetrizing basis deriv contribution to polar:
 IMax=3 JMax=2 DiffMx= 0.00D+00
 G2DrvN: will do     9 centers at a time, making    1 passes.
 Calling FoFCou, ICntrl=  3107 FMM=F I1Cent=   0 AccDes= 0.00D+00.
 End of G2Drv F.D. properties file   721 does not exist.
 End of G2Drv F.D. properties file   722 does not exist.
 End of G2Drv F.D. properties file   788 does not exist.
          IDoAtm=11111111
          Differentiating once with respect to electric field.
                with respect to dipole field.
          Differentiating once with respect to nuclear coordinates.
 CalDSu exits because no D1Ps are significant.
          There are    21 degrees of freedom in the 1st order CPHF.  IDoFFX=4 NUNeed=    21.
     21 vectors produced by pass  0 Test12= 7.24D-14 4.76D-09 XBig12= 6.41D+01 1.92D+00.
 AX will form    21 AO Fock derivatives at one time.
     21 vectors produced by pass  1 Test12= 7.24D-14 4.76D-09 XBig12= 9.40D+00 8.83D-01.
     21 vectors produced by pass  2 Test12= 7.24D-14 4.76D-09 XBig12= 1.33D-01 8.63D-02.
     21 vectors produced by pass  3 Test12= 7.24D-14 4.76D-09 XBig12= 1.06D-03 7.74D-03.
     21 vectors produced by pass  4 Test12= 7.24D-14 4.76D-09 XBig12= 7.59D-06 5.28D-04.
     21 vectors produced by pass  5 Test12= 7.24D-14 4.76D-09 XBig12= 8.30D-08 4.59D-05.
     14 vectors produced by pass  6 Test12= 7.24D-14 4.76D-09 XBig12= 6.12D-10 5.64D-06.
      3 vectors produced by pass  7 Test12= 7.24D-14 4.76D-09 XBig12= 2.78D-12 2.76D-07.
      3 vectors produced by pass  8 Test12= 7.24D-14 4.76D-09 XBig12= 1.50D-14 1.88D-08.
 InvSVY:  IOpt=1 It=  1 EMax= 7.11D-15
 Solved reduced A of dimension   146 with    21 vectors.
 Isotropic polarizability for W=    0.000000       87.56 Bohr**3.
 End of Minotr F.D. properties file   721 does not exist.
 End of Minotr F.D. properties file   722 does not exist.
 End of Minotr F.D. properties file   788 does not exist.

 **********************************************************************

            Population analysis using the SCF Density.

 **********************************************************************

 Orbital symmetries:
       Occupied  (A') (A") (A') (A') (A') (A") (A') (A') (A') (A")
                 (A') (A') (A") (A') (A") (A") (A') (A') (A") (A')
                 (A') (A') (A") (A') (A') (A') (A') (A") (A') (A')
                 (A") (A') (A') (A") (A") (A') (A") (A') (A') (A")
       Virtual   (A') (A') (A") (A') (A') (A") (A') (A") (A') (A')
                 (A') (A") (A') (A') (A") (A") (A') (A") (A') (A')
                 (A') (A") (A') (A') (A") (A') (A') (A") (A") (A')
                 (A") (A') (A") (A') (A') (A') (A") (A') (A") (A')
                 (A") (A') (A") (A') (A') (A") (A') (A") (A') (A')
                 (A") (A') (A") (A') (A') (A") (A') (A') (A") (A')
                 (A") (A') (A') (A") (A") (A') (A') (A") (A') (A")
                 (A") (A') (A") (A") (A') (A") (A') (A") (A') (A')
                 (A") (A') (A") (A') (A') (A') (A") (A') (A') (A')
                 (A') (A") (A") (A') (A") (A') (A") (A') (A") (A')
                 (A") (A') (A') (A") (A") (A') (A") (A') (A") (A')
                 (A') (A") (A') (A") (A') (A") (A") (A') (A') (A")
                 (A') (A') (A") (A") (A') (A') (A") (A') (A') (A")
                 (A') (A') (A") (A') (A') (A") (A') (A') (A") (A')
                 (A") (A") (A') (A") (A') (A') (A') (A") (A') (A")
                 (A") (A') (A') (A") (A") (A') (A") (A') (A') (A")
                 (A') (A") (A') (A') (A') (A") (A') (A") (A') (A')
                 (A") (A') (A") (A') (A") (A') (A") (A') (A") (A")
                 (A') (A") (A') (A") (A") (A') (A") (A') (A") (A")
                 (A') (A') (A') (A') (A") (A') (A") (A') (A') (A")
                 (A') (A') (A') (A") (A') (A") (A') (A') (A") (A")
                 (A') (A") (A') (A') (A") (A') (A') (A') (A") (A')
                 (A") (A') (A') (A") (A') (A') (A") (A') (A") (A')
                 (A') (A") (A') (A") (A') (A') (A") (A") (A') (A")
                 (A") (A") (A') (A") (A") (A') (A') (A') (A") (A")
                 (A') (A") (A") (A') (A') (A') (A") (A') (A') (A")
                 (A') (A') (A') (A") (A") (A") (A') (A') (A") (A')
                 (A') (A") (A') (A") (A') (A") (A') (A") (A') (A")
                 (A") (A') (A') (A") (A') (A") (A") (A') (A") (A')
                 (A") (A") (A') (A") (A') (A') (A") (A') (A') (A")
                 (A") (A') (A') (A') (A') (A") (A") (A') (A') (A")
                 (A") (A') (A') (A') (A") (A') (A') (A') (A") (A')
                 (A") (A") (A") (A') (A') (A') (A') (A") (A') (A')
                 (A") (A') (A') (A') (A") (A') (A") (A') (A') (A")
                 (A') (A") (A') (A") (A') (A') (A') (A") (A') (A")
                 (A") (A') (A") (A') (A") (A') (A') (A') (A") (A')
                 (A') (A") (A") (A') (A") (A') (A") (A') (A") (A')
                 (A') (A') (A') (A') (A") (A') (A') (A') (A") (A')
 The electronic state is 1-A'.
 Alpha  occ. eigenvalues -- -101.66761-101.66761-101.66761-101.66761  -9.49117
 Alpha  occ. eigenvalues --   -9.49117  -9.49117  -9.49117  -7.22036  -7.22036
 Alpha  occ. eigenvalues --   -7.22036  -7.22036  -7.22021  -7.22021  -7.22021
 Alpha  occ. eigenvalues --   -7.22021  -7.22021  -7.22021  -7.22021  -7.22021
 Alpha  occ. eigenvalues --   -2.00860  -2.00798  -2.00798  -2.00797  -0.80399
 Alpha  occ. eigenvalues --   -0.79453  -0.79452  -0.79452  -0.37823  -0.34921
 Alpha  occ. eigenvalues --   -0.34920  -0.34809  -0.34808  -0.34808  -0.32006
 Alpha  occ. eigenvalues --   -0.32006  -0.32006  -0.31701  -0.31700  -0.31700
 Alpha virt. eigenvalues --   -0.02657   0.00071   0.00071   0.00071   0.02667
 Alpha virt. eigenvalues --    0.02667   0.02667   0.03781   0.03781   0.04296
 Alpha virt. eigenvalues --    0.05567   0.05567   0.05567   0.06090   0.06090
 Alpha virt. eigenvalues --    0.06090   0.06101   0.08670   0.08670   0.08670
 Alpha virt. eigenvalues --    0.11474   0.11474   0.11474   0.11996   0.12523
 Alpha virt. eigenvalues --    0.12525   0.13997   0.13997   0.13998   0.17159
 Alpha virt. eigenvalues --    0.17159   0.18447   0.18447   0.18447   0.19943
 Alpha virt. eigenvalues --    0.20179   0.20179   0.20179   0.20761   0.20762
 Alpha virt. eigenvalues --    0.20762   0.22180   0.22180   0.22180   0.22540
 Alpha virt. eigenvalues --    0.22541   0.25895   0.25895   0.25895   0.26703
 Alpha virt. eigenvalues --    0.28962   0.28962   0.28963   0.30489   0.31294
 Alpha virt. eigenvalues --    0.31294   0.31294   0.33238   0.33238   0.33239
 Alpha virt. eigenvalues --    0.34188   0.34188   0.34460   0.34460   0.34461
 Alpha virt. eigenvalues --    0.36573   0.36574   0.36574   0.38920   0.38920
 Alpha virt. eigenvalues --    0.40833   0.40834   0.40834   0.41991   0.41991
 Alpha virt. eigenvalues --    0.41991   0.43762   0.43762   0.43762   0.46328
 Alpha virt. eigenvalues --    0.46329   0.47194   0.47194   0.47195   0.47975
 Alpha virt. eigenvalues --    0.47975   0.47975   0.49386   0.55125   0.58756
 Alpha virt. eigenvalues --    0.58756   0.58756   0.60653   0.60653   0.60653
 Alpha virt. eigenvalues --    0.63819   0.63821   0.63821   0.65253   0.68930
 Alpha virt. eigenvalues --    0.68930   0.70760   0.71000   0.71000   0.71000
 Alpha virt. eigenvalues --    0.71371   0.71371   0.72893   0.72893   0.72894
 Alpha virt. eigenvalues --    0.74043   0.74043   0.74044   0.76098   0.76098
 Alpha virt. eigenvalues --    0.76099   0.77383   0.77385   0.78787   0.80625
 Alpha virt. eigenvalues --    0.80625   0.80625   0.83526   0.83526   0.83526
 Alpha virt. eigenvalues --    0.84447   0.84447   0.84447   0.86261   0.86262
 Alpha virt. eigenvalues --    0.88986   0.91570   0.91570   0.91570   0.96402
 Alpha virt. eigenvalues --    0.96402   0.96403   0.97414   0.97416   1.01326
 Alpha virt. eigenvalues --    1.01326   1.01327   1.03644   1.03645   1.03645
 Alpha virt. eigenvalues --    1.04894   1.04895   1.04895   1.07322   1.07322
 Alpha virt. eigenvalues --    1.07323   1.10252   1.30623   1.30623   1.30624
 Alpha virt. eigenvalues --    1.30842   1.30842   1.30842   1.31318   1.34254
 Alpha virt. eigenvalues --    1.34255   1.36856   1.36856   1.36857   1.42076
 Alpha virt. eigenvalues --    1.42076   1.42482   1.42483   1.42483   1.43396
 Alpha virt. eigenvalues --    1.43396   1.43398   1.45157   1.45157   1.45159
 Alpha virt. eigenvalues --    1.48943   1.48944   1.48944   1.51076   1.51078
 Alpha virt. eigenvalues --    1.51078   1.53668   1.53669   1.58104   1.58105
 Alpha virt. eigenvalues --    1.58105   1.61164   1.61164   1.61164   1.61338
 Alpha virt. eigenvalues --    1.61836   1.63955   1.65585   1.65585   1.65585
 Alpha virt. eigenvalues --    1.69125   1.69127   1.69127   1.72631   1.72631
 Alpha virt. eigenvalues --    1.72632   1.83054   1.89024   1.89024   1.89026
 Alpha virt. eigenvalues --    1.90756   1.90757   1.91773   1.91773   1.91773
 Alpha virt. eigenvalues --    1.92033   2.04135   2.04139   2.06797   2.06797
 Alpha virt. eigenvalues --    2.06798   2.45107   2.48916   2.48918   2.48918
 Alpha virt. eigenvalues --    3.41861   3.41861   3.44302   3.44302   3.44304
 Alpha virt. eigenvalues --    3.46537   3.47829   3.47829   3.47831   3.52401
 Alpha virt. eigenvalues --    3.52402   3.52402   3.53281   3.53283   3.56295
 Alpha virt. eigenvalues --    3.56296   3.56296   3.56326   3.56326   3.56326
 Alpha virt. eigenvalues --    3.60175   3.61001   3.61001   3.61001   3.62045
 Alpha virt. eigenvalues --    3.62045   3.63278   3.63279   3.63279   3.63603
 Alpha virt. eigenvalues --    3.63604   3.63604   3.63760   3.63761   3.64092
 Alpha virt. eigenvalues --    3.65108   3.65108   3.65108   3.65895   3.66504
 Alpha virt. eigenvalues --    3.66504   3.66646   3.66647   3.66647   3.66985
 Alpha virt. eigenvalues --    3.66986   3.66986   3.67678   3.67678   3.67679
 Alpha virt. eigenvalues --    3.69463   3.69463   3.69463   3.70248   3.70249
 Alpha virt. eigenvalues --    3.70249   4.02279   4.02279   4.02279   4.05508
 Alpha virt. eigenvalues --    4.05511   4.05511   4.08234   4.08236   4.08236
 Alpha virt. eigenvalues --    4.08944   4.08946   4.08946   4.13684   4.13684
 Alpha virt. eigenvalues --    4.13684   4.13925   4.14552   4.14553   4.14553
 Alpha virt. eigenvalues --    4.14741   4.15460   4.15461   4.26638   4.26638
 Alpha virt. eigenvalues --    4.27182   4.27182   4.27183   4.28952   4.30110
 Alpha virt. eigenvalues --    4.30110   4.30111   4.36329   4.36332   4.36332
 Alpha virt. eigenvalues --    4.46795   4.46796   4.52276   4.56070   4.56074
 Alpha virt. eigenvalues --    4.56074   6.24026   6.24030   6.24030   6.51585
 Alpha virt. eigenvalues --    6.51585   6.51587   6.51947   6.51947   6.51948
 Alpha virt. eigenvalues --    6.58073   6.68379   6.68381   8.54330   8.58221
 Alpha virt. eigenvalues --    8.58222   8.58222   9.59519   9.59522   9.59522
 Alpha virt. eigenvalues --    9.59529  10.80825  10.80826  10.82765  10.82765
 Alpha virt. eigenvalues --   10.82767  10.85750  10.85750  10.85751  10.86710
 Alpha virt. eigenvalues --   10.89663  10.89664  10.89664  10.90149  10.90151
 Alpha virt. eigenvalues --   10.92824  10.92824  10.92824  10.94375  10.94377
 Alpha virt. eigenvalues --   10.94377  28.81581  28.84537  28.84538  28.84539
 Alpha virt. eigenvalues --   41.87961  41.87961  41.87961  41.88380  41.88380
 Alpha virt. eigenvalues --   41.89022  41.89022  41.89022  41.90566  41.90566
 Alpha virt. eigenvalues --   41.90566  41.91642  98.39815  98.42329  98.42330
 Alpha virt. eigenvalues --   98.42330 525.74610 525.78555 525.78557 525.78557
          Condensed to atoms (all electrons):
               1          2          3          4          5          6
     1  Li   2.270818  -0.055628  -0.055627  -0.055628   0.098521   0.098540
     2  Li  -0.055628   2.270820  -0.055629  -0.055628   0.098538   0.098520
     3  Li  -0.055627  -0.055629   2.270821  -0.055629   0.114097   0.098538
     4  Li  -0.055628  -0.055628  -0.055629   2.270820   0.098538   0.114097
     5  Cl   0.098521   0.098538   0.114097   0.098538  17.105880  -0.009732
     6  Cl   0.098540   0.098520   0.098538   0.114097  -0.009732  17.105879
     7  Cl   0.114096   0.098539   0.098520   0.098539  -0.009739  -0.009732
     8  Cl   0.098540   0.114097   0.098538   0.098520  -0.009732  -0.009739
               7          8
     1  Li   0.114096   0.098540
     2  Li   0.098539   0.114097
     3  Li   0.098520   0.098538
     4  Li   0.098539   0.098520
     5  Cl  -0.009739  -0.009732
     6  Cl  -0.009732  -0.009739
     7  Cl  17.105878  -0.009732
     8  Cl  -0.009732  17.105879
 Mulliken charges:
               1
     1  Li   0.486369
     2  Li   0.486371
     3  Li   0.486371
     4  Li   0.486371
     5  Cl  -0.486371
     6  Cl  -0.486370
     7  Cl  -0.486370
     8  Cl  -0.486370
 Sum of Mulliken charges =  -0.00000
 Mulliken charges with hydrogens summed into heavy atoms:
               1
     1  Li   0.486369
     2  Li   0.486371
     3  Li   0.486371
     4  Li   0.486371
     5  Cl  -0.486371
     6  Cl  -0.486370
     7  Cl  -0.486370
     8  Cl  -0.486370
 APT charges:
               1
     1  Li   0.708871
     2  Li   0.708869
     3  Li   0.708868
     4  Li   0.708869
     5  Cl  -0.708870
     6  Cl  -0.708869
     7  Cl  -0.708869
     8  Cl  -0.708869
 Sum of APT charges =   0.00000
 APT charges with hydrogens summed into heavy atoms:
               1
     1  Li   0.708871
     2  Li   0.708869
     3  Li   0.708868
     4  Li   0.708869
     5  Cl  -0.708870
     6  Cl  -0.708869
     7  Cl  -0.708869
     8  Cl  -0.708869
 Electronic spatial extent (au):  <R**2>=           1455.7060
 Charge=             -0.0000 electrons
 Dipole moment (field-independent basis, Debye):
    X=             -0.0000    Y=              0.0000    Z=             -0.0000  Tot=              0.0000
 Quadrupole moment (field-independent basis, Debye-Ang):
   XX=            -64.7545   YY=            -64.7576   ZZ=            -64.7546
   XY=             -0.0001   XZ=              0.0000   YZ=              0.0000
 Traceless Quadrupole moment (field-independent basis, Debye-Ang):
   XX=              0.0011   YY=             -0.0020   ZZ=              0.0010
   XY=             -0.0001   XZ=              0.0000   YZ=              0.0000
 Octapole moment (field-independent basis, Debye-Ang**2):
  XXX=             -0.0002  YYY=              0.0000  ZZZ=              0.0000  XYY=             -0.0001
  XXY=             34.4378  XXZ=              0.0000  XZZ=              0.0000  YZZ=            -34.4377
  YYZ=             -0.0000  XYZ=              0.0000
 Hexadecapole moment (field-independent basis, Debye-Ang**3):
 XXXX=           -660.3841 YYYY=           -662.7481 ZZZZ=           -660.3839 XXXY=             -0.0003
 XXXZ=              0.0000 YYYX=             -0.0001 YYYZ=             -0.0000 ZZZX=             -0.0000
 ZZZY=             -0.0000 XXYY=           -219.3865 XXZZ=           -221.6450 YYZZ=           -219.3865
 XXYZ=             -0.0000 YYXZ=             -0.0000 ZZXY=             -0.0000
 N-N= 4.325051706392D+02 E-N=-5.317374072225D+03  KE= 1.867951600072D+03
 Symmetry A'   KE= 1.309597787379D+03
 Symmetry A"   KE= 5.583538126929D+02
  Exact polarizability:      87.553      -0.000      87.574       0.000       0.000      87.553
 Approx polarizability:     120.528      -0.000     120.529       0.000       0.000     120.528
   2 Symmetry operations used in ECPInt.
 ECPInt:  NShTT=    9870 NPrTT=   34398 LenC2=    9351 LenP2D=   24588.
 LDataN:  DoStor=T MaxTD1=10 Len=  848
 Calling FoFJK, ICntrl=    100127 FMM=F ISym2X=1 I1Cent= 0 IOpClX= 0 NMat=1 NMatS=1 NMatT=0.
 Full mass-weighted force constant matrix:
 Low frequencies ---   -3.1997   -3.1985   -2.9794   -0.0037    0.0003    0.0036
 Low frequencies ---  129.0018  129.0190  158.1681
 Diagonal vibrational polarizability:
       64.2039846      64.1626323      64.2039968
 Harmonic frequencies (cm**-1), IR intensities (KM/Mole), Raman scattering
 activities (A**4/AMU), depolarization ratios for plane and unpolarized
 incident light, reduced masses (AMU), force constants (mDyne/A),
 and normal coordinates:
                      1                      2                      3
                     A'                     A"                     A'
 Frequencies --    129.0018               129.0190               158.1681
 Red. masses --     29.2809                29.2991                24.9388
 Frc consts  --      0.2871                 0.2874                 0.3676
 IR Inten    --      0.0000                 0.0000                 0.2002
  Atom  AN      X      Y      Z        X      Y      Z        X      Y      Z
     1   3     0.13   0.18   0.00     0.00   0.00  -0.23     0.30   0.01  -0.00
     2   3     0.00  -0.18  -0.13     0.23  -0.00   0.00     0.00   0.01   0.30
     3   3    -0.13   0.18  -0.00    -0.00   0.00   0.23    -0.30   0.01  -0.00
     4   3     0.00  -0.18   0.13    -0.23   0.00   0.00     0.00   0.01  -0.30
     5  17    -0.26   0.36  -0.00    -0.00   0.00   0.45     0.40  -0.00   0.00
     6  17     0.00  -0.36   0.26    -0.45  -0.00  -0.00    -0.00  -0.00   0.40
     7  17     0.26   0.36   0.00     0.00   0.00  -0.45    -0.40  -0.00   0.00
     8  17     0.00  -0.36  -0.26     0.45   0.00  -0.00    -0.00  -0.00  -0.40
                      4                      5                      6
                     ?A                     ?A                     A'
 Frequencies --    158.1956               158.1957               229.1150
 Red. masses --     24.9524                24.9525                33.1964
 Frc consts  --      0.3679                 0.3679                 1.0267
 IR Inten    --      0.2004                 0.2003                 0.0000
  Atom  AN      X      Y      Z        X      Y      Z        X      Y      Z
     1   3     0.00  -0.00   0.22    -0.20   0.30   0.00     0.10  -0.07  -0.00
     2   3    -0.00   0.30  -0.20     0.22   0.00  -0.00     0.00   0.07  -0.10
     3   3     0.00   0.00   0.22    -0.20  -0.30   0.00    -0.10  -0.07   0.00
     4   3    -0.00  -0.30  -0.20     0.22  -0.00   0.00     0.00   0.07   0.10
     5  17    -0.00  -0.00  -0.29     0.28   0.40  -0.00    -0.40  -0.28   0.00
     6  17     0.00   0.40   0.28    -0.29   0.00  -0.00     0.00   0.28   0.40
     7  17    -0.00   0.00  -0.29     0.28  -0.40  -0.00     0.40  -0.28  -0.00
     8  17     0.00  -0.40   0.28    -0.29  -0.00   0.00     0.00   0.28  -0.40
                      7                      8                      9
                     A'                     A"                     A"
 Frequencies --    317.9303               317.9307               317.9629
 Red. masses --      7.6922                 7.6922                 7.6922
 Frc consts  --      0.4581                 0.4581                 0.4582
 IR Inten    --      0.0005                 0.0004                 0.0000
  Atom  AN      X      Y      Z        X      Y      Z        X      Y      Z
     1   3     0.35   0.49  -0.00    -0.00  -0.00  -0.36    -0.00  -0.00  -0.49
     2   3    -0.35  -0.00   0.00    -0.01   0.49   0.35    -0.49  -0.01  -0.01
     3   3     0.35  -0.49  -0.00    -0.00   0.00  -0.34    -0.00   0.00   0.50
     4   3    -0.35  -0.00   0.00     0.01  -0.49   0.35     0.49   0.01  -0.01
     5  17     0.05  -0.08  -0.00    -0.00   0.00  -0.05    -0.00   0.00   0.08
     6  17    -0.06   0.00   0.00     0.00  -0.08   0.05     0.08   0.00  -0.00
     7  17     0.05   0.08  -0.00    -0.00  -0.00  -0.06    -0.00  -0.00  -0.08
     8  17    -0.06   0.00   0.00    -0.00   0.08   0.05    -0.08  -0.00  -0.00
                     10                     11                     12
                     A'                     A"                     A'
 Frequencies --    321.9176               321.9322               321.9323
 Red. masses --      7.8159                 7.8154                 7.8154
 Frc consts  --      0.4772                 0.4772                 0.4772
 IR Inten    --    141.4619               141.8404               141.8409
  Atom  AN      X      Y      Z        X      Y      Z        X      Y      Z
     1   3     0.37  -0.33  -0.00     0.00  -0.00   0.07     0.59  -0.37  -0.00
     2   3     0.00  -0.33   0.37    -0.00  -0.37   0.59     0.07   0.00  -0.00
     3   3    -0.37  -0.33  -0.00     0.00   0.00   0.07     0.59   0.37  -0.00
     4   3     0.00  -0.33  -0.37     0.00   0.37   0.59     0.07   0.00   0.00
     5  17    -0.05   0.07   0.00    -0.00   0.00  -0.10    -0.03   0.05   0.00
     6  17    -0.00   0.07  -0.05    -0.00   0.05  -0.03    -0.10  -0.00   0.00
     7  17     0.05   0.07   0.00    -0.00  -0.00  -0.10    -0.03  -0.05   0.00
     8  17    -0.00   0.07   0.05    -0.00  -0.05  -0.03    -0.10  -0.00  -0.00
                     13                     14                     15
                     A'                     A"                     A'
 Frequencies --    346.0272               346.1281               403.4882
 Red. masses --      7.3005                 7.2994                 7.0920
 Frc consts  --      0.5150                 0.5152                 0.6803
 IR Inten    --      0.0000                 0.0000                 0.0000
  Atom  AN      X      Y      Z        X      Y      Z        X      Y      Z
     1   3     0.29   0.41   0.00    -0.00   0.00  -0.50    -0.41   0.29  -0.00
     2   3     0.00  -0.41  -0.29     0.50  -0.00  -0.00     0.00  -0.29   0.41
     3   3    -0.29   0.41  -0.00    -0.00   0.00   0.50     0.41   0.29   0.00
     4   3     0.00  -0.41   0.29    -0.50   0.00  -0.00     0.00  -0.29  -0.41
     5  17     0.03  -0.04  -0.00    -0.00  -0.00  -0.05    -0.02  -0.02  -0.00
     6  17     0.00   0.04  -0.03     0.05   0.00  -0.00    -0.00   0.02   0.02
     7  17    -0.03  -0.04  -0.00     0.00  -0.00   0.05     0.02  -0.02   0.00
     8  17     0.00   0.04   0.03    -0.05  -0.00  -0.00    -0.00   0.02  -0.02
                     16                     17                     18
                     A'                     A"                     A'
 Frequencies --    438.7532               438.8257               438.8264
 Red. masses --      7.9003                 7.8995                 7.8995
 Frc consts  --      0.8960                 0.8963                 0.8963
 IR Inten    --    194.6561               194.3353               194.3353
  Atom  AN      X      Y      Z        X      Y      Z        X      Y      Z
     1   3     0.34   0.36   0.00    -0.00  -0.00   0.60     0.11   0.34   0.00
     2   3     0.01   0.35   0.34    -0.00   0.34   0.11     0.60  -0.01  -0.01
     3   3    -0.34   0.35   0.00    -0.00   0.00   0.60     0.12  -0.35   0.00
     4   3     0.01   0.35  -0.34    -0.00  -0.34   0.11     0.60  -0.01   0.01
     5  17    -0.05  -0.07  -0.00     0.00   0.00  -0.03    -0.11  -0.05  -0.00
     6  17    -0.00  -0.07  -0.05     0.00  -0.05  -0.11    -0.03   0.00   0.00
     7  17     0.05  -0.07  -0.00     0.00  -0.00  -0.03    -0.11   0.05  -0.00
     8  17    -0.00  -0.07   0.05    -0.00   0.05  -0.11    -0.03   0.00  -0.00

 -------------------
 - Thermochemistry -
 -------------------
 Temperature   298.150 Kelvin.  Pressure   1.00000 Atm.
 Atom     1 has atomic number  3 and mass   7.01600
 Atom     2 has atomic number  3 and mass   7.01600
 Atom     3 has atomic number  3 and mass   7.01600
 Atom     4 has atomic number  3 and mass   7.01600
 Atom     5 has atomic number 17 and mass  34.96885
 Atom     6 has atomic number 17 and mass  34.96885
 Atom     7 has atomic number 17 and mass  34.96885
 Atom     8 has atomic number 17 and mass  34.96885
 Molecular mass:   167.93943 amu.
 Principal axes and moments of inertia in atomic units:
                           1         2         3
     Eigenvalues --  1822.241051822.361641822.36266
           X           -0.00528   0.99999  -0.00000
           Y            0.99999   0.00528  -0.00000
           Z            0.00000   0.00000   1.00000
 This molecule is an asymmetric top.
 Rotational symmetry number  1.
 Warning -- assumption of classical behavior for rotation
           may cause significant error
 Rotational temperatures (Kelvin)      0.04753     0.04753     0.04753
 Rotational constants (GHZ):           0.99040     0.99033     0.99033
 Zero-point vibrational energy      31661.3 (Joules/Mol)
                                    7.56722 (Kcal/Mol)
 Warning -- explicit consideration of  18 degrees of freedom as
           vibrations may cause significant error
 Vibrational temperatures:    185.60   185.63   227.57   227.61   227.61
          (Kelvin)            329.65   457.43   457.43   457.48   463.17
                              463.19   463.19   497.86   498.00   580.53
                              631.27   631.37   631.37
 
 Zero-point correction=                           0.012059 (Hartree/Particle)
 Thermal correction to Energy=                    0.022890
 Thermal correction to Enthalpy=                  0.023834
 Thermal correction to Gibbs Free Energy=        -0.023983
 Sum of electronic and zero-point Energies=          -1870.822591
 Sum of electronic and thermal Energies=             -1870.811760
 Sum of electronic and thermal Enthalpies=           -1870.810816
 Sum of electronic and thermal Free Energies=        -1870.858633
 
                     E (Thermal)             CV                S
                      KCal/Mol        Cal/Mol-Kelvin    Cal/Mol-Kelvin
 Total                   14.363             35.885            100.639
 Electronic               0.000              0.000              0.000
 Translational            0.889              2.981             41.263
 Rotational               0.889              2.981             30.182
 Vibrational             12.586             29.924             29.193
 Vibration     1          0.611              1.924              2.961
 Vibration     2          0.612              1.924              2.961
 Vibration     3          0.621              1.893              2.572
 Vibration     4          0.621              1.893              2.571
 Vibration     5          0.621              1.893              2.571
 Vibration     6          0.652              1.797              1.886
 Vibration     7          0.704              1.639              1.321
 Vibration     8          0.704              1.639              1.321
 Vibration     9          0.704              1.639              1.321
 Vibration    10          0.707              1.632              1.300
 Vibration    11          0.707              1.632              1.300
 Vibration    12          0.707              1.632              1.300
 Vibration    13          0.724              1.583              1.184
 Vibration    14          0.724              1.583              1.184
 Vibration    15          0.769              1.463              0.950
 Vibration    16          0.799              1.386              0.831
 Vibration    17          0.799              1.386              0.830
 Vibration    18          0.799              1.386              0.830
                       Q            Log10(Q)             Ln(Q)
 Total Bot       0.107502D+12         11.031415         25.400771
 Total V=0       0.378642D+17         16.578229         38.172782
 Vib (Bot)       0.142708D-02         -2.845551         -6.552124
 Vib (Bot)    1  0.158072D+01          0.198856          0.457882
 Vib (Bot)    2  0.158050D+01          0.198796          0.457744
 Vib (Bot)    3  0.127888D+01          0.106831          0.245988
 Vib (Bot)    4  0.127865D+01          0.106752          0.245805
 Vib (Bot)    5  0.127865D+01          0.106752          0.245805
 Vib (Bot)    6  0.859980D+00         -0.065512         -0.150847
 Vib (Bot)    7  0.591998D+00         -0.227680         -0.524252
 Vib (Bot)    8  0.591997D+00         -0.227680         -0.524253
 Vib (Bot)    9  0.591926D+00         -0.227733         -0.524374
 Vib (Bot)   10  0.583275D+00         -0.234127         -0.539097
 Vib (Bot)   11  0.583243D+00         -0.234150         -0.539151
 Vib (Bot)   12  0.583243D+00         -0.234151         -0.539152
 Vib (Bot)   13  0.534562D+00         -0.272002         -0.626307
 Vib (Bot)   14  0.534372D+00         -0.272156         -0.626663
 Vib (Bot)   15  0.440607D+00         -0.355948         -0.819601
 Vib (Bot)   16  0.394395D+00         -0.404068         -0.930401
 Vib (Bot)   17  0.394308D+00         -0.404165         -0.930624
 Vib (Bot)   18  0.394307D+00         -0.404166         -0.930626
 Vib (V=0)       0.502646D+03          2.701262          6.219887
 Vib (V=0)    1  0.215792D+01          0.334034          0.769143
 Vib (V=0)    2  0.215771D+01          0.333993          0.769046
 Vib (V=0)    3  0.187315D+01          0.272573          0.627622
 Vib (V=0)    4  0.187293D+01          0.272522          0.627506
 Vib (V=0)    5  0.187293D+01          0.272522          0.627506
 Vib (V=0)    6  0.149477D+01          0.174574          0.401972
 Vib (V=0)    7  0.127489D+01          0.105474          0.242864
 Vib (V=0)    8  0.127489D+01          0.105474          0.242863
 Vib (V=0)    9  0.127484D+01          0.105456          0.242820
 Vib (V=0)   10  0.126825D+01          0.103205          0.237639
 Vib (V=0)   11  0.126823D+01          0.103197          0.237620
 Vib (V=0)   12  0.126823D+01          0.103197          0.237620
 Vib (V=0)   13  0.123195D+01          0.090595          0.208602
 Vib (V=0)   14  0.123182D+01          0.090546          0.208489
 Vib (V=0)   15  0.116643D+01          0.066860          0.153952
 Vib (V=0)   16  0.113683D+01          0.055694          0.128240
 Vib (V=0)   17  0.113677D+01          0.055673          0.128193
 Vib (V=0)   18  0.113677D+01          0.055673          0.128192
 Electronic      0.100000D+01          0.000000          0.000000
 Translational   0.855427D+08          7.932183         18.264526
 Rotational      0.880609D+06          5.944783         13.688369
 ***** Axes restored to original set *****
 -------------------------------------------------------------------
 Center     Atomic                   Forces (Hartrees/Bohr)
 Number     Number              X              Y              Z
 -------------------------------------------------------------------
      1        3          -0.000000600    0.000000311   -0.000000000
      2        3           0.000000155   -0.000000139   -0.000000180
      3        3           0.000000063    0.000000047    0.000000000
      4        3           0.000000155   -0.000000139    0.000000180
      5       17           0.000014314    0.000009157   -0.000000000
      6       17           0.000000186   -0.000009248    0.000014344
      7       17          -0.000014460    0.000009261    0.000000000
      8       17           0.000000186   -0.000009248   -0.000014344
 -------------------------------------------------------------------
 Cartesian Forces:  Max     0.000014460 RMS     0.000006973
 FormGI is forming the generalized inverse of G from B-inverse, IUseBI=4.

 GradGradGradGradGradGradGradGradGradGradGradGradGradGradGradGradGradGrad
 Berny optimization.
 Internal  Forces:  Max     0.000007300 RMS     0.000003719
 Search for a local minimum.
 Step number   1 out of a maximum of    2
 All quantities printed in internal units (Hartrees-Bohrs-Radians)
 Second derivative matrix not updated -- analytic derivatives used.
 ITU=  0
     Eigenvalues ---    0.00803   0.00804   0.00844   0.00873   0.01061
     Eigenvalues ---    0.01081   0.01492   0.01517   0.01525   0.02770
     Eigenvalues ---    0.02778   0.02801   0.02869   0.02884   0.03404
     Eigenvalues ---    0.03407   0.03507   0.04317
 Angle between quadratic step and forces=   8.54 degrees.
 Linear search not attempted -- first point.
 Iteration  1 RMS(Cart)=  0.00006987 RMS(Int)=  0.00000000
 Iteration  2 RMS(Cart)=  0.00000000 RMS(Int)=  0.00000000
 ClnCor:  largest displacement from symmetrization is 5.01D-09 for atom     8.
 Variable       Old X    -DE/DX   Delta X   Delta X   Delta X     New X
                                 (Linear)    (Quad)   (Total)
    R1        5.34438  -0.00000   0.00000  -0.00008  -0.00008   5.34430
    R2        5.34447  -0.00000   0.00000  -0.00010  -0.00010   5.34437
    R3        5.34438  -0.00000   0.00000  -0.00008  -0.00008   5.34430
    R4        4.35952   0.00001   0.00000   0.00014   0.00014   4.35966
    R5        4.35943   0.00001   0.00000   0.00015   0.00015   4.35958
    R6        4.35943   0.00001   0.00000   0.00015   0.00015   4.35958
    R7        5.34436  -0.00000   0.00000  -0.00006  -0.00006   5.34430
    R8        5.34446  -0.00000   0.00000  -0.00009  -0.00009   5.34437
    R9        4.35942   0.00001   0.00000   0.00015   0.00015   4.35958
   R10        4.35951   0.00001   0.00000   0.00014   0.00014   4.35966
   R11        4.35942   0.00001   0.00000   0.00016   0.00016   4.35958
   R12        5.34436  -0.00000   0.00000  -0.00006  -0.00006   5.34430
   R13        4.35942   0.00001   0.00000   0.00016   0.00016   4.35958
   R14        4.35951   0.00001   0.00000   0.00014   0.00014   4.35966
   R15        4.35942   0.00001   0.00000   0.00016   0.00016   4.35958
   R16        4.35942   0.00001   0.00000   0.00015   0.00015   4.35958
   R17        4.35942   0.00001   0.00000   0.00016   0.00016   4.35958
   R18        4.35951   0.00001   0.00000   0.00014   0.00014   4.35966
    A1        1.73975   0.00000   0.00000   0.00005   0.00005   1.73980
    A2        1.73971   0.00000   0.00000   0.00006   0.00006   1.73977
    A3        1.73975   0.00000   0.00000   0.00005   0.00005   1.73980
    A4        1.79291   0.00000   0.00000   0.00006   0.00006   1.79297
    A5        1.79291   0.00000   0.00000   0.00006   0.00006   1.79297
    A6        1.79283   0.00000   0.00000   0.00008   0.00008   1.79291
    A7        1.73976   0.00000   0.00000   0.00004   0.00004   1.73980
    A8        1.73976   0.00000   0.00000   0.00005   0.00005   1.73980
    A9        1.73971   0.00000   0.00000   0.00006   0.00006   1.73977
   A10        1.79291   0.00000   0.00000   0.00005   0.00005   1.79297
   A11        1.79284   0.00000   0.00000   0.00007   0.00007   1.79291
   A12        1.79291   0.00000   0.00000   0.00005   0.00005   1.79297
   A13        1.73972   0.00000   0.00000   0.00005   0.00005   1.73977
   A14        1.73976   0.00000   0.00000   0.00004   0.00004   1.73980
   A15        1.73976   0.00000   0.00000   0.00004   0.00004   1.73980
   A16        1.79291   0.00000   0.00000   0.00005   0.00005   1.79297
   A17        1.79284   0.00000   0.00000   0.00007   0.00007   1.79291
   A18        1.79291   0.00000   0.00000   0.00005   0.00005   1.79297
   A19        1.73976   0.00000   0.00000   0.00004   0.00004   1.73980
   A20        1.73971   0.00000   0.00000   0.00006   0.00006   1.73977
   A21        1.73976   0.00000   0.00000   0.00005   0.00005   1.73980
   A22        1.79284   0.00000   0.00000   0.00007   0.00007   1.79291
   A23        1.79291   0.00000   0.00000   0.00005   0.00005   1.79297
   A24        1.79291   0.00000   0.00000   0.00005   0.00005   1.79297
    D1       -0.00009   0.00000   0.00000   0.00002   0.00002  -0.00007
    D2        0.00000  -0.00000   0.00000   0.00000   0.00000   0.00000
    D3        0.00009  -0.00000   0.00000  -0.00002  -0.00002   0.00007
    D4        0.00009  -0.00000   0.00000  -0.00002  -0.00002   0.00007
    D5        0.00000  -0.00000   0.00000   0.00000   0.00000   0.00000
    D6       -1.37038   0.00000   0.00000   0.00005   0.00005  -1.37033
    D7        1.37043  -0.00000   0.00000  -0.00006  -0.00006   1.37037
    D8       -0.00009   0.00000   0.00000   0.00002   0.00002  -0.00007
    D9       -1.37043   0.00000   0.00000   0.00006   0.00006  -1.37037
   D10        1.37038  -0.00000   0.00000  -0.00005  -0.00005   1.37033
         Item               Value     Threshold  Converged?
 Maximum Force            0.000007     0.000450     YES
 RMS     Force            0.000004     0.000300     YES
 Maximum Displacement     0.000219     0.001800     YES
 RMS     Displacement     0.000070     0.001200     YES
 Predicted change in Energy=-8.411920D-09
 Optimization completed.
    -- Stationary point found.
                           ----------------------------
                           !   Optimized Parameters   !
                           ! (Angstroms and Degrees)  !
 --------------------------                            --------------------------
 ! Name  Definition              Value          Derivative Info.                !
 --------------------------------------------------------------------------------
 ! R1    R(1,2)                  2.8281         -DE/DX =    0.0                 !
 ! R2    R(1,3)                  2.8282         -DE/DX =    0.0                 !
 ! R3    R(1,4)                  2.8281         -DE/DX =    0.0                 !
 ! R4    R(1,5)                  2.307          -DE/DX =    0.0                 !
 ! R5    R(1,6)                  2.3069         -DE/DX =    0.0                 !
 ! R6    R(1,8)                  2.3069         -DE/DX =    0.0                 !
 ! R7    R(2,3)                  2.8281         -DE/DX =    0.0                 !
 ! R8    R(2,4)                  2.8282         -DE/DX =    0.0                 !
 ! R9    R(2,5)                  2.3069         -DE/DX =    0.0                 !
 ! R10   R(2,6)                  2.307          -DE/DX =    0.0                 !
 ! R11   R(2,7)                  2.3069         -DE/DX =    0.0                 !
 ! R12   R(3,4)                  2.8281         -DE/DX =    0.0                 !
 ! R13   R(3,6)                  2.3069         -DE/DX =    0.0                 !
 ! R14   R(3,7)                  2.307          -DE/DX =    0.0                 !
 ! R15   R(3,8)                  2.3069         -DE/DX =    0.0                 !
 ! R16   R(4,5)                  2.3069         -DE/DX =    0.0                 !
 ! R17   R(4,7)                  2.3069         -DE/DX =    0.0                 !
 ! R18   R(4,8)                  2.307          -DE/DX =    0.0                 !
 ! A1    A(2,1,8)               99.6805         -DE/DX =    0.0                 !
 ! A2    A(3,1,5)               99.6779         -DE/DX =    0.0                 !
 ! A3    A(4,1,6)               99.6805         -DE/DX =    0.0                 !
 ! A4    A(5,1,6)              102.7261         -DE/DX =    0.0                 !
 ! A5    A(5,1,8)              102.7261         -DE/DX =    0.0                 !
 ! A6    A(6,1,8)              102.7218         -DE/DX =    0.0                 !
 ! A7    A(1,2,7)               99.681          -DE/DX =    0.0                 !
 ! A8    A(3,2,5)               99.6808         -DE/DX =    0.0                 !
 ! A9    A(4,2,6)               99.6782         -DE/DX =    0.0                 !
 ! A10   A(5,2,6)              102.7262         -DE/DX =    0.0                 !
 ! A11   A(5,2,7)              102.7222         -DE/DX =    0.0                 !
 ! A12   A(6,2,7)              102.7263         -DE/DX =    0.0                 !
 ! A13   A(1,3,7)               99.6784         -DE/DX =    0.0                 !
 ! A14   A(2,3,8)               99.6809         -DE/DX =    0.0                 !
 ! A15   A(4,3,6)               99.6809         -DE/DX =    0.0                 !
 ! A16   A(6,3,7)              102.7263         -DE/DX =    0.0                 !
 ! A17   A(6,3,8)              102.7223         -DE/DX =    0.0                 !
 ! A18   A(7,3,8)              102.7263         -DE/DX =    0.0                 !
 ! A19   A(1,4,7)               99.681          -DE/DX =    0.0                 !
 ! A20   A(2,4,8)               99.6782         -DE/DX =    0.0                 !
 ! A21   A(3,4,5)               99.6808         -DE/DX =    0.0                 !
 ! A22   A(5,4,7)              102.7222         -DE/DX =    0.0                 !
 ! A23   A(5,4,8)              102.7262         -DE/DX =    0.0                 !
 ! A24   A(7,4,8)              102.7263         -DE/DX =    0.0                 !
 ! D1    D(8,1,2,7)             -0.0052         -DE/DX =    0.0                 !
 ! D2    D(5,1,3,7)              0.0            -DE/DX =    0.0                 !
 ! D3    D(6,1,4,7)              0.0052         -DE/DX =    0.0                 !
 ! D4    D(5,2,3,8)              0.005          -DE/DX =    0.0                 !
 ! D5    D(6,2,4,8)              0.0            -DE/DX =    0.0                 !
 ! D6    D(4,2,5,1)            -78.5168         -DE/DX =    0.0                 !
 ! D7    D(3,2,6,1)             78.5198         -DE/DX =    0.0                 !
 ! D8    D(6,3,4,5)             -0.005          -DE/DX =    0.0                 !
 ! D9    D(4,3,7,2)            -78.5198         -DE/DX =    0.0                 !
 ! D10   D(4,3,8,1)             78.5167         -DE/DX =    0.0                 !
 --------------------------------------------------------------------------------
 GradGradGradGradGradGradGradGradGradGradGradGradGradGradGradGradGradGrad


 ----------------------------------------------------------------------

 Electric dipole moment (input orientation):
 (Debye = 10**-18 statcoulomb cm , SI units = C m)
                  (au)            (Debye)         (10**-30 SI)
   Tot        0.103709D-04      0.263601D-04      0.879279D-04
   x          0.103709D-04      0.263601D-04      0.879279D-04
   y          0.000000D+00      0.000000D+00      0.000000D+00
   z          0.000000D+00      0.000000D+00      0.000000D+00

 Dipole polarizability, Alpha (input orientation).
 (esu units = cm**3 , SI units = C**2 m**2 J**-1)
 Alpha(0;0):
               (au)            (10**-24 esu)      (10**-40 SI)
   iso        0.875604D+02      0.129751D+02      0.144368D+02
   aniso      0.209337D-01      0.310206D-02      0.345151D-02
   xx         0.875535D+02      0.129741D+02      0.144356D+02
   yx        -0.169966D-04     -0.251864D-05     -0.280237D-05
   yy         0.875744D+02      0.129772D+02      0.144391D+02
   zx         0.000000D+00      0.000000D+00      0.000000D+00
   zy         0.000000D+00      0.000000D+00      0.000000D+00
   zz         0.875534D+02      0.129741D+02      0.144356D+02

 ----------------------------------------------------------------------

 Dipole orientation:
     3         -9.10494202         25.28641815         13.52040923
     3        -10.73420576         28.69696948          9.74203865
     3         -9.69787887         23.60792976          8.48111672
     3         -5.69493141         26.91681331          9.74203865
    17         -7.67394860         29.33728095         12.78003059
    17        -12.77493470         25.12040058         11.17345127
    17         -8.42950859         27.19843823          6.35865379
    17         -6.35356623         22.85201075         11.17345127

 Electric dipole moment (dipole orientation):
 (Debye = 10**-18 statcoulomb cm , SI units = C m)
                  (au)            (Debye)         (10**-30 SI)
   Tot        0.109989D-04      0.279565D-04      0.932530D-04
   x          0.000000D+00      0.000000D+00      0.000000D+00
   y          0.000000D+00      0.000000D+00      0.000000D+00
   z          0.109989D-04      0.279565D-04      0.932530D-04

 Dipole polarizability, Alpha (dipole orientation).
 (esu units = cm**3 , SI units = C**2 m**2 J**-1)
 Alpha(0;0):
               (au)            (10**-24 esu)      (10**-40 SI)
   iso        0.875604D+02      0.129751D+02      0.144368D+02
   aniso      0.209337D-01      0.310206D-02      0.345151D-02
   xx         0.875555D+02      0.129744D+02      0.144360D+02
   yx         0.584510D-02      0.866154D-03      0.963727D-03
   yy         0.875700D+02      0.129765D+02      0.144383D+02
   zx        -0.219327D-02     -0.325009D-03     -0.361621D-03
   zy        -0.620877D-02     -0.920044D-03     -0.102369D-02
   zz         0.875558D+02      0.129744D+02      0.144360D+02

 ----------------------------------------------------------------------
 Unable to Open any file for archive entry.
 1\1\GINC-TCOPT10\Freq\RPBE1PBE\def2QZVPP\Cl4Li4\HUTTER\01-Aug-2021\0\\
 #N Geom=AllCheck Guess=TCheck SCRF=Check GenChk RPBE1PBE/def2QZVPP Fre
 q\\Mol job 1\\0,1\Li,10.4140832127,8.000119417,9.\Li,8.9999942542,9.99
 9874661,10.4140829523\Li,7.5859111459,8.000130836,9.\Li,8.9999942542,9
 .999874661,7.5859170477\Cl,10.8019132862,10.2742433546,9.\Cl,8.9999904
 326,7.7257530528,10.8019157238\Cl,7.1980805282,10.2742528901,9.\Cl,8.9
 999904326,7.7257530528,7.1980842762\\Version=ES64L-G16RevC.01\State=1-
 A'\HF=-1870.8346501\RMSD=2.395e-09\RMSF=6.973e-06\ZeroPoint=0.0120591\
 Thermal=0.0228897\ETot=-1870.8117604\HTot=-1870.8108162\GTot=-1870.858
 6331\Dipole=0.0000104,-0.0000037,0.\DipoleDeriv=0.6934729,0.0222163,0.
 ,0.0220564,0.7088237,0.,0.,0.,0.7243156,0.7243149,-0.0000003,-0.000000
 2,-0.0000003,0.7088223,-0.0220573,-0.0000002,-0.0222171,0.69347,0.6934
 691,-0.0222174,0.,-0.0220577,0.7088219,0.,0.,0.,0.7243144,0.7243149,-0
 .0000003,0.0000002,-0.0000003,0.7088223,0.0220573,0.0000002,0.0222171,
 0.69347,-0.767311,-0.08276,0.,-0.0828111,-0.7088228,0.,0.,0.,-0.650475
 5,-0.6504761,0.0000003,0.0000007,0.0000003,-0.7088226,0.0828118,0.0000
 004,0.0827607,-0.7673097,-0.7673087,0.0827612,0.,0.0828123,-0.7088223,
 0.,0.,0.,-0.6504751,-0.6504761,0.0000002,-0.0000007,0.0000003,-0.70882
 26,-0.0828118,-0.0000004,-0.0827607,-0.7673097\Polar=87.5534661,-0.000
 017,87.5743903,0.,0.,87.5534471\Quadrupole=0.000783,-0.0015181,0.00073
 5,-0.0000702,0.,0.\PG=CS [SG(Cl2Li2),X(Cl2Li2)]\NImag=0\\0.03064801,0.
 00157830,0.03177639,0.,0.,0.03290565,0.00098255,0.00451413,0.00164687,
 0.03290648,0.00397621,-0.00027999,-0.00451411,-0.00000002,0.03177660,0
 .00088787,-0.00397619,0.00098256,0.00000023,-0.00157851,0.03064833,-0.
 00627447,-0.00053616,0.,0.00098253,-0.00397626,-0.00088793,0.03064840,
 0.00053624,0.00225437,0.,-0.00451417,-0.00028002,-0.00397626,-0.001578
 54,0.03177665,0.,0.,0.00572114,-0.00164693,-0.00451417,0.00098254,0.,0
 .,0.03290688,0.00098255,0.00451413,-0.00164687,0.00572116,-0.00000001,
 0.,0.00098253,-0.00451417,0.00164693,0.03290648,0.00397621,-0.00027999
 ,0.00451411,-0.00000001,0.00225439,-0.00053620,-0.00397626,-0.00028002
 ,0.00451417,-0.00000002,0.03177660,-0.00088787,0.00397619,0.00098256,0
 .,0.00053620,-0.00627455,0.00088793,0.00397626,0.00098254,-0.00000023,
 0.00157851,0.03064833,-0.00607824,-0.00445886,0.,-0.01667574,-0.002753
 81,0.00775203,0.00003443,0.00159376,0.,-0.01667574,-0.00275381,-0.0077
 5203,0.04603372,-0.00477475,-0.02128639,0.,-0.00259369,-0.00554586,0.0
 0184891,0.00159445,-0.00109268,0.,-0.00259369,-0.00554586,-0.00184891,
 0.01537492,0.03515935,0.,0.,-0.00502155,0.00797346,0.00200892,-0.01014
 745,0.,0.,-0.00221950,-0.00797346,-0.00200892,-0.01014745,0.,0.,0.0242
 7031,-0.01014740,-0.00200888,0.00797328,-0.00502155,-0.00000005,0.,-0.
 01014759,0.00200901,-0.00797367,-0.00221950,0.,0.,0.00033741,-0.004059
 75,0.00348964,0.02427039,-0.00184888,-0.00554586,0.00259364,-0.0000000
 1,-0.02128657,0.00477483,0.00184897,-0.00554588,0.00259377,0.,-0.00109
 267,-0.00159445,-0.00294501,-0.00236368,0.00405972,-0.00000005,0.03515
 957,0.00775190,0.00275376,-0.01667544,0.,0.00445890,-0.00607824,-0.007
 75225,0.00275393,-0.01667602,0.,-0.00159377,0.00003442,0.00191251,0.00
 294500,0.00033743,0.00000035,-0.01537503,0.04603369,0.00003440,-0.0015
 9376,0.,-0.01667592,0.00275392,-0.00775221,-0.00607824,0.00445887,0.,-
 0.01667592,0.00275392,0.00775221,-0.00731324,0.00111224,0.,0.00033745,
 0.00294498,-0.00191248,0.04603402,-0.00159445,-0.00109266,0.,0.0025937
 7,-0.00554588,0.00184897,0.00477483,-0.02128655,0.,0.00259377,-0.00554
 588,-0.00184897,-0.00111218,0.00303880,0.,0.00405972,-0.00236371,0.002
 94500,-0.01537517,0.03515960,0.,0.,-0.00221949,-0.00797364,0.00200901,
 -0.01014760,0.,0.,-0.00502156,0.00797364,-0.00200901,-0.01014760,0.,0.
 ,0.00259079,-0.00348962,0.00405973,0.00033743,0.,0.,0.02427059,-0.0101
 4740,-0.00200888,-0.00797328,-0.00221950,0.,0.,-0.01014759,0.00200901,
 0.00797367,-0.00502155,-0.00000005,0.,0.00033741,-0.00405975,-0.003489
 64,0.00259080,0.,-0.00000001,0.00033745,0.00405972,0.00348962,0.024270
 39,-0.00184888,-0.00554586,-0.00259364,0.,-0.00109267,0.00159445,0.001
 84897,-0.00554588,-0.00259377,-0.00000001,-0.02128657,-0.00477483,-0.0
 0294501,-0.00236368,-0.00405972,0.,0.00303880,0.00111221,0.00294498,-0
 .00236371,-0.00405973,-0.00000005,0.03515957,-0.00775190,-0.00275376,-
 0.01667544,0.,0.00159377,0.00003442,0.00775225,-0.00275393,-0.01667602
 ,0.,-0.00445890,-0.00607824,-0.00191251,-0.00294500,0.00033743,0.00000
 001,-0.00111221,-0.00731327,0.00191248,-0.00294500,0.00033743,-0.00000
 035,0.01537503,0.04603369\\0.00000060,-0.00000031,0.,-0.00000015,0.000
 00014,0.00000018,-0.00000006,-0.00000005,0.,-0.00000015,0.00000014,-0.
 00000018,-0.00001431,-0.00000916,0.,-0.00000019,0.00000925,-0.00001434
 ,0.00001446,-0.00000926,0.,-0.00000019,0.00000925,0.00001434\\\@
 The archive entry for this job was punched.


 FORGIVE MY NONSENSE AS I ALSO FORGIVE THOSE WHO THINK THEY TALK SENSE

                                                       -- ROBERT FROST
 Job cpu time:       0 days  3 hours 12 minutes 27.7 seconds.
 Elapsed time:       0 days  0 hours 26 minutes 16.1 seconds.
 File lengths (MBytes):  RWF=    132 Int=      0 D2E=      0 Chk=     15 Scr=      1
 Normal termination of Gaussian 16 at Sun Aug  1 12:56:50 2021.
