 Entering Gaussian System, Link 0=g16
 Initial command:
 /sw-ng/spack/opt/spack/linux-opensuse_leap15-sandybridge/pgi-18.10/gaussian-src-16-C.01-zldqaomctopxhethwccpmxmwefdscg3m/g16/l1.exe "/data/hutter/SMG16/PBE0/Gau-32835.inp" -scrdir="/data/hutter/SMG16/PBE0/"
 Entering Link 1 = /sw-ng/spack/opt/spack/linux-opensuse_leap15-sandybridge/pgi-18.10/gaussian-src-16-C.01-zldqaomctopxhethwccpmxmwefdscg3m/g16/l1.exe PID=     32845.
  
 Copyright (c) 1988-2019, Gaussian, Inc.  All Rights Reserved.
  
 This is part of the Gaussian(R) 16 program.  It is based on
 the Gaussian(R) 09 system (copyright 2009, Gaussian, Inc.),
 the Gaussian(R) 03 system (copyright 2003, Gaussian, Inc.),
 the Gaussian(R) 98 system (copyright 1998, Gaussian, Inc.),
 the Gaussian(R) 94 system (copyright 1995, Gaussian, Inc.),
 the Gaussian 92(TM) system (copyright 1992, Gaussian, Inc.),
 the Gaussian 90(TM) system (copyright 1990, Gaussian, Inc.),
 the Gaussian 88(TM) system (copyright 1988, Gaussian, Inc.),
 the Gaussian 86(TM) system (copyright 1986, Carnegie Mellon
 University), and the Gaussian 82(TM) system (copyright 1983,
 Carnegie Mellon University). Gaussian is a federally registered
 trademark of Gaussian, Inc.
  
 This software contains proprietary and confidential information,
 including trade secrets, belonging to Gaussian, Inc.
  
 This software is provided under written license and may be
 used, copied, transmitted, or stored only in accord with that
 written license.
  
 The following legend is applicable only to US Government
 contracts under FAR:
  
                    RESTRICTED RIGHTS LEGEND
  
 Use, reproduction and disclosure by the US Government is
 subject to restrictions as set forth in subparagraphs (a)
 and (c) of the Commercial Computer Software - Restricted
 Rights clause in FAR 52.227-19.
  
 Gaussian, Inc.
 340 Quinnipiac St., Bldg. 40, Wallingford CT 06492
  
  
 ---------------------------------------------------------------
 Warning -- This program may not be used in any manner that
 competes with the business of Gaussian, Inc. or will provide
 assistance to any competitor of Gaussian, Inc.  The licensee
 of this program is prohibited from giving any competitor of
 Gaussian, Inc. access to this program.  By using this program,
 the user acknowledges that Gaussian, Inc. is engaged in the
 business of creating and licensing software in the field of
 computational chemistry and represents and warrants to the
 licensee that it is not a competitor of Gaussian, Inc. and that
 it will not use this program in any manner prohibited above.
 ---------------------------------------------------------------
  

 Cite this work as:
 Gaussian 16, Revision C.01,
 M. J. Frisch, G. W. Trucks, H. B. Schlegel, G. E. Scuseria, 
 M. A. Robb, J. R. Cheeseman, G. Scalmani, V. Barone, 
 G. A. Petersson, H. Nakatsuji, X. Li, M. Caricato, A. V. Marenich, 
 J. Bloino, B. G. Janesko, R. Gomperts, B. Mennucci, H. P. Hratchian, 
 J. V. Ortiz, A. F. Izmaylov, J. L. Sonnenberg, D. Williams-Young, 
 F. Ding, F. Lipparini, F. Egidi, J. Goings, B. Peng, A. Petrone, 
 T. Henderson, D. Ranasinghe, V. G. Zakrzewski, J. Gao, N. Rega, 
 G. Zheng, W. Liang, M. Hada, M. Ehara, K. Toyota, R. Fukuda, 
 J. Hasegawa, M. Ishida, T. Nakajima, Y. Honda, O. Kitao, H. Nakai, 
 T. Vreven, K. Throssell, J. A. Montgomery, Jr., J. E. Peralta, 
 F. Ogliaro, M. J. Bearpark, J. J. Heyd, E. N. Brothers, K. N. Kudin, 
 V. N. Staroverov, T. A. Keith, R. Kobayashi, J. Normand, 
 K. Raghavachari, A. P. Rendell, J. C. Burant, S. S. Iyengar, 
 J. Tomasi, M. Cossi, J. M. Millam, M. Klene, C. Adamo, R. Cammi, 
 J. W. Ochterski, R. L. Martin, K. Morokuma, O. Farkas, 
 J. B. Foresman, and D. J. Fox, Gaussian, Inc., Wallingford CT, 2019.
 
 ******************************************
 Gaussian 16:  ES64L-G16RevC.01  3-Jul-2019
                 1-Aug-2021 
 ******************************************
 %mem=8GB
 %NProcShare=8
 Will use up to    8 processors via shared memory.
 ------------------------------------------------------------
 #N RPBE1PBE/Def2QZVPP scf=tight Int(Grid=ultrafine) OPT FREQ
 ------------------------------------------------------------
 1/18=20,19=15,26=4,38=1/1,3;
 2/9=110,12=2,17=6,18=5,40=1/2;
 3/5=45,7=202,11=2,25=1,30=1,71=1,74=-13,75=-5,116=1/1,2,3;
 4//1;
 5/5=2,32=2,38=5/2;
 6/7=2,8=2,9=2,10=2,28=1/1;
 7//1,2,3,16;
 1/18=20,19=15,26=4/3(2);
 2/9=110/2;
 99//99;
 2/9=110/2;
 3/5=45,7=202,11=2,25=1,30=1,71=1,74=-13,75=-5,116=1/1,2,3;
 4/5=5,16=3,69=1/1;
 5/5=2,32=2,38=5/2;
 7//1,2,3,16;
 1/18=20,19=15,26=4/3(-5);
 2/9=110/2;
 6/7=2,8=2,9=2,10=2,19=2,28=1/1;
 99/9=1/99;
 ---------
 Mol job 1
 ---------
 Symbolic Z-matrix:
 Charge =  0 Multiplicity = 1
 Cu                    7.5       7.5       6.40255 
 Cu                    7.5       7.5       8.59745 
 

 GradGradGradGradGradGradGradGradGradGradGradGradGradGradGradGradGradGrad
 Berny optimization.
 Initialization pass.
                           ----------------------------
                           !    Initial Parameters    !
                           ! (Angstroms and Degrees)  !
 --------------------------                            --------------------------
 ! Name  Definition              Value          Derivative Info.                !
 --------------------------------------------------------------------------------
 ! R1    R(1,2)                  2.1949         estimate D2E/DX2                !
 --------------------------------------------------------------------------------
 Trust Radius=3.00D-01 FncErr=1.00D-07 GrdErr=1.00D-06 EigMax=2.50D+02 EigMin=1.00D-04
 Number of steps in this run=     20 maximum allowed number of steps=    100.
 GradGradGradGradGradGradGradGradGradGradGradGradGradGradGradGradGradGrad

                          Input orientation:                          
 ---------------------------------------------------------------------
 Center     Atomic      Atomic             Coordinates (Angstroms)
 Number     Number       Type             X           Y           Z
 ---------------------------------------------------------------------
      1         29           0        7.500000    7.500000    6.402555
      2         29           0        7.500000    7.500000    8.597445
 ---------------------------------------------------------------------
 Stoichiometry    Cu2
 Framework group  D*H[C*(Cu.Cu)]
 Deg. of freedom     1
 Full point group                 D*H     NOp   8
 Largest Abelian subgroup         D2H     NOp   8
 Largest concise Abelian subgroup C2      NOp   2
                         Standard orientation:                         
 ---------------------------------------------------------------------
 Center     Atomic      Atomic             Coordinates (Angstroms)
 Number     Number       Type             X           Y           Z
 ---------------------------------------------------------------------
      1         29           0        0.000000    0.000000    1.097445
      2         29           0        0.000000    0.000000   -1.097445
 ---------------------------------------------------------------------
 Rotational constants (GHZ):           0.0000000           3.3340064           3.3340064
 Standard basis: def2QZVPP (5D, 7F)
 There are    56 symmetry adapted cartesian basis functions of AG  symmetry.
 There are    15 symmetry adapted cartesian basis functions of B1G symmetry.
 There are    29 symmetry adapted cartesian basis functions of B2G symmetry.
 There are    29 symmetry adapted cartesian basis functions of B3G symmetry.
 There are    15 symmetry adapted cartesian basis functions of AU  symmetry.
 There are    56 symmetry adapted cartesian basis functions of B1U symmetry.
 There are    29 symmetry adapted cartesian basis functions of B2U symmetry.
 There are    29 symmetry adapted cartesian basis functions of B3U symmetry.
 There are    41 symmetry adapted basis functions of AG  symmetry.
 There are    13 symmetry adapted basis functions of B1G symmetry.
 There are    23 symmetry adapted basis functions of B2G symmetry.
 There are    23 symmetry adapted basis functions of B3G symmetry.
 There are    13 symmetry adapted basis functions of AU  symmetry.
 There are    41 symmetry adapted basis functions of B1U symmetry.
 There are    23 symmetry adapted basis functions of B2U symmetry.
 There are    23 symmetry adapted basis functions of B3U symmetry.
   200 basis functions,   416 primitive gaussians,   258 cartesian basis functions
    29 alpha electrons       29 beta electrons
       nuclear repulsion energy       202.7609075607 Hartrees.
 NAtoms=    2 NActive=    2 NUniq=    1 SFac= 4.00D+00 NAtFMM=   60 NAOKFM=F Big=F
 Integral buffers will be    131072 words long.
 Raffenetti 2 integral format.
 Two-electron integral symmetry is turned on.
 One-electron integrals computed using PRISM.
   8 Symmetry operations used in ECPInt.
 ECPInt:  NShTT=    1596 NPrTT=    7030 LenC2=    1548 LenP2D=    5666.
 LDataN:  DoStor=T MaxTD1= 8 Len=  415
 NBasis=   200 RedAO= T EigKep=  6.49D-05  NBF=    41    13    23    23    13    41    23    23
 NBsUse=   200 1.00D-06 EigRej= -1.00D+00 NBFU=    41    13    23    23    13    41    23    23
 ExpMin= 3.10D-02 ExpMax= 5.06D+06 ExpMxC= 5.84D+03 IAcc=3 IRadAn=         5 AccDes= 0.00D+00
 Harris functional with IExCor= 1009 and IRadAn=       5 diagonalized for initial guess.
 HarFok:  IExCor= 1009 AccDes= 0.00D+00 IRadAn=         5 IDoV= 1 UseB2=F ITyADJ=14
 ICtDFT=  3500011 ScaDFX=  1.000000  1.000000  1.000000  1.000000
 FoFCou: FMM=F IPFlag=           0 FMFlag=      100000 FMFlg1=           0
         NFxFlg=           0 DoJE=T BraDBF=F KetDBF=T FulRan=T
         wScrn=  0.000000 ICntrl=       500 IOpCl=  0 I1Cent=   200000004 NGrid=           0
         NMat0=    1 NMatS0=      1 NMatT0=    0 NMatD0=    1 NMtDS0=    0 NMtDT0=    0
 Petite list used in FoFCou.
 Initial guess orbital symmetries:
       Occupied  (SGU) (SGG) (SGU) (SGG) (SGU) (SGG) (PIG) (PIG)
                 (PIU) (PIU) (SGG) (SGU) (SGG) (SGU) (PIU) (PIU)
                 (PIG) (PIG) (SGG) (PIU) (PIU) (SGG) (DLTG) (DLTG)
                 (DLTU) (DLTU) (SGU) (PIG) (PIG)
       Virtual   (SGU) (PIU) (PIU) (SGG) (PIG) (PIG) (SGG) (SGU)
                 (PIU) (PIU) (SGG) (DLTG) (DLTG) (SGU) (PIG) (PIG)
                 (PIU) (PIU) (DLTU) (DLTU) (SGU) (SGG) (PIG) (PIG)
                 (SGU) (SGG) (PIU) (PIU) (SGG) (DLTG) (DLTG) (SGU)
                 (PIG) (PIG) (PIU) (PIU) (DLTU) (DLTU) (SGU) (SGG)
                 (PIG) (PIG) (PHIU) (PHIU) (DLTG) (DLTG) (PHIG)
                 (PHIG) (SGU) (PIU) (PIU) (DLTU) (DLTU) (SGG) (SGU)
                 (PIG) (PIG) (PIU) (PIU) (SGG) (DLTG) (DLTG) (DLTU)
                 (DLTU) (PIG) (PIG) (PIU) (PIU) (SGU) (PIG) (PIG)
                 (SGU) (SGG) (SGG) (PHIU) (PHIU) (PIU) (PIU) (DLTG)
                 (DLTG) (PHIG) (PHIG) (SGG) (DLTU) (DLTU) (PIG)
                 (PIG) (SGU) (SGU) (PIU) (PIU) (DLTG) (DLTG) (DLTU)
                 (DLTU) (PIG) (PIG) (SGG) (SGU) (SGG) (PIU) (PIU)
                 (PHIU) (PHIU) (DLTG) (DLTG) (PHIG) (PHIG) (DLTU)
                 (DLTU) (PIG) (PIG) (SGU) (DLTG) (DLTG) (PHIU)
                 (PHIU) (PHIG) (PHIG) (?A) (?A) (?B) (?B) (PIU)
                 (PIU) (DLTU) (DLTU) (SGG) (PIG) (PIG) (SGU) (SGG)
                 (SGU) (SGG) (PIU) (PIU) (PHIU) (PHIU) (DLTG) (DLTG)
                 (PHIG) (PHIG) (DLTU) (DLTU) (PIG) (PIG) (SGU)
                 (PIU) (PIU) (DLTG) (DLTG) (PHIU) (PHIU) (PHIG)
                 (PHIG) (DLTU) (DLTU) (?A) (?B) (?A) (?B) (SGG)
                 (PIG) (PIG) (SGU) (SGG) (SGU) (SGG) (SGU) (SGG)
                 (SGU)
 The electronic state of the initial guess is 1-SGG.
 Keep R1 ints in memory in symmetry-blocked form, NReq=227685213.
 Requested convergence on RMS density matrix=1.00D-08 within 128 cycles.
 Requested convergence on MAX density matrix=1.00D-06.
 Requested convergence on             energy=1.00D-06.
 No special actions if energy rises.
 EnCoef did   100 forward-backward iterations
 EnCoef did     3 forward-backward iterations
 SCF Done:  E(RPBE1PBE) =  -3280.63639912     A.U. after   12 cycles
            NFock= 12  Conv=0.23D-08     -V/T= 2.0015

 **********************************************************************

            Population analysis using the SCF Density.

 **********************************************************************

 Orbital symmetries:
       Occupied  (SGU) (SGG) (SGU) (SGG) (SGU) (SGG) (PIG) (PIG)
                 (PIU) (PIU) (SGG) (SGU) (SGG) (SGU) (PIU) (PIU)
                 (PIG) (PIG) (SGG) (PIU) (PIU) (DLTG) (DLTG) (DLTU)
                 (DLTU) (PIG) (PIG) (SGU) (SGG)
       Virtual   (SGU) (PIU) (PIU) (SGG) (PIG) (PIG) (SGU) (SGG)
                 (PIU) (PIU) (SGG) (SGU) (DLTG) (DLTG) (PIG) (PIG)
                 (PIU) (PIU) (DLTU) (DLTU) (SGU) (SGG) (PIG) (PIG)
                 (SGU) (SGG) (PIU) (PIU) (SGG) (SGU) (DLTG) (DLTG)
                 (PIG) (PIG) (PIU) (PIU) (SGU) (DLTU) (DLTU) (SGG)
                 (PIG) (PIG) (PHIU) (PHIU) (DLTG) (DLTG) (PHIG)
                 (PHIG) (SGU) (PIU) (PIU) (DLTU) (DLTU) (SGG) (SGU)
                 (PIG) (PIG) (PIU) (PIU) (SGG) (DLTG) (DLTG) (DLTU)
                 (DLTU) (PIG) (PIG) (PIU) (PIU) (SGU) (PIG) (PIG)
                 (SGU) (SGG) (SGG) (PHIU) (PHIU) (PIU) (PIU) (DLTG)
                 (DLTG) (PHIG) (PHIG) (DLTU) (DLTU) (SGG) (PIG)
                 (PIG) (SGU) (SGU) (DLTG) (DLTG) (PIU) (PIU) (DLTU)
                 (DLTU) (PIG) (PIG) (SGG) (SGU) (SGG) (PIU) (PIU)
                 (PHIU) (PHIU) (DLTG) (DLTG) (PHIG) (PHIG) (DLTU)
                 (DLTU) (PIG) (PIG) (SGU) (DLTG) (DLTG) (PHIU)
                 (PHIU) (PHIG) (PHIG) (?A) (?A) (?B) (?B) (DLTU)
                 (DLTU) (PIU) (PIU) (SGG) (PIG) (PIG) (SGU) (SGG)
                 (SGU) (SGG) (PIU) (PIU) (PHIU) (PHIU) (DLTG) (DLTG)
                 (PHIG) (PHIG) (DLTU) (DLTU) (PIG) (PIG) (SGU)
                 (PIU) (PIU) (DLTG) (DLTG) (PHIU) (PHIU) (PHIG)
                 (PHIG) (?A) (?B) (?A) (?B) (DLTU) (DLTU) (SGG)
                 (PIG) (PIG) (SGU) (SGG) (SGU) (SGG) (SGU) (SGG)
                 (SGU)
 The electronic state is 1-SGG.
 Alpha  occ. eigenvalues -- -323.30976-323.30976 -38.89304 -38.89303 -34.06160
 Alpha  occ. eigenvalues --  -34.06159 -34.06093 -34.06093 -34.06092 -34.06092
 Alpha  occ. eigenvalues --   -4.31373  -4.31290  -2.79695  -2.79057  -2.79035
 Alpha  occ. eigenvalues --   -2.79035  -2.78978  -2.78978  -0.29920  -0.28407
 Alpha  occ. eigenvalues --   -0.28407  -0.26553  -0.26553  -0.25698  -0.25698
 Alpha  occ. eigenvalues --   -0.24594  -0.24594  -0.24173  -0.21145
 Alpha virt. eigenvalues --   -0.07480  -0.01875  -0.01875   0.00500   0.04293
 Alpha virt. eigenvalues --    0.04293   0.05531   0.06354   0.09919   0.09919
 Alpha virt. eigenvalues --    0.10685   0.11704   0.13530   0.13530   0.15116
 Alpha virt. eigenvalues --    0.15116   0.18873   0.18873   0.19853   0.19853
 Alpha virt. eigenvalues --    0.21356   0.25542   0.28197   0.28197   0.36613
 Alpha virt. eigenvalues --    0.39480   0.44593   0.44593   0.44896   0.48970
 Alpha virt. eigenvalues --    0.49061   0.49061   0.50592   0.50592   0.54065
 Alpha virt. eigenvalues --    0.54065   0.57596   0.57823   0.57823   0.66142
 Alpha virt. eigenvalues --    0.70008   0.70008   0.75271   0.75271   0.76423
 Alpha virt. eigenvalues --    0.76423   0.87237   0.87237   0.88971   0.96511
 Alpha virt. eigenvalues --    0.96511   1.06464   1.06464   1.08868   1.25440
 Alpha virt. eigenvalues --    1.27209   1.27209   1.54871   1.54871   1.55740
 Alpha virt. eigenvalues --    1.56640   1.56640   1.61495   1.61495   1.72435
 Alpha virt. eigenvalues --    1.72435   1.82818   1.82818   1.96421   1.98500
 Alpha virt. eigenvalues --    1.98500   2.00112   2.03399   2.53460   2.56674
 Alpha virt. eigenvalues --    2.56674   2.58477   2.58477   2.58822   2.58822
 Alpha virt. eigenvalues --    2.60713   2.60713   2.66586   2.66586   2.67836
 Alpha virt. eigenvalues --    2.81969   2.81969   2.96802   3.40439   4.58859
 Alpha virt. eigenvalues --    4.58859   4.59116   4.59116   4.64011   4.64011
 Alpha virt. eigenvalues --    4.73240   4.73240   4.83292   5.06236   7.10152
 Alpha virt. eigenvalues --    7.12204   7.12204   7.15746   7.15746   7.16091
 Alpha virt. eigenvalues --    7.16091   7.18112   7.18112   7.22271   7.22271
 Alpha virt. eigenvalues --    7.36656   7.36656   7.38392   7.45515   7.45515
 Alpha virt. eigenvalues --    7.45791   7.45791   7.45878   7.45878   7.46042
 Alpha virt. eigenvalues --    7.46043   7.46044   7.46044   7.46834   7.46834
 Alpha virt. eigenvalues --    7.46906   7.46906   7.51371   7.51981   7.51981
 Alpha virt. eigenvalues --    7.86324  11.17858  11.72714  20.98419  20.98476
 Alpha virt. eigenvalues --   20.98476  20.98977  20.98977  20.99389  20.99389
 Alpha virt. eigenvalues --   21.00444  21.00444  21.03094  21.03094  21.11149
 Alpha virt. eigenvalues --   21.11149  21.23160  25.15595  25.15595  25.15605
 Alpha virt. eigenvalues --   25.15606  25.15688  25.15688  25.15700  25.15700
 Alpha virt. eigenvalues --   25.15787  25.15787  25.15787  25.15787  25.15912
 Alpha virt. eigenvalues --   25.15913  25.16242  25.17485  25.17485  25.21713
 Alpha virt. eigenvalues --   40.26176  40.74378 137.33588 137.79092 900.36303
 Alpha virt. eigenvalues --  901.16630
          Condensed to atoms (all electrons):
               1          2
     1  Cu  28.606062   0.393938
     2  Cu   0.393938  28.606062
 Mulliken charges:
               1
     1  Cu  -0.000000
     2  Cu  -0.000000
 Sum of Mulliken charges =  -0.00000
 Mulliken charges with hydrogens summed into heavy atoms:
               1
     1  Cu  -0.000000
     2  Cu  -0.000000
 Electronic spatial extent (au):  <R**2>=            306.1237
 Charge=              0.0000 electrons
 Dipole moment (field-independent basis, Debye):
    X=             -0.0000    Y=             -0.0000    Z=              0.0000  Tot=              0.0000
 Quadrupole moment (field-independent basis, Debye-Ang):
   XX=            -27.9408   YY=            -27.9408   ZZ=            -20.3403
   XY=             -0.0000   XZ=              0.0000   YZ=              0.0000
 Traceless Quadrupole moment (field-independent basis, Debye-Ang):
   XX=             -2.5335   YY=             -2.5335   ZZ=              5.0670
   XY=             -0.0000   XZ=              0.0000   YZ=              0.0000
 Octapole moment (field-independent basis, Debye-Ang**2):
  XXX=              0.0000  YYY=              0.0000  ZZZ=             -0.0000  XYY=              0.0000
  XXY=              0.0000  XXZ=             -0.0000  XZZ=              0.0000  YZZ=              0.0000
  YYZ=             -0.0000  XYZ=             -0.0000
 Hexadecapole moment (field-independent basis, Debye-Ang**3):
 XXXX=            -42.2574 YYYY=            -42.2574 ZZZZ=           -188.7663 XXXY=             -0.0000
 XXXZ=              0.0000 YYYX=             -0.0000 YYYZ=              0.0000 ZZZX=              0.0000
 ZZZY=              0.0000 XXYY=            -14.0858 XXZZ=            -41.5289 YYZZ=            -41.5289
 XXYZ=              0.0000 YYXZ=              0.0000 ZZXY=             -0.0000
 N-N= 2.027609075607D+02 E-N=-8.257527102066D+03  KE= 3.275569667523D+03
 Symmetry AG   KE= 1.219553846173D+03
 Symmetry B1G  KE= 1.843269562820D+01
 Symmetry B2G  KE= 2.007132200734D+02
 Symmetry B3G  KE= 2.007132200734D+02
 Symmetry AU   KE= 1.905225659519D+01
 Symmetry B1U  KE= 1.219247571849D+03
 Symmetry B2U  KE= 1.989284285653D+02
 Symmetry B3U  KE= 1.989284285653D+02
   8 Symmetry operations used in ECPInt.
 ECPInt:  NShTT=    1596 NPrTT=    7030 LenC2=    1548 LenP2D=    5666.
 LDataN:  DoStor=T MaxTD1= 9 Len=  602
 Calling FoFJK, ICntrl=      2127 FMM=F ISym2X=1 I1Cent= 0 IOpClX= 0 NMat=1 NMatS=1 NMatT=0.
 ***** Axes restored to original set *****
 -------------------------------------------------------------------
 Center     Atomic                   Forces (Hartrees/Bohr)
 Number     Number              X              Y              Z
 -------------------------------------------------------------------
      1       29          -0.000000000    0.000000000   -0.012432783
      2       29           0.000000000   -0.000000000    0.012432783
 -------------------------------------------------------------------
 Cartesian Forces:  Max     0.012432783 RMS     0.007178071

 GradGradGradGradGradGradGradGradGradGradGradGradGradGradGradGradGradGrad
 Berny optimization.
 FormGI is forming the generalized inverse of G from B-inverse, IUseBI=4.
 Internal  Forces:  Max     0.012432783 RMS     0.012432783
 Search for a local minimum.
 Step number   1 out of a maximum of   20
 All quantities printed in internal units (Hartrees-Bohrs-Radians)
 Mixed Optimization -- RFO/linear search
 Second derivative matrix not updated -- first step.
 The second derivative matrix:
                          R1
           R1           0.18008
 ITU=  0
     Eigenvalues ---    0.18008
 RFO step:  Lambda=-8.54290676D-04 EMin= 1.80084238D-01
 Linear search not attempted -- first point.
 Iteration  1 RMS(Cart)=  0.04858725 RMS(Int)=  0.00000000
 Iteration  2 RMS(Cart)=  0.00000000 RMS(Int)=  0.00000000
 ClnCor:  largest displacement from symmetrization is 3.55D-15 for atom     2.
 Variable       Old X    -DE/DX   Delta X   Delta X   Delta X     New X
                                 (Linear)    (Quad)   (Total)
    R1        4.14774   0.01243   0.00000   0.06871   0.06871   4.21646
         Item               Value     Threshold  Converged?
 Maximum Force            0.012433     0.000450     NO 
 RMS     Force            0.012433     0.000300     NO 
 Maximum Displacement     0.034356     0.001800     NO 
 RMS     Displacement     0.048587     0.001200     NO 
 Predicted change in Energy=-4.291621D-04
 GradGradGradGradGradGradGradGradGradGradGradGradGradGradGradGradGradGrad

                          Input orientation:                          
 ---------------------------------------------------------------------
 Center     Atomic      Atomic             Coordinates (Angstroms)
 Number     Number       Type             X           Y           Z
 ---------------------------------------------------------------------
      1         29           0        7.500000    7.500000    6.384374
      2         29           0        7.500000    7.500000    8.615626
 ---------------------------------------------------------------------
 Stoichiometry    Cu2
 Framework group  D*H[C*(Cu.Cu)]
 Deg. of freedom     1
 Full point group                 D*H     NOp   8
 Largest Abelian subgroup         D2H     NOp   8
 Largest concise Abelian subgroup C2      NOp   2
                         Standard orientation:                         
 ---------------------------------------------------------------------
 Center     Atomic      Atomic             Coordinates (Angstroms)
 Number     Number       Type             X           Y           Z
 ---------------------------------------------------------------------
      1         29           0        0.000000    0.000000    1.115626
      2         29           0        0.000000    0.000000   -1.115626
 ---------------------------------------------------------------------
 Rotational constants (GHZ):           0.0000000           3.2262276           3.2262276
 Standard basis: def2QZVPP (5D, 7F)
 There are    56 symmetry adapted cartesian basis functions of AG  symmetry.
 There are    15 symmetry adapted cartesian basis functions of B1G symmetry.
 There are    29 symmetry adapted cartesian basis functions of B2G symmetry.
 There are    29 symmetry adapted cartesian basis functions of B3G symmetry.
 There are    15 symmetry adapted cartesian basis functions of AU  symmetry.
 There are    56 symmetry adapted cartesian basis functions of B1U symmetry.
 There are    29 symmetry adapted cartesian basis functions of B2U symmetry.
 There are    29 symmetry adapted cartesian basis functions of B3U symmetry.
 There are    41 symmetry adapted basis functions of AG  symmetry.
 There are    13 symmetry adapted basis functions of B1G symmetry.
 There are    23 symmetry adapted basis functions of B2G symmetry.
 There are    23 symmetry adapted basis functions of B3G symmetry.
 There are    13 symmetry adapted basis functions of AU  symmetry.
 There are    41 symmetry adapted basis functions of B1U symmetry.
 There are    23 symmetry adapted basis functions of B2U symmetry.
 There are    23 symmetry adapted basis functions of B3U symmetry.
   200 basis functions,   416 primitive gaussians,   258 cartesian basis functions
    29 alpha electrons       29 beta electrons
       nuclear repulsion energy       199.4566487660 Hartrees.
 NAtoms=    2 NActive=    2 NUniq=    1 SFac= 4.00D+00 NAtFMM=   60 NAOKFM=F Big=F
 Integral buffers will be    131072 words long.
 Raffenetti 2 integral format.
 Two-electron integral symmetry is turned on.
 One-electron integrals computed using PRISM.
   8 Symmetry operations used in ECPInt.
 ECPInt:  NShTT=    1596 NPrTT=    7030 LenC2=    1542 LenP2D=    5656.
 LDataN:  DoStor=T MaxTD1= 8 Len=  415
 NBasis=   200 RedAO= T EigKep=  7.44D-05  NBF=    41    13    23    23    13    41    23    23
 NBsUse=   200 1.00D-06 EigRej= -1.00D+00 NBFU=    41    13    23    23    13    41    23    23
 Initial guess from the checkpoint file:  "/data/hutter/SMG16/PBE0/Gau-32845.chk"
 B after Tr=     0.000000    0.000000   -0.000000
         Rot=    1.000000    0.000000    0.000000    0.000000 Ang=   0.00 deg.
 Initial guess orbital symmetries:
       Occupied  (SGU) (SGG) (SGU) (SGG) (SGU) (SGG) (PIG) (PIG)
                 (PIU) (PIU) (SGG) (SGU) (SGG) (SGU) (PIU) (PIU)
                 (PIG) (PIG) (SGG) (PIU) (PIU) (DLTG) (DLTG) (DLTU)
                 (DLTU) (PIG) (PIG) (SGU) (SGG)
       Virtual   (SGU) (PIU) (PIU) (SGG) (PIG) (PIG) (SGU) (SGG)
                 (PIU) (PIU) (SGG) (SGU) (DLTG) (DLTG) (PIG) (PIG)
                 (PIU) (PIU) (DLTU) (DLTU) (SGU) (SGG) (PIG) (PIG)
                 (SGU) (SGG) (PIU) (PIU) (SGG) (SGU) (DLTG) (DLTG)
                 (PIG) (PIG) (PIU) (PIU) (SGU) (DLTU) (DLTU) (SGG)
                 (PIG) (PIG) (PHIU) (PHIU) (DLTG) (DLTG) (PHIG)
                 (PHIG) (SGU) (PIU) (PIU) (DLTU) (DLTU) (SGG) (SGU)
                 (PIG) (PIG) (PIU) (PIU) (SGG) (DLTG) (DLTG) (DLTU)
                 (DLTU) (PIG) (PIG) (PIU) (PIU) (SGU) (PIG) (PIG)
                 (SGU) (SGG) (SGG) (PHIU) (PHIU) (PIU) (PIU) (DLTG)
                 (DLTG) (PHIG) (PHIG) (DLTU) (DLTU) (SGG) (PIG)
                 (PIG) (SGU) (SGU) (DLTG) (DLTG) (PIU) (PIU) (DLTU)
                 (DLTU) (PIG) (PIG) (SGG) (SGU) (SGG) (PIU) (PIU)
                 (PHIU) (PHIU) (DLTG) (DLTG) (PHIG) (PHIG) (DLTU)
                 (DLTU) (PIG) (PIG) (SGU) (DLTG) (DLTG) (PHIU)
                 (PHIU) (PHIG) (PHIG) (?A) (?A) (?B) (?B) (DLTU)
                 (DLTU) (PIU) (PIU) (SGG) (PIG) (PIG) (SGU) (SGG)
                 (SGU) (SGG) (PIU) (PIU) (PHIU) (PHIU) (DLTG) (DLTG)
                 (PHIG) (PHIG) (DLTU) (DLTU) (PIG) (PIG) (SGU)
                 (PIU) (PIU) (DLTG) (DLTG) (PHIU) (PHIU) (PHIG)
                 (PHIG) (?A) (?B) (?A) (?B) (DLTU) (DLTU) (SGG)
                 (PIG) (PIG) (SGU) (SGG) (SGU) (SGG) (SGU) (SGG)
                 (SGU)
 ExpMin= 3.10D-02 ExpMax= 5.06D+06 ExpMxC= 5.84D+03 IAcc=3 IRadAn=         5 AccDes= 0.00D+00
 Harris functional with IExCor= 1009 and IRadAn=       5 diagonalized for initial guess.
 HarFok:  IExCor= 1009 AccDes= 0.00D+00 IRadAn=         5 IDoV= 1 UseB2=F ITyADJ=14
 ICtDFT=  3500011 ScaDFX=  1.000000  1.000000  1.000000  1.000000
 FoFCou: FMM=F IPFlag=           0 FMFlag=      100000 FMFlg1=           0
         NFxFlg=           0 DoJE=T BraDBF=F KetDBF=T FulRan=T
         wScrn=  0.000000 ICntrl=       500 IOpCl=  0 I1Cent=   200000004 NGrid=           0
         NMat0=    1 NMatS0=      1 NMatT0=    0 NMatD0=    1 NMtDS0=    0 NMtDT0=    0
 Petite list used in FoFCou.
 Keep R1 ints in memory in symmetry-blocked form, NReq=227685213.
 Requested convergence on RMS density matrix=1.00D-08 within 128 cycles.
 Requested convergence on MAX density matrix=1.00D-06.
 Requested convergence on             energy=1.00D-06.
 No special actions if energy rises.
 SCF Done:  E(RPBE1PBE) =  -3280.63703044     A.U. after    8 cycles
            NFock=  8  Conv=0.65D-08     -V/T= 2.0016
   8 Symmetry operations used in ECPInt.
 ECPInt:  NShTT=    1596 NPrTT=    7030 LenC2=    1542 LenP2D=    5656.
 LDataN:  DoStor=T MaxTD1= 9 Len=  602
 Calling FoFJK, ICntrl=      2127 FMM=F ISym2X=1 I1Cent= 0 IOpClX= 0 NMat=1 NMatS=1 NMatT=0.
 ***** Axes restored to original set *****
 -------------------------------------------------------------------
 Center     Atomic                   Forces (Hartrees/Bohr)
 Number     Number              X              Y              Z
 -------------------------------------------------------------------
      1       29          -0.000000000    0.000000000   -0.006100511
      2       29           0.000000000   -0.000000000    0.006100511
 -------------------------------------------------------------------
 Cartesian Forces:  Max     0.006100511 RMS     0.003522132

 GradGradGradGradGradGradGradGradGradGradGradGradGradGradGradGradGradGrad
 Berny optimization.
 Using GEDIIS/GDIIS optimizer.
 Internal  Forces:  Max     0.006100511 RMS     0.006100511
 Search for a local minimum.
 Step number   2 out of a maximum of   20
 All quantities printed in internal units (Hartrees-Bohrs-Radians)
 Mixed Optimization -- RFO/linear search
 Update second derivatives using D2CorX and points    1    2
 DE= -6.31D-04 DEPred=-4.29D-04 R= 1.47D+00
 TightC=F SS=  1.41D+00  RLast= 6.87D-02 DXNew= 5.0454D-01 2.0614D-01
 Trust test= 1.47D+00 RLast= 6.87D-02 DXMaxT set to 3.00D-01
 The second derivative matrix:
                          R1
           R1           0.09216
 ITU=  1  0
 Use linear search instead of GDIIS.
     Eigenvalues ---    0.09216
 RFO step:  Lambda= 0.00000000D+00 EMin= 9.21557166D-02
 Quartic linear search produced a step of  1.13767.
 Iteration  1 RMS(Cart)=  0.05527619 RMS(Int)=  0.00000000
 Iteration  2 RMS(Cart)=  0.00000000 RMS(Int)=  0.00000000
 ClnCor:  largest displacement from symmetrization is 0.00D+00 for atom     0.
 Variable       Old X    -DE/DX   Delta X   Delta X   Delta X     New X
                                 (Linear)    (Quad)   (Total)
    R1        4.21646   0.00610   0.07817   0.00000   0.07817   4.29463
         Item               Value     Threshold  Converged?
 Maximum Force            0.006101     0.000450     NO 
 RMS     Force            0.006101     0.000300     NO 
 Maximum Displacement     0.039086     0.001800     NO 
 RMS     Displacement     0.055276     0.001200     NO 
 Predicted change in Energy=-1.953133D-04
 GradGradGradGradGradGradGradGradGradGradGradGradGradGradGradGradGradGrad

                          Input orientation:                          
 ---------------------------------------------------------------------
 Center     Atomic      Atomic             Coordinates (Angstroms)
 Number     Number       Type             X           Y           Z
 ---------------------------------------------------------------------
      1         29           0        7.500000    7.500000    6.363691
      2         29           0        7.500000    7.500000    8.636309
 ---------------------------------------------------------------------
 Stoichiometry    Cu2
 Framework group  D*H[C*(Cu.Cu)]
 Deg. of freedom     1
 Full point group                 D*H     NOp   8
 Largest Abelian subgroup         D2H     NOp   8
 Largest concise Abelian subgroup C2      NOp   2
                         Standard orientation:                         
 ---------------------------------------------------------------------
 Center     Atomic      Atomic             Coordinates (Angstroms)
 Number     Number       Type             X           Y           Z
 ---------------------------------------------------------------------
      1         29           0        0.000000    0.000000    1.136309
      2         29           0        0.000000    0.000000   -1.136309
 ---------------------------------------------------------------------
 Rotational constants (GHZ):           0.0000000           3.1098467           3.1098467
 Standard basis: def2QZVPP (5D, 7F)
 There are    56 symmetry adapted cartesian basis functions of AG  symmetry.
 There are    15 symmetry adapted cartesian basis functions of B1G symmetry.
 There are    29 symmetry adapted cartesian basis functions of B2G symmetry.
 There are    29 symmetry adapted cartesian basis functions of B3G symmetry.
 There are    15 symmetry adapted cartesian basis functions of AU  symmetry.
 There are    56 symmetry adapted cartesian basis functions of B1U symmetry.
 There are    29 symmetry adapted cartesian basis functions of B2U symmetry.
 There are    29 symmetry adapted cartesian basis functions of B3U symmetry.
 There are    41 symmetry adapted basis functions of AG  symmetry.
 There are    13 symmetry adapted basis functions of B1G symmetry.
 There are    23 symmetry adapted basis functions of B2G symmetry.
 There are    23 symmetry adapted basis functions of B3G symmetry.
 There are    13 symmetry adapted basis functions of AU  symmetry.
 There are    41 symmetry adapted basis functions of B1U symmetry.
 There are    23 symmetry adapted basis functions of B2U symmetry.
 There are    23 symmetry adapted basis functions of B3U symmetry.
   200 basis functions,   416 primitive gaussians,   258 cartesian basis functions
    29 alpha electrons       29 beta electrons
       nuclear repulsion energy       195.8260675602 Hartrees.
 NAtoms=    2 NActive=    2 NUniq=    1 SFac= 4.00D+00 NAtFMM=   60 NAOKFM=F Big=F
 Integral buffers will be    131072 words long.
 Raffenetti 2 integral format.
 Two-electron integral symmetry is turned on.
 One-electron integrals computed using PRISM.
   8 Symmetry operations used in ECPInt.
 ECPInt:  NShTT=    1596 NPrTT=    7030 LenC2=    1540 LenP2D=    5644.
 LDataN:  DoStor=T MaxTD1= 8 Len=  415
 NBasis=   200 RedAO= T EigKep=  8.67D-05  NBF=    41    13    23    23    13    41    23    23
 NBsUse=   200 1.00D-06 EigRej= -1.00D+00 NBFU=    41    13    23    23    13    41    23    23
 Initial guess from the checkpoint file:  "/data/hutter/SMG16/PBE0/Gau-32845.chk"
 B after Tr=     0.000000    0.000000    0.000000
         Rot=    1.000000    0.000000    0.000000    0.000000 Ang=   0.00 deg.
 Initial guess orbital symmetries:
       Occupied  (SGU) (SGG) (SGU) (SGG) (SGU) (SGG) (PIG) (PIG)
                 (PIU) (PIU) (SGG) (SGU) (SGG) (SGU) (PIU) (PIU)
                 (PIG) (PIG) (SGG) (PIU) (PIU) (DLTG) (DLTG) (DLTU)
                 (DLTU) (PIG) (PIG) (SGU) (SGG)
       Virtual   (SGU) (PIU) (PIU) (SGG) (PIG) (PIG) (SGU) (SGG)
                 (PIU) (PIU) (SGG) (SGU) (DLTG) (DLTG) (PIG) (PIG)
                 (PIU) (PIU) (DLTU) (DLTU) (SGU) (SGG) (PIG) (PIG)
                 (SGU) (SGG) (PIU) (PIU) (SGG) (SGU) (DLTG) (DLTG)
                 (PIG) (PIG) (PIU) (PIU) (SGU) (DLTU) (DLTU) (SGG)
                 (PIG) (PIG) (PHIU) (PHIU) (DLTG) (DLTG) (PHIG)
                 (PHIG) (SGU) (PIU) (PIU) (DLTU) (DLTU) (SGG) (SGU)
                 (PIG) (PIG) (PIU) (PIU) (SGG) (DLTG) (DLTG) (DLTU)
                 (DLTU) (PIG) (PIG) (PIU) (PIU) (SGU) (SGU) (PIG)
                 (PIG) (SGG) (SGG) (PHIU) (PHIU) (DLTG) (DLTG)
                 (PIU) (PIU) (PHIG) (PHIG) (DLTU) (DLTU) (SGG)
                 (PIG) (PIG) (SGU) (SGU) (PIU) (PIU) (DLTG) (DLTG)
                 (DLTU) (DLTU) (PIG) (PIG) (SGG) (SGU) (SGG) (PIU)
                 (PIU) (PHIU) (PHIU) (DLTG) (DLTG) (PHIG) (PHIG)
                 (DLTU) (DLTU) (PIG) (PIG) (SGU) (DLTG) (DLTG)
                 (PHIU) (PHIU) (PHIG) (PHIG) (?A) (?A) (?B) (?B)
                 (PIU) (PIU) (DLTU) (DLTU) (SGG) (PIG) (PIG) (SGU)
                 (SGG) (SGU) (SGG) (PHIU) (PHIU) (PIU) (PIU) (DLTG)
                 (DLTG) (PHIG) (PHIG) (DLTU) (DLTU) (PIG) (PIG)
                 (SGU) (PIU) (PIU) (DLTG) (DLTG) (PHIU) (PHIU)
                 (PHIG) (PHIG) (?A) (?B) (?A) (?B) (DLTU) (DLTU)
                 (SGG) (PIG) (PIG) (SGU) (SGG) (SGU) (SGG) (SGU)
                 (SGG) (SGU)
 ExpMin= 3.10D-02 ExpMax= 5.06D+06 ExpMxC= 5.84D+03 IAcc=3 IRadAn=         5 AccDes= 0.00D+00
 Harris functional with IExCor= 1009 and IRadAn=       5 diagonalized for initial guess.
 HarFok:  IExCor= 1009 AccDes= 0.00D+00 IRadAn=         5 IDoV= 1 UseB2=F ITyADJ=14
 ICtDFT=  3500011 ScaDFX=  1.000000  1.000000  1.000000  1.000000
 FoFCou: FMM=F IPFlag=           0 FMFlag=      100000 FMFlg1=           0
         NFxFlg=           0 DoJE=T BraDBF=F KetDBF=T FulRan=T
         wScrn=  0.000000 ICntrl=       500 IOpCl=  0 I1Cent=   200000004 NGrid=           0
         NMat0=    1 NMatS0=      1 NMatT0=    0 NMatD0=    1 NMtDS0=    0 NMtDT0=    0
 Petite list used in FoFCou.
 Keep R1 ints in memory in symmetry-blocked form, NReq=227685213.
 Requested convergence on RMS density matrix=1.00D-08 within 128 cycles.
 Requested convergence on MAX density matrix=1.00D-06.
 Requested convergence on             energy=1.00D-06.
 No special actions if energy rises.
 SCF Done:  E(RPBE1PBE) =  -3280.63726146     A.U. after    9 cycles
            NFock=  9  Conv=0.13D-08     -V/T= 2.0016
   8 Symmetry operations used in ECPInt.
 ECPInt:  NShTT=    1596 NPrTT=    7030 LenC2=    1540 LenP2D=    5644.
 LDataN:  DoStor=T MaxTD1= 9 Len=  602
 Calling FoFJK, ICntrl=      2127 FMM=F ISym2X=1 I1Cent= 0 IOpClX= 0 NMat=1 NMatS=1 NMatT=0.
 ***** Axes restored to original set *****
 -------------------------------------------------------------------
 Center     Atomic                   Forces (Hartrees/Bohr)
 Number     Number              X              Y              Z
 -------------------------------------------------------------------
      1       29          -0.000000000    0.000000000    0.000003446
      2       29           0.000000000   -0.000000000   -0.000003446
 -------------------------------------------------------------------
 Cartesian Forces:  Max     0.000003446 RMS     0.000001989

 GradGradGradGradGradGradGradGradGradGradGradGradGradGradGradGradGradGrad
 Berny optimization.
 Using GEDIIS/GDIIS optimizer.
 Internal  Forces:  Max     0.000003446 RMS     0.000003446
 Search for a local minimum.
 Step number   3 out of a maximum of   20
 All quantities printed in internal units (Hartrees-Bohrs-Radians)
 Mixed Optimization -- En-DIIS/RFO-DIIS
 Update second derivatives using D2CorX and points    2    3
 DE= -2.31D-04 DEPred=-1.95D-04 R= 1.18D+00
 TightC=F SS=  1.41D+00  RLast= 7.82D-02 DXNew= 5.0454D-01 2.3452D-01
 Trust test= 1.18D+00 RLast= 7.82D-02 DXMaxT set to 3.00D-01
 The second derivative matrix:
                          R1
           R1           0.07808
 ITU=  1  1
 Use linear search instead of GDIIS.
     Eigenvalues ---    0.07808
 RFO step:  Lambda= 0.00000000D+00 EMin= 7.80833230D-02
 Quartic linear search produced a step of -0.00062.
 Iteration  1 RMS(Cart)=  0.00003429 RMS(Int)=  0.00000000
 Iteration  2 RMS(Cart)=  0.00000000 RMS(Int)=  0.00000000
 ClnCor:  largest displacement from symmetrization is 3.55D-15 for atom     2.
 Variable       Old X    -DE/DX   Delta X   Delta X   Delta X     New X
                                 (Linear)    (Quad)   (Total)
    R1        4.29463  -0.00000  -0.00005   0.00000  -0.00005   4.29458
         Item               Value     Threshold  Converged?
 Maximum Force            0.000003     0.000450     YES
 RMS     Force            0.000003     0.000300     YES
 Maximum Displacement     0.000024     0.001800     YES
 RMS     Displacement     0.000034     0.001200     YES
 Predicted change in Energy=-7.527113D-11
 Optimization completed.
    -- Stationary point found.
                           ----------------------------
                           !   Optimized Parameters   !
                           ! (Angstroms and Degrees)  !
 --------------------------                            --------------------------
 ! Name  Definition              Value          Derivative Info.                !
 --------------------------------------------------------------------------------
 ! R1    R(1,2)                  2.2726         -DE/DX =    0.0                 !
 --------------------------------------------------------------------------------
 GradGradGradGradGradGradGradGradGradGradGradGradGradGradGradGradGradGrad

                          Input orientation:                          
 ---------------------------------------------------------------------
 Center     Atomic      Atomic             Coordinates (Angstroms)
 Number     Number       Type             X           Y           Z
 ---------------------------------------------------------------------
      1         29           0        7.500000    7.500000    6.363691
      2         29           0        7.500000    7.500000    8.636309
 ---------------------------------------------------------------------
 Stoichiometry    Cu2
 Framework group  D*H[C*(Cu.Cu)]
 Deg. of freedom     1
 Full point group                 D*H     NOp   8
 Largest Abelian subgroup         D2H     NOp   8
 Largest concise Abelian subgroup C2      NOp   2
                         Standard orientation:                         
 ---------------------------------------------------------------------
 Center     Atomic      Atomic             Coordinates (Angstroms)
 Number     Number       Type             X           Y           Z
 ---------------------------------------------------------------------
      1         29           0        0.000000    0.000000    1.136309
      2         29           0        0.000000    0.000000   -1.136309
 ---------------------------------------------------------------------
 Rotational constants (GHZ):           0.0000000           3.1098467           3.1098467

 **********************************************************************

            Population analysis using the SCF Density.

 **********************************************************************

 Orbital symmetries:
       Occupied  (SGU) (SGG) (SGU) (SGG) (SGU) (SGG) (PIG) (PIG)
                 (PIU) (PIU) (SGG) (SGU) (SGG) (SGU) (PIU) (PIU)
                 (PIG) (PIG) (SGG) (PIU) (PIU) (DLTG) (DLTG) (DLTU)
                 (DLTU) (PIG) (PIG) (SGU) (SGG)
       Virtual   (SGU) (PIU) (PIU) (SGG) (PIG) (PIG) (SGU) (SGG)
                 (PIU) (PIU) (SGG) (SGU) (DLTG) (DLTG) (PIG) (PIG)
                 (PIU) (PIU) (DLTU) (DLTU) (SGU) (SGG) (PIG) (PIG)
                 (SGU) (SGG) (PIU) (PIU) (SGG) (SGU) (DLTG) (DLTG)
                 (PIG) (PIG) (PIU) (PIU) (SGU) (DLTU) (DLTU) (SGG)
                 (PIG) (PIG) (PHIU) (PHIU) (DLTG) (DLTG) (PHIG)
                 (PHIG) (SGU) (PIU) (PIU) (DLTU) (DLTU) (SGG) (SGU)
                 (PIG) (PIG) (SGG) (PIU) (PIU) (DLTG) (DLTG) (DLTU)
                 (DLTU) (PIG) (PIG) (PIU) (PIU) (SGU) (PIG) (PIG)
                 (SGU) (SGG) (SGG) (PHIU) (PHIU) (DLTG) (DLTG)
                 (PHIG) (PHIG) (PIU) (PIU) (DLTU) (DLTU) (SGG)
                 (PIG) (PIG) (SGU) (SGU) (PIU) (PIU) (DLTG) (DLTG)
                 (DLTU) (DLTU) (PIG) (PIG) (SGG) (SGU) (SGG) (PHIU)
                 (PHIU) (PIU) (PIU) (DLTG) (DLTG) (PHIG) (PHIG)
                 (DLTU) (DLTU) (PIG) (PIG) (SGU) (DLTG) (DLTG)
                 (PHIU) (PHIU) (PHIG) (PHIG) (?A) (?A) (?B) (?B)
                 (PIU) (PIU) (DLTU) (DLTU) (SGG) (PIG) (PIG) (SGU)
                 (SGG) (SGU) (PHIU) (PHIU) (SGG) (DLTG) (DLTG)
                 (PIU) (PIU) (PHIG) (PHIG) (DLTU) (DLTU) (PIG)
                 (PIG) (SGU) (PIU) (PIU) (DLTG) (DLTG) (PHIU) (PHIU)
                 (PHIG) (PHIG) (?A) (?B) (?A) (?B) (DLTU) (DLTU)
                 (SGG) (PIG) (PIG) (SGU) (SGG) (SGU) (SGG) (SGU)
                 (SGG) (SGU)
 The electronic state is 1-SGG.
 Alpha  occ. eigenvalues -- -323.30904-323.30904 -38.89186 -38.89185 -34.06035
 Alpha  occ. eigenvalues --  -34.06034 -34.05987 -34.05987 -34.05987 -34.05987
 Alpha  occ. eigenvalues --   -4.31242  -4.31188  -2.79439  -2.78986  -2.78938
 Alpha  occ. eigenvalues --   -2.78938  -2.78900  -2.78900  -0.29318  -0.27969
 Alpha  occ. eigenvalues --   -0.27969  -0.26411  -0.26411  -0.25701  -0.25701
 Alpha  occ. eigenvalues --   -0.24737  -0.24737  -0.24345  -0.20966
 Alpha virt. eigenvalues --   -0.07679  -0.01823  -0.01823   0.00366   0.04165
 Alpha virt. eigenvalues --    0.04165   0.05464   0.06338   0.09973   0.09973
 Alpha virt. eigenvalues --    0.10574   0.11633   0.13501   0.13501   0.14956
 Alpha virt. eigenvalues --    0.14956   0.18675   0.18675   0.19716   0.19716
 Alpha virt. eigenvalues --    0.21061   0.25474   0.27877   0.27877   0.36524
 Alpha virt. eigenvalues --    0.39358   0.44776   0.44776   0.44903   0.48301
 Alpha virt. eigenvalues --    0.49203   0.49203   0.50645   0.50645   0.53532
 Alpha virt. eigenvalues --    0.53532   0.57062   0.57532   0.57532   0.65725
 Alpha virt. eigenvalues --    0.69251   0.69251   0.75660   0.75660   0.75700
 Alpha virt. eigenvalues --    0.75700   0.86638   0.86638   0.86677   0.94629
 Alpha virt. eigenvalues --    0.94629   1.04976   1.04976   1.09586   1.25021
 Alpha virt. eigenvalues --    1.27356   1.27356   1.55848   1.56222   1.56222
 Alpha virt. eigenvalues --    1.56968   1.56968   1.61241   1.61241   1.69906
 Alpha virt. eigenvalues --    1.69906   1.82703   1.82703   1.94055   1.96757
 Alpha virt. eigenvalues --    1.96757   1.97551   2.04904   2.50125   2.56701
 Alpha virt. eigenvalues --    2.56701   2.59305   2.59305   2.60560   2.60560
 Alpha virt. eigenvalues --    2.62637   2.62637   2.65794   2.65794   2.68047
 Alpha virt. eigenvalues --    2.77741   2.77741   2.91460   3.34349   4.57801
 Alpha virt. eigenvalues --    4.57801   4.59139   4.59139   4.63753   4.63753
 Alpha virt. eigenvalues --    4.73115   4.73115   4.76853   5.04769   7.11933
 Alpha virt. eigenvalues --    7.15842   7.15842   7.15847   7.15847   7.16701
 Alpha virt. eigenvalues --    7.16701   7.18047   7.18047   7.21392   7.21392
 Alpha virt. eigenvalues --    7.32800   7.32800   7.40342   7.45713   7.45714
 Alpha virt. eigenvalues --    7.45852   7.45852   7.45906   7.45906   7.46049
 Alpha virt. eigenvalues --    7.46049   7.46050   7.46050   7.46301   7.46301
 Alpha virt. eigenvalues --    7.46708   7.46708   7.50232   7.50421   7.50421
 Alpha virt. eigenvalues --    7.72962  11.14663  11.68581  20.99089  20.99089
 Alpha virt. eigenvalues --   20.99206  20.99744  20.99745  21.00263  21.00263
 Alpha virt. eigenvalues --   21.00458  21.00458  21.02711  21.02711  21.08904
 Alpha virt. eigenvalues --   21.08904  21.19498  25.15739  25.15739  25.15754
 Alpha virt. eigenvalues --   25.15755  25.15796  25.15796  25.15802  25.15802
 Alpha virt. eigenvalues --   25.15866  25.15866  25.15866  25.15866  25.15949
 Alpha virt. eigenvalues --   25.15950  25.16272  25.17178  25.17178  25.19963
 Alpha virt. eigenvalues --   40.23482  40.70612 137.31041 137.75419 900.31692
 Alpha virt. eigenvalues --  901.09879
          Condensed to atoms (all electrons):
               1          2
     1  Cu  28.613782   0.386218
     2  Cu   0.386218  28.613782
 Mulliken charges:
               1
     1  Cu  -0.000000
     2  Cu  -0.000000
 Sum of Mulliken charges =  -0.00000
 Mulliken charges with hydrogens summed into heavy atoms:
               1
     1  Cu  -0.000000
     2  Cu  -0.000000
 Electronic spatial extent (au):  <R**2>=            324.0456
 Charge=             -0.0000 electrons
 Dipole moment (field-independent basis, Debye):
    X=              0.0000    Y=              0.0000    Z=             -0.0000  Tot=              0.0000
 Quadrupole moment (field-independent basis, Debye-Ang):
   XX=            -27.9687   YY=            -27.9687   ZZ=            -20.2052
   XY=             -0.0000   XZ=              0.0000   YZ=              0.0000
 Traceless Quadrupole moment (field-independent basis, Debye-Ang):
   XX=             -2.5878   YY=             -2.5878   ZZ=              5.1757
   XY=             -0.0000   XZ=              0.0000   YZ=              0.0000
 Octapole moment (field-independent basis, Debye-Ang**2):
  XXX=             -0.0000  YYY=             -0.0000  ZZZ=              0.0000  XYY=              0.0000
  XXY=              0.0000  XXZ=              0.0000  XZZ=              0.0000  YZZ=              0.0000
  YYZ=              0.0000  XYZ=              0.0000
 Hexadecapole moment (field-independent basis, Debye-Ang**3):
 XXXX=            -42.6119 YYYY=            -42.6119 ZZZZ=           -200.9148 XXXY=             -0.0000
 XXXZ=              0.0000 YYYX=             -0.0000 YYYZ=              0.0000 ZZZX=              0.0000
 ZZZY=              0.0000 XXYY=            -14.2040 XXZZ=            -43.8186 YYZZ=            -43.8186
 XXYZ=              0.0000 YYXZ=              0.0000 ZZXY=             -0.0000
 N-N= 1.958260675602D+02 E-N=-8.243681740244D+03  KE= 3.275519672935D+03
 Symmetry AG   KE= 1.219585128917D+03
 Symmetry B1G  KE= 1.846670847864D+01
 Symmetry B2G  KE= 2.006401075857D+02
 Symmetry B3G  KE= 2.006401075857D+02
 Symmetry AU   KE= 1.900710614676D+01
 Symmetry B1U  KE= 1.219125184864D+03
 Symmetry B2U  KE= 1.990276646779D+02
 Symmetry B3U  KE= 1.990276646779D+02
 Unable to Open any file for archive entry.
 1\1\GINC-TCOPT10\FOpt\RPBE1PBE\def2QZVPP\Cu2\HUTTER\01-Aug-2021\0\\#N 
 RPBE1PBE/Def2QZVPP scf=tight Int(Grid=ultrafine) OPT FREQ\\Mol job 1\\
 0,1\Cu,7.5,7.5,6.363690519\Cu,7.5,7.5,8.636309481\\Version=ES64L-G16Re
 vC.01\State=1-SGG\HF=-3280.6372615\RMSD=1.305e-09\RMSF=1.989e-06\Dipol
 e=0.,0.,0.\Quadrupole=-1.9239872,-1.9239872,3.8479744,0.,0.,0.\PG=D*H 
 [C*(Cu1.Cu1)]\\@
 The archive entry for this job was punched.


 LET US PLACE AT THE END OF EVERY CHAPTER.....THE
 TWO LETTERS USED BY THE ROMAN JUDGES WHEN THEY DID
 NOT UNDERSTAND A PLEADING.
 N. L. -NON LIQUET- IT IS NOT CLEAR.
                                              -- VOLTAIRE
 Job cpu time:       0 days  0 hours 21 minutes 37.2 seconds.
 Elapsed time:       0 days  0 hours  4 minutes 58.7 seconds.
 File lengths (MBytes):  RWF=     21 Int=      0 D2E=      0 Chk=      4 Scr=      1
 Normal termination of Gaussian 16 at Sun Aug  1 10:31:21 2021.
 Link1:  Proceeding to internal job step number  2.
 ----------------------------------------------------------------------
 #N Geom=AllCheck Guess=TCheck SCRF=Check GenChk RPBE1PBE/def2QZVPP Fre
 q
 ----------------------------------------------------------------------
 1/10=4,29=7,30=1,38=1,40=1/1,3;
 2/12=2,40=1/2;
 3/5=45,7=202,11=2,14=-4,25=1,30=1,70=2,71=2,74=-13,75=-5,116=1,140=1/1,2,3;
 4/5=101/1;
 5/5=2,32=2,38=6,98=1/2;
 8/6=4,10=90,11=11/1;
 11/6=1,8=1,9=11,15=111,16=1/1,2,10;
 10/6=1/2;
 6/7=2,8=2,9=2,10=2,28=1/1;
 7/8=1,10=1,25=1/1,2,3,16;
 1/10=4,30=1/3;
 99//99;
 Structure from the checkpoint file:  "/data/hutter/SMG16/PBE0/Gau-32845.chk"
 ---------
 Mol job 1
 ---------
 Charge =  0 Multiplicity = 1
 Redundant internal coordinates found in file.  (old form).
 Cu,0,7.5,7.5,6.363690519
 Cu,0,7.5,7.5,8.636309481
 Recover connectivity data from disk.

 GradGradGradGradGradGradGradGradGradGradGradGradGradGradGradGradGradGrad
 Berny optimization.
 Initialization pass.
                           ----------------------------
                           !    Initial Parameters    !
                           ! (Angstroms and Degrees)  !
 --------------------------                            --------------------------
 ! Name  Definition              Value          Derivative Info.                !
 --------------------------------------------------------------------------------
 ! R1    R(1,2)                  2.2726         calculate D2E/DX2 analytically  !
 --------------------------------------------------------------------------------
 Trust Radius=3.00D-01 FncErr=1.00D-07 GrdErr=1.00D-07 EigMax=2.50D+02 EigMin=1.00D-04
 Number of steps in this run=      2 maximum allowed number of steps=      2.
 GradGradGradGradGradGradGradGradGradGradGradGradGradGradGradGradGradGrad

                          Input orientation:                          
 ---------------------------------------------------------------------
 Center     Atomic      Atomic             Coordinates (Angstroms)
 Number     Number       Type             X           Y           Z
 ---------------------------------------------------------------------
      1         29           0        7.500000    7.500000    6.363691
      2         29           0        7.500000    7.500000    8.636309
 ---------------------------------------------------------------------
 Stoichiometry    Cu2
 Framework group  D*H[C*(Cu.Cu)]
 Deg. of freedom     1
 Full point group                 D*H     NOp   8
 Largest Abelian subgroup         D2H     NOp   8
 Largest concise Abelian subgroup C2      NOp   2
                         Standard orientation:                         
 ---------------------------------------------------------------------
 Center     Atomic      Atomic             Coordinates (Angstroms)
 Number     Number       Type             X           Y           Z
 ---------------------------------------------------------------------
      1         29           0        0.000000    0.000000    1.136309
      2         29           0        0.000000    0.000000   -1.136309
 ---------------------------------------------------------------------
 Rotational constants (GHZ):           0.0000000           3.1098467           3.1098467
 Standard basis: def2QZVPP (5D, 7F)
 There are    56 symmetry adapted cartesian basis functions of AG  symmetry.
 There are    15 symmetry adapted cartesian basis functions of B1G symmetry.
 There are    29 symmetry adapted cartesian basis functions of B2G symmetry.
 There are    29 symmetry adapted cartesian basis functions of B3G symmetry.
 There are    15 symmetry adapted cartesian basis functions of AU  symmetry.
 There are    56 symmetry adapted cartesian basis functions of B1U symmetry.
 There are    29 symmetry adapted cartesian basis functions of B2U symmetry.
 There are    29 symmetry adapted cartesian basis functions of B3U symmetry.
 There are    41 symmetry adapted basis functions of AG  symmetry.
 There are    13 symmetry adapted basis functions of B1G symmetry.
 There are    23 symmetry adapted basis functions of B2G symmetry.
 There are    23 symmetry adapted basis functions of B3G symmetry.
 There are    13 symmetry adapted basis functions of AU  symmetry.
 There are    41 symmetry adapted basis functions of B1U symmetry.
 There are    23 symmetry adapted basis functions of B2U symmetry.
 There are    23 symmetry adapted basis functions of B3U symmetry.
   200 basis functions,   416 primitive gaussians,   258 cartesian basis functions
    29 alpha electrons       29 beta electrons
       nuclear repulsion energy       195.8260675602 Hartrees.
 NAtoms=    2 NActive=    2 NUniq=    1 SFac= 4.00D+00 NAtFMM=   60 NAOKFM=F Big=F
 Integral buffers will be    131072 words long.
 Raffenetti 2 integral format.
 Two-electron integral symmetry is turned on.
 One-electron integrals computed using PRISM.
   8 Symmetry operations used in ECPInt.
 ECPInt:  NShTT=    1596 NPrTT=    7030 LenC2=    1540 LenP2D=    5644.
 LDataN:  DoStor=T MaxTD1= 8 Len=  415
 NBasis=   200 RedAO= T EigKep=  8.67D-05  NBF=    41    13    23    23    13    41    23    23
 NBsUse=   200 1.00D-06 EigRej= -1.00D+00 NBFU=    41    13    23    23    13    41    23    23
 Initial guess from the checkpoint file:  "/data/hutter/SMG16/PBE0/Gau-32845.chk"
 B after Tr=     0.000000    0.000000    0.000000
         Rot=    1.000000    0.000000    0.000000    0.000000 Ang=   0.00 deg.
 Initial guess orbital symmetries:
       Occupied  (SGU) (SGG) (SGU) (SGG) (SGU) (SGG) (PIG) (PIG)
                 (PIU) (PIU) (SGG) (SGU) (SGG) (SGU) (PIU) (PIU)
                 (PIG) (PIG) (SGG) (PIU) (PIU) (DLTG) (DLTG) (DLTU)
                 (DLTU) (PIG) (PIG) (SGU) (SGG)
       Virtual   (SGU) (PIU) (PIU) (SGG) (PIG) (PIG) (SGU) (SGG)
                 (PIU) (PIU) (SGG) (SGU) (DLTG) (DLTG) (PIG) (PIG)
                 (PIU) (PIU) (DLTU) (DLTU) (SGU) (SGG) (PIG) (PIG)
                 (SGU) (SGG) (PIU) (PIU) (SGG) (SGU) (DLTG) (DLTG)
                 (PIG) (PIG) (PIU) (PIU) (SGU) (DLTU) (DLTU) (SGG)
                 (PIG) (PIG) (PHIU) (PHIU) (DLTG) (DLTG) (PHIG)
                 (PHIG) (SGU) (PIU) (PIU) (DLTU) (DLTU) (SGG) (SGU)
                 (PIG) (PIG) (SGG) (PIU) (PIU) (DLTG) (DLTG) (DLTU)
                 (DLTU) (PIG) (PIG) (PIU) (PIU) (SGU) (PIG) (PIG)
                 (SGU) (SGG) (SGG) (PHIU) (PHIU) (DLTG) (DLTG)
                 (PHIG) (PHIG) (PIU) (PIU) (DLTU) (DLTU) (SGG)
                 (PIG) (PIG) (SGU) (SGU) (PIU) (PIU) (DLTG) (DLTG)
                 (DLTU) (DLTU) (PIG) (PIG) (SGG) (SGU) (SGG) (PHIU)
                 (PHIU) (PIU) (PIU) (DLTG) (DLTG) (PHIG) (PHIG)
                 (DLTU) (DLTU) (PIG) (PIG) (SGU) (DLTG) (DLTG)
                 (PHIU) (PHIU) (PHIG) (PHIG) (?A) (?A) (?B) (?B)
                 (PIU) (PIU) (DLTU) (DLTU) (SGG) (PIG) (PIG) (SGU)
                 (SGG) (SGU) (PHIU) (PHIU) (SGG) (DLTG) (DLTG)
                 (PIU) (PIU) (PHIG) (PHIG) (DLTU) (DLTU) (PIG)
                 (PIG) (SGU) (PIU) (PIU) (DLTG) (DLTG) (PHIU) (PHIU)
                 (PHIG) (PHIG) (?A) (?B) (?A) (?B) (DLTU) (DLTU)
                 (SGG) (PIG) (PIG) (SGU) (SGG) (SGU) (SGG) (SGU)
                 (SGG) (SGU)
 Keep R1 ints in memory in symmetry-blocked form, NReq=227685213.
 Requested convergence on RMS density matrix=1.00D-08 within 128 cycles.
 Requested convergence on MAX density matrix=1.00D-06.
 Requested convergence on             energy=1.00D-06.
 No special actions if energy rises.
 SCF Done:  E(RPBE1PBE) =  -3280.63726146     A.U. after    1 cycles
            NFock=  1  Conv=0.16D-09     -V/T= 2.0016
 DoSCS=F DFT=T ScalE2(SS,OS)=  1.000000  1.000000
 Range of M.O.s used for correlation:     1   200
 NBasis=   200 NAE=    29 NBE=    29 NFC=     0 NFV=     0
 NROrb=    200 NOA=    29 NOB=    29 NVA=   171 NVB=   171

 **** Warning!!: The largest alpha MO coefficient is  0.42253553D+02

   8 Symmetry operations used in ECPInt.
 ECPInt:  NShTT=    1596 NPrTT=    7030 LenC2=    1540 LenP2D=    5644.
 LDataN:  DoStor=T MaxTD1= 9 Len=  602
 Symmetrizing basis deriv contribution to polar:
 IMax=3 JMax=2 DiffMx= 0.00D+00
 G2DrvN: will do     3 centers at a time, making    1 passes.
 Calling FoFCou, ICntrl=  3107 FMM=F I1Cent=   0 AccDes= 0.00D+00.
 End of G2Drv F.D. properties file   721 does not exist.
 End of G2Drv F.D. properties file   722 does not exist.
 End of G2Drv F.D. properties file   788 does not exist.
          IDoAtm=11
          Differentiating once with respect to electric field.
                with respect to dipole field.
          Differentiating once with respect to nuclear coordinates.
 Keep R1 ints in memory in symmetry-blocked form, NReq=227686768.
          There are     6 degrees of freedom in the 1st order CPHF.  IDoFFX=4 NUNeed=     6.
      6 vectors produced by pass  0 Test12= 8.27D-14 1.67D-08 XBig12= 2.96D+02 1.62D+01.
 AX will form     6 AO Fock derivatives at one time.
      6 vectors produced by pass  1 Test12= 8.27D-14 1.67D-08 XBig12= 5.78D+01 2.36D+00.
      6 vectors produced by pass  2 Test12= 8.27D-14 1.67D-08 XBig12= 3.87D+01 2.74D+00.
      6 vectors produced by pass  3 Test12= 8.27D-14 1.67D-08 XBig12= 2.45D+00 7.21D-01.
      6 vectors produced by pass  4 Test12= 8.27D-14 1.67D-08 XBig12= 4.54D-02 9.87D-02.
      6 vectors produced by pass  5 Test12= 8.27D-14 1.67D-08 XBig12= 1.35D-03 9.04D-03.
      6 vectors produced by pass  6 Test12= 8.27D-14 1.67D-08 XBig12= 9.70D-05 3.45D-03.
      6 vectors produced by pass  7 Test12= 8.27D-14 1.67D-08 XBig12= 6.86D-06 7.43D-04.
      4 vectors produced by pass  8 Test12= 8.27D-14 1.67D-08 XBig12= 6.73D-08 7.23D-05.
      4 vectors produced by pass  9 Test12= 8.27D-14 1.67D-08 XBig12= 5.80D-10 1.41D-05.
      1 vectors produced by pass 10 Test12= 8.27D-14 1.67D-08 XBig12= 3.89D-12 5.01D-07.
      1 vectors produced by pass 11 Test12= 8.27D-14 1.67D-08 XBig12= 5.28D-14 7.09D-08.
 InvSVY:  IOpt=1 It=  1 EMax= 1.01D-15
 Solved reduced A of dimension    58 with     6 vectors.
 Isotropic polarizability for W=    0.000000       80.80 Bohr**3.
 End of Minotr F.D. properties file   721 does not exist.
 End of Minotr F.D. properties file   722 does not exist.
 End of Minotr F.D. properties file   788 does not exist.

 **********************************************************************

            Population analysis using the SCF Density.

 **********************************************************************

 Orbital symmetries:
       Occupied  (SGU) (SGG) (SGU) (SGG) (SGU) (SGG) (PIG) (PIG)
                 (PIU) (PIU) (SGG) (SGU) (SGG) (SGU) (PIU) (PIU)
                 (PIG) (PIG) (SGG) (PIU) (PIU) (DLTG) (DLTG) (DLTU)
                 (DLTU) (PIG) (PIG) (SGU) (SGG)
       Virtual   (SGU) (PIU) (PIU) (SGG) (PIG) (PIG) (SGU) (SGG)
                 (PIU) (PIU) (SGG) (SGU) (DLTG) (DLTG) (PIG) (PIG)
                 (PIU) (PIU) (DLTU) (DLTU) (SGU) (SGG) (PIG) (PIG)
                 (SGU) (SGG) (PIU) (PIU) (SGG) (SGU) (DLTG) (DLTG)
                 (PIG) (PIG) (PIU) (PIU) (SGU) (DLTU) (DLTU) (SGG)
                 (PIG) (PIG) (PHIU) (PHIU) (DLTG) (DLTG) (PHIG)
                 (PHIG) (SGU) (PIU) (PIU) (DLTU) (DLTU) (SGG) (SGU)
                 (PIG) (PIG) (SGG) (PIU) (PIU) (DLTG) (DLTG) (DLTU)
                 (DLTU) (PIG) (PIG) (PIU) (PIU) (SGU) (PIG) (PIG)
                 (SGU) (SGG) (SGG) (PHIU) (PHIU) (DLTG) (DLTG)
                 (PHIG) (PHIG) (PIU) (PIU) (DLTU) (DLTU) (SGG)
                 (PIG) (PIG) (SGU) (SGU) (PIU) (PIU) (DLTG) (DLTG)
                 (DLTU) (DLTU) (PIG) (PIG) (SGG) (SGU) (SGG) (PHIU)
                 (PHIU) (PIU) (PIU) (DLTG) (DLTG) (PHIG) (PHIG)
                 (DLTU) (DLTU) (PIG) (PIG) (SGU) (DLTG) (DLTG)
                 (PHIU) (PHIU) (PHIG) (PHIG) (?A) (?A) (?B) (?B)
                 (PIU) (PIU) (DLTU) (DLTU) (SGG) (PIG) (PIG) (SGU)
                 (SGG) (SGU) (PHIU) (PHIU) (SGG) (DLTG) (DLTG)
                 (PIU) (PIU) (PHIG) (PHIG) (DLTU) (DLTU) (PIG)
                 (PIG) (SGU) (PIU) (PIU) (DLTG) (DLTG) (PHIU) (PHIU)
                 (PHIG) (PHIG) (?A) (?B) (?A) (?B) (DLTU) (DLTU)
                 (SGG) (PIG) (PIG) (SGU) (SGG) (SGU) (SGG) (SGU)
                 (SGG) (SGU)
 The electronic state is 1-SGG.
 Alpha  occ. eigenvalues -- -323.30904-323.30904 -38.89186 -38.89185 -34.06035
 Alpha  occ. eigenvalues --  -34.06034 -34.05987 -34.05987 -34.05987 -34.05987
 Alpha  occ. eigenvalues --   -4.31242  -4.31188  -2.79439  -2.78986  -2.78938
 Alpha  occ. eigenvalues --   -2.78938  -2.78900  -2.78900  -0.29318  -0.27969
 Alpha  occ. eigenvalues --   -0.27969  -0.26411  -0.26411  -0.25701  -0.25701
 Alpha  occ. eigenvalues --   -0.24737  -0.24737  -0.24345  -0.20966
 Alpha virt. eigenvalues --   -0.07679  -0.01823  -0.01823   0.00366   0.04165
 Alpha virt. eigenvalues --    0.04165   0.05464   0.06338   0.09973   0.09973
 Alpha virt. eigenvalues --    0.10574   0.11633   0.13501   0.13501   0.14956
 Alpha virt. eigenvalues --    0.14956   0.18675   0.18675   0.19716   0.19716
 Alpha virt. eigenvalues --    0.21061   0.25474   0.27877   0.27877   0.36524
 Alpha virt. eigenvalues --    0.39358   0.44776   0.44776   0.44903   0.48301
 Alpha virt. eigenvalues --    0.49203   0.49203   0.50645   0.50645   0.53532
 Alpha virt. eigenvalues --    0.53532   0.57062   0.57532   0.57532   0.65725
 Alpha virt. eigenvalues --    0.69251   0.69251   0.75660   0.75660   0.75700
 Alpha virt. eigenvalues --    0.75700   0.86638   0.86638   0.86677   0.94629
 Alpha virt. eigenvalues --    0.94629   1.04976   1.04976   1.09586   1.25021
 Alpha virt. eigenvalues --    1.27356   1.27356   1.55848   1.56222   1.56222
 Alpha virt. eigenvalues --    1.56968   1.56968   1.61241   1.61241   1.69906
 Alpha virt. eigenvalues --    1.69906   1.82703   1.82703   1.94055   1.96757
 Alpha virt. eigenvalues --    1.96757   1.97551   2.04904   2.50125   2.56701
 Alpha virt. eigenvalues --    2.56701   2.59305   2.59305   2.60560   2.60560
 Alpha virt. eigenvalues --    2.62637   2.62637   2.65794   2.65794   2.68047
 Alpha virt. eigenvalues --    2.77741   2.77741   2.91460   3.34349   4.57801
 Alpha virt. eigenvalues --    4.57801   4.59139   4.59139   4.63753   4.63753
 Alpha virt. eigenvalues --    4.73115   4.73115   4.76853   5.04769   7.11933
 Alpha virt. eigenvalues --    7.15842   7.15842   7.15847   7.15847   7.16701
 Alpha virt. eigenvalues --    7.16701   7.18047   7.18047   7.21392   7.21392
 Alpha virt. eigenvalues --    7.32800   7.32800   7.40342   7.45713   7.45714
 Alpha virt. eigenvalues --    7.45852   7.45852   7.45906   7.45906   7.46049
 Alpha virt. eigenvalues --    7.46049   7.46050   7.46050   7.46301   7.46301
 Alpha virt. eigenvalues --    7.46708   7.46708   7.50232   7.50421   7.50421
 Alpha virt. eigenvalues --    7.72962  11.14663  11.68581  20.99089  20.99089
 Alpha virt. eigenvalues --   20.99206  20.99744  20.99745  21.00263  21.00263
 Alpha virt. eigenvalues --   21.00458  21.00458  21.02711  21.02711  21.08904
 Alpha virt. eigenvalues --   21.08904  21.19498  25.15739  25.15739  25.15754
 Alpha virt. eigenvalues --   25.15755  25.15796  25.15796  25.15802  25.15802
 Alpha virt. eigenvalues --   25.15866  25.15866  25.15866  25.15866  25.15949
 Alpha virt. eigenvalues --   25.15950  25.16272  25.17178  25.17178  25.19963
 Alpha virt. eigenvalues --   40.23482  40.70612 137.31041 137.75419 900.31692
 Alpha virt. eigenvalues --  901.09879
          Condensed to atoms (all electrons):
               1          2
     1  Cu  28.613782   0.386218
     2  Cu   0.386218  28.613782
 Mulliken charges:
               1
     1  Cu  -0.000000
     2  Cu  -0.000000
 Sum of Mulliken charges =  -0.00000
 Mulliken charges with hydrogens summed into heavy atoms:
               1
     1  Cu  -0.000000
     2  Cu  -0.000000
 APT charges:
               1
     1  Cu  -0.000000
     2  Cu  -0.000000
 Sum of APT charges =  -0.00000
 APT charges with hydrogens summed into heavy atoms:
               1
     1  Cu  -0.000000
     2  Cu  -0.000000
 Electronic spatial extent (au):  <R**2>=            324.0456
 Charge=             -0.0000 electrons
 Dipole moment (field-independent basis, Debye):
    X=             -0.0000    Y=             -0.0000    Z=             -0.0000  Tot=              0.0000
 Quadrupole moment (field-independent basis, Debye-Ang):
   XX=            -27.9687   YY=            -27.9687   ZZ=            -20.2052
   XY=             -0.0000   XZ=              0.0000   YZ=              0.0000
 Traceless Quadrupole moment (field-independent basis, Debye-Ang):
   XX=             -2.5878   YY=             -2.5878   ZZ=              5.1757
   XY=             -0.0000   XZ=              0.0000   YZ=              0.0000
 Octapole moment (field-independent basis, Debye-Ang**2):
  XXX=              0.0000  YYY=              0.0000  ZZZ=              0.0000  XYY=              0.0000
  XXY=             -0.0000  XXZ=             -0.0000  XZZ=              0.0000  YZZ=              0.0000
  YYZ=             -0.0000  XYZ=              0.0000
 Hexadecapole moment (field-independent basis, Debye-Ang**3):
 XXXX=            -42.6119 YYYY=            -42.6119 ZZZZ=           -200.9148 XXXY=             -0.0000
 XXXZ=              0.0000 YYYX=             -0.0000 YYYZ=              0.0000 ZZZX=              0.0000
 ZZZY=              0.0000 XXYY=            -14.2040 XXZZ=            -43.8186 YYZZ=            -43.8186
 XXYZ=              0.0000 YYXZ=              0.0000 ZZXY=             -0.0000
 N-N= 1.958260675602D+02 E-N=-8.243681744210D+03  KE= 3.275519674445D+03
 Symmetry AG   KE= 1.219585129267D+03
 Symmetry B1G  KE= 1.846670861323D+01
 Symmetry B2G  KE= 2.006401077460D+02
 Symmetry B3G  KE= 2.006401077460D+02
 Symmetry AU   KE= 1.900710625753D+01
 Symmetry B1U  KE= 1.219125185166D+03
 Symmetry B2U  KE= 1.990276648246D+02
 Symmetry B3U  KE= 1.990276648246D+02
  Exact polarizability:      65.792       0.000      65.792       0.000       0.000     110.825
 Approx polarizability:      92.065      -0.000      92.065      -0.000      -0.000     178.213
   8 Symmetry operations used in ECPInt.
 ECPInt:  NShTT=    1596 NPrTT=    7030 LenC2=    1540 LenP2D=    5644.
 LDataN:  DoStor=T MaxTD1=10 Len=  848
 Calling FoFJK, ICntrl=    100127 FMM=F ISym2X=1 I1Cent= 0 IOpClX= 0 NMat=1 NMatS=1 NMatT=0.
 Full mass-weighted force constant matrix:
 Low frequencies ---   -1.5787   -1.5787    0.0042    0.0042    0.0055  244.3158
 Diagonal vibrational polarizability:
        0.0000000       0.0000000       0.0000000
 Harmonic frequencies (cm**-1), IR intensities (KM/Mole), Raman scattering
 activities (A**4/AMU), depolarization ratios for plane and unpolarized
 incident light, reduced masses (AMU), force constants (mDyne/A),
 and normal coordinates:
                      1
                     SGG
 Frequencies --    244.3158
 Red. masses --     62.9296
 Frc consts  --      2.2131
 IR Inten    --      0.0000
  Atom  AN      X      Y      Z
     1  29     0.00   0.00   0.71
     2  29     0.00   0.00  -0.71

 -------------------
 - Thermochemistry -
 -------------------
 Temperature   298.150 Kelvin.  Pressure   1.00000 Atm.
 Atom     1 has atomic number 29 and mass  62.92960
 Atom     2 has atomic number 29 and mass  62.92960
 Molecular mass:   125.85920 amu.
 Principal axes and moments of inertia in atomic units:
                           1         2         3
     Eigenvalues --     0.00000 580.33125 580.33125
           X            0.00000  -0.00000   1.00000
           Y            0.00000   1.00000   0.00000
           Z            1.00000   0.00000   0.00000
 This molecule is a prolate symmetric top.
 Rotational symmetry number  2.
 Warning -- assumption of classical behavior for rotation
           may cause significant error
 Rotational temperature (Kelvin)      0.14925
 Rotational constant (GHZ):           3.109847
 Zero-point vibrational energy       1461.3 (Joules/Mol)
                                    0.34927 (Kcal/Mol)
 Warning -- explicit consideration of   1 degrees of freedom as
           vibrations may cause significant error
 Vibrational temperatures:    351.52
          (Kelvin)
 
 Zero-point correction=                           0.000557 (Hartree/Particle)
 Thermal correction to Energy=                    0.003412
 Thermal correction to Enthalpy=                  0.004356
 Thermal correction to Gibbs Free Energy=        -0.023148
 Sum of electronic and zero-point Energies=          -3280.636705
 Sum of electronic and thermal Energies=             -3280.633850
 Sum of electronic and thermal Enthalpies=           -3280.632906
 Sum of electronic and thermal Free Energies=        -3280.660410
 
                     E (Thermal)             CV                S
                      KCal/Mol        Cal/Mol-Kelvin    Cal/Mol-Kelvin
 Total                    2.141              6.740             57.887
 Electronic               0.000              0.000              0.000
 Translational            0.889              2.981             40.404
 Rotational               0.592              1.987             15.712
 Vibrational              0.660              1.772              1.771
 Vibration     1          0.660              1.772              1.771
                       Q            Log10(Q)             Ln(Q)
 Total Bot       0.444013D+11         10.647396         24.516535
 Total V=0       0.800591D+11         10.903411         25.106031
 Vib (Bot)       0.800980D+00         -0.096378         -0.221919
 Vib (Bot)    1  0.800980D+00         -0.096378         -0.221919
 Vib (V=0)       0.144423D+01          0.159636          0.367576
 Vib (V=0)    1  0.144423D+01          0.159636          0.367576
 Electronic      0.100000D+01          0.000000          0.000000
 Translational   0.554985D+08          7.744281         17.831867
 Rotational      0.998833D+03          2.999493          6.906588
 ***** Axes restored to original set *****
 -------------------------------------------------------------------
 Center     Atomic                   Forces (Hartrees/Bohr)
 Number     Number              X              Y              Z
 -------------------------------------------------------------------
      1       29          -0.000000000    0.000000000    0.000003443
      2       29           0.000000000   -0.000000000   -0.000003443
 -------------------------------------------------------------------
 Cartesian Forces:  Max     0.000003443 RMS     0.000001988
 FormGI is forming the generalized inverse of G from B-inverse, IUseBI=4.

 GradGradGradGradGradGradGradGradGradGradGradGradGradGradGradGradGradGrad
 Berny optimization.
 Internal  Forces:  Max     0.000003443 RMS     0.000003443
 Search for a local minimum.
 Step number   1 out of a maximum of    2
 All quantities printed in internal units (Hartrees-Bohrs-Radians)
 Second derivative matrix not updated -- analytic derivatives used.
 The second derivative matrix:
                          R1
           R1           0.07108
 ITU=  0
     Eigenvalues ---    0.07108
 Angle between quadratic step and forces=   0.00 degrees.
 Linear search not attempted -- first point.
 Iteration  1 RMS(Cart)=  0.00003426 RMS(Int)=  0.00000000
 Iteration  2 RMS(Cart)=  0.00000000 RMS(Int)=  0.00000000
 ClnCor:  largest displacement from symmetrization is 3.55D-15 for atom     2.
 Variable       Old X    -DE/DX   Delta X   Delta X   Delta X     New X
                                 (Linear)    (Quad)   (Total)
    R1        4.29463  -0.00000   0.00000  -0.00005  -0.00005   4.29458
         Item               Value     Threshold  Converged?
 Maximum Force            0.000003     0.000450     YES
 RMS     Force            0.000003     0.000300     YES
 Maximum Displacement     0.000024     0.001800     YES
 RMS     Displacement     0.000034     0.001200     YES
 Predicted change in Energy=-8.341452D-11
 Optimization completed.
    -- Stationary point found.
                           ----------------------------
                           !   Optimized Parameters   !
                           ! (Angstroms and Degrees)  !
 --------------------------                            --------------------------
 ! Name  Definition              Value          Derivative Info.                !
 --------------------------------------------------------------------------------
 ! R1    R(1,2)                  2.2726         -DE/DX =    0.0                 !
 --------------------------------------------------------------------------------
 GradGradGradGradGradGradGradGradGradGradGradGradGradGradGradGradGradGrad

 Dipole is zero, so no output in dipole orientation.

 ----------------------------------------------------------------------

 Electric dipole moment (input orientation):
 (Debye = 10**-18 statcoulomb cm , SI units = C m)
                  (au)            (Debye)         (10**-30 SI)
   Tot        0.000000D+00      0.000000D+00      0.000000D+00
   x          0.000000D+00      0.000000D+00      0.000000D+00
   y          0.000000D+00      0.000000D+00      0.000000D+00
   z          0.000000D+00      0.000000D+00      0.000000D+00

 Dipole polarizability, Alpha (input orientation).
 (esu units = cm**3 , SI units = C**2 m**2 J**-1)
 Alpha(0;0):
               (au)            (10**-24 esu)      (10**-40 SI)
   iso        0.808032D+02      0.119738D+02      0.133226D+02
   aniso      0.450330D+02      0.667320D+01      0.742493D+01
   xx         0.657922D+02      0.974939D+01      0.108477D+02
   yx         0.000000D+00      0.000000D+00      0.000000D+00
   yy         0.657922D+02      0.974939D+01      0.108477D+02
   zx         0.000000D+00      0.000000D+00      0.000000D+00
   zy         0.000000D+00      0.000000D+00      0.000000D+00
   zz         0.110825D+03      0.164226D+02      0.182726D+02

 ----------------------------------------------------------------------
 Unable to Open any file for archive entry.
 1\1\GINC-TCOPT10\Freq\RPBE1PBE\def2QZVPP\Cu2\HUTTER\01-Aug-2021\0\\#N 
 Geom=AllCheck Guess=TCheck SCRF=Check GenChk RPBE1PBE/def2QZVPP Freq\\
 Mol job 1\\0,1\Cu,7.5,7.5,6.363690519\Cu,7.5,7.5,8.636309481\\Version=
 ES64L-G16RevC.01\State=1-SGG\HF=-3280.6372615\RMSD=1.606e-10\RMSF=1.98
 8e-06\Thermal=0.0034116\ETot=-3280.6338499\HTot=-3280.6329057\GTot=-32
 80.6604096\Dipole=0.,0.,0.\DipoleDeriv=0.,0.,0.,0.,0.,0.,0.,0.,0.,0.,0
 .,0.,0.,0.,0.,0.,0.,0.\Polar=65.7921625,0.,65.7921625,0.,0.,110.825138
 1\Quadrupole=-1.9239872,-1.9239872,3.8479744,0.,0.,0.\PG=D*H [C*(Cu1.C
 u1)]\NImag=0\\-0.00000297,0.,-0.00000297,0.,0.,0.07107545,0.00000297,0
 .,0.,-0.00000297,0.,0.00000297,0.,0.,-0.00000297,0.,0.,-0.07107545,0.,
 0.,0.07107545\\0.,0.,-0.00000344,0.,0.,0.00000344\\\@
 The archive entry for this job was punched.


 LIFE IS SO UNCERTAIN - EAT DESSERT FIRST.
 Job cpu time:       0 days  0 hours 23 minutes 25.7 seconds.
 Elapsed time:       0 days  0 hours  3 minutes 53.4 seconds.
 File lengths (MBytes):  RWF=     21 Int=      0 D2E=      0 Chk=      4 Scr=      1
 Normal termination of Gaussian 16 at Sun Aug  1 10:35:15 2021.
