 Entering Gaussian System, Link 0=g16
 Initial command:
 /sw-ng/spack/opt/spack/linux-opensuse_leap15-sandybridge/pgi-18.10/gaussian-src-16-C.01-zldqaomctopxhethwccpmxmwefdscg3m/g16/l1.exe "/data/hutter/SMG16/PBE0/Gau-62957.inp" -scrdir="/data/hutter/SMG16/PBE0/"
 Entering Link 1 = /sw-ng/spack/opt/spack/linux-opensuse_leap15-sandybridge/pgi-18.10/gaussian-src-16-C.01-zldqaomctopxhethwccpmxmwefdscg3m/g16/l1.exe PID=     62964.
  
 Copyright (c) 1988-2019, Gaussian, Inc.  All Rights Reserved.
  
 This is part of the Gaussian(R) 16 program.  It is based on
 the Gaussian(R) 09 system (copyright 2009, Gaussian, Inc.),
 the Gaussian(R) 03 system (copyright 2003, Gaussian, Inc.),
 the Gaussian(R) 98 system (copyright 1998, Gaussian, Inc.),
 the Gaussian(R) 94 system (copyright 1995, Gaussian, Inc.),
 the Gaussian 92(TM) system (copyright 1992, Gaussian, Inc.),
 the Gaussian 90(TM) system (copyright 1990, Gaussian, Inc.),
 the Gaussian 88(TM) system (copyright 1988, Gaussian, Inc.),
 the Gaussian 86(TM) system (copyright 1986, Carnegie Mellon
 University), and the Gaussian 82(TM) system (copyright 1983,
 Carnegie Mellon University). Gaussian is a federally registered
 trademark of Gaussian, Inc.
  
 This software contains proprietary and confidential information,
 including trade secrets, belonging to Gaussian, Inc.
  
 This software is provided under written license and may be
 used, copied, transmitted, or stored only in accord with that
 written license.
  
 The following legend is applicable only to US Government
 contracts under FAR:
  
                    RESTRICTED RIGHTS LEGEND
  
 Use, reproduction and disclosure by the US Government is
 subject to restrictions as set forth in subparagraphs (a)
 and (c) of the Commercial Computer Software - Restricted
 Rights clause in FAR 52.227-19.
  
 Gaussian, Inc.
 340 Quinnipiac St., Bldg. 40, Wallingford CT 06492
  
  
 ---------------------------------------------------------------
 Warning -- This program may not be used in any manner that
 competes with the business of Gaussian, Inc. or will provide
 assistance to any competitor of Gaussian, Inc.  The licensee
 of this program is prohibited from giving any competitor of
 Gaussian, Inc. access to this program.  By using this program,
 the user acknowledges that Gaussian, Inc. is engaged in the
 business of creating and licensing software in the field of
 computational chemistry and represents and warrants to the
 licensee that it is not a competitor of Gaussian, Inc. and that
 it will not use this program in any manner prohibited above.
 ---------------------------------------------------------------
  

 Cite this work as:
 Gaussian 16, Revision C.01,
 M. J. Frisch, G. W. Trucks, H. B. Schlegel, G. E. Scuseria, 
 M. A. Robb, J. R. Cheeseman, G. Scalmani, V. Barone, 
 G. A. Petersson, H. Nakatsuji, X. Li, M. Caricato, A. V. Marenich, 
 J. Bloino, B. G. Janesko, R. Gomperts, B. Mennucci, H. P. Hratchian, 
 J. V. Ortiz, A. F. Izmaylov, J. L. Sonnenberg, D. Williams-Young, 
 F. Ding, F. Lipparini, F. Egidi, J. Goings, B. Peng, A. Petrone, 
 T. Henderson, D. Ranasinghe, V. G. Zakrzewski, J. Gao, N. Rega, 
 G. Zheng, W. Liang, M. Hada, M. Ehara, K. Toyota, R. Fukuda, 
 J. Hasegawa, M. Ishida, T. Nakajima, Y. Honda, O. Kitao, H. Nakai, 
 T. Vreven, K. Throssell, J. A. Montgomery, Jr., J. E. Peralta, 
 F. Ogliaro, M. J. Bearpark, J. J. Heyd, E. N. Brothers, K. N. Kudin, 
 V. N. Staroverov, T. A. Keith, R. Kobayashi, J. Normand, 
 K. Raghavachari, A. P. Rendell, J. C. Burant, S. S. Iyengar, 
 J. Tomasi, M. Cossi, J. M. Millam, M. Klene, C. Adamo, R. Cammi, 
 J. W. Ochterski, R. L. Martin, K. Morokuma, O. Farkas, 
 J. B. Foresman, and D. J. Fox, Gaussian, Inc., Wallingford CT, 2019.
 
 ******************************************
 Gaussian 16:  ES64L-G16RevC.01  3-Jul-2019
                 1-Aug-2021 
 ******************************************
 %mem=8GB
 %NProcShare=8
 Will use up to    8 processors via shared memory.
 ------------------------------------------------------------
 #N RPBE1PBE/Def2QZVPP scf=tight Int(Grid=ultrafine) OPT FREQ
 ------------------------------------------------------------
 1/18=20,19=15,26=4,38=1/1,3;
 2/9=110,12=2,17=6,18=5,40=1/2;
 3/5=45,7=202,11=2,25=1,30=1,71=1,74=-13,75=-5,116=1/1,2,3;
 4//1;
 5/5=2,32=2,38=5/2;
 6/7=2,8=2,9=2,10=2,28=1/1;
 7//1,2,3,16;
 1/18=20,19=15,26=4/3(2);
 2/9=110/2;
 99//99;
 2/9=110/2;
 3/5=45,7=202,11=2,25=1,30=1,71=1,74=-13,75=-5,116=1/1,2,3;
 4/5=5,16=3,69=1/1;
 5/5=2,32=2,38=5/2;
 7//1,2,3,16;
 1/18=20,19=15,26=4/3(-5);
 2/9=110/2;
 6/7=2,8=2,9=2,10=2,19=2,28=1/1;
 99/9=1/99;
 ---------
 Mol job 1
 ---------
 Symbolic Z-matrix:
 Charge =  0 Multiplicity = 1
 O                     6.67483   7.8885    7.5 
 N                     7.87667   7.99977   7.5 
 H                     8.32517   7.00023   7.5 
 

 GradGradGradGradGradGradGradGradGradGradGradGradGradGradGradGradGradGrad
 Berny optimization.
 Initialization pass.
                           ----------------------------
                           !    Initial Parameters    !
                           ! (Angstroms and Degrees)  !
 --------------------------                            --------------------------
 ! Name  Definition              Value          Derivative Info.                !
 --------------------------------------------------------------------------------
 ! R1    R(1,2)                  1.207          estimate D2E/DX2                !
 ! R2    R(2,3)                  1.0956         estimate D2E/DX2                !
 ! A1    A(1,2,3)              108.876          estimate D2E/DX2                !
 --------------------------------------------------------------------------------
 Trust Radius=3.00D-01 FncErr=1.00D-07 GrdErr=1.00D-06 EigMax=2.50D+02 EigMin=1.00D-04
 Number of steps in this run=     20 maximum allowed number of steps=    100.
 GradGradGradGradGradGradGradGradGradGradGradGradGradGradGradGradGradGrad

                          Input orientation:                          
 ---------------------------------------------------------------------
 Center     Atomic      Atomic             Coordinates (Angstroms)
 Number     Number       Type             X           Y           Z
 ---------------------------------------------------------------------
      1          8           0        6.674830    7.888495    7.500000
      2          7           0        7.876674    7.999772    7.500000
      3          1           0        8.325170    7.000228    7.500000
 ---------------------------------------------------------------------
                    Distance matrix (angstroms):
                    1          2          3
     1  O    0.000000
     2  N    1.206984   0.000000
     3  H    1.874203   1.095552   0.000000
 Stoichiometry    HNO
 Framework group  CS[SG(HNO)]
 Deg. of freedom     3
 Full point group                 CS      NOp   2
 Largest Abelian subgroup         CS      NOp   2
 Largest concise Abelian subgroup C1      NOp   1
                         Standard orientation:                         
 ---------------------------------------------------------------------
 Center     Atomic      Atomic             Coordinates (Angstroms)
 Number     Number       Type             X           Y           Z
 ---------------------------------------------------------------------
      1          8           0        0.064790   -0.625644   -0.000000
      2          7           0        0.064790    0.581340    0.000000
      3          1           0       -0.971845    0.935774    0.000000
 ---------------------------------------------------------------------
 Rotational constants (GHZ):         529.5212897          42.3203132          39.1883114
 Standard basis: def2QZVPP (5D, 7F)
 There are   120 symmetry adapted cartesian basis functions of A'  symmetry.
 There are    59 symmetry adapted cartesian basis functions of A"  symmetry.
 There are    94 symmetry adapted basis functions of A'  symmetry.
 There are    50 symmetry adapted basis functions of A"  symmetry.
   144 basis functions,   222 primitive gaussians,   179 cartesian basis functions
     8 alpha electrons        8 beta electrons
       nuclear repulsion energy        30.1919801546 Hartrees.
 NAtoms=    3 NActive=    3 NUniq=    3 SFac= 1.00D+00 NAtFMM=   60 NAOKFM=F Big=F
 Integral buffers will be    131072 words long.
 Raffenetti 2 integral format.
 Two-electron integral symmetry is turned on.
 One-electron integrals computed using PRISM.
   2 Symmetry operations used in ECPInt.
 ECPInt:  NShTT=     990 NPrTT=    2640 LenC2=     991 LenP2D=    2425.
 LDataN:  DoStor=T MaxTD1= 8 Len=  415
 NBasis=   144 RedAO= T EigKep=  3.16D-04  NBF=    94    50
 NBsUse=   144 1.00D-06 EigRej= -1.00D+00 NBFU=    94    50
 ExpMin= 8.03D-02 ExpMax= 1.17D+05 ExpMxC= 1.13D+03 IAcc=3 IRadAn=         5 AccDes= 0.00D+00
 Harris functional with IExCor= 1009 and IRadAn=       5 diagonalized for initial guess.
 HarFok:  IExCor= 1009 AccDes= 0.00D+00 IRadAn=         5 IDoV= 1 UseB2=F ITyADJ=14
 ICtDFT=  3500011 ScaDFX=  1.000000  1.000000  1.000000  1.000000
 FoFCou: FMM=F IPFlag=           0 FMFlag=      100000 FMFlg1=           0
         NFxFlg=           0 DoJE=T BraDBF=F KetDBF=T FulRan=T
         wScrn=  0.000000 ICntrl=       500 IOpCl=  0 I1Cent=   200000004 NGrid=           0
         NMat0=    1 NMatS0=      1 NMatT0=    0 NMatD0=    1 NMtDS0=    0 NMtDT0=    0
 Petite list used in FoFCou.
 Initial guess orbital symmetries:
       Occupied  (A') (A') (A') (A') (A') (A") (A') (A')
       Virtual   (A") (A') (A') (A') (A") (A') (A') (A') (A") (A')
                 (A') (A") (A') (A') (A') (A") (A') (A") (A') (A')
                 (A') (A") (A") (A') (A') (A') (A') (A") (A') (A")
                 (A') (A') (A") (A") (A') (A') (A') (A") (A') (A')
                 (A") (A") (A') (A') (A") (A') (A') (A") (A') (A")
                 (A') (A') (A') (A') (A") (A') (A") (A") (A') (A')
                 (A") (A") (A') (A') (A') (A') (A") (A') (A') (A")
                 (A') (A") (A') (A") (A') (A") (A') (A') (A') (A')
                 (A") (A') (A') (A") (A") (A') (A') (A") (A') (A")
                 (A") (A') (A') (A") (A') (A') (A") (A") (A') (A')
                 (A") (A') (A') (A") (A') (A") (A') (A") (A') (A")
                 (A') (A') (A') (A") (A") (A') (A') (A") (A') (A')
                 (A") (A') (A") (A') (A") (A') (A') (A") (A') (A')
                 (A') (A') (A') (A') (A') (A')
 The electronic state of the initial guess is 1-A'.
 Keep R1 ints in memory in symmetry-blocked form, NReq=82050092.
 Requested convergence on RMS density matrix=1.00D-08 within 128 cycles.
 Requested convergence on MAX density matrix=1.00D-06.
 Requested convergence on             energy=1.00D-06.
 No special actions if energy rises.
 Integral accuracy reduced to 1.0D-05 until final iterations.
 Initial convergence to 1.0D-05 achieved.  Increase integral accuracy.
 SCF Done:  E(RPBE1PBE) =  -130.392120494     A.U. after   11 cycles
            NFock= 11  Conv=0.68D-08     -V/T= 2.0044

 **********************************************************************

            Population analysis using the SCF Density.

 **********************************************************************

 Orbital symmetries:
       Occupied  (A') (A') (A') (A') (A') (A") (A') (A')
       Virtual   (A") (A') (A') (A") (A') (A') (A') (A') (A") (A')
                 (A') (A") (A') (A') (A') (A") (A') (A") (A') (A')
                 (A") (A') (A") (A') (A') (A') (A") (A') (A') (A")
                 (A') (A') (A") (A") (A') (A') (A') (A") (A') (A')
                 (A") (A") (A') (A') (A") (A') (A') (A") (A') (A")
                 (A') (A') (A') (A") (A') (A') (A") (A") (A') (A')
                 (A") (A") (A') (A') (A') (A') (A") (A') (A') (A")
                 (A') (A") (A') (A") (A') (A") (A') (A') (A') (A")
                 (A') (A') (A') (A") (A") (A') (A') (A") (A') (A")
                 (A") (A') (A') (A") (A') (A') (A") (A") (A') (A')
                 (A") (A') (A') (A") (A') (A") (A') (A") (A') (A")
                 (A') (A') (A') (A") (A") (A') (A') (A") (A') (A')
                 (A") (A') (A") (A') (A') (A") (A') (A") (A') (A')
                 (A') (A') (A') (A') (A') (A')
 The electronic state is 1-A'.
 Alpha  occ. eigenvalues --  -19.29746 -14.51999  -1.21059  -0.74747  -0.55477
 Alpha  occ. eigenvalues --   -0.48408  -0.47616  -0.26487
 Alpha virt. eigenvalues --   -0.10823   0.02332   0.13591   0.19822   0.20621
 Alpha virt. eigenvalues --    0.24406   0.28704   0.32439   0.32919   0.39059
 Alpha virt. eigenvalues --    0.40865   0.48246   0.57686   0.68960   0.82106
 Alpha virt. eigenvalues --    0.83582   0.87608   0.89549   0.97310   1.03666
 Alpha virt. eigenvalues --    1.06641   1.07480   1.18619   1.20787   1.25475
 Alpha virt. eigenvalues --    1.31384   1.34615   1.35286   1.53983   1.55790
 Alpha virt. eigenvalues --    1.60129   1.88521   1.95751   2.06618   2.10080
 Alpha virt. eigenvalues --    2.25113   2.33283   2.39004   2.42087   2.45325
 Alpha virt. eigenvalues --    2.56894   2.65254   2.67431   2.76082   2.81592
 Alpha virt. eigenvalues --    2.82729   3.04032   3.06080   3.07436   3.13748
 Alpha virt. eigenvalues --    3.24080   3.33109   3.39456   3.49099   3.49579
 Alpha virt. eigenvalues --    3.62070   3.72722   3.83010   3.86986   3.90936
 Alpha virt. eigenvalues --    3.97400   4.02432   4.20529   4.28736   4.50261
 Alpha virt. eigenvalues --    4.56638   4.65513   4.71884   4.77104   5.17729
 Alpha virt. eigenvalues --    5.21646   5.77254   5.77803   6.01925   6.13705
 Alpha virt. eigenvalues --    6.51529   6.56267   6.60796   6.75028   6.99182
 Alpha virt. eigenvalues --    7.00186   7.20548   7.29447   7.35444   7.48947
 Alpha virt. eigenvalues --    7.61335   7.69262   7.79749   7.91471   7.94431
 Alpha virt. eigenvalues --    7.98552   8.02967   8.19295   8.44106   8.44479
 Alpha virt. eigenvalues --    8.55528   8.57378   8.63004   8.72909   8.78911
 Alpha virt. eigenvalues --    8.83403   8.84023   8.95465   8.98881   9.15103
 Alpha virt. eigenvalues --    9.21179   9.50323   9.53915   9.61543  10.05624
 Alpha virt. eigenvalues --   10.10485  10.23533  10.52209  10.77351  10.87207
 Alpha virt. eigenvalues --   10.89449  10.93309  10.93868  10.99211  11.14594
 Alpha virt. eigenvalues --   11.21206  11.29190  11.64643  11.81993  11.93884
 Alpha virt. eigenvalues --   11.96073  12.05955  13.31584  13.42892  13.72288
 Alpha virt. eigenvalues --   13.96236  15.19837  37.27470  47.89100 196.61716
 Alpha virt. eigenvalues --  253.02891
          Condensed to atoms (all electrons):
               1          2          3
     1  O    7.928923   0.241350  -0.066099
     2  N    0.241350   6.665533   0.107892
     3  H   -0.066099   0.107892   0.839258
 Mulliken charges:
               1
     1  O   -0.104174
     2  N   -0.014775
     3  H    0.118949
 Sum of Mulliken charges =  -0.00000
 Mulliken charges with hydrogens summed into heavy atoms:
               1
     1  O   -0.104174
     2  N    0.104174
 Electronic spatial extent (au):  <R**2>=             51.3190
 Charge=             -0.0000 electrons
 Dipole moment (field-independent basis, Debye):
    X=             -1.3899    Y=              0.9206    Z=             -0.0000  Tot=              1.6671
 Quadrupole moment (field-independent basis, Debye-Ang):
   XX=            -11.0999   YY=            -11.8760   ZZ=            -10.6010
   XY=             -1.4305   XZ=              0.0000   YZ=              0.0000
 Traceless Quadrupole moment (field-independent basis, Debye-Ang):
   XX=              0.0924   YY=             -0.6837   ZZ=              0.5913
   XY=             -1.4305   XZ=              0.0000   YZ=              0.0000
 Octapole moment (field-independent basis, Debye-Ang**2):
  XXX=             -1.5128  YYY=             -1.3592  ZZZ=              0.0000  XYY=             -1.5814
  XXY=              0.1605  XXZ=             -0.0000  XZZ=             -0.1272  YZZ=             -0.5510
  YYZ=             -0.0000  XYZ=              0.0000
 Hexadecapole moment (field-independent basis, Debye-Ang**3):
 XXXX=            -13.6420 YYYY=            -37.0640 ZZZZ=             -8.4132 XXXY=              0.6285
 XXXZ=             -0.0000 YYYX=             -0.0003 YYYZ=              0.0000 ZZZX=             -0.0000
 ZZZY=              0.0000 XXYY=             -8.7410 XXZZ=             -3.8857 YYZZ=             -7.3168
 XXYZ=              0.0000 YYXZ=              0.0000 ZZXY=              0.4643
 N-N= 3.019198015458D+01 E-N=-3.674301621551D+02  KE= 1.298173210211D+02
 Symmetry A'   KE= 1.258675276407D+02
 Symmetry A"   KE= 3.949793380333D+00
   2 Symmetry operations used in ECPInt.
 ECPInt:  NShTT=     990 NPrTT=    2640 LenC2=     991 LenP2D=    2425.
 LDataN:  DoStor=T MaxTD1= 9 Len=  602
 Calling FoFJK, ICntrl=      2127 FMM=F ISym2X=1 I1Cent= 0 IOpClX= 0 NMat=1 NMatS=1 NMatT=0.
 ***** Axes restored to original set *****
 -------------------------------------------------------------------
 Center     Atomic                   Forces (Hartrees/Bohr)
 Number     Number              X              Y              Z
 -------------------------------------------------------------------
      1        8           0.031277189    0.001544158    0.000000000
      2        7          -0.021681899   -0.019307007   -0.000000000
      3        1          -0.009595290    0.017762848   -0.000000000
 -------------------------------------------------------------------
 Cartesian Forces:  Max     0.031277189 RMS     0.015744843

 GradGradGradGradGradGradGradGradGradGradGradGradGradGradGradGradGradGrad
 Berny optimization.
 FormGI is forming the generalized inverse of G from B-inverse, IUseBI=4.
 Internal  Forces:  Max     0.031286381 RMS     0.021553418
 Search for a local minimum.
 Step number   1 out of a maximum of   20
 All quantities printed in internal units (Hartrees-Bohrs-Radians)
 Mixed Optimization -- RFO/linear search
 Second derivative matrix not updated -- first step.
 The second derivative matrix:
                          R1        R2        A1
           R1           1.01390
           R2           0.00000   0.34179
           A1           0.00000   0.00000   0.16000
 ITU=  0
     Eigenvalues ---    0.16000   0.34179   1.01390
 RFO step:  Lambda=-2.19991751D-03 EMin= 1.60000000D-01
 Linear search not attempted -- first point.
 Iteration  1 RMS(Cart)=  0.04021740 RMS(Int)=  0.00028865
 Iteration  2 RMS(Cart)=  0.00027558 RMS(Int)=  0.00000005
 Iteration  3 RMS(Cart)=  0.00000005 RMS(Int)=  0.00000000
 ClnCor:  largest displacement from symmetrization is 2.51D-15 for atom     3.
 Variable       Old X    -DE/DX   Delta X   Delta X   Delta X     New X
                                 (Linear)    (Quad)   (Total)
    R1        2.28087  -0.03129   0.00000  -0.03079  -0.03079   2.25008
    R2        2.07029  -0.02013   0.00000  -0.05853  -0.05853   2.01176
    A1        1.90024  -0.00307   0.00000  -0.01893  -0.01893   1.88132
         Item               Value     Threshold  Converged?
 Maximum Force            0.031286     0.000450     NO 
 RMS     Force            0.021553     0.000300     NO 
 Maximum Displacement     0.043025     0.001800     NO 
 RMS     Displacement     0.040091     0.001200     NO 
 Predicted change in Energy=-1.105164D-03
 GradGradGradGradGradGradGradGradGradGradGradGradGradGradGradGradGradGrad

                          Input orientation:                          
 ---------------------------------------------------------------------
 Center     Atomic      Atomic             Coordinates (Angstroms)
 Number     Number       Type             X           Y           Z
 ---------------------------------------------------------------------
      1          8           0        6.694639    7.877621    7.500000
      2          7           0        7.879633    7.993954    7.500000
      3          1           0        8.302402    7.016920    7.500000
 ---------------------------------------------------------------------
                    Distance matrix (angstroms):
                    1          2          3
     1  O    0.000000
     2  N    1.190691   0.000000
     3  H    1.823652   1.064578   0.000000
 Stoichiometry    HNO
 Framework group  CS[SG(HNO)]
 Deg. of freedom     3
 Full point group                 CS      NOp   2
 Largest Abelian subgroup         CS      NOp   2
 Largest concise Abelian subgroup C1      NOp   1
                         Standard orientation:                         
 ---------------------------------------------------------------------
 Center     Atomic      Atomic             Coordinates (Angstroms)
 Number     Number       Type             X           Y           Z
 ---------------------------------------------------------------------
      1          8           0        0.063354   -0.615676   -0.000000
      2          7           0        0.063354    0.575015    0.000000
      3          1           0       -0.950310    0.900303    0.000000
 ---------------------------------------------------------------------
 Rotational constants (GHZ):         551.3200785          43.6814532          40.4746222
 Standard basis: def2QZVPP (5D, 7F)
 There are   120 symmetry adapted cartesian basis functions of A'  symmetry.
 There are    59 symmetry adapted cartesian basis functions of A"  symmetry.
 There are    94 symmetry adapted basis functions of A'  symmetry.
 There are    50 symmetry adapted basis functions of A"  symmetry.
   144 basis functions,   222 primitive gaussians,   179 cartesian basis functions
     8 alpha electrons        8 beta electrons
       nuclear repulsion energy        30.6889421297 Hartrees.
 NAtoms=    3 NActive=    3 NUniq=    3 SFac= 1.00D+00 NAtFMM=   60 NAOKFM=F Big=F
 Integral buffers will be    131072 words long.
 Raffenetti 2 integral format.
 Two-electron integral symmetry is turned on.
 One-electron integrals computed using PRISM.
   2 Symmetry operations used in ECPInt.
 ECPInt:  NShTT=     990 NPrTT=    2640 LenC2=     991 LenP2D=    2425.
 LDataN:  DoStor=T MaxTD1= 8 Len=  415
 NBasis=   144 RedAO= T EigKep=  2.92D-04  NBF=    94    50
 NBsUse=   144 1.00D-06 EigRej= -1.00D+00 NBFU=    94    50
 Initial guess from the checkpoint file:  "/data/hutter/SMG16/PBE0/Gau-62964.chk"
 B after Tr=     0.000000   -0.000000   -0.000000
         Rot=    0.999999    0.000000   -0.000000   -0.001054 Ang=  -0.12 deg.
 Initial guess orbital symmetries:
       Occupied  (A') (A') (A') (A') (A') (A") (A') (A')
       Virtual   (A") (A') (A') (A") (A') (A') (A') (A') (A") (A')
                 (A') (A") (A') (A') (A') (A") (A') (A") (A') (A')
                 (A") (A') (A") (A') (A') (A') (A") (A') (A') (A")
                 (A') (A') (A") (A") (A') (A') (A') (A") (A') (A')
                 (A") (A") (A') (A') (A") (A') (A') (A") (A') (A")
                 (A') (A') (A') (A") (A') (A') (A") (A") (A') (A')
                 (A") (A") (A') (A') (A') (A') (A") (A') (A') (A")
                 (A') (A") (A') (A") (A') (A") (A') (A') (A') (A")
                 (A') (A') (A') (A") (A") (A') (A') (A") (A') (A")
                 (A") (A') (A') (A") (A') (A') (A") (A") (A') (A')
                 (A") (A') (A') (A") (A') (A") (A') (A") (A') (A")
                 (A') (A') (A') (A") (A") (A') (A') (A") (A') (A')
                 (A") (A') (A") (A') (A') (A") (A') (A") (A') (A')
                 (A') (A') (A') (A') (A') (A')
 ExpMin= 8.03D-02 ExpMax= 1.17D+05 ExpMxC= 1.13D+03 IAcc=3 IRadAn=         5 AccDes= 0.00D+00
 Harris functional with IExCor= 1009 and IRadAn=       5 diagonalized for initial guess.
 HarFok:  IExCor= 1009 AccDes= 0.00D+00 IRadAn=         5 IDoV= 1 UseB2=F ITyADJ=14
 ICtDFT=  3500011 ScaDFX=  1.000000  1.000000  1.000000  1.000000
 FoFCou: FMM=F IPFlag=           0 FMFlag=      100000 FMFlg1=           0
         NFxFlg=           0 DoJE=T BraDBF=F KetDBF=T FulRan=T
         wScrn=  0.000000 ICntrl=       500 IOpCl=  0 I1Cent=   200000004 NGrid=           0
         NMat0=    1 NMatS0=      1 NMatT0=    0 NMatD0=    1 NMtDS0=    0 NMtDT0=    0
 Petite list used in FoFCou.
 Keep R1 ints in memory in symmetry-blocked form, NReq=82050092.
 Requested convergence on RMS density matrix=1.00D-08 within 128 cycles.
 Requested convergence on MAX density matrix=1.00D-06.
 Requested convergence on             energy=1.00D-06.
 No special actions if energy rises.
 Integral accuracy reduced to 1.0D-05 until final iterations.
 Initial convergence to 1.0D-05 achieved.  Increase integral accuracy.
 SCF Done:  E(RPBE1PBE) =  -130.393280642     A.U. after   11 cycles
            NFock= 11  Conv=0.30D-08     -V/T= 2.0036
   2 Symmetry operations used in ECPInt.
 ECPInt:  NShTT=     990 NPrTT=    2640 LenC2=     991 LenP2D=    2425.
 LDataN:  DoStor=T MaxTD1= 9 Len=  602
 Calling FoFJK, ICntrl=      2127 FMM=F ISym2X=1 I1Cent= 0 IOpClX= 0 NMat=1 NMatS=1 NMatT=0.
 ***** Axes restored to original set *****
 -------------------------------------------------------------------
 Center     Atomic                   Forces (Hartrees/Bohr)
 Number     Number              X              Y              Z
 -------------------------------------------------------------------
      1        8          -0.000017116    0.002587047    0.000000000
      2        7          -0.001490003   -0.006360020   -0.000000000
      3        1           0.001507120    0.003772973   -0.000000000
 -------------------------------------------------------------------
 Cartesian Forces:  Max     0.006360020 RMS     0.002705341

 GradGradGradGradGradGradGradGradGradGradGradGradGradGradGradGradGradGrad
 Berny optimization.
 Using GEDIIS/GDIIS optimizer.
 FormGI is forming the generalized inverse of G from B-inverse, IUseBI=4.
 Internal  Forces:  Max     0.005796947 RMS     0.003735585
 Search for a local minimum.
 Step number   2 out of a maximum of   20
 All quantities printed in internal units (Hartrees-Bohrs-Radians)
 Mixed Optimization -- RFO/linear search
 Update second derivatives using D2CorX and points    1    2
 DE= -1.16D-03 DEPred=-1.11D-03 R= 1.05D+00
 TightC=F SS=  1.41D+00  RLast= 6.88D-02 DXNew= 5.0454D-01 2.0637D-01
 Trust test= 1.05D+00 RLast= 6.88D-02 DXMaxT set to 3.00D-01
 The second derivative matrix:
                          R1        R2        A1
           R1           1.02043
           R2          -0.03404   0.29871
           A1           0.08579   0.04406   0.19264
 ITU=  1  0
 Use linear search instead of GDIIS.
     Eigenvalues ---    0.16675   0.31462   1.03041
 RFO step:  Lambda=-2.45830263D-04 EMin= 1.66753007D-01
 Quartic linear search produced a step of  0.02826.
 Iteration  1 RMS(Cart)=  0.02085749 RMS(Int)=  0.00028549
 Iteration  2 RMS(Cart)=  0.00030124 RMS(Int)=  0.00000002
 Iteration  3 RMS(Cart)=  0.00000001 RMS(Int)=  0.00000000
 ClnCor:  largest displacement from symmetrization is 0.00D+00 for atom     0.
 Variable       Old X    -DE/DX   Delta X   Delta X   Delta X     New X
                                 (Linear)    (Quad)   (Total)
    R1        2.25008  -0.00024  -0.00087  -0.00279  -0.00366   2.24642
    R2        2.01176  -0.00286  -0.00165  -0.01333  -0.01499   1.99678
    A1        1.88132   0.00580  -0.00053   0.03574   0.03521   1.91652
         Item               Value     Threshold  Converged?
 Maximum Force            0.005797     0.000450     NO 
 RMS     Force            0.003736     0.000300     NO 
 Maximum Displacement     0.022320     0.001800     NO 
 RMS     Displacement     0.020708     0.001200     NO 
 Predicted change in Energy=-1.242807D-04
 GradGradGradGradGradGradGradGradGradGradGradGradGradGradGradGradGradGrad

                          Input orientation:                          
 ---------------------------------------------------------------------
 Center     Atomic      Atomic             Coordinates (Angstroms)
 Number     Number       Type             X           Y           Z
 ---------------------------------------------------------------------
      1          8           0        6.689924    7.886189    7.500000
      2          7           0        7.874799    7.982142    7.500000
      3          1           0        8.311952    7.020164    7.500000
 ---------------------------------------------------------------------
                    Distance matrix (angstroms):
                    1          2          3
     1  O    0.000000
     2  N    1.188754   0.000000
     3  H    1.838743   1.056648   0.000000
 Stoichiometry    HNO
 Framework group  CS[SG(HNO)]
 Deg. of freedom     3
 Full point group                 CS      NOp   2
 Largest Abelian subgroup         CS      NOp   2
 Largest concise Abelian subgroup C1      NOp   1
                         Standard orientation:                         
 ---------------------------------------------------------------------
 Center     Atomic      Atomic             Coordinates (Angstroms)
 Number     Number       Type             X           Y           Z
 ---------------------------------------------------------------------
      1          8           0        0.062133   -0.616757   -0.000000
      2          7           0        0.062133    0.571997    0.000000
      3          1           0       -0.931993    0.930075    0.000000
 ---------------------------------------------------------------------
 Rotational constants (GHZ):         576.4530092          43.5768885          40.5142213
 Standard basis: def2QZVPP (5D, 7F)
 There are   120 symmetry adapted cartesian basis functions of A'  symmetry.
 There are    59 symmetry adapted cartesian basis functions of A"  symmetry.
 There are    94 symmetry adapted basis functions of A'  symmetry.
 There are    50 symmetry adapted basis functions of A"  symmetry.
   144 basis functions,   222 primitive gaussians,   179 cartesian basis functions
     8 alpha electrons        8 beta electrons
       nuclear repulsion energy        30.7365431165 Hartrees.
 NAtoms=    3 NActive=    3 NUniq=    3 SFac= 1.00D+00 NAtFMM=   60 NAOKFM=F Big=F
 Integral buffers will be    131072 words long.
 Raffenetti 2 integral format.
 Two-electron integral symmetry is turned on.
 One-electron integrals computed using PRISM.
   2 Symmetry operations used in ECPInt.
 ECPInt:  NShTT=     990 NPrTT=    2640 LenC2=     991 LenP2D=    2425.
 LDataN:  DoStor=T MaxTD1= 8 Len=  415
 NBasis=   144 RedAO= T EigKep=  2.87D-04  NBF=    94    50
 NBsUse=   144 1.00D-06 EigRej= -1.00D+00 NBFU=    94    50
 Initial guess from the checkpoint file:  "/data/hutter/SMG16/PBE0/Gau-62964.chk"
 B after Tr=     0.000000   -0.000000    0.000000
         Rot=    0.999994   -0.000000   -0.000000    0.003354 Ang=   0.38 deg.
 Initial guess orbital symmetries:
       Occupied  (A') (A') (A') (A') (A') (A") (A') (A')
       Virtual   (A") (A') (A') (A") (A') (A') (A') (A') (A") (A')
                 (A') (A") (A') (A') (A') (A") (A') (A") (A') (A')
                 (A") (A') (A") (A') (A') (A') (A") (A') (A') (A")
                 (A') (A') (A") (A") (A') (A') (A') (A") (A') (A')
                 (A") (A") (A') (A') (A") (A') (A') (A") (A') (A")
                 (A') (A') (A') (A") (A') (A') (A") (A") (A') (A')
                 (A") (A") (A') (A') (A') (A') (A") (A') (A') (A")
                 (A') (A") (A') (A") (A') (A") (A') (A') (A') (A")
                 (A') (A') (A") (A') (A") (A') (A') (A") (A') (A")
                 (A") (A') (A') (A") (A') (A') (A") (A") (A') (A')
                 (A") (A') (A') (A") (A') (A") (A') (A") (A') (A")
                 (A') (A') (A') (A") (A") (A') (A') (A') (A") (A")
                 (A') (A') (A") (A') (A") (A') (A') (A") (A') (A')
                 (A') (A') (A') (A') (A') (A')
 ExpMin= 8.03D-02 ExpMax= 1.17D+05 ExpMxC= 1.13D+03 IAcc=3 IRadAn=         5 AccDes= 0.00D+00
 Harris functional with IExCor= 1009 and IRadAn=       5 diagonalized for initial guess.
 HarFok:  IExCor= 1009 AccDes= 0.00D+00 IRadAn=         5 IDoV= 1 UseB2=F ITyADJ=14
 ICtDFT=  3500011 ScaDFX=  1.000000  1.000000  1.000000  1.000000
 FoFCou: FMM=F IPFlag=           0 FMFlag=      100000 FMFlg1=           0
         NFxFlg=           0 DoJE=T BraDBF=F KetDBF=T FulRan=T
         wScrn=  0.000000 ICntrl=       500 IOpCl=  0 I1Cent=   200000004 NGrid=           0
         NMat0=    1 NMatS0=      1 NMatT0=    0 NMatD0=    1 NMtDS0=    0 NMtDT0=    0
 Petite list used in FoFCou.
 Keep R1 ints in memory in symmetry-blocked form, NReq=82050092.
 Requested convergence on RMS density matrix=1.00D-08 within 128 cycles.
 Requested convergence on MAX density matrix=1.00D-06.
 Requested convergence on             energy=1.00D-06.
 No special actions if energy rises.
 Integral accuracy reduced to 1.0D-05 until final iterations.
 Initial convergence to 1.0D-05 achieved.  Increase integral accuracy.
 SCF Done:  E(RPBE1PBE) =  -130.393293673     A.U. after    9 cycles
            NFock=  9  Conv=0.86D-08     -V/T= 2.0035
   2 Symmetry operations used in ECPInt.
 ECPInt:  NShTT=     990 NPrTT=    2640 LenC2=     991 LenP2D=    2425.
 LDataN:  DoStor=T MaxTD1= 9 Len=  602
 Calling FoFJK, ICntrl=      2127 FMM=F ISym2X=1 I1Cent= 0 IOpClX= 0 NMat=1 NMatS=1 NMatT=0.
 ***** Axes restored to original set *****
 -------------------------------------------------------------------
 Center     Atomic                   Forces (Hartrees/Bohr)
 Number     Number              X              Y              Z
 -------------------------------------------------------------------
      1        8          -0.000322756   -0.002420429    0.000000000
      2        7           0.001941158    0.005347569   -0.000000000
      3        1          -0.001618402   -0.002927141   -0.000000000
 -------------------------------------------------------------------
 Cartesian Forces:  Max     0.005347569 RMS     0.002345554

 GradGradGradGradGradGradGradGradGradGradGradGradGradGradGradGradGradGrad
 Berny optimization.
 Using GEDIIS/GDIIS optimizer.
 FormGI is forming the generalized inverse of G from B-inverse, IUseBI=4.
 Internal  Forces:  Max     0.005360555 RMS     0.003315846
 Search for a local minimum.
 Step number   3 out of a maximum of   20
 All quantities printed in internal units (Hartrees-Bohrs-Radians)
 Mixed Optimization -- RFO/linear search
 Update second derivatives using D2CorX and points    1    2    3
 DE= -1.30D-05 DEPred=-1.24D-04 R= 1.05D-01
 Trust test= 1.05D-01 RLast= 3.84D-02 DXMaxT set to 3.00D-01
 The second derivative matrix:
                          R1        R2        A1
           R1           0.97838
           R2          -0.05804   0.29827
           A1           0.05560  -0.01711   0.31543
 ITU=  0  1  0
 Use linear search instead of GDIIS.
     Eigenvalues ---    0.28695   0.31702   0.98810
 RFO step:  Lambda=-3.53354394D-07 EMin= 2.86950779D-01
 Quartic linear search produced a step of -0.47286.
 Iteration  1 RMS(Cart)=  0.00999677 RMS(Int)=  0.00006580
 Iteration  2 RMS(Cart)=  0.00006939 RMS(Int)=  0.00000000
 Iteration  3 RMS(Cart)=  0.00000000 RMS(Int)=  0.00000000
 ClnCor:  largest displacement from symmetrization is 0.00D+00 for atom     0.
 Variable       Old X    -DE/DX   Delta X   Delta X   Delta X     New X
                                 (Linear)    (Quad)   (Total)
    R1        2.24642   0.00052   0.00173   0.00013   0.00186   2.24828
    R2        1.99678   0.00200   0.00709  -0.00098   0.00611   2.00288
    A1        1.91652  -0.00536  -0.01665  -0.00042  -0.01706   1.89946
         Item               Value     Threshold  Converged?
 Maximum Force            0.005361     0.000450     NO 
 RMS     Force            0.003316     0.000300     NO 
 Maximum Displacement     0.010417     0.001800     NO 
 RMS     Displacement     0.010032     0.001200     NO 
 Predicted change in Energy=-5.208426D-05
 GradGradGradGradGradGradGradGradGradGradGradGradGradGradGradGradGradGrad

                          Input orientation:                          
 ---------------------------------------------------------------------
 Center     Atomic      Atomic             Coordinates (Angstroms)
 Number     Number       Type             X           Y           Z
 ---------------------------------------------------------------------
      1          8           0        6.692249    7.881986    7.500000
      2          7           0        7.877288    7.987655    7.500000
      3          1           0        8.307137    7.018854    7.500000
 ---------------------------------------------------------------------
                    Distance matrix (angstroms):
                    1          2          3
     1  O    0.000000
     2  N    1.189740   0.000000
     3  H    1.831082   1.059880   0.000000
 Stoichiometry    HNO
 Framework group  CS[SG(HNO)]
 Deg. of freedom     3
 Full point group                 CS      NOp   2
 Largest Abelian subgroup         CS      NOp   2
 Largest concise Abelian subgroup C1      NOp   1
                         Standard orientation:                         
 ---------------------------------------------------------------------
 Center     Atomic      Atomic             Coordinates (Angstroms)
 Number     Number       Type             X           Y           Z
 ---------------------------------------------------------------------
      1          8           0        0.062697   -0.616252   -0.000000
      2          7           0        0.062697    0.573489    0.000000
      3          1           0       -0.940453    0.915594    0.000000
 ---------------------------------------------------------------------
 Rotational constants (GHZ):         564.5549899          43.6259528          40.4965819
 Standard basis: def2QZVPP (5D, 7F)
 There are   120 symmetry adapted cartesian basis functions of A'  symmetry.
 There are    59 symmetry adapted cartesian basis functions of A"  symmetry.
 There are    94 symmetry adapted basis functions of A'  symmetry.
 There are    50 symmetry adapted basis functions of A"  symmetry.
   144 basis functions,   222 primitive gaussians,   179 cartesian basis functions
     8 alpha electrons        8 beta electrons
       nuclear repulsion energy        30.7148317950 Hartrees.
 NAtoms=    3 NActive=    3 NUniq=    3 SFac= 1.00D+00 NAtFMM=   60 NAOKFM=F Big=F
 Integral buffers will be    131072 words long.
 Raffenetti 2 integral format.
 Two-electron integral symmetry is turned on.
 One-electron integrals computed using PRISM.
   2 Symmetry operations used in ECPInt.
 ECPInt:  NShTT=     990 NPrTT=    2640 LenC2=     991 LenP2D=    2425.
 LDataN:  DoStor=T MaxTD1= 8 Len=  415
 NBasis=   144 RedAO= T EigKep=  2.89D-04  NBF=    94    50
 NBsUse=   144 1.00D-06 EigRej= -1.00D+00 NBFU=    94    50
 Initial guess from the checkpoint file:  "/data/hutter/SMG16/PBE0/Gau-62964.chk"
 B after Tr=     0.000000    0.000000   -0.000000
         Rot=    0.999999   -0.000000    0.000000   -0.001600 Ang=  -0.18 deg.
 Initial guess orbital symmetries:
       Occupied  (A') (A') (A') (A') (A') (A") (A') (A')
       Virtual   (A") (A') (A') (A") (A') (A') (A') (A') (A") (A')
                 (A') (A") (A') (A') (A') (A") (A') (A") (A') (A')
                 (A") (A') (A") (A') (A') (A') (A") (A') (A') (A")
                 (A') (A') (A") (A") (A') (A') (A') (A") (A') (A')
                 (A") (A") (A') (A') (A") (A') (A') (A") (A') (A")
                 (A') (A') (A') (A") (A') (A') (A") (A") (A') (A')
                 (A") (A") (A') (A') (A') (A') (A") (A') (A') (A")
                 (A') (A') (A") (A") (A') (A") (A') (A') (A') (A")
                 (A') (A') (A") (A') (A") (A') (A') (A") (A') (A")
                 (A') (A") (A') (A") (A') (A') (A") (A") (A') (A")
                 (A') (A') (A') (A") (A') (A") (A') (A") (A') (A")
                 (A') (A') (A') (A") (A") (A') (A') (A') (A") (A")
                 (A') (A') (A") (A') (A") (A') (A') (A") (A') (A')
                 (A') (A') (A') (A') (A') (A')
 Keep R1 ints in memory in symmetry-blocked form, NReq=82050092.
 Requested convergence on RMS density matrix=1.00D-08 within 128 cycles.
 Requested convergence on MAX density matrix=1.00D-06.
 Requested convergence on             energy=1.00D-06.
 No special actions if energy rises.
 SCF Done:  E(RPBE1PBE) =  -130.393346103     A.U. after    8 cycles
            NFock=  8  Conv=0.33D-08     -V/T= 2.0036
   2 Symmetry operations used in ECPInt.
 ECPInt:  NShTT=     990 NPrTT=    2640 LenC2=     991 LenP2D=    2425.
 LDataN:  DoStor=T MaxTD1= 9 Len=  602
 Calling FoFJK, ICntrl=      2127 FMM=F ISym2X=1 I1Cent= 0 IOpClX= 0 NMat=1 NMatS=1 NMatT=0.
 ***** Axes restored to original set *****
 -------------------------------------------------------------------
 Center     Atomic                   Forces (Hartrees/Bohr)
 Number     Number              X              Y              Z
 -------------------------------------------------------------------
      1        8          -0.000104555   -0.000013418    0.000000000
      2        7           0.000126796   -0.000025930   -0.000000000
      3        1          -0.000022241    0.000039347   -0.000000000
 -------------------------------------------------------------------
 Cartesian Forces:  Max     0.000126796 RMS     0.000057643

 GradGradGradGradGradGradGradGradGradGradGradGradGradGradGradGradGradGrad
 Berny optimization.
 Using GEDIIS/GDIIS optimizer.
 FormGI is forming the generalized inverse of G from B-inverse, IUseBI=4.
 Internal  Forces:  Max     0.000105296 RMS     0.000066301
 Search for a local minimum.
 Step number   4 out of a maximum of   20
 All quantities printed in internal units (Hartrees-Bohrs-Radians)
 Mixed Optimization -- En-DIIS/RFO-DIIS
 Update second derivatives using D2CorX and points    1    2    3    4
 DE= -5.24D-05 DEPred=-5.21D-05 R= 1.01D+00
 TightC=F SS=  1.41D+00  RLast= 1.82D-02 DXNew= 5.0454D-01 5.4660D-02
 Trust test= 1.01D+00 RLast= 1.82D-02 DXMaxT set to 3.00D-01
 The second derivative matrix:
                          R1        R2        A1
           R1           1.02548
           R2          -0.02686   0.32004
           A1           0.07822  -0.00797   0.31929
 ITU=  1  0  1  0
 Use linear search instead of GDIIS.
     Eigenvalues ---    0.30838   0.32134   1.03511
 RFO step:  Lambda=-1.73382905D-08 EMin= 3.08379333D-01
 Quartic linear search produced a step of  0.00071.
 Iteration  1 RMS(Cart)=  0.00007554 RMS(Int)=  0.00000000
 Iteration  2 RMS(Cart)=  0.00000000 RMS(Int)=  0.00000000
 ClnCor:  largest displacement from symmetrization is 0.00D+00 for atom     0.
 Variable       Old X    -DE/DX   Delta X   Delta X   Delta X     New X
                                 (Linear)    (Quad)   (Total)
    R1        2.24828   0.00011   0.00000   0.00010   0.00010   2.24839
    R2        2.00288  -0.00004   0.00000  -0.00014  -0.00013   2.00275
    A1        1.89946  -0.00001  -0.00001  -0.00004  -0.00006   1.89940
         Item               Value     Threshold  Converged?
 Maximum Force            0.000105     0.000450     YES
 RMS     Force            0.000066     0.000300     YES
 Maximum Displacement     0.000085     0.001800     YES
 RMS     Displacement     0.000076     0.001200     YES
 Predicted change in Energy=-8.695656D-09
 Optimization completed.
    -- Stationary point found.
                           ----------------------------
                           !   Optimized Parameters   !
                           ! (Angstroms and Degrees)  !
 --------------------------                            --------------------------
 ! Name  Definition              Value          Derivative Info.                !
 --------------------------------------------------------------------------------
 ! R1    R(1,2)                  1.1897         -DE/DX =    0.0001              !
 ! R2    R(2,3)                  1.0599         -DE/DX =    0.0                 !
 ! A1    A(1,2,3)              108.831          -DE/DX =    0.0                 !
 --------------------------------------------------------------------------------
 GradGradGradGradGradGradGradGradGradGradGradGradGradGradGradGradGradGrad

                          Input orientation:                          
 ---------------------------------------------------------------------
 Center     Atomic      Atomic             Coordinates (Angstroms)
 Number     Number       Type             X           Y           Z
 ---------------------------------------------------------------------
      1          8           0        6.692249    7.881986    7.500000
      2          7           0        7.877288    7.987655    7.500000
      3          1           0        8.307137    7.018854    7.500000
 ---------------------------------------------------------------------
                    Distance matrix (angstroms):
                    1          2          3
     1  O    0.000000
     2  N    1.189740   0.000000
     3  H    1.831082   1.059880   0.000000
 Stoichiometry    HNO
 Framework group  CS[SG(HNO)]
 Deg. of freedom     3
 Full point group                 CS      NOp   2
 Largest Abelian subgroup         CS      NOp   2
 Largest concise Abelian subgroup C1      NOp   1
                         Standard orientation:                         
 ---------------------------------------------------------------------
 Center     Atomic      Atomic             Coordinates (Angstroms)
 Number     Number       Type             X           Y           Z
 ---------------------------------------------------------------------
      1          8           0        0.062697   -0.616252   -0.000000
      2          7           0        0.062697    0.573489    0.000000
      3          1           0       -0.940453    0.915594    0.000000
 ---------------------------------------------------------------------
 Rotational constants (GHZ):         564.5549899          43.6259528          40.4965819

 **********************************************************************

            Population analysis using the SCF Density.

 **********************************************************************

 Orbital symmetries:
       Occupied  (A') (A') (A') (A') (A') (A") (A') (A')
       Virtual   (A") (A') (A') (A") (A') (A') (A') (A') (A") (A')
                 (A') (A") (A') (A') (A') (A") (A') (A") (A') (A')
                 (A") (A') (A") (A') (A') (A') (A") (A') (A') (A")
                 (A') (A') (A") (A") (A') (A') (A') (A") (A') (A')
                 (A") (A") (A') (A') (A") (A') (A') (A") (A') (A")
                 (A') (A') (A') (A") (A') (A') (A") (A") (A') (A')
                 (A") (A") (A') (A') (A') (A') (A") (A') (A') (A")
                 (A') (A') (A") (A") (A') (A") (A') (A') (A') (A")
                 (A') (A') (A") (A') (A") (A') (A') (A") (A') (A")
                 (A') (A") (A') (A") (A') (A') (A") (A") (A') (A')
                 (A") (A') (A') (A") (A') (A") (A') (A") (A') (A")
                 (A') (A') (A') (A") (A") (A') (A') (A') (A") (A")
                 (A') (A') (A") (A') (A") (A') (A') (A") (A') (A')
                 (A') (A') (A') (A') (A') (A')
 The electronic state is 1-A'.
 Alpha  occ. eigenvalues --  -19.29493 -14.51359  -1.22310  -0.75139  -0.56047
 Alpha  occ. eigenvalues --   -0.49011  -0.47945  -0.26062
 Alpha virt. eigenvalues --   -0.10262   0.02825   0.13782   0.19768   0.20637
 Alpha virt. eigenvalues --    0.25016   0.29127   0.32514   0.33021   0.39524
 Alpha virt. eigenvalues --    0.42705   0.48603   0.58372   0.68880   0.83204
 Alpha virt. eigenvalues --    0.84019   0.87419   0.89958   0.97639   1.03683
 Alpha virt. eigenvalues --    1.06490   1.08297   1.18983   1.21704   1.25965
 Alpha virt. eigenvalues --    1.31650   1.34727   1.35405   1.53851   1.56221
 Alpha virt. eigenvalues --    1.60537   1.88847   1.96476   2.07327   2.10888
 Alpha virt. eigenvalues --    2.27260   2.34953   2.39428   2.43618   2.45593
 Alpha virt. eigenvalues --    2.58087   2.66273   2.67019   2.77072   2.82032
 Alpha virt. eigenvalues --    2.83699   3.04977   3.06675   3.08993   3.15489
 Alpha virt. eigenvalues --    3.24502   3.34559   3.41992   3.50326   3.51747
 Alpha virt. eigenvalues --    3.64861   3.74695   3.84251   3.87743   3.92885
 Alpha virt. eigenvalues --    3.99247   4.07257   4.22959   4.34073   4.47428
 Alpha virt. eigenvalues --    4.59363   4.66056   4.76105   4.83157   5.21973
 Alpha virt. eigenvalues --    5.25951   5.78400   5.78618   6.08595   6.19208
 Alpha virt. eigenvalues --    6.58201   6.65968   6.70027   6.83285   7.03580
 Alpha virt. eigenvalues --    7.04744   7.21637   7.32122   7.36699   7.51396
 Alpha virt. eigenvalues --    7.62820   7.69176   7.79035   7.91569   7.98371
 Alpha virt. eigenvalues --    8.01684   8.02809   8.24472   8.41646   8.48320
 Alpha virt. eigenvalues --    8.56969   8.57750   8.66487   8.75254   8.84225
 Alpha virt. eigenvalues --    8.84228   8.86972   9.00834   9.06653   9.23394
 Alpha virt. eigenvalues --    9.28354   9.55164   9.61631   9.71773  10.14704
 Alpha virt. eigenvalues --   10.21318  10.34935  10.59120  10.80920  10.91230
 Alpha virt. eigenvalues --   10.92148  10.97627  11.03388  11.15707  11.22796
 Alpha virt. eigenvalues --   11.26373  11.40870  11.66548  11.86397  11.97698
 Alpha virt. eigenvalues --   11.98131  12.08828  13.43960  13.56002  13.82621
 Alpha virt. eigenvalues --   14.25551  15.41833  37.40728  47.93509 196.75878
 Alpha virt. eigenvalues --  253.07778
          Condensed to atoms (all electrons):
               1          2          3
     1  O    7.933900   0.237864  -0.071399
     2  N    0.237864   6.697744   0.078879
     3  H   -0.071399   0.078879   0.877668
 Mulliken charges:
               1
     1  O   -0.100365
     2  N   -0.014487
     3  H    0.114852
 Sum of Mulliken charges =  -0.00000
 Mulliken charges with hydrogens summed into heavy atoms:
               1
     1  O   -0.100365
     2  N    0.100365
 Electronic spatial extent (au):  <R**2>=             50.3368
 Charge=             -0.0000 electrons
 Dipole moment (field-independent basis, Debye):
    X=             -1.4147    Y=              0.9014    Z=             -0.0000  Tot=              1.6775
 Quadrupole moment (field-independent basis, Debye-Ang):
   XX=            -11.0807   YY=            -11.8873   ZZ=            -10.5279
   XY=             -1.4418   XZ=              0.0000   YZ=              0.0000
 Traceless Quadrupole moment (field-independent basis, Debye-Ang):
   XX=              0.0846   YY=             -0.7220   ZZ=              0.6374
   XY=             -1.4418   XZ=              0.0000   YZ=              0.0000
 Octapole moment (field-independent basis, Debye-Ang**2):
  XXX=             -1.5549  YYY=             -1.3054  ZZZ=              0.0000  XYY=             -1.6084
  XXY=              0.1289  XXZ=             -0.0000  XZZ=             -0.1737  YZZ=             -0.5238
  YYZ=             -0.0000  XYZ=              0.0000
 Hexadecapole moment (field-independent basis, Debye-Ang**3):
 XXXX=            -13.2435 YYYY=            -36.1870 ZZZZ=             -8.2993 XXXY=              0.4861
 XXXZ=             -0.0000 YYYX=             -0.1874 YYYZ=              0.0000 ZZZX=             -0.0000
 ZZZY=              0.0000 XXYY=             -8.5808 XXZZ=             -3.7760 YYZZ=             -7.1427
 XXYZ=              0.0000 YYXZ=              0.0000 ZZXY=              0.3791
 N-N= 3.071483179499D+01 E-N=-3.685396116114D+02  KE= 1.299306719413D+02
 Symmetry A'   KE= 1.259732362303D+02
 Symmetry A"   KE= 3.957435711016D+00
 Unable to Open any file for archive entry.
 1\1\GINC-TCOPT10\FOpt\RPBE1PBE\def2QZVPP\H1N1O1\HUTTER\01-Aug-2021\0\\
 #N RPBE1PBE/Def2QZVPP scf=tight Int(Grid=ultrafine) OPT FREQ\\Mol job 
 1\\0,1\O,6.6922493272,7.8819860239,7.5\N,7.8772877617,7.9876549694,7.5
 \H,8.3071373111,7.0188543567,7.5\\Version=ES64L-G16RevC.01\State=1-A'\
 HF=-130.3933461\RMSD=3.320e-09\RMSF=5.764e-05\Dipole=0.4026606,-0.5229
 059,0.\Quadrupole=-0.3423663,-0.1315069,0.4738732,-1.108088,0.,0.\PG=C
 S [SG(H1N1O1)]\\@
 The archive entry for this job was punched.


 SI MONUMENTUM REQUIRIS, CIRCUMSPICE
     -- FROM SIR CHRISTOPHER WREN'S TOMBSTONE
 Job cpu time:       0 days  0 hours  9 minutes 35.0 seconds.
 Elapsed time:       0 days  0 hours  1 minutes 50.5 seconds.
 File lengths (MBytes):  RWF=     15 Int=      0 D2E=      0 Chk=      3 Scr=      1
 Normal termination of Gaussian 16 at Sun Aug  1 11:56:00 2021.
 Link1:  Proceeding to internal job step number  2.
 ----------------------------------------------------------------------
 #N Geom=AllCheck Guess=TCheck SCRF=Check GenChk RPBE1PBE/def2QZVPP Fre
 q
 ----------------------------------------------------------------------
 1/10=4,29=7,30=1,38=1,40=1/1,3;
 2/12=2,40=1/2;
 3/5=45,7=202,11=2,14=-4,25=1,30=1,70=2,71=2,74=-13,75=-5,116=1,140=1/1,2,3;
 4/5=101/1;
 5/5=2,32=2,38=6,98=1/2;
 8/6=4,10=90,11=11/1;
 11/6=1,8=1,9=11,15=111,16=1/1,2,10;
 10/6=1/2;
 6/7=2,8=2,9=2,10=2,28=1/1;
 7/8=1,10=1,25=1/1,2,3,16;
 1/10=4,30=1/3;
 99//99;
 Structure from the checkpoint file:  "/data/hutter/SMG16/PBE0/Gau-62964.chk"
 ---------
 Mol job 1
 ---------
 Charge =  0 Multiplicity = 1
 Redundant internal coordinates found in file.  (old form).
 O,0,6.6922493272,7.8819860239,7.5
 N,0,7.8772877617,7.9876549694,7.5
 H,0,8.3071373111,7.0188543567,7.5
 Recover connectivity data from disk.

 GradGradGradGradGradGradGradGradGradGradGradGradGradGradGradGradGradGrad
 Berny optimization.
 Initialization pass.
                           ----------------------------
                           !    Initial Parameters    !
                           ! (Angstroms and Degrees)  !
 --------------------------                            --------------------------
 ! Name  Definition              Value          Derivative Info.                !
 --------------------------------------------------------------------------------
 ! R1    R(1,2)                  1.1897         calculate D2E/DX2 analytically  !
 ! R2    R(2,3)                  1.0599         calculate D2E/DX2 analytically  !
 ! A1    A(1,2,3)              108.831          calculate D2E/DX2 analytically  !
 --------------------------------------------------------------------------------
 Trust Radius=3.00D-01 FncErr=1.00D-07 GrdErr=1.00D-07 EigMax=2.50D+02 EigMin=1.00D-04
 Number of steps in this run=      2 maximum allowed number of steps=      2.
 GradGradGradGradGradGradGradGradGradGradGradGradGradGradGradGradGradGrad

                          Input orientation:                          
 ---------------------------------------------------------------------
 Center     Atomic      Atomic             Coordinates (Angstroms)
 Number     Number       Type             X           Y           Z
 ---------------------------------------------------------------------
      1          8           0        6.692249    7.881986    7.500000
      2          7           0        7.877288    7.987655    7.500000
      3          1           0        8.307137    7.018854    7.500000
 ---------------------------------------------------------------------
                    Distance matrix (angstroms):
                    1          2          3
     1  O    0.000000
     2  N    1.189740   0.000000
     3  H    1.831082   1.059880   0.000000
 Stoichiometry    HNO
 Framework group  CS[SG(HNO)]
 Deg. of freedom     3
 Full point group                 CS      NOp   2
 Largest Abelian subgroup         CS      NOp   2
 Largest concise Abelian subgroup C1      NOp   1
                         Standard orientation:                         
 ---------------------------------------------------------------------
 Center     Atomic      Atomic             Coordinates (Angstroms)
 Number     Number       Type             X           Y           Z
 ---------------------------------------------------------------------
      1          8           0        0.062697   -0.616252   -0.000000
      2          7           0        0.062697    0.573489    0.000000
      3          1           0       -0.940453    0.915594    0.000000
 ---------------------------------------------------------------------
 Rotational constants (GHZ):         564.5549899          43.6259528          40.4965819
 Standard basis: def2QZVPP (5D, 7F)
 There are   120 symmetry adapted cartesian basis functions of A'  symmetry.
 There are    59 symmetry adapted cartesian basis functions of A"  symmetry.
 There are    94 symmetry adapted basis functions of A'  symmetry.
 There are    50 symmetry adapted basis functions of A"  symmetry.
   144 basis functions,   222 primitive gaussians,   179 cartesian basis functions
     8 alpha electrons        8 beta electrons
       nuclear repulsion energy        30.7148317950 Hartrees.
 NAtoms=    3 NActive=    3 NUniq=    3 SFac= 1.00D+00 NAtFMM=   60 NAOKFM=F Big=F
 Integral buffers will be    131072 words long.
 Raffenetti 2 integral format.
 Two-electron integral symmetry is turned on.
 One-electron integrals computed using PRISM.
   2 Symmetry operations used in ECPInt.
 ECPInt:  NShTT=     990 NPrTT=    2640 LenC2=     991 LenP2D=    2425.
 LDataN:  DoStor=T MaxTD1= 8 Len=  415
 NBasis=   144 RedAO= T EigKep=  2.89D-04  NBF=    94    50
 NBsUse=   144 1.00D-06 EigRej= -1.00D+00 NBFU=    94    50
 Initial guess from the checkpoint file:  "/data/hutter/SMG16/PBE0/Gau-62964.chk"
 B after Tr=     0.000000    0.000000    0.000000
         Rot=    1.000000    0.000000    0.000000    0.000000 Ang=   0.00 deg.
 Initial guess orbital symmetries:
       Occupied  (A') (A') (A') (A') (A') (A") (A') (A')
       Virtual   (A") (A') (A') (A") (A') (A') (A') (A') (A") (A')
                 (A') (A") (A') (A') (A') (A") (A') (A") (A') (A')
                 (A") (A') (A") (A') (A') (A') (A") (A') (A') (A")
                 (A') (A') (A") (A") (A') (A') (A') (A") (A') (A')
                 (A") (A") (A') (A') (A") (A') (A') (A") (A') (A")
                 (A') (A') (A') (A") (A') (A') (A") (A") (A') (A')
                 (A") (A") (A') (A') (A') (A') (A") (A') (A') (A")
                 (A') (A') (A") (A") (A') (A") (A') (A') (A') (A")
                 (A') (A') (A") (A') (A") (A') (A') (A") (A') (A")
                 (A') (A") (A') (A") (A') (A') (A") (A") (A') (A')
                 (A") (A') (A') (A") (A') (A") (A') (A") (A') (A")
                 (A') (A') (A') (A") (A") (A') (A') (A') (A") (A")
                 (A') (A') (A") (A') (A") (A') (A') (A") (A') (A')
                 (A') (A') (A') (A') (A') (A')
 Keep R1 ints in memory in symmetry-blocked form, NReq=82050092.
 Requested convergence on RMS density matrix=1.00D-08 within 128 cycles.
 Requested convergence on MAX density matrix=1.00D-06.
 Requested convergence on             energy=1.00D-06.
 No special actions if energy rises.
 SCF Done:  E(RPBE1PBE) =  -130.393346103     A.U. after    1 cycles
            NFock=  1  Conv=0.58D-09     -V/T= 2.0036
 DoSCS=F DFT=T ScalE2(SS,OS)=  1.000000  1.000000
 Range of M.O.s used for correlation:     1   144
 NBasis=   144 NAE=     8 NBE=     8 NFC=     0 NFV=     0
 NROrb=    144 NOA=     8 NOB=     8 NVA=   136 NVB=   136

 **** Warning!!: The largest alpha MO coefficient is  0.13802303D+02

   2 Symmetry operations used in ECPInt.
 ECPInt:  NShTT=     990 NPrTT=    2640 LenC2=     991 LenP2D=    2425.
 LDataN:  DoStor=T MaxTD1= 9 Len=  602
 Symmetrizing basis deriv contribution to polar:
 IMax=3 JMax=2 DiffMx= 0.00D+00
 G2DrvN: will do     4 centers at a time, making    1 passes.
 Calling FoFCou, ICntrl=  3107 FMM=F I1Cent=   0 AccDes= 0.00D+00.
 End of G2Drv F.D. properties file   721 does not exist.
 End of G2Drv F.D. properties file   722 does not exist.
 End of G2Drv F.D. properties file   788 does not exist.
          IDoAtm=111
          Differentiating once with respect to electric field.
                with respect to dipole field.
          Differentiating once with respect to nuclear coordinates.
 Keep R1 ints in memory in symmetry-blocked form, NReq=82051871.
          There are    12 degrees of freedom in the 1st order CPHF.  IDoFFX=6 NUNeed=     3.
      9 vectors produced by pass  0 Test12= 9.07D-15 8.33D-09 XBig12= 1.27D+01 2.88D+00.
 AX will form     9 AO Fock derivatives at one time.
      9 vectors produced by pass  1 Test12= 9.07D-15 8.33D-09 XBig12= 7.40D+00 7.68D-01.
      9 vectors produced by pass  2 Test12= 9.07D-15 8.33D-09 XBig12= 1.39D-01 9.76D-02.
      9 vectors produced by pass  3 Test12= 9.07D-15 8.33D-09 XBig12= 9.34D-04 7.70D-03.
      9 vectors produced by pass  4 Test12= 9.07D-15 8.33D-09 XBig12= 4.04D-06 4.93D-04.
      9 vectors produced by pass  5 Test12= 9.07D-15 8.33D-09 XBig12= 8.42D-09 2.20D-05.
      5 vectors produced by pass  6 Test12= 9.07D-15 8.33D-09 XBig12= 1.46D-11 1.24D-06.
      1 vectors produced by pass  7 Test12= 9.07D-15 8.33D-09 XBig12= 3.35D-14 4.45D-08.
 InvSVY:  IOpt=1 It=  1 EMax= 8.88D-16
 Solved reduced A of dimension    60 with     9 vectors.
 Isotropic polarizability for W=    0.000000       13.25 Bohr**3.
 End of Minotr F.D. properties file   721 does not exist.
 End of Minotr F.D. properties file   722 does not exist.
 End of Minotr F.D. properties file   788 does not exist.

 **********************************************************************

            Population analysis using the SCF Density.

 **********************************************************************

 Orbital symmetries:
       Occupied  (A') (A') (A') (A') (A') (A") (A') (A')
       Virtual   (A") (A') (A') (A") (A') (A') (A') (A') (A") (A')
                 (A') (A") (A') (A') (A') (A") (A') (A") (A') (A')
                 (A") (A') (A") (A') (A') (A') (A") (A') (A') (A")
                 (A') (A') (A") (A") (A') (A') (A') (A") (A') (A')
                 (A") (A") (A') (A') (A") (A') (A') (A") (A') (A")
                 (A') (A') (A') (A") (A') (A') (A") (A") (A') (A')
                 (A") (A") (A') (A') (A') (A') (A") (A') (A') (A")
                 (A') (A') (A") (A") (A') (A") (A') (A') (A') (A")
                 (A') (A') (A") (A') (A") (A') (A') (A") (A') (A")
                 (A') (A") (A') (A") (A') (A') (A") (A") (A') (A')
                 (A") (A') (A') (A") (A') (A") (A') (A") (A') (A")
                 (A') (A') (A') (A") (A") (A') (A') (A') (A") (A")
                 (A') (A') (A") (A') (A") (A') (A') (A") (A') (A')
                 (A') (A') (A') (A') (A') (A')
 The electronic state is 1-A'.
 Alpha  occ. eigenvalues --  -19.29493 -14.51359  -1.22310  -0.75139  -0.56047
 Alpha  occ. eigenvalues --   -0.49011  -0.47945  -0.26062
 Alpha virt. eigenvalues --   -0.10262   0.02825   0.13782   0.19768   0.20637
 Alpha virt. eigenvalues --    0.25016   0.29127   0.32514   0.33021   0.39524
 Alpha virt. eigenvalues --    0.42705   0.48603   0.58372   0.68880   0.83204
 Alpha virt. eigenvalues --    0.84019   0.87419   0.89958   0.97639   1.03683
 Alpha virt. eigenvalues --    1.06490   1.08297   1.18983   1.21704   1.25965
 Alpha virt. eigenvalues --    1.31650   1.34727   1.35405   1.53851   1.56221
 Alpha virt. eigenvalues --    1.60537   1.88847   1.96476   2.07327   2.10888
 Alpha virt. eigenvalues --    2.27260   2.34953   2.39428   2.43618   2.45593
 Alpha virt. eigenvalues --    2.58087   2.66273   2.67019   2.77072   2.82032
 Alpha virt. eigenvalues --    2.83699   3.04977   3.06675   3.08993   3.15489
 Alpha virt. eigenvalues --    3.24502   3.34559   3.41992   3.50326   3.51747
 Alpha virt. eigenvalues --    3.64861   3.74695   3.84251   3.87743   3.92885
 Alpha virt. eigenvalues --    3.99247   4.07257   4.22959   4.34073   4.47428
 Alpha virt. eigenvalues --    4.59363   4.66056   4.76105   4.83157   5.21973
 Alpha virt. eigenvalues --    5.25951   5.78400   5.78618   6.08595   6.19208
 Alpha virt. eigenvalues --    6.58201   6.65968   6.70027   6.83285   7.03580
 Alpha virt. eigenvalues --    7.04744   7.21637   7.32122   7.36699   7.51396
 Alpha virt. eigenvalues --    7.62820   7.69176   7.79035   7.91569   7.98371
 Alpha virt. eigenvalues --    8.01684   8.02809   8.24472   8.41646   8.48320
 Alpha virt. eigenvalues --    8.56969   8.57750   8.66487   8.75254   8.84225
 Alpha virt. eigenvalues --    8.84228   8.86972   9.00834   9.06653   9.23394
 Alpha virt. eigenvalues --    9.28354   9.55164   9.61631   9.71773  10.14704
 Alpha virt. eigenvalues --   10.21318  10.34935  10.59120  10.80920  10.91230
 Alpha virt. eigenvalues --   10.92148  10.97627  11.03388  11.15707  11.22796
 Alpha virt. eigenvalues --   11.26373  11.40870  11.66548  11.86397  11.97698
 Alpha virt. eigenvalues --   11.98131  12.08828  13.43960  13.56002  13.82621
 Alpha virt. eigenvalues --   14.25551  15.41833  37.40728  47.93509 196.75878
 Alpha virt. eigenvalues --  253.07778
          Condensed to atoms (all electrons):
               1          2          3
     1  O    7.933900   0.237864  -0.071399
     2  N    0.237864   6.697744   0.078879
     3  H   -0.071399   0.078879   0.877668
 Mulliken charges:
               1
     1  O   -0.100365
     2  N   -0.014487
     3  H    0.114852
 Sum of Mulliken charges =  -0.00000
 Mulliken charges with hydrogens summed into heavy atoms:
               1
     1  O   -0.100365
     2  N    0.100365
 APT charges:
               1
     1  O   -0.293102
     2  N    0.251961
     3  H    0.041141
 Sum of APT charges =   0.00000
 APT charges with hydrogens summed into heavy atoms:
               1
     1  O   -0.293102
     2  N    0.293102
 Electronic spatial extent (au):  <R**2>=             50.3368
 Charge=             -0.0000 electrons
 Dipole moment (field-independent basis, Debye):
    X=             -1.4147    Y=              0.9014    Z=             -0.0000  Tot=              1.6775
 Quadrupole moment (field-independent basis, Debye-Ang):
   XX=            -11.0807   YY=            -11.8873   ZZ=            -10.5279
   XY=             -1.4418   XZ=              0.0000   YZ=              0.0000
 Traceless Quadrupole moment (field-independent basis, Debye-Ang):
   XX=              0.0846   YY=             -0.7220   ZZ=              0.6374
   XY=             -1.4418   XZ=              0.0000   YZ=              0.0000
 Octapole moment (field-independent basis, Debye-Ang**2):
  XXX=             -1.5549  YYY=             -1.3054  ZZZ=              0.0000  XYY=             -1.6084
  XXY=              0.1289  XXZ=             -0.0000  XZZ=             -0.1737  YZZ=             -0.5238
  YYZ=             -0.0000  XYZ=              0.0000
 Hexadecapole moment (field-independent basis, Debye-Ang**3):
 XXXX=            -13.2435 YYYY=            -36.1870 ZZZZ=             -8.2993 XXXY=              0.4861
 XXXZ=             -0.0000 YYYX=             -0.1874 YYYZ=              0.0000 ZZZX=             -0.0000
 ZZZY=              0.0000 XXYY=             -8.5808 XXZZ=             -3.7760 YYZZ=             -7.1427
 XXYZ=              0.0000 YYXZ=              0.0000 ZZXY=              0.3791
 N-N= 3.071483179499D+01 E-N=-3.685396111438D+02  KE= 1.299306716943D+02
 Symmetry A'   KE= 1.259732360319D+02
 Symmetry A"   KE= 3.957435662465D+00
  Exact polarizability:      13.403      -2.501      17.198       0.000      -0.000       9.142
 Approx polarizability:      16.092      -3.718      26.911       0.000      -0.000      12.061
   2 Symmetry operations used in ECPInt.
 ECPInt:  NShTT=     990 NPrTT=    2640 LenC2=     991 LenP2D=    2425.
 LDataN:  DoStor=T MaxTD1=10 Len=  848
 Calling FoFJK, ICntrl=    100127 FMM=F ISym2X=1 I1Cent= 0 IOpClX= 0 NMat=1 NMatS=1 NMatT=0.
 Full mass-weighted force constant matrix:
 Low frequencies ---  -13.2995  -10.5539   -0.0010   -0.0007    0.0012   23.0319
 Low frequencies --- 1576.4850 1724.4055 2906.7488
 Diagonal vibrational polarizability:
        0.4824192       0.8276988       0.0000000
 Harmonic frequencies (cm**-1), IR intensities (KM/Mole), Raman scattering
 activities (A**4/AMU), depolarization ratios for plane and unpolarized
 incident light, reduced masses (AMU), force constants (mDyne/A),
 and normal coordinates:
                      1                      2                      3
                     A'                     A'                     A'
 Frequencies --   1576.4849              1724.4055              2906.7488
 Red. masses --      1.2096                10.0556                 1.0767
 Frc consts  --      1.7713                17.6172                 5.3598
 IR Inten    --     12.5372                81.9716               135.7937
  Atom  AN      X      Y      Z        X      Y      Z        X      Y      Z
     1   8     0.06   0.01   0.00     0.03  -0.55   0.00     0.00   0.01  -0.00
     2   7    -0.08  -0.08   0.00    -0.05   0.59  -0.00    -0.07   0.00  -0.00
     3   1     0.21   0.97  -0.00     0.21   0.55  -0.00     0.95  -0.29   0.00

 -------------------
 - Thermochemistry -
 -------------------
 Temperature   298.150 Kelvin.  Pressure   1.00000 Atm.
 Atom     1 has atomic number  8 and mass  15.99491
 Atom     2 has atomic number  7 and mass  14.00307
 Atom     3 has atomic number  1 and mass   1.00783
 Molecular mass:    31.00581 amu.
 Principal axes and moments of inertia in atomic units:
                           1         2         3
     Eigenvalues --     3.19675  41.36852  44.56527
           X           -0.08972   0.99597  -0.00000
           Y            0.99597   0.08972   0.00000
           Z           -0.00000   0.00000   1.00000
 This molecule is an asymmetric top.
 Rotational symmetry number  1.
 Rotational temperatures (Kelvin)     27.09437     2.09372     1.94353
 Rotational constants (GHZ):         564.55499    43.62595    40.49658
 Zero-point vibrational energy      37129.9 (Joules/Mol)
                                    8.87427 (Kcal/Mol)
 Vibrational temperatures:   2268.21  2481.03  4182.16
          (Kelvin)
 
 Zero-point correction=                           0.014142 (Hartree/Particle)
 Thermal correction to Energy=                    0.016980
 Thermal correction to Enthalpy=                  0.017924
 Thermal correction to Gibbs Free Energy=        -0.007101
 Sum of electronic and zero-point Energies=           -130.379204
 Sum of electronic and thermal Energies=              -130.376366
 Sum of electronic and thermal Enthalpies=            -130.375422
 Sum of electronic and thermal Free Energies=         -130.400447
 
                     E (Thermal)             CV                S
                      KCal/Mol        Cal/Mol-Kelvin    Cal/Mol-Kelvin
 Total                   10.655              6.053             52.669
 Electronic               0.000              0.000              0.000
 Translational            0.889              2.981             36.227
 Rotational               0.889              2.981             16.429
 Vibrational              8.878              0.091              0.013
                       Q            Log10(Q)             Ln(Q)
 Total Bot       0.184540D+04          3.266091          7.520453
 Total V=0       0.590165D+10          9.770974         22.498498
 Vib (Bot)       0.312924D-06         -6.504561        -14.977304
 Vib (V=0)       0.100074D+01          0.000322          0.000741
 Electronic      0.100000D+01          0.000000          0.000000
 Translational   0.678607D+07          6.831619         15.730383
 Rotational      0.869027D+03          2.939033          6.767374
 ***** Axes restored to original set *****
 -------------------------------------------------------------------
 Center     Atomic                   Forces (Hartrees/Bohr)
 Number     Number              X              Y              Z
 -------------------------------------------------------------------
      1        8          -0.000104557   -0.000013416   -0.000000000
      2        7           0.000126795   -0.000025933    0.000000000
      3        1          -0.000022238    0.000039350    0.000000000
 -------------------------------------------------------------------
 Cartesian Forces:  Max     0.000126795 RMS     0.000057643
 FormGI is forming the generalized inverse of G from B-inverse, IUseBI=4.

 GradGradGradGradGradGradGradGradGradGradGradGradGradGradGradGradGradGrad
 Berny optimization.
 Internal  Forces:  Max     0.000105297 RMS     0.000066301
 Search for a local minimum.
 Step number   1 out of a maximum of    2
 All quantities printed in internal units (Hartrees-Bohrs-Radians)
 Second derivative matrix not updated -- analytic derivatives used.
 The second derivative matrix:
                          R1        R2        A1
           R1           0.87973
           R2           0.06780   0.30068
           A1           0.09881  -0.00363   0.32546
 ITU=  0
     Eigenvalues ---    0.28410   0.31769   0.90408
 Angle between quadratic step and forces=  31.21 degrees.
 Linear search not attempted -- first point.
 Iteration  1 RMS(Cart)=  0.00010178 RMS(Int)=  0.00000000
 Iteration  2 RMS(Cart)=  0.00000000 RMS(Int)=  0.00000000
 ClnCor:  largest displacement from symmetrization is 1.78D-15 for atom     3.
 Variable       Old X    -DE/DX   Delta X   Delta X   Delta X     New X
                                 (Linear)    (Quad)   (Total)
    R1        2.24828   0.00011   0.00000   0.00014   0.00014   2.24843
    R2        2.00288  -0.00004   0.00000  -0.00018  -0.00018   2.00270
    A1        1.89946  -0.00001   0.00000  -0.00007  -0.00007   1.89939
         Item               Value     Threshold  Converged?
 Maximum Force            0.000105     0.000450     YES
 RMS     Force            0.000066     0.000300     YES
 Maximum Displacement     0.000115     0.001800     YES
 RMS     Displacement     0.000102     0.001200     YES
 Predicted change in Energy=-1.189307D-08
 Optimization completed.
    -- Stationary point found.
                           ----------------------------
                           !   Optimized Parameters   !
                           ! (Angstroms and Degrees)  !
 --------------------------                            --------------------------
 ! Name  Definition              Value          Derivative Info.                !
 --------------------------------------------------------------------------------
 ! R1    R(1,2)                  1.1897         -DE/DX =    0.0001              !
 ! R2    R(2,3)                  1.0599         -DE/DX =    0.0                 !
 ! A1    A(1,2,3)              108.831          -DE/DX =    0.0                 !
 --------------------------------------------------------------------------------
 GradGradGradGradGradGradGradGradGradGradGradGradGradGradGradGradGradGrad


 ----------------------------------------------------------------------

 Electric dipole moment (input orientation):
 (Debye = 10**-18 statcoulomb cm , SI units = C m)
                  (au)            (Debye)         (10**-30 SI)
   Tot        0.659974D+00      0.167749D+01      0.559550D+01
   x          0.402660D+00      0.102346D+01      0.341390D+01
   y         -0.522906D+00     -0.132909D+01     -0.443338D+01
   z          0.000000D+00      0.000000D+00      0.000000D+00

 Dipole polarizability, Alpha (input orientation).
 (esu units = cm**3 , SI units = C**2 m**2 J**-1)
 Alpha(0;0):
               (au)            (10**-24 esu)      (10**-40 SI)
   iso        0.132476D+02      0.196309D+01      0.218424D+01
   aniso      0.821445D+01      0.121726D+01      0.135438D+01
   xx         0.176102D+02      0.260956D+01      0.290352D+01
   yx        -0.212537D+01     -0.314948D+00     -0.350426D+00
   yy         0.129902D+02      0.192495D+01      0.214179D+01
   zx         0.000000D+00      0.000000D+00      0.000000D+00
   zy         0.000000D+00      0.000000D+00      0.000000D+00
   zz         0.914246D+01      0.135477D+01      0.150739D+01

 ----------------------------------------------------------------------

 Dipole orientation:
     8          6.49201171         22.88720659         -4.08549844
     7          7.99434289         24.04406732         -2.87742050
     1          7.61927344         23.75524743         -0.93128465

 Electric dipole moment (dipole orientation):
 (Debye = 10**-18 statcoulomb cm , SI units = C m)
                  (au)            (Debye)         (10**-30 SI)
   Tot        0.659974D+00      0.167749D+01      0.559550D+01
   x          0.000000D+00      0.000000D+00      0.000000D+00
   y          0.000000D+00      0.000000D+00      0.000000D+00
   z          0.659974D+00      0.167749D+01      0.559550D+01

 Dipole polarizability, Alpha (dipole orientation).
 (esu units = cm**3 , SI units = C**2 m**2 J**-1)
 Alpha(0;0):
               (au)            (10**-24 esu)      (10**-40 SI)
   iso        0.132476D+02      0.196309D+01      0.218424D+01
   aniso      0.821445D+01      0.121726D+01      0.135438D+01
   xx         0.120886D+02      0.179135D+01      0.199315D+01
   yx         0.226868D+01      0.336183D+00      0.374054D+00
   yy         0.108894D+02      0.161365D+01      0.179543D+01
   zx         0.219976D+01      0.325971D+00      0.362691D+00
   zy         0.169391D+01      0.251012D+00      0.279288D+00
   zz         0.167648D+02      0.248428D+01      0.276413D+01

 ----------------------------------------------------------------------
 Unable to Open any file for archive entry.
 1\1\GINC-TCOPT10\Freq\RPBE1PBE\def2QZVPP\H1N1O1\HUTTER\01-Aug-2021\0\\
 #N Geom=AllCheck Guess=TCheck SCRF=Check GenChk RPBE1PBE/def2QZVPP Fre
 q\\Mol job 1\\0,1\O,6.6922493272,7.8819860239,7.5\N,7.8772877617,7.987
 6549694,7.5\H,8.3071373111,7.0188543567,7.5\\Version=ES64L-G16RevC.01\
 State=1-A'\HF=-130.3933461\RMSD=5.834e-10\RMSF=5.764e-05\ZeroPoint=0.0
 14142\Thermal=0.0169801\ETot=-130.376366\HTot=-130.3754218\GTot=-130.4
 004468\Dipole=0.4026604,-0.5229059,0.\DipoleDeriv=-0.6730492,0.2678199
 ,0.,-0.1318893,-0.132951,0.,0.,0.,-0.0733062,0.6022273,-0.4028507,0.,-
 0.1540671,0.3739625,0.,0.,0.,-0.2203072,0.070822,0.1350308,0.,0.285956
 3,-0.2410114,0.,0.,0.,0.2936134\Polar=17.6101652,-2.1253717,12.9901921
 ,0.,0.,9.1424599\Quadrupole=-0.3423663,-0.131507,0.4738732,-1.108088,0
 .,0.\PG=CS [SG(H1N1O1)]\NImag=0\\0.88107172,0.02887941,0.06299588,0.,0
 .,-0.00005088,-0.80295651,-0.08758541,0.,0.84075657,-0.06794515,-0.097
 39292,0.,0.04648656,0.39770044,0.,0.,0.00005236,0.,0.,-0.00003465,-0.0
 7811522,0.05870600,0.,-0.03780006,0.02145860,0.,0.11591528,0.03906574,
 0.03439704,0.,0.04109885,-0.30030752,0.,-0.08016459,0.26591047,0.,0.,-
 0.00000148,0.,0.,-0.00001771,0.,0.,0.00001919\\0.00010456,0.00001342,0
 .,-0.00012679,0.00002593,0.,0.00002224,-0.00003935,0.\\\@
 The archive entry for this job was punched.


 THE BEST WAY TO CONVINCE A FOOL THAT HE IS WRONG 
 IS TO LET HIM HAVE HIS OWN WAY.

                                         JOSH BILLINGS
 Job cpu time:       0 days  0 hours  8 minutes 55.6 seconds.
 Elapsed time:       0 days  0 hours  1 minutes 30.7 seconds.
 File lengths (MBytes):  RWF=     15 Int=      0 D2E=      0 Chk=      3 Scr=      1
 Normal termination of Gaussian 16 at Sun Aug  1 11:57:31 2021.
