 Entering Gaussian System, Link 0=g16
 Initial command:
 /sw-ng/spack/opt/spack/linux-opensuse_leap15-sandybridge/pgi-18.10/gaussian-src-16-C.01-zldqaomctopxhethwccpmxmwefdscg3m/g16/l1.exe "/data/hutter/SMG16/PBE0/Gau-55111.inp" -scrdir="/data/hutter/SMG16/PBE0/"
 Entering Link 1 = /sw-ng/spack/opt/spack/linux-opensuse_leap15-sandybridge/pgi-18.10/gaussian-src-16-C.01-zldqaomctopxhethwccpmxmwefdscg3m/g16/l1.exe PID=     55115.
  
 Copyright (c) 1988-2019, Gaussian, Inc.  All Rights Reserved.
  
 This is part of the Gaussian(R) 16 program.  It is based on
 the Gaussian(R) 09 system (copyright 2009, Gaussian, Inc.),
 the Gaussian(R) 03 system (copyright 2003, Gaussian, Inc.),
 the Gaussian(R) 98 system (copyright 1998, Gaussian, Inc.),
 the Gaussian(R) 94 system (copyright 1995, Gaussian, Inc.),
 the Gaussian 92(TM) system (copyright 1992, Gaussian, Inc.),
 the Gaussian 90(TM) system (copyright 1990, Gaussian, Inc.),
 the Gaussian 88(TM) system (copyright 1988, Gaussian, Inc.),
 the Gaussian 86(TM) system (copyright 1986, Carnegie Mellon
 University), and the Gaussian 82(TM) system (copyright 1983,
 Carnegie Mellon University). Gaussian is a federally registered
 trademark of Gaussian, Inc.
  
 This software contains proprietary and confidential information,
 including trade secrets, belonging to Gaussian, Inc.
  
 This software is provided under written license and may be
 used, copied, transmitted, or stored only in accord with that
 written license.
  
 The following legend is applicable only to US Government
 contracts under FAR:
  
                    RESTRICTED RIGHTS LEGEND
  
 Use, reproduction and disclosure by the US Government is
 subject to restrictions as set forth in subparagraphs (a)
 and (c) of the Commercial Computer Software - Restricted
 Rights clause in FAR 52.227-19.
  
 Gaussian, Inc.
 340 Quinnipiac St., Bldg. 40, Wallingford CT 06492
  
  
 ---------------------------------------------------------------
 Warning -- This program may not be used in any manner that
 competes with the business of Gaussian, Inc. or will provide
 assistance to any competitor of Gaussian, Inc.  The licensee
 of this program is prohibited from giving any competitor of
 Gaussian, Inc. access to this program.  By using this program,
 the user acknowledges that Gaussian, Inc. is engaged in the
 business of creating and licensing software in the field of
 computational chemistry and represents and warrants to the
 licensee that it is not a competitor of Gaussian, Inc. and that
 it will not use this program in any manner prohibited above.
 ---------------------------------------------------------------
  

 Cite this work as:
 Gaussian 16, Revision C.01,
 M. J. Frisch, G. W. Trucks, H. B. Schlegel, G. E. Scuseria, 
 M. A. Robb, J. R. Cheeseman, G. Scalmani, V. Barone, 
 G. A. Petersson, H. Nakatsuji, X. Li, M. Caricato, A. V. Marenich, 
 J. Bloino, B. G. Janesko, R. Gomperts, B. Mennucci, H. P. Hratchian, 
 J. V. Ortiz, A. F. Izmaylov, J. L. Sonnenberg, D. Williams-Young, 
 F. Ding, F. Lipparini, F. Egidi, J. Goings, B. Peng, A. Petrone, 
 T. Henderson, D. Ranasinghe, V. G. Zakrzewski, J. Gao, N. Rega, 
 G. Zheng, W. Liang, M. Hada, M. Ehara, K. Toyota, R. Fukuda, 
 J. Hasegawa, M. Ishida, T. Nakajima, Y. Honda, O. Kitao, H. Nakai, 
 T. Vreven, K. Throssell, J. A. Montgomery, Jr., J. E. Peralta, 
 F. Ogliaro, M. J. Bearpark, J. J. Heyd, E. N. Brothers, K. N. Kudin, 
 V. N. Staroverov, T. A. Keith, R. Kobayashi, J. Normand, 
 K. Raghavachari, A. P. Rendell, J. C. Burant, S. S. Iyengar, 
 J. Tomasi, M. Cossi, J. M. Millam, M. Klene, C. Adamo, R. Cammi, 
 J. W. Ochterski, R. L. Martin, K. Morokuma, O. Farkas, 
 J. B. Foresman, and D. J. Fox, Gaussian, Inc., Wallingford CT, 2019.
 
 ******************************************
 Gaussian 16:  ES64L-G16RevC.01  3-Jul-2019
                 1-Aug-2021 
 ******************************************
 %mem=8GB
 %NProcShare=8
 Will use up to    8 processors via shared memory.
 ------------------------------------------------------------
 #N UPBE1PBE/Def2QZVPP scf=tight Int(Grid=ultrafine) OPT FREQ
 ------------------------------------------------------------
 1/18=20,19=15,26=4,38=1/1,3;
 2/9=110,12=2,17=6,18=5,40=1/2;
 3/5=45,7=202,11=2,25=1,30=1,71=1,74=-13,75=-5,116=2/1,2,3;
 4//1;
 5/5=2,32=2,38=5/2;
 6/7=2,8=2,9=2,10=2,28=1/1;
 7//1,2,3,16;
 1/18=20,19=15,26=4/3(2);
 2/9=110/2;
 99//99;
 2/9=110/2;
 3/5=45,7=202,11=2,25=1,30=1,71=1,74=-13,75=-5,116=2/1,2,3;
 4/5=5,16=3,69=1/1;
 5/5=2,32=2,38=5/2;
 7//1,2,3,16;
 1/18=20,19=15,26=4/3(-5);
 2/9=110/2;
 6/7=2,8=2,9=2,10=2,19=2,28=1/1;
 99/9=1/99;
 ---------
 Mol job 1
 ---------
 Symbolic Z-matrix:
 Charge =  0 Multiplicity = 2
 Hf                    8.98141   8.5       8.5 
 F                     9.94423   6.83234   8.5 
 F                     9.94423   10.16766   8.5 
 F                     7.05577   8.5       8.5 
 

 GradGradGradGradGradGradGradGradGradGradGradGradGradGradGradGradGradGrad
 Berny optimization.
 Initialization pass.
                           ----------------------------
                           !    Initial Parameters    !
                           ! (Angstroms and Degrees)  !
 --------------------------                            --------------------------
 ! Name  Definition              Value          Derivative Info.                !
 --------------------------------------------------------------------------------
 ! R1    R(1,2)                  1.9256         estimate D2E/DX2                !
 ! R2    R(1,3)                  1.9256         estimate D2E/DX2                !
 ! R3    R(1,4)                  1.9256         estimate D2E/DX2                !
 ! A1    A(2,1,3)              120.0            estimate D2E/DX2                !
 ! A2    A(2,1,4)              120.0            estimate D2E/DX2                !
 ! A3    A(3,1,4)              120.0            estimate D2E/DX2                !
 ! D1    D(2,1,4,3)            180.0            estimate D2E/DX2                !
 --------------------------------------------------------------------------------
 Trust Radius=3.00D-01 FncErr=1.00D-07 GrdErr=1.00D-06 EigMax=2.50D+02 EigMin=1.00D-04
 Number of steps in this run=     20 maximum allowed number of steps=    100.
 GradGradGradGradGradGradGradGradGradGradGradGradGradGradGradGradGradGrad

                          Input orientation:                          
 ---------------------------------------------------------------------
 Center     Atomic      Atomic             Coordinates (Angstroms)
 Number     Number       Type             X           Y           Z
 ---------------------------------------------------------------------
      1         72           0        8.981411    8.500000    8.500000
      2          9           0        9.944234    6.832342    8.500000
      3          9           0        9.944234   10.167658    8.500000
      4          9           0        7.055766    8.500000    8.500000
 ---------------------------------------------------------------------
                    Distance matrix (angstroms):
                    1          2          3          4
     1  Hf   0.000000
     2  F    1.925645   0.000000
     3  F    1.925645   3.335316   0.000000
     4  F    1.925645   3.335316   3.335316   0.000000
 Stoichiometry    F3Hf(2)
 Framework group  D3H[O(Hf),3C2(F)]
 Deg. of freedom     1
 Full point group                 D3H     NOp  12
 Largest Abelian subgroup         C2V     NOp   4
 Largest concise Abelian subgroup C2      NOp   2
                         Standard orientation:                         
 ---------------------------------------------------------------------
 Center     Atomic      Atomic             Coordinates (Angstroms)
 Number     Number       Type             X           Y           Z
 ---------------------------------------------------------------------
      1         72           0        0.000000    0.000000    0.000000
      2          9           0        0.000000    1.925645    0.000000
      3          9           0       -1.667658   -0.962823    0.000000
      4          9           0        1.667658   -0.962823    0.000000
 ---------------------------------------------------------------------
 Rotational constants (GHZ):           4.7825140           4.7825140           2.3912570
 Standard basis: def2QZVPP (5D, 7F)
 There are   125 symmetry adapted cartesian basis functions of A1  symmetry.
 There are    45 symmetry adapted cartesian basis functions of A2  symmetry.
 There are    88 symmetry adapted cartesian basis functions of B1  symmetry.
 There are    64 symmetry adapted cartesian basis functions of B2  symmetry.
 There are    93 symmetry adapted basis functions of A1  symmetry.
 There are    38 symmetry adapted basis functions of A2  symmetry.
 There are    69 symmetry adapted basis functions of B1  symmetry.
 There are    52 symmetry adapted basis functions of B2  symmetry.
   252 basis functions,   406 primitive gaussians,   322 cartesian basis functions
    20 alpha electrons       19 beta electrons
       nuclear repulsion energy       127.5909546084 Hartrees.
 NAtoms=    4 NActive=    4 NUniq=    2 SFac= 4.00D+00 NAtFMM=   60 NAOKFM=F Big=F
 Integral buffers will be    131072 words long.
 Raffenetti 2 integral format.
 Two-electron integral symmetry is turned on.
 One-electron integrals computed using PRISM.
  12 Symmetry operations used in ECPInt.
 ECPInt:  NShTT=    2628 NPrTT=    6918 LenC2=    2464 LenP2D=    5292.
 LDataN:  DoStor=T MaxTD1= 9 Len=  602
 NBasis=   252 RedAO= T EigKep=  8.67D-04  NBF=    93    38    69    52
 NBsUse=   252 1.00D-06 EigRej= -1.00D+00 NBFU=    93    38    69    52
 Defaulting to unpruned grid for atomic number  72.
 ExpMin= 2.87D-02 ExpMax= 1.33D+05 ExpMxC= 1.27D+03 IAcc=3 IRadAn=         5 AccDes= 0.00D+00
 Harris functional with IExCor= 1009 and IRadAn=       5 diagonalized for initial guess.
 HarFok:  IExCor= 1009 AccDes= 0.00D+00 IRadAn=         5 IDoV= 1 UseB2=F ITyADJ=14
 ICtDFT=  3500011 ScaDFX=  1.000000  1.000000  1.000000  1.000000
 Defaulting to unpruned grid for atomic number  72.
 FoFCou: FMM=F IPFlag=           0 FMFlag=      100000 FMFlg1=           0
         NFxFlg=           0 DoJE=T BraDBF=F KetDBF=T FulRan=T
         wScrn=  0.000000 ICntrl=       500 IOpCl=  0 I1Cent=   200000004 NGrid=           0
         NMat0=    1 NMatS0=      1 NMatT0=    0 NMatD0=    1 NMtDS0=    0 NMtDT0=    0
 Petite list used in FoFCou.
 Initial guess orbital symmetries:
 Alpha Orbitals:
       Occupied  (E') (E') (A1') (A1') (E') (E') (A1') (A2") (E')
                 (E') (A1') (E') (E') (E") (E") (A2") (A2') (E')
                 (E') (A1')
       Virtual   (E") (E") (A2") (E') (E') (A1') (E') (E') (A1')
                 (E") (E") (E') (E') (A1') (A2") (E') (E') (A1')
                 (E') (E') (E") (E") (A2') (A2") (A1') (E') (E')
                 (A2") (E") (E") (E') (E') (A1') (A2') (A1") (E')
                 (E') (A1') (E") (E") (E') (E') (E') (E') (A2")
                 (E") (E") (A1') (A2") (E') (E') (E") (E") (A2")
                 (A2') (A1') (E') (E') (A1') (E') (E') (E") (E")
                 (A1') (E') (E') (A2') (A1') (E') (E') (A2") (E")
                 (E") (A1") (E') (E') (E") (E") (A2") (E') (E')
                 (A2') (A1") (A1') (E') (E') (A1') (E") (E") (A2")
                 (E') (E') (E') (E') (A1') (E') (E') (E") (E")
                 (A2") (A1') (A2') (E") (E") (E') (E') (A1') (E')
                 (E') (A2') (E") (E") (A1') (A2") (E') (E') (E")
                 (E") (E') (E') (A1") (A1') (A2') (E") (E") (A2")
                 (E') (E') (A1') (E') (E') (E") (E") (A1') (E')
                 (E') (A1") (E") (E") (A2") (E') (E') (A2') (A1')
                 (E') (E') (A2") (E") (E") (A2') (E') (E') (A1')
                 (E') (E') (E") (E") (A2') (E") (E") (E') (E')
                 (A2") (E') (E') (A2') (A1") (A1') (E') (E') (E")
                 (E") (A1') (A1") (E") (E") (A2") (E') (E') (A1')
                 (E') (E') (A2') (E") (E") (E') (E') (A2") (E")
                 (E") (E') (E') (A1') (A1") (E") (E") (E') (E')
                 (A2') (A1') (A2") (E') (E') (A1') (E') (E') (E")
                 (E") (A1') (E') (E') (A1") (E") (E") (A2") (A2')
                 (E') (E') (A1') (E') (E') (A2") (E') (E') (A1')
                 (E') (E') (A1') (A1') (E') (E') (A1')
 Beta  Orbitals:
       Occupied  (E') (E') (A1') (A1') (E') (E') (A1') (A2") (E')
                 (E') (A1') (E') (E') (E") (E") (A2") (A2') (E')
                 (E')
       Virtual   (A1') (E") (E") (A2") (E') (E') (A1') (E') (E')
                 (A1') (E") (E") (E') (E') (A1') (A2") (E') (E')
                 (A1') (E') (E') (E") (E") (A2') (A2") (A1') (E')
                 (E') (A2") (E") (E") (E') (E') (A1') (A2') (A1")
                 (E') (E') (A1') (E") (E") (E') (E') (E') (E')
                 (A2") (E") (E") (A1') (A2") (E') (E') (E") (E")
                 (A2") (A2') (A1') (E') (E') (A1') (E') (E') (E")
                 (E") (A1') (E') (E') (A2') (A1') (E') (E') (A2")
                 (E") (E") (A1") (E') (E') (E") (E") (A2") (E')
                 (E') (A2') (A1") (A1') (E') (E') (A1') (E") (E")
                 (A2") (E') (E') (E') (E') (A1') (E') (E') (E")
                 (E") (A2") (A1') (A2') (E") (E") (E') (E') (A1')
                 (E') (E') (A2') (E") (E") (A1') (A2") (E') (E')
                 (E") (E") (E') (E') (A1") (A1') (A2') (E") (E")
                 (A2") (E') (E') (A1') (E') (E') (E") (E") (A1')
                 (E') (E') (A1") (E") (E") (A2") (E') (E') (A2')
                 (A1') (E') (E') (A2") (E") (E") (A2') (E') (E')
                 (A1') (E') (E') (E") (E") (A2') (E") (E") (E')
                 (E') (A2") (E') (E') (A2') (A1") (A1') (E') (E')
                 (E") (E") (A1') (A1") (E") (E") (A2") (E') (E')
                 (A1') (E') (E') (A2') (E") (E") (E') (E') (A2")
                 (E") (E") (E') (E') (A1') (A1") (E") (E") (E')
                 (E') (A2') (A1') (A2") (E') (E') (A1') (E') (E')
                 (E") (E") (A1') (E') (E') (A1") (E") (E") (A2")
                 (A2') (E') (E') (A1') (E') (E') (A2") (E') (E')
                 (A1') (E') (E') (A1') (A1') (E') (E') (A1')
 The electronic state of the initial guess is 2-A1'.
 Initial guess <Sx>= 0.0000 <Sy>= 0.0000 <Sz>= 0.5000 <S**2>= 0.7500 S= 0.5000
 Keep R1 and R2 ints in memory in symmetry-blocked form, NReq=636253166.
 Requested convergence on RMS density matrix=1.00D-08 within 128 cycles.
 Requested convergence on MAX density matrix=1.00D-06.
 Requested convergence on             energy=1.00D-06.
 No special actions if energy rises.
 Defaulting to unpruned grid for atomic number  72.
 Defaulting to unpruned grid for atomic number  72.
 Defaulting to unpruned grid for atomic number  72.
 Defaulting to unpruned grid for atomic number  72.
 Defaulting to unpruned grid for atomic number  72.
 Defaulting to unpruned grid for atomic number  72.
 Defaulting to unpruned grid for atomic number  72.
 Defaulting to unpruned grid for atomic number  72.
 SCF Done:  E(UPBE1PBE) =  -347.630859023     A.U. after   10 cycles
            NFock= 10  Conv=0.10D-07     -V/T= 2.1033
 <Sx>= 0.0000 <Sy>= 0.0000 <Sz>= 0.5000 <S**2>= 0.7515 S= 0.5008
 <L.S>=  0.00000000000    
 Annihilation of the first spin contaminant:
 S**2 before annihilation     0.7515,   after     0.7500

 **********************************************************************

            Population analysis using the SCF Density.

 **********************************************************************

 Orbital symmetries:
 Alpha Orbitals:
       Occupied  (E') (E') (A1') (A1') (E') (E') (A2") (A1') (E')
                 (E') (A1') (E') (E') (E") (E") (A2") (A2') (E')
                 (E') (A1')
       Virtual   (E") (E") (A2") (A1') (E') (E') (E') (E') (A1')
                 (E") (E") (A2") (A1') (E') (E') (E') (E') (E')
                 (E') (A1') (E") (E") (A2") (A2') (A1') (A2") (E')
                 (E') (E") (E") (E') (E') (A1') (A2') (A1") (A1')
                 (E") (E") (E') (E') (E') (E') (A2") (E') (E')
                 (E") (E") (A1') (A2") (E') (E') (A2") (E") (E")
                 (A2') (A1') (E') (E') (A1') (E') (E') (E") (E")
                 (E') (E') (A1') (A1') (A2') (E') (E') (A2") (A1")
                 (E") (E") (E') (E') (E") (E") (A2") (E') (E')
                 (A1") (A2') (A1') (E') (E') (A1') (E") (E") (A2")
                 (E') (E') (E') (E') (A1') (E') (E') (E") (E")
                 (A2") (A1') (A2') (E") (E") (E') (E') (A1') (E')
                 (E') (A2') (A1') (E") (E") (E') (E') (A2") (E")
                 (E") (E') (E') (A1") (A1') (A2') (E") (E") (A2")
                 (E') (E') (A1') (E') (E') (E") (E") (A1') (E')
                 (E') (A1") (E") (E") (A2") (E') (E') (A2') (A1')
                 (E') (E') (A2") (E") (E") (A2') (E') (E') (A1')
                 (E') (E') (E") (E") (A2') (E') (E') (E") (E")
                 (A2') (E') (E') (A2") (A1') (A1") (E') (E') (E")
                 (E") (A1') (A1") (E") (E") (A2") (E') (E') (A1')
                 (E') (E') (A2') (E") (E") (E') (E') (A2") (E")
                 (E") (E') (E') (A1') (A1") (E") (E") (E') (E')
                 (A2') (A1') (A2") (E') (E') (A1') (E') (E') (E")
                 (E") (A1') (E') (E') (A1") (E") (E") (A2") (A2')
                 (E') (E') (A1') (E') (E') (A2") (E') (E') (A1')
                 (E') (E') (A1') (A1') (E') (E') (A1')
 Beta  Orbitals:
       Occupied  (E') (E') (A1') (A1') (E') (E') (A2") (A1') (E')
                 (E') (A1') (E') (E') (E") (E") (A2") (A2') (E')
                 (E')
       Virtual   (A1') (E") (E") (A2") (A1') (E') (E') (E') (E')
                 (A1') (E") (E") (E') (E') (A1') (A2") (E') (E')
                 (A1') (E') (E') (E") (E") (A2") (A2') (A1') (E')
                 (E') (A2") (E") (E") (E') (E') (A1') (A2') (A1")
                 (E') (E') (E") (E") (A1') (E') (E') (A2") (E')
                 (E') (E") (E") (A1') (A2") (E') (E') (E") (E")
                 (A2") (A2') (A1') (E') (E') (A1') (E') (E') (E")
                 (E") (E') (E') (A1') (A1') (A2') (E') (E') (A2")
                 (A1") (E") (E") (E') (E') (E") (E") (A2") (E')
                 (E') (A1") (A2') (A1') (E') (E') (A1') (E") (E")
                 (A2") (E') (E') (E') (E') (A1') (E') (E') (E")
                 (E") (A2") (A1') (A2') (E") (E") (E') (E') (A1')
                 (E') (E') (A2') (A1') (E") (E") (E') (E') (A2")
                 (E") (E") (E') (E') (A1") (A1') (A2') (E") (E")
                 (A2") (E') (E') (A1') (E') (E') (E") (E") (A1')
                 (E') (E') (A1") (E") (E") (A2") (E') (E') (A2')
                 (A1') (E') (E') (A2") (E") (E") (A2') (E') (E')
                 (A1') (E') (E') (E") (E") (A2') (E') (E') (E")
                 (E") (E') (E') (A2") (A2') (A1') (A1") (E') (E')
                 (E") (E") (A1') (A1") (E") (E") (A2") (E') (E')
                 (A1') (E') (E') (A2') (E") (E") (E') (E') (A2")
                 (E") (E") (E') (E') (A1') (A1") (E") (E") (E')
                 (E') (A2') (A1') (A2") (E') (E') (A1') (E') (E')
                 (E") (E") (A1') (E') (E') (A1") (E") (E") (A2")
                 (A2') (E') (E') (A1') (E') (E') (A2") (E') (E')
                 (A1') (E') (E') (A1') (A1') (E') (E') (A1')
 The electronic state is 2-A1'.
 Alpha  occ. eigenvalues --  -24.75858 -24.75858 -24.75858  -2.55671  -1.41453
 Alpha  occ. eigenvalues --   -1.41453  -1.39130  -1.19099  -1.15534  -1.15534
 Alpha  occ. eigenvalues --   -0.48477  -0.47749  -0.47749  -0.45214  -0.45214
 Alpha  occ. eigenvalues --   -0.43844  -0.43680  -0.43452  -0.43452  -0.22669
 Alpha virt. eigenvalues --   -0.05398  -0.05398  -0.02608  -0.00368   0.00962
 Alpha virt. eigenvalues --    0.00962   0.05569   0.05569   0.09593   0.15265
 Alpha virt. eigenvalues --    0.15265   0.15386   0.15930   0.17977   0.17977
 Alpha virt. eigenvalues --    0.24688   0.24688   0.32920   0.32920   0.32930
 Alpha virt. eigenvalues --    0.35876   0.35876   0.36746   0.39488   0.39613
 Alpha virt. eigenvalues --    0.48352   0.48591   0.48591   0.50830   0.50830
 Alpha virt. eigenvalues --    0.54887   0.54887   0.55908   0.60533   0.69466
 Alpha virt. eigenvalues --    0.71867   0.73430   0.73430   0.74381   0.74381
 Alpha virt. eigenvalues --    0.81481   0.81481   0.83869   0.86600   0.86600
 Alpha virt. eigenvalues --    0.87938   0.87938   0.90900   0.91504   0.94198
 Alpha virt. eigenvalues --    0.94198   0.98755   0.99093   0.99093   1.05377
 Alpha virt. eigenvalues --    1.12606   1.15109   1.15109   1.27284   1.35948
 Alpha virt. eigenvalues --    1.35948   1.49089   1.49089   1.58949   1.58949
 Alpha virt. eigenvalues --    1.59262   1.71413   1.72169   1.73626   1.73626
 Alpha virt. eigenvalues --    1.74208   1.75550   1.77026   1.77026   1.80653
 Alpha virt. eigenvalues --    1.80653   1.88252   1.88252   1.89438   2.00057
 Alpha virt. eigenvalues --    2.00057   2.09361   2.14359   2.15139   2.21498
 Alpha virt. eigenvalues --    2.21498   2.24212   2.29735   2.29735   2.36156
 Alpha virt. eigenvalues --    2.43773   2.43773   2.61301   2.61301   2.68427
 Alpha virt. eigenvalues --    2.79836   2.79836   2.81418   2.81418   2.84403
 Alpha virt. eigenvalues --    2.96941   3.05399   3.12460   3.12460   3.57575
 Alpha virt. eigenvalues --    3.57575   3.62391   4.08633   4.08633   4.14782
 Alpha virt. eigenvalues --    4.15264   4.15657   4.15657   4.19442   4.19442
 Alpha virt. eigenvalues --    4.19497   4.21356   4.21356   4.25131   4.25131
 Alpha virt. eigenvalues --    4.30920   4.35828   4.49801   4.52576   4.52576
 Alpha virt. eigenvalues --    4.56999   4.61193   4.61193   4.66666   4.91898
 Alpha virt. eigenvalues --    4.91898   5.03479   5.03479   5.12437   5.12569
 Alpha virt. eigenvalues --    5.12569   5.21966   5.42977   5.42977   5.45939
 Alpha virt. eigenvalues --    5.51075   5.51075   5.51905   5.69784   5.89377
 Alpha virt. eigenvalues --    5.89377   6.33916   6.34405   6.34405   6.36377
 Alpha virt. eigenvalues --    6.43770   6.43770   7.18864   7.22505   7.22505
 Alpha virt. eigenvalues --   11.39584  11.39584  11.39785  11.39911  11.39911
 Alpha virt. eigenvalues --   11.40025  11.40025  11.40174  11.40185  11.40185
 Alpha virt. eigenvalues --   11.40203  11.40777  11.41068  11.41082  11.41082
 Alpha virt. eigenvalues --   11.41091  11.41091  11.41155  11.42052  11.42499
 Alpha virt. eigenvalues --   11.42499  11.43132  11.43771  11.43771  11.44045
 Alpha virt. eigenvalues --   11.48173  11.48173  14.56722  14.57115  14.57115
 Alpha virt. eigenvalues --   14.58622  14.58622  14.58973  14.59708  14.59708
 Alpha virt. eigenvalues --   14.62238  14.62238  14.62298  14.64300  14.73814
 Alpha virt. eigenvalues --   14.73814  14.74968  14.74968  14.78707  14.79094
 Alpha virt. eigenvalues --   14.79320  14.84279  14.84279  15.11978  15.19829
 Alpha virt. eigenvalues --   15.19829  15.81930  15.81930  15.87539  15.87593
 Alpha virt. eigenvalues --   15.87593  15.94094  16.09192  16.09192  16.10817
 Alpha virt. eigenvalues --   16.16669  16.16907  16.16907  16.40793  16.46232
 Alpha virt. eigenvalues --   16.46232  37.92903  44.99043  44.99043  54.09804
 Alpha virt. eigenvalues --   54.11177  54.11177  80.70051 285.09007 285.09757
 Alpha virt. eigenvalues --  285.09757 743.12136
  Beta  occ. eigenvalues --  -24.75902 -24.75902 -24.75902  -2.54512  -1.40640
  Beta  occ. eigenvalues --   -1.40640  -1.36267  -1.19183  -1.15499  -1.15499
  Beta  occ. eigenvalues --   -0.48454  -0.47739  -0.47739  -0.45258  -0.45258
  Beta  occ. eigenvalues --   -0.43970  -0.43737  -0.43493  -0.43493
  Beta virt. eigenvalues --   -0.09642  -0.03512  -0.03512   0.01478   0.01599
  Beta virt. eigenvalues --    0.01632   0.01632   0.06198   0.06198   0.10573
  Beta virt. eigenvalues --    0.16616   0.16616   0.18363   0.18363   0.19141
  Beta virt. eigenvalues --    0.19360   0.26432   0.26432   0.33292   0.34110
  Beta virt. eigenvalues --    0.34110   0.36528   0.36528   0.38995   0.39490
  Beta virt. eigenvalues --    0.40608   0.48960   0.48960   0.49047   0.51494
  Beta virt. eigenvalues --    0.51494   0.55406   0.55406   0.56777   0.60682
  Beta virt. eigenvalues --    0.69740   0.75661   0.75661   0.76502   0.76502
  Beta virt. eigenvalues --    0.76641   0.82200   0.82200   0.87049   0.87104
  Beta virt. eigenvalues --    0.87104   0.89463   0.89463   0.92296   0.94565
  Beta virt. eigenvalues --    0.97162   0.97162   1.00028   1.00028   1.01193
  Beta virt. eigenvalues --    1.05534   1.12995   1.15761   1.15761   1.28433
  Beta virt. eigenvalues --    1.36740   1.36740   1.49172   1.49172   1.59127
  Beta virt. eigenvalues --    1.59127   1.59450   1.71706   1.72153   1.73674
  Beta virt. eigenvalues --    1.73674   1.74238   1.75624   1.77130   1.77130
  Beta virt. eigenvalues --    1.80699   1.80699   1.89781   1.89781   1.90041
  Beta virt. eigenvalues --    2.00370   2.00370   2.09796   2.14554   2.18532
  Beta virt. eigenvalues --    2.23373   2.23373   2.25794   2.32322   2.32322
  Beta virt. eigenvalues --    2.36997   2.44065   2.44065   2.61825   2.61825
  Beta virt. eigenvalues --    2.70407   2.82255   2.82255   2.82289   2.82289
  Beta virt. eigenvalues --    2.87410   2.98105   3.05999   3.13446   3.13446
  Beta virt. eigenvalues --    3.57843   3.57843   3.63390   4.08659   4.08659
  Beta virt. eigenvalues --    4.14754   4.15397   4.15643   4.15643   4.19432
  Beta virt. eigenvalues --    4.19432   4.19475   4.21369   4.21369   4.25198
  Beta virt. eigenvalues --    4.25198   4.30933   4.36054   4.49810   4.52647
  Beta virt. eigenvalues --    4.52647   4.57117   4.61239   4.61239   4.66991
  Beta virt. eigenvalues --    4.92025   4.92025   5.03414   5.03414   5.12394
  Beta virt. eigenvalues --    5.12528   5.12528   5.21914   5.43020   5.43020
  Beta virt. eigenvalues --    5.46060   5.51053   5.51053   5.51914   5.69862
  Beta virt. eigenvalues --    5.89448   5.89448   6.33899   6.34360   6.34360
  Beta virt. eigenvalues --    6.36371   6.43751   6.43751   7.18995   7.22551
  Beta virt. eigenvalues --    7.22551  11.39525  11.39525  11.39715  11.39858
  Beta virt. eigenvalues --   11.39858  11.39967  11.39967  11.40127  11.40127
  Beta virt. eigenvalues --   11.40134  11.40154  11.40727  11.40991  11.41008
  Beta virt. eigenvalues --   11.41008  11.41015  11.41015  11.41090  11.41997
  Beta virt. eigenvalues --   11.42431  11.42431  11.43072  11.43724  11.43724
  Beta virt. eigenvalues --   11.43993  11.48151  11.48151  14.56612  14.57009
  Beta virt. eigenvalues --   14.57009  14.58516  14.58516  14.58863  14.59616
  Beta virt. eigenvalues --   14.59616  14.62156  14.62156  14.62210  14.64211
  Beta virt. eigenvalues --   14.73715  14.73715  14.74906  14.74906  14.78661
  Beta virt. eigenvalues --   14.79028  14.79227  14.84219  14.84219  15.11921
  Beta virt. eigenvalues --   15.19772  15.19772  15.81802  15.81802  15.87410
  Beta virt. eigenvalues --   15.87476  15.87476  15.93968  16.09071  16.09071
  Beta virt. eigenvalues --   16.10709  16.16620  16.16841  16.16841  16.40728
  Beta virt. eigenvalues --   16.46156  16.46156  37.94426  44.99610  44.99610
  Beta virt. eigenvalues --   54.09753  54.11125  54.11125  80.70400 285.08993
  Beta virt. eigenvalues --  285.09743 285.09743 743.12529
          Condensed to atoms (all electrons):
               1          2          3          4
     1  Hf   9.797885   0.282938   0.282938   0.282938
     2  F    0.282938   9.166723   0.000720   0.000720
     3  F    0.282938   0.000720   9.166723   0.000720
     4  F    0.282938   0.000720   0.000720   9.166723
          Atomic-Atomic Spin Densities.
               1          2          3          4
     1  Hf   1.017961   0.004474   0.004474   0.004474
     2  F    0.004474  -0.015003   0.000034   0.000034
     3  F    0.004474   0.000034  -0.015003   0.000034
     4  F    0.004474   0.000034   0.000034  -0.015003
 Mulliken charges and spin densities:
               1          2
     1  Hf   1.353302   1.031382
     2  F   -0.451101  -0.010461
     3  F   -0.451101  -0.010461
     4  F   -0.451101  -0.010461
 Sum of Mulliken charges =  -0.00000   1.00000
 Mulliken charges and spin densities with hydrogens summed into heavy atoms:
               1          2
     1  Hf   1.353302   1.031382
     2  F   -0.451101  -0.010461
     3  F   -0.451101  -0.010461
     4  F   -0.451101  -0.010461
 Electronic spatial extent (au):  <R**2>=            447.5674
 Charge=              0.0000 electrons
 Dipole moment (field-independent basis, Debye):
    X=              0.0000    Y=              0.0000    Z=             -0.0000  Tot=              0.0000
 Quadrupole moment (field-independent basis, Debye-Ang):
   XX=            -43.0514   YY=            -43.0514   ZZ=            -34.9987
   XY=              0.0000   XZ=             -0.0000   YZ=             -0.0000
 Traceless Quadrupole moment (field-independent basis, Debye-Ang):
   XX=             -2.6842   YY=             -2.6842   ZZ=              5.3685
   XY=              0.0000   XZ=             -0.0000   YZ=             -0.0000
 Octapole moment (field-independent basis, Debye-Ang**2):
  XXX=              0.0000  YYY=            -10.8182  ZZZ=              0.0000  XYY=              0.0000
  XXY=             10.8182  XXZ=             -0.0000  XZZ=              0.0000  YZZ=              0.0000
  YYZ=              0.0000  XYZ=             -0.0000
 Hexadecapole moment (field-independent basis, Debye-Ang**3):
 XXXX=           -237.6721 YYYY=           -237.6721 ZZZZ=            -51.4553 XXXY=              0.0000
 XXXZ=             -0.0000 YYYX=              0.0000 YYYZ=             -0.0000 ZZZX=              0.0000
 ZZZY=             -0.0000 XXYY=            -79.2240 XXZZ=            -43.0160 YYZZ=            -43.0160
 XXYZ=             -0.0000 YYXZ=             -0.0000 ZZXY=              0.0000
 N-N= 1.275909546084D+02 E-N=-1.068034584754D+03  KE= 3.150874143324D+02
 Symmetry A1   KE= 1.900119262741D+02
 Symmetry A2   KE= 5.773735549239D+00
 Symmetry B1   KE= 1.040402288587D+02
 Symmetry B2   KE= 1.526152365038D+01
 Symmetry A1   SP= 1.000000000000D+00
 Symmetry A2   SP=-4.421671332741D-16
 Symmetry B1   SP=-1.872714375744D-14
 Symmetry B2   SP=-1.512087980868D-14
                          Isotropic Fermi Contact Couplings
        Atom                 a.u.       MegaHertz       Gauss      10(-4) cm-1
     1  Hf(177             0.00000       0.00001       0.00000       0.00000
     2  F(19)              0.01556      65.45486      23.35592      21.83339
     3  F(19)              0.01556      65.45486      23.35592      21.83339
     4  F(19)              0.01556      65.45486      23.35592      21.83339
 --------------------------------------------------------
       Center         ----  Spin Dipole Couplings  ----
                      3XX-RR        3YY-RR        3ZZ-RR
 --------------------------------------------------------
     1   Atom       -0.018128     -0.018128      0.036256
     2   Atom        0.024384      0.034140     -0.058524
     3   Atom        0.031701      0.026823     -0.058524
     4   Atom        0.031701      0.026823     -0.058524
 --------------------------------------------------------
                        XY            XZ            YZ
 --------------------------------------------------------
     1   Atom        0.000000      0.000000      0.000000
     2   Atom        0.000000      0.000000      0.000000
     3   Atom        0.004224      0.000000      0.000000
     4   Atom       -0.004224      0.000000      0.000000
 --------------------------------------------------------


 ---------------------------------------------------------------------------------
              Anisotropic Spin Dipole Couplings in Principal Axis System
 ---------------------------------------------------------------------------------

       Atom             a.u.   MegaHertz   Gauss  10(-4) cm-1        Axes

              Baa    -0.0181    -0.393    -0.140    -0.131 -0.4240  0.9057  0.0000
     1 Hf(177 Bbb    -0.0181    -0.393    -0.140    -0.131  0.9057  0.4240  0.0000
              Bcc     0.0363     0.785     0.280     0.262  0.0000  0.0000  1.0000
 
              Baa    -0.0585   -29.392   -10.488    -9.804  0.0000  0.0000  1.0000
     2 F(19)  Bbb     0.0244    12.246     4.370     4.085  1.0000 -0.0000 -0.0000
              Bcc     0.0341    17.146     6.118     5.719  0.0000  1.0000  0.0000
 
              Baa    -0.0585   -29.392   -10.488    -9.804  0.0000  0.0000  1.0000
     3 F(19)  Bbb     0.0244    12.246     4.370     4.085 -0.5000  0.8660 -0.0000
              Bcc     0.0341    17.146     6.118     5.719  0.8660  0.5000  0.0000
 
              Baa    -0.0585   -29.392   -10.488    -9.804  0.0000  0.0000  1.0000
     4 F(19)  Bbb     0.0244    12.246     4.370     4.085  0.5000  0.8660  0.0000
              Bcc     0.0341    17.146     6.118     5.719  0.8660 -0.5000 -0.0000
 

 ---------------------------------------------------------------------------------

  12 Symmetry operations used in ECPInt.
 ECPInt:  NShTT=    2628 NPrTT=    6918 LenC2=    2464 LenP2D=    5292.
 LDataN:  DoStor=T MaxTD1=10 Len=  848
 Calling FoFJK, ICntrl=      2127 FMM=F ISym2X=1 I1Cent= 0 IOpClX= 1 NMat=1 NMatS=1 NMatT=0.
 Defaulting to unpruned grid for atomic number  72.
 Defaulting to unpruned grid for atomic number  72.
 Defaulting to unpruned grid for atomic number  72.
 Defaulting to unpruned grid for atomic number  72.
 Defaulting to unpruned grid for atomic number  72.
 Defaulting to unpruned grid for atomic number  72.
 Defaulting to unpruned grid for atomic number  72.
 Defaulting to unpruned grid for atomic number  72.
 ***** Axes restored to original set *****
 -------------------------------------------------------------------
 Center     Atomic                   Forces (Hartrees/Bohr)
 Number     Number              X              Y              Z
 -------------------------------------------------------------------
      1       72          -0.000000000    0.000000000   -0.000000000
      2        9          -0.007369288    0.012763981    0.000000000
      3        9          -0.007369288   -0.012763981   -0.000000000
      4        9           0.014738576    0.000000000    0.000000000
 -------------------------------------------------------------------
 Cartesian Forces:  Max     0.014738576 RMS     0.007369288

 GradGradGradGradGradGradGradGradGradGradGradGradGradGradGradGradGradGrad
 Berny optimization.
 FormGI is forming the generalized inverse of G from B-inverse, IUseBI=4.
 Internal  Forces:  Max     0.014738576 RMS     0.009648663
 Search for a local minimum.
 Step number   1 out of a maximum of   20
 All quantities printed in internal units (Hartrees-Bohrs-Radians)
 Mixed Optimization -- RFO/linear search
 Second derivative matrix not updated -- first step.
 The second derivative matrix:
                          R1        R2        R3        A1        A2
           R1           0.24501
           R2           0.00000   0.24501
           R3           0.00000   0.00000   0.24501
           A1           0.00000   0.00000   0.00000   0.25000
           A2           0.00000   0.00000   0.00000   0.00000   0.25000
           A3           0.00000   0.00000   0.00000   0.00000   0.00000
           D1           0.00000   0.00000   0.00000   0.00000   0.00000
                          A3        D1
           A3           0.25000
           D1           0.00000   0.00230
 ITU=  0
     Eigenvalues ---    0.00230   0.24501   0.24501   0.24501   0.25000
     Eigenvalues ---    0.25000
 RFO step:  Lambda=-2.63153156D-03 EMin= 2.30000000D-03
 Linear search not attempted -- first point.
 Iteration  1 RMS(Cart)=  0.03896215 RMS(Int)=  0.00000000
 Iteration  2 RMS(Cart)=  0.00000000 RMS(Int)=  0.00000000
 ClnCor:  largest displacement from symmetrization is 5.45D-12 for atom     1.
 Variable       Old X    -DE/DX   Delta X   Delta X   Delta X     New X
                                 (Linear)    (Quad)   (Total)
    R1        3.63894  -0.01474   0.00000  -0.05952  -0.05952   3.57943
    R2        3.63894  -0.01474   0.00000  -0.05952  -0.05952   3.57943
    R3        3.63894  -0.01474   0.00000  -0.05952  -0.05952   3.57943
    A1        2.09440  -0.00000   0.00000  -0.00000   0.00000   2.09440
    A2        2.09440  -0.00000   0.00000  -0.00000   0.00000   2.09440
    A3        2.09440   0.00000   0.00000   0.00000  -0.00000   2.09440
    D1        3.14159  -0.00000   0.00000   0.00000   0.00000   3.14159
         Item               Value     Threshold  Converged?
 Maximum Force            0.014739     0.000450     NO 
 RMS     Force            0.009649     0.000300     NO 
 Maximum Displacement     0.059516     0.001800     NO 
 RMS     Displacement     0.038962     0.001200     NO 
 Predicted change in Energy=-1.329746D-03
 GradGradGradGradGradGradGradGradGradGradGradGradGradGradGradGradGradGrad

                          Input orientation:                          
 ---------------------------------------------------------------------
 Center     Atomic      Atomic             Coordinates (Angstroms)
 Number     Number       Type             X           Y           Z
 ---------------------------------------------------------------------
      1         72           0        8.981411    8.500000    8.500000
      2          9           0        9.928487    6.859617    8.500000
      3          9           0        9.928487   10.140383    8.500000
      4          9           0        7.087260    8.500000    8.500000
 ---------------------------------------------------------------------
                    Distance matrix (angstroms):
                    1          2          3          4
     1  Hf   0.000000
     2  F    1.894151   0.000000
     3  F    1.894151   3.280766   0.000000
     4  F    1.894151   3.280766   3.280766   0.000000
 Stoichiometry    F3Hf(2)
 Framework group  D3H[O(Hf),3C2(F)]
 Deg. of freedom     1
 Full point group                 D3H     NOp  12
 Largest Abelian subgroup         C2V     NOp   4
 Largest concise Abelian subgroup C2      NOp   2
                         Standard orientation:                         
 ---------------------------------------------------------------------
 Center     Atomic      Atomic             Coordinates (Angstroms)
 Number     Number       Type             X           Y           Z
 ---------------------------------------------------------------------
      1         72           0        0.000000    0.000000    0.000000
      2          9           0        0.000000    1.894151   -0.000000
      3          9           0       -1.640383   -0.947075   -0.000000
      4          9           0        1.640383   -0.947075    0.000000
 ---------------------------------------------------------------------
 Rotational constants (GHZ):           4.9428753           4.9428753           2.4714376
 Standard basis: def2QZVPP (5D, 7F)
 There are   125 symmetry adapted cartesian basis functions of A1  symmetry.
 There are    45 symmetry adapted cartesian basis functions of A2  symmetry.
 There are    88 symmetry adapted cartesian basis functions of B1  symmetry.
 There are    64 symmetry adapted cartesian basis functions of B2  symmetry.
 There are    93 symmetry adapted basis functions of A1  symmetry.
 There are    38 symmetry adapted basis functions of A2  symmetry.
 There are    69 symmetry adapted basis functions of B1  symmetry.
 There are    52 symmetry adapted basis functions of B2  symmetry.
   252 basis functions,   406 primitive gaussians,   322 cartesian basis functions
    20 alpha electrons       19 beta electrons
       nuclear repulsion energy       129.7124285190 Hartrees.
 NAtoms=    4 NActive=    4 NUniq=    2 SFac= 4.00D+00 NAtFMM=   60 NAOKFM=F Big=F
 Integral buffers will be    131072 words long.
 Raffenetti 2 integral format.
 Two-electron integral symmetry is turned on.
 One-electron integrals computed using PRISM.
  12 Symmetry operations used in ECPInt.
 ECPInt:  NShTT=    2628 NPrTT=    6918 LenC2=    2473 LenP2D=    5319.
 LDataN:  DoStor=T MaxTD1= 9 Len=  602
 NBasis=   252 RedAO= T EigKep=  7.49D-04  NBF=    93    38    69    52
 NBsUse=   252 1.00D-06 EigRej= -1.00D+00 NBFU=    93    38    69    52
 Defaulting to unpruned grid for atomic number  72.
 Initial guess from the checkpoint file:  "/data/hutter/SMG16/PBE0/Gau-55115.chk"
 B after Tr=     0.000000    0.000000   -0.000000
         Rot=    1.000000    0.000000   -0.000000   -0.000000 Ang=   0.00 deg.
 Initial guess orbital symmetries:
 Alpha Orbitals:
       Occupied  (?A) (?A) (A1') (?B) (?A) (?A) (?C) (?B) (?A)
                 (?A) (?B) (?A) (?A) (?D) (?D) (?C) (?B) (?A) (?A)
                 (?B)
       Virtual   (?D) (?D) (?C) (?B) (?A) (?A) (?A) (?A) (?B) (?D)
                 (?D) (?C) (?B) (?A) (?A) (?A) (?A) (?A) (?A) (?B)
                 (?D) (?D) (?C) (?B) (?B) (?C) (?A) (?A) (?D) (?D)
                 (?A) (?A) (?B) (?B) (?C) (?B) (?D) (?D) (?A) (?A)
                 (?A) (?A) (?C) (?A) (?A) (?D) (?D) (?B) (?C) (?A)
                 (?A) (?C) (?D) (?D) (?B) (?B) (?A) (?A) (?B) (?A)
                 (?A) (?D) (?D) (?A) (?A) (?B) (?B) (?B) (?A) (?A)
                 (?C) (?C) (?D) (?D) (?A) (?A) (?D) (?D) (?C) (?A)
                 (?A) (?C) (?B) (?B) (?A) (?A) (?B) (?D) (?D) (?C)
                 (?A) (?A) (?A) (?A) (?B) (?A) (?A) (?D) (?D) (?C)
                 (?B) (?B) (?D) (?D) (?A) (?A) (?B) (?A) (?A) (?B)
                 (?B) (?D) (?D) (?A) (?A) (?C) (?D) (?D) (?A) (?A)
                 (?C) (?B) (?B) (?D) (?D) (?C) (?A) (?A) (?B) (?A)
                 (?A) (?D) (?D) (?B) (?A) (?A) (?C) (?D) (?D) (?C)
                 (?A) (?A) (?B) (?B) (?A) (?A) (?C) (?D) (?D) (?B)
                 (?A) (?A) (?B) (?A) (?A) (?D) (?D) (?B) (?A) (?A)
                 (?D) (?D) (?B) (?A) (?A) (?C) (?B) (?C) (?A) (?A)
                 (?D) (?D) (?B) (?C) (?D) (?D) (?C) (?A) (?A) (?B)
                 (?A) (?A) (?B) (?D) (?D) (?A) (?A) (?C) (?D) (?D)
                 (?A) (?A) (?B) (?C) (?D) (?D) (?A) (?A) (?B) (?B)
                 (?C) (?A) (?A) (?B) (?A) (?A) (?D) (?D) (?B) (?A)
                 (?A) (?C) (?D) (?D) (?C) (?B) (?A) (?A) (?B) (?A)
                 (?A) (?C) (?A) (?A) (?B) (?A) (?A) (?B) (?B) (?A)
                 (?A) (?B)
 Beta  Orbitals:
       Occupied  (?A) (?A) (A1') (?B) (?A) (?A) (?C) (?B) (?A)
                 (?A) (?B) (?A) (?A) (?D) (?D) (?C) (?B) (?A) (?A)
       Virtual   (?B) (?D) (?D) (?C) (?B) (?A) (?A) (?A) (?A) (?B)
                 (?D) (?D) (?A) (?A) (?B) (?C) (?A) (?A) (?B) (?A)
                 (?A) (?D) (?D) (?C) (?B) (?B) (?A) (?A) (?C) (?D)
                 (?D) (?A) (?A) (?B) (?B) (?C) (?A) (?A) (?D) (?D)
                 (?B) (?A) (?A) (?C) (?A) (?A) (?D) (?D) (?B) (?C)
                 (?A) (?A) (?D) (?D) (?C) (?B) (?B) (?A) (?A) (?B)
                 (?A) (?A) (?D) (?D) (?A) (?A) (?B) (?B) (?B) (?A)
                 (?A) (?C) (?C) (?D) (?D) (?A) (?A) (?D) (?D) (?C)
                 (?A) (?A) (?C) (?B) (?B) (?A) (?A) (?B) (?D) (?D)
                 (?C) (?A) (?A) (?A) (?A) (?B) (?A) (?A) (?D) (?D)
                 (?C) (?B) (?B) (?D) (?D) (?A) (?A) (?B) (?A) (?A)
                 (?B) (?B) (?D) (?D) (?A) (?A) (?C) (?D) (?D) (?A)
                 (?A) (?C) (?B) (?B) (?D) (?D) (?C) (?A) (?A) (?B)
                 (?A) (?A) (?D) (?D) (?B) (?A) (?A) (?C) (?D) (?D)
                 (?C) (?A) (?A) (?B) (?B) (?A) (?A) (?C) (?D) (?D)
                 (?B) (?A) (?A) (?B) (?A) (?A) (?D) (?D) (?B) (?A)
                 (?A) (?D) (?D) (?A) (?A) (?C) (?B) (?B) (?C) (?A)
                 (?A) (?D) (?D) (?B) (?C) (?D) (?D) (?C) (?A) (?A)
                 (?B) (?A) (?A) (?B) (?D) (?D) (?A) (?A) (?C) (?D)
                 (?D) (?A) (?A) (?B) (?C) (?D) (?D) (?A) (?A) (?B)
                 (?B) (?C) (?A) (?A) (?B) (?A) (?A) (?D) (?D) (?B)
                 (?A) (?A) (?C) (?D) (?D) (?C) (?B) (?A) (?A) (?B)
                 (?A) (?A) (?C) (?A) (?A) (?B) (?A) (?A) (?B) (?B)
                 (?A) (?A) (?B)
 Initial guess <Sx>= 0.0000 <Sy>= 0.0000 <Sz>= 0.5000 <S**2>= 0.7515 S= 0.5008
 ExpMin= 2.87D-02 ExpMax= 1.33D+05 ExpMxC= 1.27D+03 IAcc=3 IRadAn=         5 AccDes= 0.00D+00
 Harris functional with IExCor= 1009 and IRadAn=       5 diagonalized for initial guess.
 HarFok:  IExCor= 1009 AccDes= 0.00D+00 IRadAn=         5 IDoV= 1 UseB2=F ITyADJ=14
 ICtDFT=  3500011 ScaDFX=  1.000000  1.000000  1.000000  1.000000
 Defaulting to unpruned grid for atomic number  72.
 FoFCou: FMM=F IPFlag=           0 FMFlag=      100000 FMFlg1=           0
         NFxFlg=           0 DoJE=T BraDBF=F KetDBF=T FulRan=T
         wScrn=  0.000000 ICntrl=       500 IOpCl=  0 I1Cent=   200000004 NGrid=           0
         NMat0=    1 NMatS0=      1 NMatT0=    0 NMatD0=    1 NMtDS0=    0 NMtDT0=    0
 Petite list used in FoFCou.
 Keep R1 and R2 ints in memory in symmetry-blocked form, NReq=636253166.
 Requested convergence on RMS density matrix=1.00D-08 within 128 cycles.
 Requested convergence on MAX density matrix=1.00D-06.
 Requested convergence on             energy=1.00D-06.
 No special actions if energy rises.
 Defaulting to unpruned grid for atomic number  72.
 Defaulting to unpruned grid for atomic number  72.
 Defaulting to unpruned grid for atomic number  72.
 Defaulting to unpruned grid for atomic number  72.
 Defaulting to unpruned grid for atomic number  72.
 Defaulting to unpruned grid for atomic number  72.
 Defaulting to unpruned grid for atomic number  72.
 Defaulting to unpruned grid for atomic number  72.
 SCF Done:  E(UPBE1PBE) =  -347.631989325     A.U. after   10 cycles
            NFock= 10  Conv=0.73D-08     -V/T= 2.1028
 <Sx>= 0.0000 <Sy>= 0.0000 <Sz>= 0.5000 <S**2>= 0.7515 S= 0.5007
 <L.S>=  0.00000000000    
 Annihilation of the first spin contaminant:
 S**2 before annihilation     0.7515,   after     0.7500
  12 Symmetry operations used in ECPInt.
 ECPInt:  NShTT=    2628 NPrTT=    6918 LenC2=    2473 LenP2D=    5319.
 LDataN:  DoStor=T MaxTD1=10 Len=  848
 Calling FoFJK, ICntrl=      2127 FMM=F ISym2X=1 I1Cent= 0 IOpClX= 1 NMat=1 NMatS=1 NMatT=0.
 Defaulting to unpruned grid for atomic number  72.
 Defaulting to unpruned grid for atomic number  72.
 Defaulting to unpruned grid for atomic number  72.
 Defaulting to unpruned grid for atomic number  72.
 Defaulting to unpruned grid for atomic number  72.
 Defaulting to unpruned grid for atomic number  72.
 Defaulting to unpruned grid for atomic number  72.
 Defaulting to unpruned grid for atomic number  72.
 ***** Axes restored to original set *****
 -------------------------------------------------------------------
 Center     Atomic                   Forces (Hartrees/Bohr)
 Number     Number              X              Y              Z
 -------------------------------------------------------------------
      1       72          -0.000000000    0.000000000    0.000000000
      2        9           0.001264774   -0.002190653    0.000000000
      3        9           0.001264774    0.002190653   -0.000000000
      4        9          -0.002529548   -0.000000000    0.000000000
 -------------------------------------------------------------------
 Cartesian Forces:  Max     0.002529548 RMS     0.001264774

 GradGradGradGradGradGradGradGradGradGradGradGradGradGradGradGradGradGrad
 Berny optimization.
 Using GEDIIS/GDIIS optimizer.
 FormGI is forming the generalized inverse of G from B-inverse, IUseBI=4.
 Internal  Forces:  Max     0.002529548 RMS     0.001655978
 Search for a local minimum.
 Step number   2 out of a maximum of   20
 All quantities printed in internal units (Hartrees-Bohrs-Radians)
 Mixed Optimization -- RFO/linear search
 Update second derivatives using D2CorX and points    1    2
 DE= -1.13D-03 DEPred=-1.33D-03 R= 8.50D-01
 TightC=F SS=  1.41D+00  RLast= 1.03D-01 DXNew= 5.0454D-01 3.0925D-01
 Trust test= 8.50D-01 RLast= 1.03D-01 DXMaxT set to 3.09D-01
 The second derivative matrix:
                          R1        R2        R3        A1        A2
           R1           0.26006
           R2           0.01504   0.26006
           R3           0.01504   0.01504   0.26006
           A1          -0.00000  -0.00000  -0.00000   0.25000
           A2           0.00000   0.00000   0.00000  -0.00000   0.25000
           A3           0.00000   0.00000   0.00000  -0.00000   0.00000
           D1           0.00000   0.00000   0.00000  -0.00000   0.00000
                          A3        D1
           A3           0.25000
           D1           0.00000   0.00230
 ITU=  1  0
 Use linear search instead of GDIIS.
     Eigenvalues ---    0.00230   0.24501   0.24501   0.25000   0.25000
     Eigenvalues ---    0.29014
 RFO step:  Lambda= 0.00000000D+00 EMin= 2.30000000D-03
 Quartic linear search produced a step of -0.13711.
 Iteration  1 RMS(Cart)=  0.00534194 RMS(Int)=  0.00000000
 Iteration  2 RMS(Cart)=  0.00000000 RMS(Int)=  0.00000000
 ClnCor:  largest displacement from symmetrization is 2.52D-12 for atom     1.
 Variable       Old X    -DE/DX   Delta X   Delta X   Delta X     New X
                                 (Linear)    (Quad)   (Total)
    R1        3.57943   0.00253   0.00816   0.00000   0.00816   3.58759
    R2        3.57943   0.00253   0.00816  -0.00000   0.00816   3.58759
    R3        3.57943   0.00253   0.00816  -0.00000   0.00816   3.58759
    A1        2.09440  -0.00000  -0.00000  -0.00000   0.00000   2.09440
    A2        2.09440  -0.00000   0.00000  -0.00000   0.00000   2.09440
    A3        2.09440   0.00000  -0.00000   0.00000  -0.00000   2.09440
    D1        3.14159   0.00000   0.00000   0.00000   0.00000   3.14159
         Item               Value     Threshold  Converged?
 Maximum Force            0.002530     0.000450     NO 
 RMS     Force            0.001656     0.000300     NO 
 Maximum Displacement     0.008160     0.001800     NO 
 RMS     Displacement     0.005342     0.001200     NO 
 Predicted change in Energy=-3.294418D-05
 GradGradGradGradGradGradGradGradGradGradGradGradGradGradGradGradGradGrad

                          Input orientation:                          
 ---------------------------------------------------------------------
 Center     Atomic      Atomic             Coordinates (Angstroms)
 Number     Number       Type             X           Y           Z
 ---------------------------------------------------------------------
      1         72           0        8.981411    8.500000    8.500000
      2          9           0        9.930646    6.855878    8.500000
      3          9           0        9.930646   10.144122    8.500000
      4          9           0        7.082942    8.500000    8.500000
 ---------------------------------------------------------------------
                    Distance matrix (angstroms):
                    1          2          3          4
     1  Hf   0.000000
     2  F    1.898469   0.000000
     3  F    1.898469   3.288245   0.000000
     4  F    1.898469   3.288245   3.288245   0.000000
 Stoichiometry    F3Hf(2)
 Framework group  D3H[O(Hf),3C2(F)]
 Deg. of freedom     1
 Full point group                 D3H     NOp  12
 Largest Abelian subgroup         C2V     NOp   4
 Largest concise Abelian subgroup C2      NOp   2
                         Standard orientation:                         
 ---------------------------------------------------------------------
 Center     Atomic      Atomic             Coordinates (Angstroms)
 Number     Number       Type             X           Y           Z
 ---------------------------------------------------------------------
      1         72           0        0.000000    0.000000    0.000000
      2          9           0        0.000000    1.898469   -0.000000
      3          9           0       -1.644122   -0.949235   -0.000000
      4          9           0        1.644122   -0.949235    0.000000
 ---------------------------------------------------------------------
 Rotational constants (GHZ):           4.9204158           4.9204158           2.4602079
 Standard basis: def2QZVPP (5D, 7F)
 There are   125 symmetry adapted cartesian basis functions of A1  symmetry.
 There are    45 symmetry adapted cartesian basis functions of A2  symmetry.
 There are    88 symmetry adapted cartesian basis functions of B1  symmetry.
 There are    64 symmetry adapted cartesian basis functions of B2  symmetry.
 There are    93 symmetry adapted basis functions of A1  symmetry.
 There are    38 symmetry adapted basis functions of A2  symmetry.
 There are    69 symmetry adapted basis functions of B1  symmetry.
 There are    52 symmetry adapted basis functions of B2  symmetry.
   252 basis functions,   406 primitive gaussians,   322 cartesian basis functions
    20 alpha electrons       19 beta electrons
       nuclear repulsion energy       129.4173980979 Hartrees.
 NAtoms=    4 NActive=    4 NUniq=    2 SFac= 4.00D+00 NAtFMM=   60 NAOKFM=F Big=F
 Integral buffers will be    131072 words long.
 Raffenetti 2 integral format.
 Two-electron integral symmetry is turned on.
 One-electron integrals computed using PRISM.
  12 Symmetry operations used in ECPInt.
 ECPInt:  NShTT=    2628 NPrTT=    6918 LenC2=    2473 LenP2D=    5319.
 LDataN:  DoStor=T MaxTD1= 9 Len=  602
 NBasis=   252 RedAO= T EigKep=  7.64D-04  NBF=    93    38    69    52
 NBsUse=   252 1.00D-06 EigRej= -1.00D+00 NBFU=    93    38    69    52
 Defaulting to unpruned grid for atomic number  72.
 Initial guess from the checkpoint file:  "/data/hutter/SMG16/PBE0/Gau-55115.chk"
 B after Tr=    -0.000000    0.000000    0.000000
         Rot=    1.000000    0.000000    0.000000    0.000000 Ang=   0.00 deg.
 Initial guess orbital symmetries:
 Alpha Orbitals:
       Occupied  (A1') (?A) (?A) (?B) (?A) (?A) (?C) (?B) (?A)
                 (?A) (?B) (?A) (?A) (?D) (?D) (?C) (?B) (?A) (?A)
                 (?B)
       Virtual   (?D) (?D) (?C) (?B) (?A) (?A) (?A) (?A) (?B) (?D)
                 (?D) (?C) (?B) (?A) (?A) (?A) (?A) (?B) (?A) (?A)
                 (?D) (?D) (?C) (?B) (?B) (?C) (?A) (?A) (?D) (?D)
                 (?A) (?A) (?B) (?B) (?C) (?B) (?D) (?D) (?A) (?A)
                 (?A) (?A) (?C) (?A) (?A) (?D) (?D) (?B) (?C) (?A)
                 (?A) (?C) (?D) (?D) (?B) (?B) (?A) (?A) (?B) (?A)
                 (?A) (?D) (?D) (?B) (?A) (?A) (?B) (?B) (?A) (?A)
                 (?C) (?C) (?D) (?D) (?A) (?A) (?D) (?D) (?C) (?A)
                 (?A) (?C) (?B) (?B) (?A) (?A) (?B) (?D) (?D) (?C)
                 (?A) (?A) (?A) (?A) (?B) (?A) (?A) (?D) (?D) (?C)
                 (?B) (?B) (?D) (?D) (?A) (?A) (?B) (?A) (?A) (?B)
                 (?D) (?D) (?B) (?A) (?A) (?C) (?D) (?D) (?A) (?A)
                 (?C) (?B) (?B) (?D) (?D) (?C) (?A) (?A) (?B) (?A)
                 (?A) (?D) (?D) (?B) (?A) (?A) (?C) (?D) (?D) (?C)
                 (?A) (?A) (?B) (?B) (?A) (?A) (?C) (?D) (?D) (?B)
                 (?A) (?A) (?B) (?A) (?A) (?D) (?D) (?B) (?A) (?A)
                 (?D) (?D) (?C) (?B) (?A) (?A) (?B) (?C) (?A) (?A)
                 (?D) (?D) (?B) (?C) (?D) (?D) (?C) (?A) (?A) (?B)
                 (?A) (?A) (?B) (?D) (?D) (?A) (?A) (?C) (?D) (?D)
                 (?A) (?A) (?B) (?C) (?D) (?D) (?A) (?A) (?B) (?B)
                 (?C) (?A) (?A) (?B) (?A) (?A) (?D) (?D) (?B) (?A)
                 (?A) (?C) (?D) (?D) (?C) (?A) (?A) (?B) (?B) (?A)
                 (?A) (?C) (?A) (?A) (?B) (?A) (?A) (?B) (?B) (?A)
                 (?A) (?B)
 Beta  Orbitals:
       Occupied  (A1') (?A) (?A) (?B) (?A) (?A) (?C) (?B) (?A)
                 (?A) (?B) (?A) (?A) (?D) (?D) (?C) (?B) (?A) (?A)
       Virtual   (?B) (?D) (?D) (?C) (?B) (?A) (?A) (?A) (?A) (?B)
                 (?D) (?D) (?A) (?A) (?B) (?C) (?A) (?A) (?B) (?A)
                 (?A) (?D) (?D) (?C) (?B) (?B) (?A) (?A) (?C) (?D)
                 (?D) (?A) (?A) (?B) (?B) (?C) (?A) (?A) (?B) (?D)
                 (?D) (?A) (?A) (?A) (?A) (?C) (?D) (?D) (?B) (?C)
                 (?A) (?A) (?D) (?D) (?C) (?B) (?B) (?A) (?A) (?B)
                 (?A) (?A) (?D) (?D) (?B) (?A) (?A) (?B) (?B) (?A)
                 (?A) (?C) (?C) (?D) (?D) (?A) (?A) (?D) (?D) (?C)
                 (?A) (?A) (?C) (?B) (?B) (?A) (?A) (?B) (?D) (?D)
                 (?C) (?A) (?A) (?A) (?A) (?B) (?D) (?D) (?A) (?A)
                 (?C) (?B) (?B) (?D) (?D) (?A) (?A) (?B) (?A) (?A)
                 (?B) (?D) (?D) (?B) (?A) (?A) (?C) (?D) (?D) (?A)
                 (?A) (?C) (?B) (?B) (?D) (?D) (?C) (?A) (?A) (?B)
                 (?A) (?A) (?D) (?D) (?B) (?A) (?A) (?C) (?D) (?D)
                 (?C) (?A) (?A) (?B) (?B) (?A) (?A) (?C) (?D) (?D)
                 (?B) (?A) (?A) (?B) (?A) (?A) (?D) (?D) (?B) (?A)
                 (?A) (?D) (?D) (?C) (?A) (?A) (?B) (?B) (?C) (?A)
                 (?A) (?D) (?D) (?B) (?C) (?D) (?D) (?C) (?A) (?A)
                 (?B) (?A) (?A) (?B) (?D) (?D) (?A) (?A) (?C) (?D)
                 (?D) (?A) (?A) (?B) (?C) (?D) (?D) (?A) (?A) (?B)
                 (?B) (?C) (?A) (?A) (?B) (?A) (?A) (?D) (?D) (?B)
                 (?A) (?A) (?C) (?D) (?D) (?C) (?A) (?A) (?B) (?B)
                 (?A) (?A) (?C) (?A) (?A) (?B) (?A) (?A) (?B) (?B)
                 (?A) (?A) (?B)
 Initial guess <Sx>= 0.0000 <Sy>= 0.0000 <Sz>= 0.5000 <S**2>= 0.7515 S= 0.5007
 Keep R1 and R2 ints in memory in symmetry-blocked form, NReq=636253166.
 Requested convergence on RMS density matrix=1.00D-08 within 128 cycles.
 Requested convergence on MAX density matrix=1.00D-06.
 Requested convergence on             energy=1.00D-06.
 No special actions if energy rises.
 Defaulting to unpruned grid for atomic number  72.
 Defaulting to unpruned grid for atomic number  72.
 Defaulting to unpruned grid for atomic number  72.
 Defaulting to unpruned grid for atomic number  72.
 Defaulting to unpruned grid for atomic number  72.
 Defaulting to unpruned grid for atomic number  72.
 Defaulting to unpruned grid for atomic number  72.
 Defaulting to unpruned grid for atomic number  72.
 SCF Done:  E(UPBE1PBE) =  -347.632020160     A.U. after    8 cycles
            NFock=  8  Conv=0.97D-09     -V/T= 2.1029
 <Sx>= 0.0000 <Sy>= 0.0000 <Sz>= 0.5000 <S**2>= 0.7515 S= 0.5007
 <L.S>=  0.00000000000    
 Annihilation of the first spin contaminant:
 S**2 before annihilation     0.7515,   after     0.7500
  12 Symmetry operations used in ECPInt.
 ECPInt:  NShTT=    2628 NPrTT=    6918 LenC2=    2473 LenP2D=    5319.
 LDataN:  DoStor=T MaxTD1=10 Len=  848
 Calling FoFJK, ICntrl=      2127 FMM=F ISym2X=1 I1Cent= 0 IOpClX= 1 NMat=1 NMatS=1 NMatT=0.
 Defaulting to unpruned grid for atomic number  72.
 Defaulting to unpruned grid for atomic number  72.
 Defaulting to unpruned grid for atomic number  72.
 Defaulting to unpruned grid for atomic number  72.
 Defaulting to unpruned grid for atomic number  72.
 Defaulting to unpruned grid for atomic number  72.
 Defaulting to unpruned grid for atomic number  72.
 Defaulting to unpruned grid for atomic number  72.
 ***** Axes restored to original set *****
 -------------------------------------------------------------------
 Center     Atomic                   Forces (Hartrees/Bohr)
 Number     Number              X              Y              Z
 -------------------------------------------------------------------
      1       72          -0.000000000    0.000000000    0.000000000
      2        9          -0.000000649    0.000001125    0.000000000
      3        9          -0.000000649   -0.000001125   -0.000000000
      4        9           0.000001299   -0.000000000    0.000000000
 -------------------------------------------------------------------
 Cartesian Forces:  Max     0.000001299 RMS     0.000000649

 GradGradGradGradGradGradGradGradGradGradGradGradGradGradGradGradGradGrad
 Berny optimization.
 Using GEDIIS/GDIIS optimizer.
 FormGI is forming the generalized inverse of G from B-inverse, IUseBI=4.
 Internal  Forces:  Max     0.000001299 RMS     0.000000850
 Search for a local minimum.
 Step number   3 out of a maximum of   20
 All quantities printed in internal units (Hartrees-Bohrs-Radians)
 Mixed Optimization -- En-DIIS/RFO-DIIS
 Update second derivatives using D2CorX and points    1    2    3
 DE= -3.08D-05 DEPred=-3.29D-05 R= 9.36D-01
 TightC=F SS=  1.41D+00  RLast= 1.41D-02 DXNew= 5.2010D-01 4.2400D-02
 Trust test= 9.36D-01 RLast= 1.41D-02 DXMaxT set to 3.09D-01
 The second derivative matrix:
                          R1        R2        R3        A1        A2
           R1           0.26673
           R2           0.02171   0.26673
           R3           0.02171   0.02171   0.26673
           A1           0.00000   0.00000   0.00000   0.25000
           A2          -0.00000  -0.00000  -0.00000  -0.00000   0.25000
           A3           0.00000   0.00000   0.00000   0.00000  -0.00000
           D1           0.00000   0.00000   0.00000   0.00000  -0.00000
                          A3        D1
           A3           0.25000
           D1           0.00000   0.00230
 ITU=  1  1  0
 Use linear search instead of GDIIS.
     Eigenvalues ---    0.00230   0.24501   0.24501   0.25000   0.25000
     Eigenvalues ---    0.31015
 RFO step:  Lambda= 0.00000000D+00 EMin= 2.30000000D-03
 Quartic linear search produced a step of -0.00052.
 Iteration  1 RMS(Cart)=  0.00000277 RMS(Int)=  0.00000000
 Iteration  2 RMS(Cart)=  0.00000000 RMS(Int)=  0.00000000
 ClnCor:  largest displacement from symmetrization is 2.55D-12 for atom     1.
 Variable       Old X    -DE/DX   Delta X   Delta X   Delta X     New X
                                 (Linear)    (Quad)   (Total)
    R1        3.58759  -0.00000  -0.00000   0.00000  -0.00000   3.58758
    R2        3.58759  -0.00000  -0.00000  -0.00000  -0.00000   3.58758
    R3        3.58759  -0.00000  -0.00000  -0.00000  -0.00000   3.58758
    A1        2.09440  -0.00000   0.00000  -0.00000   0.00000   2.09440
    A2        2.09440   0.00000   0.00000   0.00000  -0.00000   2.09440
    A3        2.09440  -0.00000   0.00000  -0.00000  -0.00000   2.09440
    D1        3.14159   0.00000   0.00000   0.00000   0.00000   3.14159
         Item               Value     Threshold  Converged?
 Maximum Force            0.000001     0.000450     YES
 RMS     Force            0.000001     0.000300     YES
 Maximum Displacement     0.000004     0.001800     YES
 RMS     Displacement     0.000003     0.001200     YES
 Predicted change in Energy=-8.156278D-12
 Optimization completed.
    -- Stationary point found.
                           ----------------------------
                           !   Optimized Parameters   !
                           ! (Angstroms and Degrees)  !
 --------------------------                            --------------------------
 ! Name  Definition              Value          Derivative Info.                !
 --------------------------------------------------------------------------------
 ! R1    R(1,2)                  1.8985         -DE/DX =    0.0                 !
 ! R2    R(1,3)                  1.8985         -DE/DX =    0.0                 !
 ! R3    R(1,4)                  1.8985         -DE/DX =    0.0                 !
 ! A1    A(2,1,3)              120.0            -DE/DX =    0.0                 !
 ! A2    A(2,1,4)              120.0            -DE/DX =    0.0                 !
 ! A3    A(3,1,4)              120.0            -DE/DX =    0.0                 !
 ! D1    D(2,1,4,3)            180.0            -DE/DX =    0.0                 !
 --------------------------------------------------------------------------------
 GradGradGradGradGradGradGradGradGradGradGradGradGradGradGradGradGradGrad

                          Input orientation:                          
 ---------------------------------------------------------------------
 Center     Atomic      Atomic             Coordinates (Angstroms)
 Number     Number       Type             X           Y           Z
 ---------------------------------------------------------------------
      1         72           0        8.981411    8.500000    8.500000
      2          9           0        9.930646    6.855878    8.500000
      3          9           0        9.930646   10.144122    8.500000
      4          9           0        7.082942    8.500000    8.500000
 ---------------------------------------------------------------------
                    Distance matrix (angstroms):
                    1          2          3          4
     1  Hf   0.000000
     2  F    1.898469   0.000000
     3  F    1.898469   3.288245   0.000000
     4  F    1.898469   3.288245   3.288245   0.000000
 Stoichiometry    F3Hf(2)
 Framework group  D3H[O(Hf),3C2(F)]
 Deg. of freedom     1
 Full point group                 D3H     NOp  12
 Largest Abelian subgroup         C2V     NOp   4
 Largest concise Abelian subgroup C2      NOp   2
                         Standard orientation:                         
 ---------------------------------------------------------------------
 Center     Atomic      Atomic             Coordinates (Angstroms)
 Number     Number       Type             X           Y           Z
 ---------------------------------------------------------------------
      1         72           0        0.000000    0.000000    0.000000
      2          9           0        0.000000    1.898469   -0.000000
      3          9           0       -1.644122   -0.949235   -0.000000
      4          9           0        1.644122   -0.949235    0.000000
 ---------------------------------------------------------------------
 Rotational constants (GHZ):           4.9204158           4.9204158           2.4602079

 **********************************************************************

            Population analysis using the SCF Density.

 **********************************************************************

 Orbital symmetries:
 Alpha Orbitals:
       Occupied  (?A) (?A) (A1') (?B) (?A) (?A) (?C) (?B) (?A)
                 (?A) (?B) (?A) (?A) (?D) (?D) (?C) (?B) (?A) (?A)
                 (?B)
       Virtual   (?D) (?D) (?C) (?B) (?A) (?A) (?A) (?A) (?B) (?D)
                 (?D) (?C) (?B) (?A) (?A) (?A) (?A) (?B) (?A) (?A)
                 (?D) (?D) (?C) (?B) (?B) (?C) (?A) (?A) (?D) (?D)
                 (?A) (?A) (?B) (?B) (?C) (?B) (?D) (?D) (?A) (?A)
                 (?A) (?A) (?C) (?A) (?A) (?D) (?D) (?B) (?C) (?A)
                 (?A) (?C) (?D) (?D) (?B) (?B) (?A) (?A) (?B) (?A)
                 (?A) (?D) (?D) (?B) (?A) (?A) (?B) (?B) (?A) (?A)
                 (?C) (?C) (?D) (?D) (?A) (?A) (?D) (?D) (?C) (?A)
                 (?A) (?C) (?B) (?B) (?A) (?A) (?B) (?D) (?D) (?C)
                 (?A) (?A) (?A) (?A) (?B) (?A) (?A) (?D) (?D) (?C)
                 (?B) (?B) (?D) (?D) (?A) (?A) (?B) (?A) (?A) (?B)
                 (?D) (?D) (?B) (?A) (?A) (?C) (?D) (?D) (?A) (?A)
                 (?C) (?B) (?B) (?D) (?D) (?C) (?A) (?A) (?B) (?A)
                 (?A) (?D) (?D) (?B) (?A) (?A) (?C) (?D) (?D) (?C)
                 (?A) (?A) (?B) (?B) (?A) (?A) (?C) (?D) (?D) (?B)
                 (?A) (?A) (?B) (?A) (?A) (?D) (?D) (?B) (?A) (?A)
                 (?D) (?D) (?C) (?B) (?A) (?A) (?B) (?C) (?A) (?A)
                 (?D) (?D) (?B) (?C) (?D) (?D) (?C) (?A) (?A) (?B)
                 (?A) (?A) (?B) (?D) (?D) (?A) (?A) (?C) (?D) (?D)
                 (?A) (?A) (?B) (?C) (?D) (?D) (?A) (?A) (?B) (?B)
                 (?C) (?A) (?A) (?B) (?A) (?A) (?D) (?D) (?B) (?A)
                 (?A) (?C) (?D) (?D) (?C) (?A) (?A) (?B) (?B) (?A)
                 (?A) (?C) (?A) (?A) (?B) (?A) (?A) (?B) (?B) (?A)
                 (?A) (?B)
 Beta  Orbitals:
       Occupied  (?A) (?A) (A1') (?B) (?A) (?A) (?C) (?B) (?A)
                 (?A) (?B) (?A) (?A) (?D) (?D) (?C) (?B) (?A) (?A)
       Virtual   (?B) (?D) (?D) (?C) (?B) (?A) (?A) (?A) (?A) (?B)
                 (?D) (?D) (?A) (?A) (?B) (?C) (?A) (?A) (?B) (?A)
                 (?A) (?D) (?D) (?C) (?B) (?B) (?A) (?A) (?C) (?D)
                 (?D) (?A) (?A) (?B) (?B) (?C) (?A) (?A) (?B) (?D)
                 (?D) (?A) (?A) (?C) (?A) (?A) (?D) (?D) (?B) (?C)
                 (?A) (?A) (?D) (?D) (?C) (?B) (?B) (?A) (?A) (?B)
                 (?A) (?A) (?D) (?D) (?B) (?A) (?A) (?B) (?B) (?A)
                 (?A) (?C) (?C) (?D) (?D) (?A) (?A) (?D) (?D) (?C)
                 (?A) (?A) (?C) (?B) (?B) (?A) (?A) (?B) (?D) (?D)
                 (?C) (?A) (?A) (?A) (?A) (?B) (?D) (?D) (?A) (?A)
                 (?C) (?B) (?B) (?D) (?D) (?A) (?A) (?B) (?A) (?A)
                 (?B) (?D) (?D) (?B) (?A) (?A) (?C) (?D) (?D) (?A)
                 (?A) (?C) (?B) (?B) (?D) (?D) (?C) (?A) (?A) (?B)
                 (?A) (?A) (?D) (?D) (?B) (?A) (?A) (?C) (?D) (?D)
                 (?C) (?A) (?A) (?B) (?B) (?A) (?A) (?C) (?D) (?D)
                 (?B) (?A) (?A) (?B) (?A) (?A) (?D) (?D) (?B) (?A)
                 (?A) (?D) (?D) (?C) (?A) (?A) (?B) (?B) (?C) (?A)
                 (?A) (?D) (?D) (?B) (?C) (?D) (?D) (?C) (?A) (?A)
                 (?B) (?A) (?A) (?B) (?D) (?D) (?A) (?A) (?C) (?D)
                 (?D) (?A) (?A) (?B) (?C) (?D) (?D) (?A) (?A) (?B)
                 (?B) (?C) (?A) (?A) (?B) (?A) (?A) (?D) (?D) (?B)
                 (?A) (?A) (?C) (?D) (?D) (?C) (?A) (?A) (?B) (?B)
                 (?A) (?A) (?C) (?A) (?A) (?B) (?A) (?A) (?B) (?B)
                 (?A) (?A) (?B)
 Unable to determine electronic state:  an orbital has unidentified symmetry.
 Alpha  occ. eigenvalues --  -24.75968 -24.75968 -24.75968  -2.54854  -1.41331
 Alpha  occ. eigenvalues --   -1.41331  -1.38356  -1.19494  -1.15327  -1.15327
 Alpha  occ. eigenvalues --   -0.48747  -0.48187  -0.48187  -0.45638  -0.45638
 Alpha  occ. eigenvalues --   -0.44133  -0.43998  -0.43552  -0.43552  -0.22223
 Alpha virt. eigenvalues --   -0.04642  -0.04642  -0.02430  -0.00065   0.01537
 Alpha virt. eigenvalues --    0.01537   0.06147   0.06147   0.10003   0.15298
 Alpha virt. eigenvalues --    0.15298   0.15595   0.16235   0.17993   0.17993
 Alpha virt. eigenvalues --    0.25035   0.25035   0.32972   0.33049   0.33049
 Alpha virt. eigenvalues --    0.36061   0.36061   0.37019   0.39643   0.40420
 Alpha virt. eigenvalues --    0.48513   0.48820   0.48820   0.50921   0.50921
 Alpha virt. eigenvalues --    0.55165   0.55165   0.56052   0.61519   0.69489
 Alpha virt. eigenvalues --    0.72048   0.73689   0.73689   0.74321   0.74321
 Alpha virt. eigenvalues --    0.81910   0.81910   0.84287   0.87110   0.87110
 Alpha virt. eigenvalues --    0.88983   0.88983   0.91064   0.92478   0.94364
 Alpha virt. eigenvalues --    0.94364   0.98852   0.99302   0.99302   1.05801
 Alpha virt. eigenvalues --    1.12871   1.16067   1.16067   1.29892   1.37738
 Alpha virt. eigenvalues --    1.37738   1.49537   1.49537   1.60126   1.60552
 Alpha virt. eigenvalues --    1.60552   1.70770   1.72120   1.73683   1.73683
 Alpha virt. eigenvalues --    1.74128   1.76646   1.77000   1.77000   1.80688
 Alpha virt. eigenvalues --    1.80688   1.89631   1.89631   1.90710   2.00543
 Alpha virt. eigenvalues --    2.00543   2.09492   2.16442   2.18017   2.22823
 Alpha virt. eigenvalues --    2.22823   2.26091   2.31743   2.31743   2.38551
 Alpha virt. eigenvalues --    2.47370   2.47370   2.61027   2.61027   2.65942
 Alpha virt. eigenvalues --    2.80798   2.80798   2.81545   2.81545   2.85269
 Alpha virt. eigenvalues --    2.96886   3.06837   3.13276   3.13276   3.61600
 Alpha virt. eigenvalues --    3.61600   3.64065   4.09475   4.09475   4.14464
 Alpha virt. eigenvalues --    4.15396   4.15396   4.16282   4.19475   4.19475
 Alpha virt. eigenvalues --    4.19625   4.21789   4.21789   4.25598   4.25598
 Alpha virt. eigenvalues --    4.32729   4.38298   4.50026   4.55378   4.55378
 Alpha virt. eigenvalues --    4.59206   4.65474   4.65474   4.71390   4.97449
 Alpha virt. eigenvalues --    4.97449   5.03768   5.03768   5.13379   5.13630
 Alpha virt. eigenvalues --    5.13630   5.23169   5.44732   5.44732   5.47591
 Alpha virt. eigenvalues --    5.52820   5.52820   5.53821   5.71935   5.94094
 Alpha virt. eigenvalues --    5.94094   6.34541   6.35199   6.35199   6.37689
 Alpha virt. eigenvalues --    6.44917   6.44917   7.20290   7.27322   7.27322
 Alpha virt. eigenvalues --   11.39173  11.39173  11.39392  11.39578  11.39578
 Alpha virt. eigenvalues --   11.39647  11.39647  11.39815  11.39833  11.39845
 Alpha virt. eigenvalues --   11.39845  11.40544  11.40726  11.40743  11.40743
 Alpha virt. eigenvalues --   11.40753  11.40753  11.40858  11.42182  11.42512
 Alpha virt. eigenvalues --   11.42512  11.43034  11.43860  11.43860  11.44561
 Alpha virt. eigenvalues --   11.48622  11.48622  14.56465  14.56892  14.56892
 Alpha virt. eigenvalues --   14.58497  14.58497  14.58926  14.59846  14.59846
 Alpha virt. eigenvalues --   14.62392  14.62392  14.62750  14.64947  14.75065
 Alpha virt. eigenvalues --   14.75065  14.76589  14.76589  14.79499  14.80449
 Alpha virt. eigenvalues --   14.80914  14.84985  14.84985  15.14114  15.24159
 Alpha virt. eigenvalues --   15.24159  15.82093  15.82093  15.88027  15.88245
 Alpha virt. eigenvalues --   15.88245  15.94861  16.10330  16.10330  16.11815
 Alpha virt. eigenvalues --   16.18312  16.18312  16.18314  16.41391  16.48754
 Alpha virt. eigenvalues --   16.48754  37.95890  45.20422  45.20422  54.10998
 Alpha virt. eigenvalues --   54.12949  54.12949  80.76274 285.10584 285.11948
 Alpha virt. eigenvalues --  285.11948 743.14573
  Beta  occ. eigenvalues --  -24.76011 -24.76011 -24.76011  -2.53723  -1.40560
  Beta  occ. eigenvalues --   -1.40560  -1.35559  -1.19574  -1.15270  -1.15270
  Beta  occ. eigenvalues --   -0.48720  -0.48174  -0.48174  -0.45673  -0.45673
  Beta  occ. eigenvalues --   -0.44254  -0.44054  -0.43588  -0.43588
  Beta virt. eigenvalues --   -0.09356  -0.02764  -0.02764   0.01664   0.01926
  Beta virt. eigenvalues --    0.02269   0.02269   0.06733   0.06733   0.11016
  Beta virt. eigenvalues --    0.16678   0.16678   0.18405   0.18405   0.19490
  Beta virt. eigenvalues --    0.19632   0.26810   0.26810   0.33325   0.34240
  Beta virt. eigenvalues --    0.34240   0.36731   0.36731   0.39248   0.39648
  Beta virt. eigenvalues --    0.41403   0.49182   0.49182   0.49219   0.51605
  Beta virt. eigenvalues --    0.51605   0.55700   0.55700   0.56946   0.61680
  Beta virt. eigenvalues --    0.69776   0.75627   0.75627   0.76807   0.76821
  Beta virt. eigenvalues --    0.76821   0.82654   0.82654   0.87575   0.87576
  Beta virt. eigenvalues --    0.87576   0.90459   0.90459   0.92466   0.95340
  Beta virt. eigenvalues --    0.97309   0.97309   1.00241   1.00241   1.01370
  Beta virt. eigenvalues --    1.05960   1.13297   1.16739   1.16739   1.30996
  Beta virt. eigenvalues --    1.38527   1.38527   1.49629   1.49629   1.60321
  Beta virt. eigenvalues --    1.60732   1.60732   1.71083   1.72106   1.73735
  Beta virt. eigenvalues --    1.73735   1.74159   1.76720   1.77104   1.77104
  Beta virt. eigenvalues --    1.80738   1.80738   1.91219   1.91219   1.91321
  Beta virt. eigenvalues --    2.00865   2.00865   2.09946   2.18221   2.20017
  Beta virt. eigenvalues --    2.24729   2.24729   2.27412   2.34280   2.34280
  Beta virt. eigenvalues --    2.39427   2.47674   2.47674   2.61556   2.61556
  Beta virt. eigenvalues --    2.68130   2.82473   2.82473   2.83090   2.83090
  Beta virt. eigenvalues --    2.88237   2.97745   3.07439   3.14197   3.14197
  Beta virt. eigenvalues --    3.61853   3.61853   3.65073   4.09512   4.09512
  Beta virt. eigenvalues --    4.14439   4.15385   4.15385   4.16426   4.19467
  Beta virt. eigenvalues --    4.19467   4.19605   4.21809   4.21809   4.25678
  Beta virt. eigenvalues --    4.25678   4.32749   4.38568   4.50036   4.55452
  Beta virt. eigenvalues --    4.55452   4.59331   4.65520   4.65520   4.71713
  Beta virt. eigenvalues --    4.97582   4.97582   5.03707   5.03707   5.13343
  Beta virt. eigenvalues --    5.13589   5.13589   5.23122   5.44783   5.44783
  Beta virt. eigenvalues --    5.47724   5.52802   5.52802   5.53835   5.72025
  Beta virt. eigenvalues --    5.94185   5.94185   6.34531   6.35161   6.35161
  Beta virt. eigenvalues --    6.37689   6.44899   6.44899   7.20420   7.27377
  Beta virt. eigenvalues --    7.27377  11.39114  11.39114  11.39322  11.39520
  Beta virt. eigenvalues --   11.39520  11.39590  11.39590  11.39746  11.39794
  Beta virt. eigenvalues --   11.39794  11.39815  11.40487  11.40649  11.40669
  Beta virt. eigenvalues --   11.40669  11.40676  11.40676  11.40802  11.42129
  Beta virt. eigenvalues --   11.42446  11.42446  11.42977  11.43814  11.43814
  Beta virt. eigenvalues --   11.44511  11.48603  11.48603  14.56355  14.56786
  Beta virt. eigenvalues --   14.56786  14.58391  14.58391  14.58817  14.59756
  Beta virt. eigenvalues --   14.59756  14.62312  14.62312  14.62665  14.64860
  Beta virt. eigenvalues --   14.74969  14.74969  14.76526  14.76526  14.79455
  Beta virt. eigenvalues --   14.80383  14.80825  14.84930  14.84930  15.14062
  Beta virt. eigenvalues --   15.24107  15.24107  15.81965  15.81965  15.87898
  Beta virt. eigenvalues --   15.88129  15.88129  15.94735  16.10213  16.10213
  Beta virt. eigenvalues --   16.11710  16.18248  16.18248  16.18269  16.41329
  Beta virt. eigenvalues --   16.48684  16.48684  37.97392  45.20982  45.20982
  Beta virt. eigenvalues --   54.10948  54.12899  54.12899  80.76617 285.10571
  Beta virt. eigenvalues --  285.11935 285.11935 743.14951
          Condensed to atoms (all electrons):
               1          2          3          4
     1  Hf   9.819185   0.282189   0.282189   0.282189
     2  F    0.282189   9.160527   0.001016   0.001016
     3  F    0.282189   0.001016   9.160527   0.001016
     4  F    0.282189   0.001016   0.001016   9.160527
          Atomic-Atomic Spin Densities.
               1          2          3          4
     1  Hf   1.015695   0.004919   0.004919   0.004919
     2  F    0.004919  -0.015138   0.000034   0.000034
     3  F    0.004919   0.000034  -0.015138   0.000034
     4  F    0.004919   0.000034   0.000034  -0.015138
 Mulliken charges and spin densities:
               1          2
     1  Hf   1.334247   1.030453
     2  F   -0.444749  -0.010151
     3  F   -0.444749  -0.010151
     4  F   -0.444749  -0.010151
 Sum of Mulliken charges =  -0.00000   1.00000
 Mulliken charges and spin densities with hydrogens summed into heavy atoms:
               1          2
     1  Hf   1.334247   1.030453
     2  F   -0.444749  -0.010151
     3  F   -0.444749  -0.010151
     4  F   -0.444749  -0.010151
 Electronic spatial extent (au):  <R**2>=            436.9025
 Charge=             -0.0000 electrons
 Dipole moment (field-independent basis, Debye):
    X=              0.0000    Y=             -0.0000    Z=             -0.0000  Tot=              0.0000
 Quadrupole moment (field-independent basis, Debye-Ang):
   XX=            -42.5916   YY=            -42.5916   ZZ=            -35.0515
   XY=             -0.0000   XZ=              0.0000   YZ=              0.0000
 Traceless Quadrupole moment (field-independent basis, Debye-Ang):
   XX=             -2.5134   YY=             -2.5134   ZZ=              5.0267
   XY=             -0.0000   XZ=              0.0000   YZ=              0.0000
 Octapole moment (field-independent basis, Debye-Ang**2):
  XXX=              0.0000  YYY=            -10.3183  ZZZ=             -0.0000  XYY=              0.0000
  XXY=             10.3183  XXZ=             -0.0000  XZZ=              0.0000  YZZ=              0.0000
  YYZ=             -0.0000  XYZ=             -0.0000
 Hexadecapole moment (field-independent basis, Debye-Ang**3):
 XXXX=           -230.4503 YYYY=           -230.4503 ZZZZ=            -52.2280 XXXY=             -0.0000
 XXXZ=              0.0000 YYYX=             -0.0000 YYYZ=              0.0000 ZZZX=              0.0000
 ZZZY=              0.0000 XXYY=            -76.8168 XXZZ=            -42.1764 YYZZ=            -42.1764
 XXYZ=              0.0000 YYXZ=              0.0000 ZZXY=             -0.0000
 N-N= 1.294173980979D+02 E-N=-1.071774555660D+03  KE= 3.152079166714D+02
 Symmetry A1   KE= 1.900908980886D+02
 Symmetry A2   KE= 5.765540436499D+00
 Symmetry B1   KE= 1.040932897280D+02
 Symmetry B2   KE= 1.525818841829D+01
 Symmetry A1   SP= 1.000000000000D+00
 Symmetry A2   SP= 6.568296978330D-15
 Symmetry B1   SP= 2.893333850637D-14
 Symmetry B2   SP= 1.420589449026D-15
                          Isotropic Fermi Contact Couplings
        Atom                 a.u.       MegaHertz       Gauss      10(-4) cm-1
     1  Hf(177             0.00000       0.00001       0.00000       0.00000
     2  F(19)              0.01722      72.45441      25.85353      24.16819
     3  F(19)              0.01722      72.45441      25.85353      24.16819
     4  F(19)              0.01722      72.45441      25.85353      24.16819
 --------------------------------------------------------
       Center         ----  Spin Dipole Couplings  ----
                      3XX-RR        3YY-RR        3ZZ-RR
 --------------------------------------------------------
     1   Atom       -0.017338     -0.017338      0.034675
     2   Atom        0.023874      0.035336     -0.059210
     3   Atom        0.032471      0.026740     -0.059210
     4   Atom        0.032471      0.026740     -0.059210
 --------------------------------------------------------
                        XY            XZ            YZ
 --------------------------------------------------------
     1   Atom        0.000000     -0.000000     -0.000000
     2   Atom        0.000000      0.000000     -0.000000
     3   Atom        0.004963     -0.000000     -0.000000
     4   Atom       -0.004963     -0.000000      0.000000
 --------------------------------------------------------


 ---------------------------------------------------------------------------------
              Anisotropic Spin Dipole Couplings in Principal Axis System
 ---------------------------------------------------------------------------------

       Atom             a.u.   MegaHertz   Gauss  10(-4) cm-1        Axes

              Baa    -0.0173    -0.376    -0.134    -0.125 -0.0022  1.0000  0.0000
     1 Hf(177 Bbb    -0.0173    -0.376    -0.134    -0.125  1.0000  0.0022 -0.0000
              Bcc     0.0347     0.751     0.268     0.251  0.0000  0.0000  1.0000
 
              Baa    -0.0592   -29.737   -10.611    -9.919  0.0000  0.0000  1.0000
     2 F(19)  Bbb     0.0239    11.990     4.278     4.000  1.0000 -0.0000  0.0000
              Bcc     0.0353    17.747     6.333     5.920  0.0000  1.0000 -0.0000
 
              Baa    -0.0592   -29.737   -10.611    -9.919  0.0000  0.0000  1.0000
     3 F(19)  Bbb     0.0239    11.990     4.278     4.000 -0.5000  0.8660 -0.0000
              Bcc     0.0353    17.747     6.333     5.920  0.8660  0.5000 -0.0000
 
              Baa    -0.0592   -29.737   -10.611    -9.919  0.0000  0.0000  1.0000
     4 F(19)  Bbb     0.0239    11.990     4.278     4.000  0.5000  0.8660 -0.0000
              Bcc     0.0353    17.747     6.333     5.920  0.8660 -0.5000  0.0000
 

 ---------------------------------------------------------------------------------

 Unable to Open any file for archive entry.
 1\1\GINC-TCOPT10\FOpt\UPBE1PBE\def2QZVPP\F3Hf1(2)\HUTTER\01-Aug-2021\0
 \\#N UPBE1PBE/Def2QZVPP scf=tight Int(Grid=ultrafine) OPT FREQ\\Mol jo
 b 1\\0,2\Hf,8.9814113291,8.5,8.5\F,9.9306458486,6.8558775839,8.5\F,9.9
 306458486,10.1441224161,8.5\F,7.0829422901,8.5,8.5\\Version=ES64L-G16R
 evC.01\HF=-347.6320202\S2=0.75149\S2-1=0.\S2A=0.750002\RMSD=9.704e-10\
 RMSF=6.494e-07\Dipole=0.,0.,0.\Quadrupole=-1.8686152,-1.8686152,3.7372
 303,0.,0.,0.\PG=D03H [O(Hf1),3C2(F1)]\\@
 The archive entry for this job was punched.


 THE HURRIEDER I GO, THE BEHINDER I GET.
 Job cpu time:       0 days  0 hours 20 minutes  8.0 seconds.
 Elapsed time:       0 days  0 hours  3 minutes 19.2 seconds.
 File lengths (MBytes):  RWF=     55 Int=      0 D2E=      0 Chk=      7 Scr=      1
 Normal termination of Gaussian 16 at Sun Aug  1 11:34:46 2021.
 Link1:  Proceeding to internal job step number  2.
 ----------------------------------------------------------------------
 #N Geom=AllCheck Guess=TCheck SCRF=Check GenChk UPBE1PBE/def2QZVPP Fre
 q
 ----------------------------------------------------------------------
 1/10=4,29=7,30=1,38=1,40=1/1,3;
 2/12=2,40=1/2;
 3/5=45,7=202,11=2,14=-4,25=1,30=1,70=2,71=2,74=-13,75=-5,116=2,140=1/1,2,3;
 4/5=101/1;
 5/5=2,32=2,38=6,98=1/2;
 8/6=4,10=90,11=11/1;
 11/6=1,8=1,9=11,15=111,16=1/1,2,10;
 10/6=1/2;
 6/7=2,8=2,9=2,10=2,28=1/1;
 7/8=1,10=1,25=1/1,2,3,16;
 1/10=4,30=1/3;
 99//99;
 Structure from the checkpoint file:  "/data/hutter/SMG16/PBE0/Gau-55115.chk"
 ---------
 Mol job 1
 ---------
 Charge =  0 Multiplicity = 2
 Redundant internal coordinates found in file.  (old form).
 Hf,0,8.9814113291,8.5,8.5
 F,0,9.9306458486,6.8558775839,8.5
 F,0,9.9306458486,10.1441224161,8.5
 F,0,7.0829422901,8.5,8.5
 Recover connectivity data from disk.

 GradGradGradGradGradGradGradGradGradGradGradGradGradGradGradGradGradGrad
 Berny optimization.
 Initialization pass.
                           ----------------------------
                           !    Initial Parameters    !
                           ! (Angstroms and Degrees)  !
 --------------------------                            --------------------------
 ! Name  Definition              Value          Derivative Info.                !
 --------------------------------------------------------------------------------
 ! R1    R(1,2)                  1.8985         calculate D2E/DX2 analytically  !
 ! R2    R(1,3)                  1.8985         calculate D2E/DX2 analytically  !
 ! R3    R(1,4)                  1.8985         calculate D2E/DX2 analytically  !
 ! A1    A(2,1,3)              120.0            calculate D2E/DX2 analytically  !
 ! A2    A(2,1,4)              120.0            calculate D2E/DX2 analytically  !
 ! A3    A(3,1,4)              120.0            calculate D2E/DX2 analytically  !
 ! D1    D(2,1,4,3)            180.0            calculate D2E/DX2 analytically  !
 --------------------------------------------------------------------------------
 Trust Radius=3.00D-01 FncErr=1.00D-07 GrdErr=1.00D-07 EigMax=2.50D+02 EigMin=1.00D-04
 Number of steps in this run=      2 maximum allowed number of steps=      2.
 GradGradGradGradGradGradGradGradGradGradGradGradGradGradGradGradGradGrad

                          Input orientation:                          
 ---------------------------------------------------------------------
 Center     Atomic      Atomic             Coordinates (Angstroms)
 Number     Number       Type             X           Y           Z
 ---------------------------------------------------------------------
      1         72           0        8.981411    8.500000    8.500000
      2          9           0        9.930646    6.855878    8.500000
      3          9           0        9.930646   10.144122    8.500000
      4          9           0        7.082942    8.500000    8.500000
 ---------------------------------------------------------------------
                    Distance matrix (angstroms):
                    1          2          3          4
     1  Hf   0.000000
     2  F    1.898469   0.000000
     3  F    1.898469   3.288245   0.000000
     4  F    1.898469   3.288245   3.288245   0.000000
 Stoichiometry    F3Hf(2)
 Framework group  D3H[O(Hf),3C2(F)]
 Deg. of freedom     1
 Full point group                 D3H     NOp  12
 Largest Abelian subgroup         C2V     NOp   4
 Largest concise Abelian subgroup C2      NOp   2
                         Standard orientation:                         
 ---------------------------------------------------------------------
 Center     Atomic      Atomic             Coordinates (Angstroms)
 Number     Number       Type             X           Y           Z
 ---------------------------------------------------------------------
      1         72           0        0.000000    0.000000    0.000000
      2          9           0        0.000000    1.898469   -0.000000
      3          9           0       -1.644122   -0.949235   -0.000000
      4          9           0        1.644122   -0.949235    0.000000
 ---------------------------------------------------------------------
 Rotational constants (GHZ):           4.9204158           4.9204158           2.4602079
 Standard basis: def2QZVPP (5D, 7F)
 There are   125 symmetry adapted cartesian basis functions of A1  symmetry.
 There are    45 symmetry adapted cartesian basis functions of A2  symmetry.
 There are    88 symmetry adapted cartesian basis functions of B1  symmetry.
 There are    64 symmetry adapted cartesian basis functions of B2  symmetry.
 There are    93 symmetry adapted basis functions of A1  symmetry.
 There are    38 symmetry adapted basis functions of A2  symmetry.
 There are    69 symmetry adapted basis functions of B1  symmetry.
 There are    52 symmetry adapted basis functions of B2  symmetry.
   252 basis functions,   406 primitive gaussians,   322 cartesian basis functions
    20 alpha electrons       19 beta electrons
       nuclear repulsion energy       129.4173980979 Hartrees.
 NAtoms=    4 NActive=    4 NUniq=    2 SFac= 4.00D+00 NAtFMM=   60 NAOKFM=F Big=F
 Integral buffers will be    131072 words long.
 Raffenetti 2 integral format.
 Two-electron integral symmetry is turned on.
 One-electron integrals computed using PRISM.
  12 Symmetry operations used in ECPInt.
 ECPInt:  NShTT=    2628 NPrTT=    6918 LenC2=    2473 LenP2D=    5319.
 LDataN:  DoStor=T MaxTD1= 9 Len=  602
 NBasis=   252 RedAO= T EigKep=  7.64D-04  NBF=    93    38    69    52
 NBsUse=   252 1.00D-06 EigRej= -1.00D+00 NBFU=    93    38    69    52
 Defaulting to unpruned grid for atomic number  72.
 Initial guess from the checkpoint file:  "/data/hutter/SMG16/PBE0/Gau-55115.chk"
 B after Tr=     0.000000   -0.000000   -0.000000
         Rot=    1.000000    0.000000    0.000000   -0.000000 Ang=   0.00 deg.
 Initial guess orbital symmetries:
 Alpha Orbitals:
       Occupied  (?A) (?A) (A1') (?B) (?A) (?A) (?C) (?B) (?A)
                 (?A) (?B) (?A) (?A) (?D) (?D) (?C) (?B) (?A) (?A)
                 (?B)
       Virtual   (?D) (?D) (?C) (?B) (?A) (?A) (?A) (?A) (?B) (?D)
                 (?D) (?C) (?B) (?A) (?A) (?A) (?A) (?B) (?A) (?A)
                 (?D) (?D) (?C) (?B) (?B) (?C) (?A) (?A) (?D) (?D)
                 (?A) (?A) (?B) (?B) (?C) (?B) (?D) (?D) (?A) (?A)
                 (?A) (?A) (?C) (?A) (?A) (?D) (?D) (?B) (?C) (?A)
                 (?A) (?C) (?D) (?D) (?B) (?B) (?A) (?A) (?B) (?A)
                 (?A) (?D) (?D) (?B) (?A) (?A) (?B) (?B) (?A) (?A)
                 (?C) (?C) (?D) (?D) (?A) (?A) (?D) (?D) (?C) (?A)
                 (?A) (?C) (?B) (?B) (?A) (?A) (?B) (?D) (?D) (?C)
                 (?A) (?A) (?A) (?A) (?B) (?A) (?A) (?D) (?D) (?C)
                 (?B) (?B) (?D) (?D) (?A) (?A) (?B) (?A) (?A) (?B)
                 (?D) (?D) (?B) (?A) (?A) (?C) (?D) (?D) (?A) (?A)
                 (?C) (?B) (?B) (?D) (?D) (?C) (?A) (?A) (?B) (?A)
                 (?A) (?D) (?D) (?B) (?A) (?A) (?C) (?D) (?D) (?C)
                 (?A) (?A) (?B) (?B) (?A) (?A) (?C) (?D) (?D) (?B)
                 (?A) (?A) (?B) (?A) (?A) (?D) (?D) (?B) (?A) (?A)
                 (?D) (?D) (?C) (?B) (?A) (?A) (?B) (?C) (?A) (?A)
                 (?D) (?D) (?B) (?C) (?D) (?D) (?C) (?A) (?A) (?B)
                 (?A) (?A) (?B) (?D) (?D) (?A) (?A) (?C) (?D) (?D)
                 (?A) (?A) (?B) (?C) (?D) (?D) (?A) (?A) (?B) (?B)
                 (?C) (?A) (?A) (?B) (?A) (?A) (?D) (?D) (?B) (?A)
                 (?A) (?C) (?D) (?D) (?C) (?A) (?A) (?B) (?B) (?A)
                 (?A) (?C) (?A) (?A) (?B) (?A) (?A) (?B) (?B) (?A)
                 (?A) (?B)
 Beta  Orbitals:
       Occupied  (?A) (?A) (A1') (?B) (?A) (?A) (?C) (?B) (?A)
                 (?A) (?B) (?A) (?A) (?D) (?D) (?C) (?B) (?A) (?A)
       Virtual   (?B) (?D) (?D) (?C) (?B) (?A) (?A) (?A) (?A) (?B)
                 (?D) (?D) (?A) (?A) (?B) (?C) (?A) (?A) (?B) (?A)
                 (?A) (?D) (?D) (?C) (?B) (?B) (?A) (?A) (?C) (?D)
                 (?D) (?A) (?A) (?B) (?B) (?C) (?A) (?A) (?B) (?D)
                 (?D) (?A) (?A) (?C) (?A) (?A) (?D) (?D) (?B) (?C)
                 (?A) (?A) (?D) (?D) (?C) (?B) (?B) (?A) (?A) (?B)
                 (?A) (?A) (?D) (?D) (?B) (?A) (?A) (?B) (?B) (?A)
                 (?A) (?C) (?C) (?D) (?D) (?A) (?A) (?D) (?D) (?C)
                 (?A) (?A) (?C) (?B) (?B) (?A) (?A) (?B) (?D) (?D)
                 (?C) (?A) (?A) (?A) (?A) (?B) (?D) (?D) (?A) (?A)
                 (?C) (?B) (?B) (?D) (?D) (?A) (?A) (?B) (?A) (?A)
                 (?B) (?D) (?D) (?B) (?A) (?A) (?C) (?D) (?D) (?A)
                 (?A) (?C) (?B) (?B) (?D) (?D) (?C) (?A) (?A) (?B)
                 (?A) (?A) (?D) (?D) (?B) (?A) (?A) (?C) (?D) (?D)
                 (?C) (?A) (?A) (?B) (?B) (?A) (?A) (?C) (?D) (?D)
                 (?B) (?A) (?A) (?B) (?A) (?A) (?D) (?D) (?B) (?A)
                 (?A) (?D) (?D) (?C) (?A) (?A) (?B) (?B) (?C) (?A)
                 (?A) (?D) (?D) (?B) (?C) (?D) (?D) (?C) (?A) (?A)
                 (?B) (?A) (?A) (?B) (?D) (?D) (?A) (?A) (?C) (?D)
                 (?D) (?A) (?A) (?B) (?C) (?D) (?D) (?A) (?A) (?B)
                 (?B) (?C) (?A) (?A) (?B) (?A) (?A) (?D) (?D) (?B)
                 (?A) (?A) (?C) (?D) (?D) (?C) (?A) (?A) (?B) (?B)
                 (?A) (?A) (?C) (?A) (?A) (?B) (?A) (?A) (?B) (?B)
                 (?A) (?A) (?B)
 Initial guess <Sx>= 0.0000 <Sy>= 0.0000 <Sz>= 0.5000 <S**2>= 0.7515 S= 0.5007
 Keep R1 and R2 ints in memory in symmetry-blocked form, NReq=636253166.
 Requested convergence on RMS density matrix=1.00D-08 within 128 cycles.
 Requested convergence on MAX density matrix=1.00D-06.
 Requested convergence on             energy=1.00D-06.
 No special actions if energy rises.
 Defaulting to unpruned grid for atomic number  72.
 Defaulting to unpruned grid for atomic number  72.
 Defaulting to unpruned grid for atomic number  72.
 Defaulting to unpruned grid for atomic number  72.
 Defaulting to unpruned grid for atomic number  72.
 Defaulting to unpruned grid for atomic number  72.
 Defaulting to unpruned grid for atomic number  72.
 Defaulting to unpruned grid for atomic number  72.
 SCF Done:  E(UPBE1PBE) =  -347.632020160     A.U. after    1 cycles
            NFock=  1  Conv=0.12D-09     -V/T= 2.1029
 <Sx>= 0.0000 <Sy>= 0.0000 <Sz>= 0.5000 <S**2>= 0.7515 S= 0.5007
 <L.S>=  0.00000000000    
 Annihilation of the first spin contaminant:
 S**2 before annihilation     0.7515,   after     0.7500
 DoSCS=F DFT=T ScalE2(SS,OS)=  1.000000  1.000000
 Range of M.O.s used for correlation:     1   252
 NBasis=   252 NAE=    20 NBE=    19 NFC=     0 NFV=     0
 NROrb=    252 NOA=    20 NOB=    19 NVA=   232 NVB=   233

 **** Warning!!: The largest alpha MO coefficient is  0.12161912D+02


 **** Warning!!: The largest beta MO coefficient is  0.12092891D+02

  12 Symmetry operations used in ECPInt.
 ECPInt:  NShTT=    2628 NPrTT=    6918 LenC2=    2473 LenP2D=    5319.
 LDataN:  DoStor=T MaxTD1=10 Len=  848
 Symmetrizing basis deriv contribution to polar:
 IMax=3 JMax=2 DiffMx= 0.00D+00
 G2DrvN: will do     5 centers at a time, making    1 passes.
 Calling FoFCou, ICntrl=  3107 FMM=F I1Cent=   0 AccDes= 0.00D+00.
 Defaulting to unpruned grid for atomic number  72.
 Defaulting to unpruned grid for atomic number  72.
 Defaulting to unpruned grid for atomic number  72.
 Defaulting to unpruned grid for atomic number  72.
 Defaulting to unpruned grid for atomic number  72.
 Defaulting to unpruned grid for atomic number  72.
 Defaulting to unpruned grid for atomic number  72.
 Defaulting to unpruned grid for atomic number  72.
 End of G2Drv F.D. properties file   721 does not exist.
 End of G2Drv F.D. properties file   722 does not exist.
 End of G2Drv F.D. properties file   788 does not exist.
          IDoAtm=1111
          Differentiating once with respect to electric field.
                with respect to dipole field.
          Differentiating once with respect to nuclear coordinates.
 Defaulting to unpruned grid for atomic number  72.
 Keep R1 and R2 ints in memory in symmetry-blocked form, NReq=636255965.
 Defaulting to unpruned grid for atomic number  72.
 Defaulting to unpruned grid for atomic number  72.
 Defaulting to unpruned grid for atomic number  72.
 Defaulting to unpruned grid for atomic number  72.
 Defaulting to unpruned grid for atomic number  72.
 Defaulting to unpruned grid for atomic number  72.
 Defaulting to unpruned grid for atomic number  72.
 Defaulting to unpruned grid for atomic number  72.
          There are     9 degrees of freedom in the 1st order CPHF.  IDoFFX=4 NUNeed=     9.
      9 vectors produced by pass  0 Test12= 1.01D-13 1.11D-08 XBig12= 1.47D+02 1.14D+01.
 AX will form     9 AO Fock derivatives at one time.
      9 vectors produced by pass  1 Test12= 1.01D-13 1.11D-08 XBig12= 1.54D+01 1.59D+00.
      9 vectors produced by pass  2 Test12= 1.01D-13 1.11D-08 XBig12= 6.48D-01 2.64D-01.
      9 vectors produced by pass  3 Test12= 1.01D-13 1.11D-08 XBig12= 5.45D-02 7.67D-02.
      9 vectors produced by pass  4 Test12= 1.01D-13 1.11D-08 XBig12= 8.52D-04 1.05D-02.
      9 vectors produced by pass  5 Test12= 1.01D-13 1.11D-08 XBig12= 2.79D-05 1.58D-03.
      9 vectors produced by pass  6 Test12= 1.01D-13 1.11D-08 XBig12= 6.23D-07 2.76D-04.
      8 vectors produced by pass  7 Test12= 1.01D-13 1.11D-08 XBig12= 7.58D-09 1.89D-05.
      6 vectors produced by pass  8 Test12= 1.01D-13 1.11D-08 XBig12= 8.90D-11 1.87D-06.
      3 vectors produced by pass  9 Test12= 1.01D-13 1.11D-08 XBig12= 1.30D-12 2.38D-07.
      2 vectors produced by pass 10 Test12= 1.01D-13 1.11D-08 XBig12= 1.45D-14 2.64D-08.
 InvSVY:  IOpt=1 It=  1 EMax= 8.88D-16
 Solved reduced A of dimension    82 with     9 vectors.
 Isotropic polarizability for W=    0.000000       46.99 Bohr**3.
 End of Minotr F.D. properties file   721 does not exist.
 End of Minotr F.D. properties file   722 does not exist.
 End of Minotr F.D. properties file   788 does not exist.

 **********************************************************************

            Population analysis using the SCF Density.

 **********************************************************************

 Orbital symmetries:
 Alpha Orbitals:
       Occupied  (?A) (?A) (A1') (?B) (?A) (?A) (?C) (?B) (?A)
                 (?A) (?B) (?A) (?A) (?D) (?D) (?C) (?B) (?A) (?A)
                 (?B)
       Virtual   (?D) (?D) (?C) (?B) (?A) (?A) (?A) (?A) (?B) (?D)
                 (?D) (?C) (?B) (?A) (?A) (?A) (?A) (?B) (?A) (?A)
                 (?D) (?D) (?C) (?B) (?B) (?C) (?A) (?A) (?D) (?D)
                 (?A) (?A) (?B) (?B) (?C) (?B) (?D) (?D) (?A) (?A)
                 (?A) (?A) (?C) (?A) (?A) (?D) (?D) (?B) (?C) (?A)
                 (?A) (?C) (?D) (?D) (?B) (?B) (?A) (?A) (?B) (?A)
                 (?A) (?D) (?D) (?B) (?A) (?A) (?B) (?B) (?A) (?A)
                 (?C) (?C) (?D) (?D) (?A) (?A) (?D) (?D) (?C) (?A)
                 (?A) (?C) (?B) (?B) (?A) (?A) (?B) (?D) (?D) (?C)
                 (?A) (?A) (?A) (?A) (?B) (?A) (?A) (?D) (?D) (?C)
                 (?B) (?B) (?D) (?D) (?A) (?A) (?B) (?A) (?A) (?B)
                 (?D) (?D) (?B) (?A) (?A) (?C) (?D) (?D) (?A) (?A)
                 (?C) (?B) (?B) (?D) (?D) (?C) (?A) (?A) (?B) (?A)
                 (?A) (?D) (?D) (?B) (?A) (?A) (?C) (?D) (?D) (?C)
                 (?A) (?A) (?B) (?B) (?A) (?A) (?C) (?D) (?D) (?B)
                 (?A) (?A) (?B) (?A) (?A) (?D) (?D) (?B) (?A) (?A)
                 (?D) (?D) (?C) (?B) (?A) (?A) (?B) (?C) (?A) (?A)
                 (?D) (?D) (?B) (?C) (?D) (?D) (?C) (?A) (?A) (?B)
                 (?A) (?A) (?B) (?D) (?D) (?A) (?A) (?C) (?D) (?D)
                 (?A) (?A) (?B) (?C) (?D) (?D) (?A) (?A) (?B) (?B)
                 (?C) (?A) (?A) (?B) (?A) (?A) (?D) (?D) (?B) (?A)
                 (?A) (?C) (?D) (?D) (?C) (?A) (?A) (?B) (?B) (?A)
                 (?A) (?C) (?A) (?A) (?B) (?A) (?A) (?B) (?B) (?A)
                 (?A) (?B)
 Beta  Orbitals:
       Occupied  (?A) (?A) (A1') (?B) (?A) (?A) (?C) (?B) (?A)
                 (?A) (?B) (?A) (?A) (?D) (?D) (?C) (?B) (?A) (?A)
       Virtual   (?B) (?D) (?D) (?C) (?B) (?A) (?A) (?A) (?A) (?B)
                 (?D) (?D) (?A) (?A) (?B) (?C) (?A) (?A) (?B) (?A)
                 (?A) (?D) (?D) (?C) (?B) (?B) (?A) (?A) (?C) (?D)
                 (?D) (?A) (?A) (?B) (?B) (?C) (?A) (?A) (?B) (?D)
                 (?D) (?A) (?A) (?C) (?A) (?A) (?D) (?D) (?B) (?C)
                 (?A) (?A) (?D) (?D) (?C) (?B) (?B) (?A) (?A) (?B)
                 (?A) (?A) (?D) (?D) (?B) (?A) (?A) (?B) (?B) (?A)
                 (?A) (?C) (?C) (?D) (?D) (?A) (?A) (?D) (?D) (?C)
                 (?A) (?A) (?C) (?B) (?B) (?A) (?A) (?B) (?D) (?D)
                 (?C) (?A) (?A) (?A) (?A) (?B) (?D) (?D) (?A) (?A)
                 (?C) (?B) (?B) (?D) (?D) (?A) (?A) (?B) (?A) (?A)
                 (?B) (?D) (?D) (?B) (?A) (?A) (?C) (?D) (?D) (?A)
                 (?A) (?C) (?B) (?B) (?D) (?D) (?C) (?A) (?A) (?B)
                 (?A) (?A) (?D) (?D) (?B) (?A) (?A) (?C) (?D) (?D)
                 (?C) (?A) (?A) (?B) (?B) (?A) (?A) (?C) (?D) (?D)
                 (?B) (?A) (?A) (?B) (?A) (?A) (?D) (?D) (?B) (?A)
                 (?A) (?D) (?D) (?C) (?A) (?A) (?B) (?B) (?C) (?A)
                 (?A) (?D) (?D) (?B) (?C) (?D) (?D) (?C) (?A) (?A)
                 (?B) (?A) (?A) (?B) (?D) (?D) (?A) (?A) (?C) (?D)
                 (?D) (?A) (?A) (?B) (?C) (?D) (?D) (?A) (?A) (?B)
                 (?B) (?C) (?A) (?A) (?B) (?A) (?A) (?D) (?D) (?B)
                 (?A) (?A) (?C) (?D) (?D) (?C) (?A) (?A) (?B) (?B)
                 (?A) (?A) (?C) (?A) (?A) (?B) (?A) (?A) (?B) (?B)
                 (?A) (?A) (?B)
 Unable to determine electronic state:  an orbital has unidentified symmetry.
 Alpha  occ. eigenvalues --  -24.75968 -24.75968 -24.75968  -2.54854  -1.41331
 Alpha  occ. eigenvalues --   -1.41331  -1.38356  -1.19494  -1.15327  -1.15327
 Alpha  occ. eigenvalues --   -0.48747  -0.48187  -0.48187  -0.45638  -0.45638
 Alpha  occ. eigenvalues --   -0.44133  -0.43998  -0.43552  -0.43552  -0.22223
 Alpha virt. eigenvalues --   -0.04642  -0.04642  -0.02430  -0.00065   0.01537
 Alpha virt. eigenvalues --    0.01537   0.06147   0.06147   0.10003   0.15298
 Alpha virt. eigenvalues --    0.15298   0.15595   0.16235   0.17993   0.17993
 Alpha virt. eigenvalues --    0.25035   0.25035   0.32972   0.33049   0.33049
 Alpha virt. eigenvalues --    0.36061   0.36061   0.37019   0.39643   0.40420
 Alpha virt. eigenvalues --    0.48513   0.48820   0.48820   0.50921   0.50921
 Alpha virt. eigenvalues --    0.55165   0.55165   0.56052   0.61519   0.69489
 Alpha virt. eigenvalues --    0.72048   0.73689   0.73689   0.74321   0.74321
 Alpha virt. eigenvalues --    0.81910   0.81910   0.84287   0.87110   0.87110
 Alpha virt. eigenvalues --    0.88983   0.88983   0.91064   0.92478   0.94364
 Alpha virt. eigenvalues --    0.94364   0.98852   0.99302   0.99302   1.05801
 Alpha virt. eigenvalues --    1.12871   1.16067   1.16067   1.29892   1.37738
 Alpha virt. eigenvalues --    1.37738   1.49537   1.49537   1.60126   1.60552
 Alpha virt. eigenvalues --    1.60552   1.70770   1.72120   1.73683   1.73683
 Alpha virt. eigenvalues --    1.74128   1.76646   1.77000   1.77000   1.80688
 Alpha virt. eigenvalues --    1.80688   1.89631   1.89631   1.90710   2.00543
 Alpha virt. eigenvalues --    2.00543   2.09492   2.16442   2.18017   2.22823
 Alpha virt. eigenvalues --    2.22823   2.26091   2.31743   2.31743   2.38551
 Alpha virt. eigenvalues --    2.47370   2.47370   2.61027   2.61027   2.65942
 Alpha virt. eigenvalues --    2.80798   2.80798   2.81545   2.81545   2.85269
 Alpha virt. eigenvalues --    2.96886   3.06837   3.13276   3.13276   3.61600
 Alpha virt. eigenvalues --    3.61600   3.64065   4.09475   4.09475   4.14464
 Alpha virt. eigenvalues --    4.15396   4.15396   4.16282   4.19475   4.19475
 Alpha virt. eigenvalues --    4.19625   4.21789   4.21789   4.25598   4.25598
 Alpha virt. eigenvalues --    4.32729   4.38298   4.50026   4.55378   4.55378
 Alpha virt. eigenvalues --    4.59206   4.65474   4.65474   4.71390   4.97449
 Alpha virt. eigenvalues --    4.97449   5.03768   5.03768   5.13379   5.13630
 Alpha virt. eigenvalues --    5.13630   5.23169   5.44732   5.44732   5.47591
 Alpha virt. eigenvalues --    5.52820   5.52820   5.53821   5.71935   5.94094
 Alpha virt. eigenvalues --    5.94094   6.34541   6.35199   6.35199   6.37689
 Alpha virt. eigenvalues --    6.44917   6.44917   7.20290   7.27322   7.27322
 Alpha virt. eigenvalues --   11.39173  11.39173  11.39392  11.39578  11.39578
 Alpha virt. eigenvalues --   11.39647  11.39647  11.39815  11.39833  11.39845
 Alpha virt. eigenvalues --   11.39845  11.40544  11.40726  11.40743  11.40743
 Alpha virt. eigenvalues --   11.40753  11.40753  11.40858  11.42182  11.42512
 Alpha virt. eigenvalues --   11.42512  11.43034  11.43860  11.43860  11.44561
 Alpha virt. eigenvalues --   11.48622  11.48622  14.56465  14.56892  14.56892
 Alpha virt. eigenvalues --   14.58497  14.58497  14.58926  14.59846  14.59846
 Alpha virt. eigenvalues --   14.62392  14.62392  14.62750  14.64947  14.75065
 Alpha virt. eigenvalues --   14.75065  14.76589  14.76589  14.79499  14.80449
 Alpha virt. eigenvalues --   14.80914  14.84985  14.84985  15.14114  15.24159
 Alpha virt. eigenvalues --   15.24159  15.82093  15.82093  15.88027  15.88245
 Alpha virt. eigenvalues --   15.88245  15.94861  16.10330  16.10330  16.11815
 Alpha virt. eigenvalues --   16.18312  16.18312  16.18314  16.41391  16.48754
 Alpha virt. eigenvalues --   16.48754  37.95890  45.20422  45.20422  54.10998
 Alpha virt. eigenvalues --   54.12949  54.12949  80.76274 285.10584 285.11948
 Alpha virt. eigenvalues --  285.11948 743.14573
  Beta  occ. eigenvalues --  -24.76011 -24.76011 -24.76011  -2.53723  -1.40560
  Beta  occ. eigenvalues --   -1.40560  -1.35559  -1.19574  -1.15270  -1.15270
  Beta  occ. eigenvalues --   -0.48720  -0.48174  -0.48174  -0.45673  -0.45673
  Beta  occ. eigenvalues --   -0.44254  -0.44054  -0.43588  -0.43588
  Beta virt. eigenvalues --   -0.09356  -0.02764  -0.02764   0.01664   0.01926
  Beta virt. eigenvalues --    0.02269   0.02269   0.06733   0.06733   0.11016
  Beta virt. eigenvalues --    0.16678   0.16678   0.18405   0.18405   0.19490
  Beta virt. eigenvalues --    0.19632   0.26810   0.26810   0.33325   0.34240
  Beta virt. eigenvalues --    0.34240   0.36731   0.36731   0.39248   0.39648
  Beta virt. eigenvalues --    0.41403   0.49182   0.49182   0.49219   0.51605
  Beta virt. eigenvalues --    0.51605   0.55700   0.55700   0.56946   0.61680
  Beta virt. eigenvalues --    0.69776   0.75627   0.75627   0.76807   0.76821
  Beta virt. eigenvalues --    0.76821   0.82654   0.82654   0.87575   0.87576
  Beta virt. eigenvalues --    0.87576   0.90459   0.90459   0.92466   0.95340
  Beta virt. eigenvalues --    0.97309   0.97309   1.00241   1.00241   1.01370
  Beta virt. eigenvalues --    1.05960   1.13297   1.16739   1.16739   1.30996
  Beta virt. eigenvalues --    1.38527   1.38527   1.49629   1.49629   1.60321
  Beta virt. eigenvalues --    1.60732   1.60732   1.71083   1.72106   1.73735
  Beta virt. eigenvalues --    1.73735   1.74159   1.76720   1.77104   1.77104
  Beta virt. eigenvalues --    1.80738   1.80738   1.91219   1.91219   1.91321
  Beta virt. eigenvalues --    2.00865   2.00865   2.09946   2.18221   2.20017
  Beta virt. eigenvalues --    2.24729   2.24729   2.27412   2.34280   2.34280
  Beta virt. eigenvalues --    2.39427   2.47674   2.47674   2.61556   2.61556
  Beta virt. eigenvalues --    2.68130   2.82473   2.82473   2.83090   2.83090
  Beta virt. eigenvalues --    2.88237   2.97745   3.07439   3.14197   3.14197
  Beta virt. eigenvalues --    3.61853   3.61853   3.65073   4.09512   4.09512
  Beta virt. eigenvalues --    4.14439   4.15385   4.15385   4.16426   4.19467
  Beta virt. eigenvalues --    4.19467   4.19605   4.21809   4.21809   4.25678
  Beta virt. eigenvalues --    4.25678   4.32749   4.38568   4.50036   4.55452
  Beta virt. eigenvalues --    4.55452   4.59331   4.65520   4.65520   4.71713
  Beta virt. eigenvalues --    4.97582   4.97582   5.03707   5.03707   5.13343
  Beta virt. eigenvalues --    5.13589   5.13589   5.23122   5.44783   5.44783
  Beta virt. eigenvalues --    5.47724   5.52802   5.52802   5.53835   5.72025
  Beta virt. eigenvalues --    5.94185   5.94185   6.34531   6.35161   6.35161
  Beta virt. eigenvalues --    6.37689   6.44899   6.44899   7.20420   7.27377
  Beta virt. eigenvalues --    7.27377  11.39114  11.39114  11.39322  11.39520
  Beta virt. eigenvalues --   11.39520  11.39590  11.39590  11.39746  11.39794
  Beta virt. eigenvalues --   11.39794  11.39815  11.40487  11.40649  11.40669
  Beta virt. eigenvalues --   11.40669  11.40676  11.40676  11.40802  11.42129
  Beta virt. eigenvalues --   11.42446  11.42446  11.42977  11.43814  11.43814
  Beta virt. eigenvalues --   11.44511  11.48603  11.48603  14.56355  14.56786
  Beta virt. eigenvalues --   14.56786  14.58391  14.58391  14.58817  14.59756
  Beta virt. eigenvalues --   14.59756  14.62312  14.62312  14.62665  14.64860
  Beta virt. eigenvalues --   14.74969  14.74969  14.76526  14.76526  14.79455
  Beta virt. eigenvalues --   14.80383  14.80825  14.84930  14.84930  15.14062
  Beta virt. eigenvalues --   15.24107  15.24107  15.81965  15.81965  15.87898
  Beta virt. eigenvalues --   15.88129  15.88129  15.94735  16.10213  16.10213
  Beta virt. eigenvalues --   16.11710  16.18248  16.18248  16.18269  16.41329
  Beta virt. eigenvalues --   16.48684  16.48684  37.97392  45.20982  45.20982
  Beta virt. eigenvalues --   54.10948  54.12899  54.12899  80.76617 285.10571
  Beta virt. eigenvalues --  285.11935 285.11935 743.14951
          Condensed to atoms (all electrons):
               1          2          3          4
     1  Hf   9.819185   0.282189   0.282189   0.282189
     2  F    0.282189   9.160527   0.001016   0.001016
     3  F    0.282189   0.001016   9.160527   0.001016
     4  F    0.282189   0.001016   0.001016   9.160527
          Atomic-Atomic Spin Densities.
               1          2          3          4
     1  Hf   1.015695   0.004919   0.004919   0.004919
     2  F    0.004919  -0.015138   0.000034   0.000034
     3  F    0.004919   0.000034  -0.015138   0.000034
     4  F    0.004919   0.000034   0.000034  -0.015138
 Mulliken charges and spin densities:
               1          2
     1  Hf   1.334247   1.030453
     2  F   -0.444749  -0.010151
     3  F   -0.444749  -0.010151
     4  F   -0.444749  -0.010151
 Sum of Mulliken charges =  -0.00000   1.00000
 Mulliken charges and spin densities with hydrogens summed into heavy atoms:
               1          2
     1  Hf   1.334247   1.030453
     2  F   -0.444749  -0.010151
     3  F   -0.444749  -0.010151
     4  F   -0.444749  -0.010151
 APT charges:
               1
     1  Hf   1.800319
     2  F   -0.600050
     3  F   -0.600092
     4  F   -0.600092
 Sum of APT charges =   0.00008
 APT charges with hydrogens summed into heavy atoms:
               1
     1  Hf   1.800319
     2  F   -0.600050
     3  F   -0.600092
     4  F   -0.600092
 Electronic spatial extent (au):  <R**2>=            436.9025
 Charge=             -0.0000 electrons
 Dipole moment (field-independent basis, Debye):
    X=             -0.0000    Y=              0.0000    Z=              0.0000  Tot=              0.0000
 Quadrupole moment (field-independent basis, Debye-Ang):
   XX=            -42.5916   YY=            -42.5916   ZZ=            -35.0515
   XY=             -0.0000   XZ=              0.0000   YZ=             -0.0000
 Traceless Quadrupole moment (field-independent basis, Debye-Ang):
   XX=             -2.5134   YY=             -2.5134   ZZ=              5.0267
   XY=             -0.0000   XZ=              0.0000   YZ=             -0.0000
 Octapole moment (field-independent basis, Debye-Ang**2):
  XXX=             -0.0000  YYY=            -10.3183  ZZZ=              0.0000  XYY=              0.0000
  XXY=             10.3183  XXZ=              0.0000  XZZ=             -0.0000  YZZ=              0.0000
  YYZ=              0.0000  XYZ=             -0.0000
 Hexadecapole moment (field-independent basis, Debye-Ang**3):
 XXXX=           -230.4503 YYYY=           -230.4503 ZZZZ=            -52.2280 XXXY=              0.0000
 XXXZ=              0.0000 YYYX=             -0.0000 YYYZ=             -0.0000 ZZZX=              0.0000
 ZZZY=             -0.0000 XXYY=            -76.8168 XXZZ=            -42.1764 YYZZ=            -42.1764
 XXYZ=             -0.0000 YYXZ=              0.0000 ZZXY=              0.0000
 N-N= 1.294173980979D+02 E-N=-1.071774556501D+03  KE= 3.152079171156D+02
 Symmetry A1   KE= 1.900908982459D+02
 Symmetry A2   KE= 5.765540484310D+00
 Symmetry B1   KE= 1.040932898739D+02
 Symmetry B2   KE= 1.525818851157D+01
 Symmetry A1   SP= 1.000000000000D+00
 Symmetry A2   SP=-2.524538606490D-15
 Symmetry B1   SP=-1.555731734640D-14
 Symmetry B2   SP=-7.755203272099D-15
  Exact polarizability:      38.508      -0.000      38.511       0.000       0.000      63.942
 Approx polarizability:      49.347      -0.000      49.347      -0.000       0.000      76.854
                          Isotropic Fermi Contact Couplings
        Atom                 a.u.       MegaHertz       Gauss      10(-4) cm-1
     1  Hf(177             0.00000       0.00001       0.00000       0.00000
     2  F(19)              0.01722      72.45455      25.85359      24.16824
     3  F(19)              0.01722      72.45455      25.85359      24.16824
     4  F(19)              0.01722      72.45455      25.85359      24.16824
 --------------------------------------------------------
       Center         ----  Spin Dipole Couplings  ----
                      3XX-RR        3YY-RR        3ZZ-RR
 --------------------------------------------------------
     1   Atom       -0.017338     -0.017338      0.034675
     2   Atom        0.023874      0.035336     -0.059210
     3   Atom        0.032471      0.026740     -0.059210
     4   Atom        0.032471      0.026740     -0.059210
 --------------------------------------------------------
                        XY            XZ            YZ
 --------------------------------------------------------
     1   Atom       -0.000000     -0.000000      0.000000
     2   Atom       -0.000000      0.000000     -0.000000
     3   Atom        0.004963     -0.000000     -0.000000
     4   Atom       -0.004963     -0.000000      0.000000
 --------------------------------------------------------


 ---------------------------------------------------------------------------------
              Anisotropic Spin Dipole Couplings in Principal Axis System
 ---------------------------------------------------------------------------------

       Atom             a.u.   MegaHertz   Gauss  10(-4) cm-1        Axes

              Baa    -0.0173    -0.376    -0.134    -0.125  0.0015  1.0000  0.0000
     1 Hf(177 Bbb    -0.0173    -0.376    -0.134    -0.125  1.0000 -0.0015 -0.0000
              Bcc     0.0347     0.751     0.268     0.251  0.0000  0.0000  1.0000
 
              Baa    -0.0592   -29.737   -10.611    -9.919  0.0000  0.0000  1.0000
     2 F(19)  Bbb     0.0239    11.990     4.278     4.000  1.0000  0.0000  0.0000
              Bcc     0.0353    17.747     6.332     5.920 -0.0000  1.0000 -0.0000
 
              Baa    -0.0592   -29.737   -10.611    -9.919  0.0000  0.0000  1.0000
     3 F(19)  Bbb     0.0239    11.990     4.278     4.000 -0.5000  0.8660 -0.0000
              Bcc     0.0353    17.747     6.332     5.920  0.8660  0.5000 -0.0000
 
              Baa    -0.0592   -29.737   -10.611    -9.919  0.0000  0.0000  1.0000
     4 F(19)  Bbb     0.0239    11.990     4.278     4.000  0.5000  0.8660 -0.0000
              Bcc     0.0353    17.747     6.332     5.920  0.8660 -0.5000  0.0000
 

 ---------------------------------------------------------------------------------

  12 Symmetry operations used in ECPInt.
 ECPInt:  NShTT=    2628 NPrTT=    6918 LenC2=    2473 LenP2D=    5319.
 LDataN:  DoStor=T MaxTD1=11 Len= 1166
 Calling FoFJK, ICntrl=    100127 FMM=F ISym2X=1 I1Cent= 0 IOpClX= 1 NMat=1 NMatS=1 NMatT=0.
 Defaulting to unpruned grid for atomic number  72.
 Defaulting to unpruned grid for atomic number  72.
 Defaulting to unpruned grid for atomic number  72.
 Defaulting to unpruned grid for atomic number  72.
 Defaulting to unpruned grid for atomic number  72.
 Defaulting to unpruned grid for atomic number  72.
 Defaulting to unpruned grid for atomic number  72.
 Defaulting to unpruned grid for atomic number  72.
 Full mass-weighted force constant matrix:
 Low frequencies ---   -0.8982   -0.0077   -0.0031    1.2583    1.5455    8.5143
 Low frequencies ---   57.8937  151.8421  151.8421
 Diagonal vibrational polarizability:
       20.4449834      20.4432942      44.1043622
 Harmonic frequencies (cm**-1), IR intensities (KM/Mole), Raman scattering
 activities (A**4/AMU), depolarization ratios for plane and unpolarized
 incident light, reduced masses (AMU), force constants (mDyne/A),
 and normal coordinates:
                      1                      2                      3
                     A2"                    ?A                     ?A
 Frequencies --     57.8937               151.8421               151.8421
 Red. masses --     24.2064                20.6783                20.6783
 Frc consts  --      0.0478                 0.2809                 0.2809
 IR Inten    --      5.4930                 8.9104                 8.9108
  Atom  AN      X      Y      Z        X      Y      Z        X      Y      Z
     1  72     0.00   0.00  -0.18     0.00  -0.10  -0.00    -0.10  -0.00   0.00
     2   9     0.00   0.00   0.57    -0.00  -0.15   0.00     0.80  -0.00  -0.00
     3   9    -0.00  -0.00   0.57    -0.41   0.56   0.00     0.08  -0.41  -0.00
     4   9    -0.00   0.00   0.57     0.41   0.56   0.00     0.09   0.41  -0.00
                      4                      5                      6
                     ?A                     ?A                     ?B
 Frequencies --    643.6029               643.6047               653.2770
 Red. masses --     21.9358                21.9358                18.9984
 Frc consts  --      5.3535                 5.3536                 4.7771
 IR Inten    --    154.5851               154.6050                 0.0000
  Atom  AN      X      Y      Z        X      Y      Z        X      Y      Z
     1  72    -0.00  -0.14   0.00    -0.14   0.00  -0.00    -0.00   0.00  -0.00
     2   9     0.00   0.81  -0.00     0.05  -0.00   0.00     0.00   0.58   0.00
     3   9     0.33   0.24  -0.00     0.62   0.33   0.00    -0.50  -0.29   0.00
     4   9    -0.33   0.24  -0.00     0.62  -0.33   0.00     0.50  -0.29  -0.00

 -------------------
 - Thermochemistry -
 -------------------
 Temperature   298.150 Kelvin.  Pressure   1.00000 Atm.
 Atom     1 has atomic number 72 and mass 179.94680
 Atom     2 has atomic number  9 and mass  18.99840
 Atom     3 has atomic number  9 and mass  18.99840
 Atom     4 has atomic number  9 and mass  18.99840
 Molecular mass:   236.94201 amu.
 Principal axes and moments of inertia in atomic units:
                           1         2         3
     Eigenvalues --   366.78632 366.78632 733.57264
           X            0.79835   0.60220   0.00000
           Y           -0.60220   0.79835   0.00000
           Z           -0.00000   0.00000   1.00000
 This molecule is an oblate symmetric top.
 Rotational symmetry number  6.
 Rotational temperatures (Kelvin)      0.23614     0.23614     0.11807
 Rotational constants (GHZ):           4.92042     4.92042     2.46021
 Zero-point vibrational energy      13769.4 (Joules/Mol)
                                    3.29096 (Kcal/Mol)
 Warning -- explicit consideration of   3 degrees of freedom as
           vibrations may cause significant error
 Vibrational temperatures:     83.30   218.47   218.47   926.00   926.00
          (Kelvin)            939.92
 
 Zero-point correction=                           0.005244 (Hartree/Particle)
 Thermal correction to Energy=                    0.010584
 Thermal correction to Enthalpy=                  0.011528
 Thermal correction to Gibbs Free Energy=        -0.025130
 Sum of electronic and zero-point Energies=           -347.626776
 Sum of electronic and thermal Energies=              -347.621437
 Sum of electronic and thermal Enthalpies=            -347.620492
 Sum of electronic and thermal Free Energies=         -347.657150
 
                     E (Thermal)             CV                S
                      KCal/Mol        Cal/Mol-Kelvin    Cal/Mol-Kelvin
 Total                    6.641             14.540             77.152
 Electronic               0.000              0.000              1.377
 Translational            0.889              2.981             42.289
 Rotational               0.889              2.981             22.532
 Vibrational              4.864              8.579             10.953
 Vibration     1          0.596              1.974              4.528
 Vibration     2          0.619              1.901              2.649
 Vibration     3          0.619              1.901              2.649
                       Q            Log10(Q)             Ln(Q)
 Total Bot       0.362075D+12         11.558798         26.615116
 Total V=0       0.935602D+14         13.971091         32.169626
 Vib (Bot)       0.673786D-01         -1.171478         -2.697428
 Vib (Bot)    1  0.356778D+01          0.552398          1.271944
 Vib (Bot)    2  0.133468D+01          0.125377          0.288690
 Vib (Bot)    3  0.133468D+01          0.125377          0.288690
 Vib (V=0)       0.174107D+02          1.240815          2.857083
 Vib (V=0)    1  0.410265D+01          0.613064          1.411632
 Vib (V=0)    2  0.192526D+01          0.284489          0.655061
 Vib (V=0)    3  0.192526D+01          0.284489          0.655061
 Electronic      0.200000D+01          0.301030          0.693147
 Translational   0.143356D+09          8.156417         18.780844
 Rotational      0.187426D+05          4.272829          9.838552
 ***** Axes restored to original set *****
 -------------------------------------------------------------------
 Center     Atomic                   Forces (Hartrees/Bohr)
 Number     Number              X              Y              Z
 -------------------------------------------------------------------
      1       72          -0.000000000    0.000000000    0.000000000
      2        9          -0.000000648    0.000001123    0.000000000
      3        9          -0.000000648   -0.000001123    0.000000000
      4        9           0.000001297   -0.000000000   -0.000000000
 -------------------------------------------------------------------
 Cartesian Forces:  Max     0.000001297 RMS     0.000000648
 FormGI is forming the generalized inverse of G from B-inverse, IUseBI=4.

 GradGradGradGradGradGradGradGradGradGradGradGradGradGradGradGradGradGrad
 Berny optimization.
 Internal  Forces:  Max     0.000001297 RMS     0.000000849
 Search for a local minimum.
 Step number   1 out of a maximum of    2
 All quantities printed in internal units (Hartrees-Bohrs-Radians)
 Second derivative matrix not updated -- analytic derivatives used.
 The second derivative matrix:
                          R1        R2        R3        A1        A2
           R1           0.27092
           R2           0.01796   0.27092
           R3           0.01796   0.01795   0.27092
           A1          -0.00786  -0.00786   0.01571   0.04385
           A2          -0.00786   0.01571  -0.00786  -0.02193   0.04385
           A3           0.01571  -0.00786  -0.00786  -0.02193  -0.02193
           D1           0.00000   0.00000  -0.00000  -0.00000   0.00000
                          A3        D1
           A3           0.04385
           D1          -0.00000   0.00590
 ITU=  0
     Eigenvalues ---    0.00590   0.06286   0.06286   0.25589   0.25589
     Eigenvalues ---    0.30683
 Angle between quadratic step and forces=   0.00 degrees.
 Linear search not attempted -- first point.
 Iteration  1 RMS(Cart)=  0.00000277 RMS(Int)=  0.00000000
 Iteration  2 RMS(Cart)=  0.00000000 RMS(Int)=  0.00000000
 ClnCor:  largest displacement from symmetrization is 1.08D-10 for atom     3.
 Variable       Old X    -DE/DX   Delta X   Delta X   Delta X     New X
                                 (Linear)    (Quad)   (Total)
    R1        3.58759  -0.00000   0.00000  -0.00000  -0.00000   3.58758
    R2        3.58759  -0.00000   0.00000  -0.00000  -0.00000   3.58758
    R3        3.58759  -0.00000   0.00000  -0.00000  -0.00000   3.58758
    A1        2.09440  -0.00000   0.00000   0.00000   0.00000   2.09440
    A2        2.09440  -0.00000   0.00000   0.00000   0.00000   2.09440
    A3        2.09440   0.00000   0.00000  -0.00000  -0.00000   2.09440
    D1        3.14159  -0.00000   0.00000   0.00000   0.00000   3.14159
         Item               Value     Threshold  Converged?
 Maximum Force            0.000001     0.000450     YES
 RMS     Force            0.000001     0.000300     YES
 Maximum Displacement     0.000004     0.001800     YES
 RMS     Displacement     0.000003     0.001200     YES
 Predicted change in Energy=-8.218780D-12
 Optimization completed.
    -- Stationary point found.
                           ----------------------------
                           !   Optimized Parameters   !
                           ! (Angstroms and Degrees)  !
 --------------------------                            --------------------------
 ! Name  Definition              Value          Derivative Info.                !
 --------------------------------------------------------------------------------
 ! R1    R(1,2)                  1.8985         -DE/DX =    0.0                 !
 ! R2    R(1,3)                  1.8985         -DE/DX =    0.0                 !
 ! R3    R(1,4)                  1.8985         -DE/DX =    0.0                 !
 ! A1    A(2,1,3)              120.0            -DE/DX =    0.0                 !
 ! A2    A(2,1,4)              120.0            -DE/DX =    0.0                 !
 ! A3    A(3,1,4)              120.0            -DE/DX =    0.0                 !
 ! D1    D(2,1,4,3)            180.0            -DE/DX =    0.0                 !
 --------------------------------------------------------------------------------
 GradGradGradGradGradGradGradGradGradGradGradGradGradGradGradGradGradGrad

 Dipole is zero, so no output in dipole orientation.

 ----------------------------------------------------------------------

 Electric dipole moment (input orientation):
 (Debye = 10**-18 statcoulomb cm , SI units = C m)
                  (au)            (Debye)         (10**-30 SI)
   Tot        0.000000D+00      0.000000D+00      0.000000D+00
   x          0.000000D+00      0.000000D+00      0.000000D+00
   y          0.000000D+00      0.000000D+00      0.000000D+00
   z          0.000000D+00      0.000000D+00      0.000000D+00

 Dipole polarizability, Alpha (input orientation).
 (esu units = cm**3 , SI units = C**2 m**2 J**-1)
 Alpha(0;0):
               (au)            (10**-24 esu)      (10**-40 SI)
   iso        0.469871D+02      0.696278D+01      0.774713D+01
   aniso      0.254320D+02      0.376863D+01      0.419316D+01
   xx         0.385091D+02      0.570646D+01      0.634930D+01
   yx        -0.120619D-02     -0.178739D-03     -0.198874D-03
   yy         0.385105D+02      0.570667D+01      0.634953D+01
   zx         0.000000D+00      0.000000D+00      0.000000D+00
   zy         0.000000D+00      0.000000D+00      0.000000D+00
   zz         0.639418D+02      0.947519D+01      0.105426D+02

 ----------------------------------------------------------------------
 Unable to Open any file for archive entry.
 1\1\GINC-TCOPT10\Freq\UPBE1PBE\def2QZVPP\F3Hf1(2)\HUTTER\01-Aug-2021\0
 \\#N Geom=AllCheck Guess=TCheck SCRF=Check GenChk UPBE1PBE/def2QZVPP F
 req\\Mol job 1\\0,2\Hf,8.9814113291,8.5,8.5\F,9.9306458486,6.855877583
 9,8.5\F,9.9306458486,10.1441224161,8.5\F,7.0829422901,8.5,8.5\\Version
 =ES64L-G16RevC.01\HF=-347.6320202\S2=0.75149\S2-1=0.\S2A=0.750002\RMSD
 =1.215e-10\RMSF=6.483e-07\ZeroPoint=0.0052445\Thermal=0.0105836\ETot=-
 347.6214365\HTot=-347.6204923\GTot=-347.6571497\Dipole=0.,0.,0.\Dipole
 Deriv=2.4535529,0.0001005,0.,0.0001005,2.4534369,0.,0.,0.,0.493966,-0.
 6048105,0.3689003,0.,0.3689003,-1.0307798,0.,0.,0.,-0.1645588,-0.60484
 34,-0.3689174,0.,-0.3689437,-1.0308017,0.,0.,0.,-0.1646312,-1.2438153,
 -0.0000331,0.,-0.0000068,-0.3918297,0.,0.,0.,-0.1646312\Polar=38.50911
 92,-0.0012062,38.510512,0.,0.,63.9417826\Quadrupole=-1.8686152,-1.8686
 152,3.7372304,0.,0.,0.\PG=D03H [O(Hf1),3C2(F1)]\NImag=0\\0.43659103,0.
 00000656,0.43658345,0.,0.,0.00550340,-0.08611825,0.10289759,0.,0.07540
 970,0.10289759,-0.20493415,0.,-0.11287827,0.20575030,0.,0.,-0.00182871
 ,0.,0.,0.00061033,-0.08611983,-0.10289941,0.,0.01399824,-0.00885430,0.
 ,0.07540970,-0.10290081,-0.20493689,0.,0.00885430,-0.00905204,0.,0.112
 87827,0.20575030,0.,0.,-0.00183303,0.,0.,0.00060919,0.,0.,0.00061033,-
 0.26434673,-0.00000146,0.,-0.00328947,0.01883537,0.,-0.00328947,-0.018
 83537,0.,0.27092060,-0.00000006,-0.02670999,0.,0.00112676,0.00823567,0
 .,-0.00112676,0.00823567,0.,0.,0.01023939,0.,0.,-0.00183303,0.,0.,0.00
 060919,0.,0.,0.00060919,0.,0.,0.00061033\\0.,0.,0.,0.00000065,-0.00000
 112,0.,0.00000065,0.00000112,0.,-0.00000130,0.,0.\\\@
 The archive entry for this job was punched.


 COMMON SENSE IS NOT SO COMMON.   -- VOLTAIRE
 Job cpu time:       0 days  0 hours 25 minutes 48.0 seconds.
 Elapsed time:       0 days  0 hours  4 minutes  1.2 seconds.
 File lengths (MBytes):  RWF=     55 Int=      0 D2E=      0 Chk=      8 Scr=      1
 Normal termination of Gaussian 16 at Sun Aug  1 11:38:48 2021.
