 Entering Gaussian System, Link 0=g16
 Initial command:
 /sw-ng/spack/opt/spack/linux-opensuse_leap15-sandybridge/pgi-18.10/gaussian-src-16-C.01-zldqaomctopxhethwccpmxmwefdscg3m/g16/l1.exe "/data/hutter/SMG16/PBE0/Gau-15925.inp" -scrdir="/data/hutter/SMG16/PBE0/"
 Entering Link 1 = /sw-ng/spack/opt/spack/linux-opensuse_leap15-sandybridge/pgi-18.10/gaussian-src-16-C.01-zldqaomctopxhethwccpmxmwefdscg3m/g16/l1.exe PID=     15930.
  
 Copyright (c) 1988-2019, Gaussian, Inc.  All Rights Reserved.
  
 This is part of the Gaussian(R) 16 program.  It is based on
 the Gaussian(R) 09 system (copyright 2009, Gaussian, Inc.),
 the Gaussian(R) 03 system (copyright 2003, Gaussian, Inc.),
 the Gaussian(R) 98 system (copyright 1998, Gaussian, Inc.),
 the Gaussian(R) 94 system (copyright 1995, Gaussian, Inc.),
 the Gaussian 92(TM) system (copyright 1992, Gaussian, Inc.),
 the Gaussian 90(TM) system (copyright 1990, Gaussian, Inc.),
 the Gaussian 88(TM) system (copyright 1988, Gaussian, Inc.),
 the Gaussian 86(TM) system (copyright 1986, Carnegie Mellon
 University), and the Gaussian 82(TM) system (copyright 1983,
 Carnegie Mellon University). Gaussian is a federally registered
 trademark of Gaussian, Inc.
  
 This software contains proprietary and confidential information,
 including trade secrets, belonging to Gaussian, Inc.
  
 This software is provided under written license and may be
 used, copied, transmitted, or stored only in accord with that
 written license.
  
 The following legend is applicable only to US Government
 contracts under FAR:
  
                    RESTRICTED RIGHTS LEGEND
  
 Use, reproduction and disclosure by the US Government is
 subject to restrictions as set forth in subparagraphs (a)
 and (c) of the Commercial Computer Software - Restricted
 Rights clause in FAR 52.227-19.
  
 Gaussian, Inc.
 340 Quinnipiac St., Bldg. 40, Wallingford CT 06492
  
  
 ---------------------------------------------------------------
 Warning -- This program may not be used in any manner that
 competes with the business of Gaussian, Inc. or will provide
 assistance to any competitor of Gaussian, Inc.  The licensee
 of this program is prohibited from giving any competitor of
 Gaussian, Inc. access to this program.  By using this program,
 the user acknowledges that Gaussian, Inc. is engaged in the
 business of creating and licensing software in the field of
 computational chemistry and represents and warrants to the
 licensee that it is not a competitor of Gaussian, Inc. and that
 it will not use this program in any manner prohibited above.
 ---------------------------------------------------------------
  

 Cite this work as:
 Gaussian 16, Revision C.01,
 M. J. Frisch, G. W. Trucks, H. B. Schlegel, G. E. Scuseria, 
 M. A. Robb, J. R. Cheeseman, G. Scalmani, V. Barone, 
 G. A. Petersson, H. Nakatsuji, X. Li, M. Caricato, A. V. Marenich, 
 J. Bloino, B. G. Janesko, R. Gomperts, B. Mennucci, H. P. Hratchian, 
 J. V. Ortiz, A. F. Izmaylov, J. L. Sonnenberg, D. Williams-Young, 
 F. Ding, F. Lipparini, F. Egidi, J. Goings, B. Peng, A. Petrone, 
 T. Henderson, D. Ranasinghe, V. G. Zakrzewski, J. Gao, N. Rega, 
 G. Zheng, W. Liang, M. Hada, M. Ehara, K. Toyota, R. Fukuda, 
 J. Hasegawa, M. Ishida, T. Nakajima, Y. Honda, O. Kitao, H. Nakai, 
 T. Vreven, K. Throssell, J. A. Montgomery, Jr., J. E. Peralta, 
 F. Ogliaro, M. J. Bearpark, J. J. Heyd, E. N. Brothers, K. N. Kudin, 
 V. N. Staroverov, T. A. Keith, R. Kobayashi, J. Normand, 
 K. Raghavachari, A. P. Rendell, J. C. Burant, S. S. Iyengar, 
 J. Tomasi, M. Cossi, J. M. Millam, M. Klene, C. Adamo, R. Cammi, 
 J. W. Ochterski, R. L. Martin, K. Morokuma, O. Farkas, 
 J. B. Foresman, and D. J. Fox, Gaussian, Inc., Wallingford CT, 2019.
 
 ******************************************
 Gaussian 16:  ES64L-G16RevC.01  3-Jul-2019
                 1-Aug-2021 
 ******************************************
 %mem=8GB
 %NProcShare=8
 Will use up to    8 processors via shared memory.
 ------------------------------------------------------------
 #N RPBE1PBE/Def2QZVPP scf=tight Int(Grid=ultrafine) OPT FREQ
 ------------------------------------------------------------
 1/18=20,19=15,26=4,38=1/1,3;
 2/9=110,12=2,17=6,18=5,40=1/2;
 3/5=45,7=202,11=2,25=1,30=1,71=1,74=-13,75=-5,116=1/1,2,3;
 4//1;
 5/5=2,32=2,38=5/2;
 6/7=2,8=2,9=2,10=2,28=1/1;
 7//1,2,3,16;
 1/18=20,19=15,26=4/3(2);
 2/9=110/2;
 99//99;
 2/9=110/2;
 3/5=45,7=202,11=2,25=1,30=1,71=1,74=-13,75=-5,116=1/1,2,3;
 4/5=5,16=3,69=1/1;
 5/5=2,32=2,38=5/2;
 7//1,2,3,16;
 1/18=20,19=15,26=4/3(-5);
 2/9=110/2;
 6/7=2,8=2,9=2,10=2,19=2,28=1/1;
 99/9=1/99;
 ---------
 Mol job 1
 ---------
 Symbolic Z-matrix:
 Charge =  0 Multiplicity = 1
 Br                    8.        8.        6.90119 
 Cl                    8.        8.        9.09881 
 

 GradGradGradGradGradGradGradGradGradGradGradGradGradGradGradGradGradGrad
 Berny optimization.
 Initialization pass.
                           ----------------------------
                           !    Initial Parameters    !
                           ! (Angstroms and Degrees)  !
 --------------------------                            --------------------------
 ! Name  Definition              Value          Derivative Info.                !
 --------------------------------------------------------------------------------
 ! R1    R(1,2)                  2.1976         estimate D2E/DX2                !
 --------------------------------------------------------------------------------
 Trust Radius=3.00D-01 FncErr=1.00D-07 GrdErr=1.00D-06 EigMax=2.50D+02 EigMin=1.00D-04
 Number of steps in this run=     20 maximum allowed number of steps=    100.
 GradGradGradGradGradGradGradGradGradGradGradGradGradGradGradGradGradGrad

                          Input orientation:                          
 ---------------------------------------------------------------------
 Center     Atomic      Atomic             Coordinates (Angstroms)
 Number     Number       Type             X           Y           Z
 ---------------------------------------------------------------------
      1         35           0        8.000000    8.000000    6.901189
      2         17           0        8.000000    8.000000    9.098811
 ---------------------------------------------------------------------
 Stoichiometry    BrCl
 Framework group  C*V[C*(ClBr)]
 Deg. of freedom     1
 Full point group                 C*V     NOp   4
 Largest Abelian subgroup         C2V     NOp   4
 Largest concise Abelian subgroup C1      NOp   1
                         Standard orientation:                         
 ---------------------------------------------------------------------
 Center     Atomic      Atomic             Coordinates (Angstroms)
 Number     Number       Type             X           Y           Z
 ---------------------------------------------------------------------
      1         35           0        0.000000    0.000000    0.718453
      2         17           0        0.000000    0.000000   -1.479168
 ---------------------------------------------------------------------
 Rotational constants (GHZ):           0.0000000           4.3184424           4.3184424
 Standard basis: def2QZVPP (5D, 7F)
 There are    87 symmetry adapted cartesian basis functions of A1  symmetry.
 There are    20 symmetry adapted cartesian basis functions of A2  symmetry.
 There are    45 symmetry adapted cartesian basis functions of B1  symmetry.
 There are    45 symmetry adapted cartesian basis functions of B2  symmetry.
 There are    67 symmetry adapted basis functions of A1  symmetry.
 There are    18 symmetry adapted basis functions of A2  symmetry.
 There are    37 symmetry adapted basis functions of B1  symmetry.
 There are    37 symmetry adapted basis functions of B2  symmetry.
   159 basis functions,   320 primitive gaussians,   197 cartesian basis functions
    26 alpha electrons       26 beta electrons
       nuclear repulsion energy       143.2733047712 Hartrees.
 NAtoms=    2 NActive=    2 NUniq=    2 SFac= 1.00D+00 NAtFMM=   60 NAOKFM=F Big=F
 Integral buffers will be    131072 words long.
 Raffenetti 2 integral format.
 Two-electron integral symmetry is turned on.
 One-electron integrals computed using PRISM.
   4 Symmetry operations used in ECPInt.
 ECPInt:  NShTT=    1225 NPrTT=    5264 LenC2=    1176 LenP2D=    4200.
 LDataN:  DoStor=T MaxTD1= 8 Len=  415
 NBasis=   159 RedAO= T EigKep=  6.70D-04  NBF=    67    18    37    37
 NBsUse=   159 1.00D-06 EigRej= -1.00D+00 NBFU=    67    18    37    37
 ExpMin= 8.39D-02 ExpMax= 1.06D+07 ExpMxC= 1.21D+04 IAcc=3 IRadAn=         5 AccDes= 0.00D+00
 Harris functional with IExCor= 1009 and IRadAn=       5 diagonalized for initial guess.
 HarFok:  IExCor= 1009 AccDes= 0.00D+00 IRadAn=         5 IDoV= 1 UseB2=F ITyADJ=14
 ICtDFT=  3500011 ScaDFX=  1.000000  1.000000  1.000000  1.000000
 FoFCou: FMM=F IPFlag=           0 FMFlag=      100000 FMFlg1=           0
         NFxFlg=           0 DoJE=T BraDBF=F KetDBF=T FulRan=T
         wScrn=  0.000000 ICntrl=       500 IOpCl=  0 I1Cent=   200000004 NGrid=           0
         NMat0=    1 NMatS0=      1 NMatT0=    0 NMatD0=    1 NMtDS0=    0 NMtDT0=    0
 Petite list used in FoFCou.
 Initial guess orbital symmetries:
       Occupied  (SG) (SG) (SG) (PI) (PI) (SG) (SG) (SG) (SG) (PI)
                 (PI) (PI) (PI) (SG) (SG) (PI) (PI) (DLTA) (DLTA)
                 (SG) (SG) (SG) (PI) (PI) (PI) (PI)
       Virtual   (SG) (SG) (SG) (PI) (PI) (SG) (PI) (PI) (DLTA)
                 (DLTA) (PI) (PI) (DLTA) (DLTA) (SG) (SG) (PI)
                 (PI) (SG) (DLTA) (DLTA) (PHI) (PHI) (SG) (PI)
                 (PI) (PI) (PI) (PI) (PI) (SG) (DLTA) (DLTA) (PI)
                 (PI) (SG) (SG) (PHI) (PHI) (DLTA) (DLTA) (DLTA)
                 (DLTA) (PI) (PI) (SG) (SG) (PI) (PI) (SG) (SG)
                 (PI) (PI) (DLTA) (DLTA) (PHI) (PHI) (PHI) (PHI)
                 (?A) (?A) (SG) (DLTA) (DLTA) (PI) (PI) (SG) (DLTA)
                 (DLTA) (PI) (PI) (SG) (PHI) (PHI) (?A) (?A) (DLTA)
                 (DLTA) (PI) (PI) (SG) (PI) (PI) (PI) (PI) (PHI)
                 (PHI) (SG) (DLTA) (DLTA) (SG) (PI) (PI) (SG) (DLTA)
                 (DLTA) (PI) (PI) (SG) (SG) (SG) (PHI) (PHI) (DLTA)
                 (DLTA) (PI) (PI) (SG) (DLTA) (DLTA) (PI) (PI)
                 (SG) (PI) (PI) (SG) (SG) (SG) (PHI) (PHI) (DLTA)
                 (DLTA) (PI) (PI) (SG) (PI) (PI) (SG) (SG) (SG)
                 (SG) (SG) (SG)
 The electronic state of the initial guess is 1-SG.
 Keep R1 ints in memory in symmetry-blocked form, NReq=101581942.
 Requested convergence on RMS density matrix=1.00D-08 within 128 cycles.
 Requested convergence on MAX density matrix=1.00D-06.
 Requested convergence on             energy=1.00D-06.
 No special actions if energy rises.
 Integral accuracy reduced to 1.0D-05 until final iterations.
 Initial convergence to 1.0D-05 achieved.  Increase integral accuracy.
 SCF Done:  E(RPBE1PBE) =  -3033.96408641     A.U. after   12 cycles
            NFock= 12  Conv=0.23D-08     -V/T= 2.0014

 **********************************************************************

            Population analysis using the SCF Density.

 **********************************************************************

 Orbital symmetries:
       Occupied  (SG) (SG) (SG) (SG) (PI) (PI) (SG) (SG) (SG) (PI)
                 (PI) (SG) (PI) (PI) (SG) (PI) (PI) (DLTA) (DLTA)
                 (SG) (SG) (SG) (PI) (PI) (PI) (PI)
       Virtual   (SG) (SG) (SG) (PI) (PI) (SG) (PI) (PI) (PI) (PI)
                 (DLTA) (DLTA) (DLTA) (DLTA) (SG) (SG) (PI) (PI)
                 (SG) (DLTA) (DLTA) (SG) (PHI) (PHI) (PI) (PI)
                 (PI) (PI) (PI) (PI) (SG) (DLTA) (DLTA) (PI) (PI)
                 (SG) (PHI) (PHI) (SG) (DLTA) (DLTA) (DLTA) (DLTA)
                 (PI) (PI) (SG) (SG) (PI) (PI) (SG) (SG) (PI) (PI)
                 (DLTA) (DLTA) (SG) (PHI) (PHI) (PHI) (PHI) (?A)
                 (?A) (DLTA) (DLTA) (PI) (PI) (SG) (DLTA) (DLTA)
                 (PI) (PI) (SG) (PHI) (PHI) (?A) (?A) (DLTA) (DLTA)
                 (PI) (PI) (SG) (PI) (PI) (PHI) (PHI) (PI) (PI)
                 (DLTA) (DLTA) (SG) (SG) (PI) (PI) (SG) (DLTA)
                 (DLTA) (PI) (PI) (SG) (SG) (SG) (PHI) (PHI) (DLTA)
                 (DLTA) (PI) (PI) (SG) (DLTA) (DLTA) (PI) (PI)
                 (SG) (PI) (PI) (SG) (SG) (SG) (PHI) (PHI) (DLTA)
                 (DLTA) (PI) (PI) (SG) (PI) (PI) (SG) (SG) (SG)
                 (SG) (SG) (SG)
 The electronic state is 1-SG.
 Alpha  occ. eigenvalues -- -483.31603-101.75864 -62.70172 -56.47807 -56.47250
 Alpha  occ. eigenvalues --  -56.47250  -9.57708  -8.82660  -7.31450  -7.30221
 Alpha  occ. eigenvalues --   -7.30221  -6.64090  -6.62383  -6.62383  -2.72565
 Alpha  occ. eigenvalues --   -2.72084  -2.72084  -2.70684  -2.70684  -0.90751
 Alpha  occ. eigenvalues --   -0.77446  -0.45906  -0.39827  -0.39827  -0.31226
 Alpha  occ. eigenvalues --   -0.31226
 Alpha virt. eigenvalues --   -0.13993   0.13795   0.15788   0.17061   0.17061
 Alpha virt. eigenvalues --    0.18599   0.21417   0.21417   0.22982   0.22982
 Alpha virt. eigenvalues --    0.26328   0.26328   0.36052   0.36052   0.38010
 Alpha virt. eigenvalues --    0.43723   0.51033   0.51033   0.68024   0.93418
 Alpha virt. eigenvalues --    0.93418   0.93953   0.96812   0.96812   0.98735
 Alpha virt. eigenvalues --    0.98735   1.02532   1.02532   1.11168   1.11168
 Alpha virt. eigenvalues --    1.13235   1.14567   1.14567   1.19992   1.19992
 Alpha virt. eigenvalues --    1.24635   1.31317   1.31317   1.31539   1.36196
 Alpha virt. eigenvalues --    1.36196   1.47392   1.47392   1.49629   1.49629
 Alpha virt. eigenvalues --    1.52005   1.76020   1.80510   1.80510   1.96390
 Alpha virt. eigenvalues --    2.44477   2.58002   2.58002   2.62340   2.62340
 Alpha virt. eigenvalues --    2.63476   2.65027   2.65027   2.65961   2.65961
 Alpha virt. eigenvalues --    2.67566   2.67572   2.71595   2.71595   2.95429
 Alpha virt. eigenvalues --    2.95429   3.06825   3.19760   3.19760   3.31416
 Alpha virt. eigenvalues --    3.31416   3.50509   3.56772   3.56772   3.57605
 Alpha virt. eigenvalues --    3.57605   3.65009   3.65009   3.79472   3.79472
 Alpha virt. eigenvalues --    3.81098   3.85191   3.85191   3.90156   3.90156
 Alpha virt. eigenvalues --    3.91484   3.91484   3.99220   3.99220   4.02290
 Alpha virt. eigenvalues --    4.28793   4.43461   4.43461   4.69643   4.92495
 Alpha virt. eigenvalues --    4.92499   5.01184   5.01184   5.52734   7.68506
 Alpha virt. eigenvalues --    8.50616   9.36088   9.36088   9.36489   9.36490
 Alpha virt. eigenvalues --    9.41416   9.41416   9.47842  10.60472  10.60472
 Alpha virt. eigenvalues --   10.64649  10.64649  10.87503  13.55918  13.55918
 Alpha virt. eigenvalues --   13.78200  28.42066  29.02635  34.24356  34.24356
 Alpha virt. eigenvalues --   34.24362  34.24362  34.26910  34.26910  34.30086
 Alpha virt. eigenvalues --   41.77099  41.77099  41.79426  94.60131  98.17019
 Alpha virt. eigenvalues --  321.55588 525.393441818.87906
          Condensed to atoms (all electrons):
               1          2
     1  Br  34.774900   0.142929
     2  Cl   0.142929  16.939243
 Mulliken charges:
               1
     1  Br   0.082171
     2  Cl  -0.082171
 Sum of Mulliken charges =  -0.00000
 Mulliken charges with hydrogens summed into heavy atoms:
               1
     1  Br   0.082171
     2  Cl  -0.082171
 Electronic spatial extent (au):  <R**2>=            264.0693
 Charge=              0.0000 electrons
 Dipole moment (field-independent basis, Debye):
    X=              0.0000    Y=              0.0000    Z=              0.5305  Tot=              0.5305
 Quadrupole moment (field-independent basis, Debye-Ang):
   XX=            -31.1948   YY=            -31.1948   ZZ=            -27.3625
   XY=              0.0000   XZ=              0.0000   YZ=              0.0000
 Traceless Quadrupole moment (field-independent basis, Debye-Ang):
   XX=             -1.2774   YY=             -1.2774   ZZ=              2.5549
   XY=              0.0000   XZ=              0.0000   YZ=              0.0000
 Octapole moment (field-independent basis, Debye-Ang**2):
  XXX=              0.0000  YYY=              0.0000  ZZZ=             15.9026  XYY=              0.0000
  XXY=              0.0000  XXZ=              5.6124  XZZ=              0.0000  YZZ=              0.0000
  YYZ=              5.6124  XYZ=              0.0000
 Hexadecapole moment (field-independent basis, Debye-Ang**3):
 XXXX=            -36.4230 YYYY=            -36.4230 ZZZZ=           -220.5559 XXXY=              0.0000
 XXXZ=              0.0000 YYYX=              0.0000 YYYZ=              0.0000 ZZZX=              0.0000
 ZZZY=              0.0000 XXYY=            -12.1410 XXZZ=            -48.8764 YYZZ=            -48.8764
 XXYZ=              0.0000 YYXZ=              0.0000 ZZXY=              0.0000
 N-N= 1.432733047712D+02 E-N=-7.532287434883D+03  KE= 3.029798919948D+03
 Symmetry A1   KE= 2.228560706280D+03
 Symmetry A2   KE= 4.297933282671D+01
 Symmetry B1   KE= 3.791294404208D+02
 Symmetry B2   KE= 3.791294404208D+02
   4 Symmetry operations used in ECPInt.
 ECPInt:  NShTT=    1225 NPrTT=    5264 LenC2=    1176 LenP2D=    4200.
 LDataN:  DoStor=T MaxTD1= 9 Len=  602
 Calling FoFJK, ICntrl=      2127 FMM=F ISym2X=1 I1Cent= 0 IOpClX= 0 NMat=1 NMatS=1 NMatT=0.
 ***** Axes restored to original set *****
 -------------------------------------------------------------------
 Center     Atomic                   Forces (Hartrees/Bohr)
 Number     Number              X              Y              Z
 -------------------------------------------------------------------
      1       35          -0.000000000   -0.000000000    0.021596792
      2       17          -0.000000000   -0.000000000   -0.021596792
 -------------------------------------------------------------------
 Cartesian Forces:  Max     0.021596792 RMS     0.012468914

 GradGradGradGradGradGradGradGradGradGradGradGradGradGradGradGradGradGrad
 Berny optimization.
 FormGI is forming the generalized inverse of G from B-inverse, IUseBI=4.
 Internal  Forces:  Max     0.021596792 RMS     0.021596792
 Search for a local minimum.
 Step number   1 out of a maximum of   20
 All quantities printed in internal units (Hartrees-Bohrs-Radians)
 Mixed Optimization -- RFO/linear search
 Second derivative matrix not updated -- first step.
 The second derivative matrix:
                          R1
           R1           0.13724
 ITU=  0
     Eigenvalues ---    0.13724
 RFO step:  Lambda=-3.31832674D-03 EMin= 1.37240896D-01
 Linear search not attempted -- first point.
 Iteration  1 RMS(Cart)=  0.10864629 RMS(Int)=  0.00000000
 Iteration  2 RMS(Cart)=  0.00000000 RMS(Int)=  0.00000000
 ClnCor:  largest displacement from symmetrization is 0.00D+00 for atom     0.
 Variable       Old X    -DE/DX   Delta X   Delta X   Delta X     New X
                                 (Linear)    (Quad)   (Total)
    R1        4.15290  -0.02160   0.00000  -0.15365  -0.15365   3.99925
         Item               Value     Threshold  Converged?
 Maximum Force            0.021597     0.000450     NO 
 RMS     Force            0.021597     0.000300     NO 
 Maximum Displacement     0.076825     0.001800     NO 
 RMS     Displacement     0.108646     0.001200     NO 
 Predicted change in Energy=-1.698333D-03
 GradGradGradGradGradGradGradGradGradGradGradGradGradGradGradGradGradGrad

                          Input orientation:                          
 ---------------------------------------------------------------------
 Center     Atomic      Atomic             Coordinates (Angstroms)
 Number     Number       Type             X           Y           Z
 ---------------------------------------------------------------------
      1         35           0        8.000000    8.000000    6.941843
      2         17           0        8.000000    8.000000    9.058157
 ---------------------------------------------------------------------
 Stoichiometry    BrCl
 Framework group  C*V[C*(ClBr)]
 Deg. of freedom     1
 Full point group                 C*V     NOp   4
 Largest Abelian subgroup         C2V     NOp   4
 Largest concise Abelian subgroup C1      NOp   1
                         Standard orientation:                         
 ---------------------------------------------------------------------
 Center     Atomic      Atomic             Coordinates (Angstroms)
 Number     Number       Type             X           Y           Z
 ---------------------------------------------------------------------
      1         35           0        0.000000    0.000000    0.691872
      2         17           0        0.000000    0.000000   -1.424442
 ---------------------------------------------------------------------
 Rotational constants (GHZ):           0.0000000           4.6566409           4.6566409
 Standard basis: def2QZVPP (5D, 7F)
 There are    87 symmetry adapted cartesian basis functions of A1  symmetry.
 There are    20 symmetry adapted cartesian basis functions of A2  symmetry.
 There are    45 symmetry adapted cartesian basis functions of B1  symmetry.
 There are    45 symmetry adapted cartesian basis functions of B2  symmetry.
 There are    67 symmetry adapted basis functions of A1  symmetry.
 There are    18 symmetry adapted basis functions of A2  symmetry.
 There are    37 symmetry adapted basis functions of B1  symmetry.
 There are    37 symmetry adapted basis functions of B2  symmetry.
   159 basis functions,   320 primitive gaussians,   197 cartesian basis functions
    26 alpha electrons       26 beta electrons
       nuclear repulsion energy       148.7777848076 Hartrees.
 NAtoms=    2 NActive=    2 NUniq=    2 SFac= 1.00D+00 NAtFMM=   60 NAOKFM=F Big=F
 Integral buffers will be    131072 words long.
 Raffenetti 2 integral format.
 Two-electron integral symmetry is turned on.
 One-electron integrals computed using PRISM.
   4 Symmetry operations used in ECPInt.
 ECPInt:  NShTT=    1225 NPrTT=    5264 LenC2=    1180 LenP2D=    4222.
 LDataN:  DoStor=T MaxTD1= 8 Len=  415
 NBasis=   159 RedAO= T EigKep=  5.59D-04  NBF=    67    18    37    37
 NBsUse=   159 1.00D-06 EigRej= -1.00D+00 NBFU=    67    18    37    37
 Initial guess from the checkpoint file:  "/data/hutter/SMG16/PBE0/Gau-15930.chk"
 B after Tr=     0.000000    0.000000   -0.000000
         Rot=    1.000000    0.000000    0.000000    0.000000 Ang=   0.00 deg.
 Initial guess orbital symmetries:
       Occupied  (SG) (SG) (SG) (SG) (PI) (PI) (SG) (SG) (SG) (PI)
                 (PI) (SG) (PI) (PI) (SG) (PI) (PI) (DLTA) (DLTA)
                 (SG) (SG) (SG) (PI) (PI) (PI) (PI)
       Virtual   (SG) (SG) (SG) (PI) (PI) (SG) (PI) (PI) (PI) (PI)
                 (DLTA) (DLTA) (DLTA) (DLTA) (SG) (SG) (PI) (PI)
                 (SG) (DLTA) (DLTA) (SG) (PHI) (PHI) (PI) (PI)
                 (PI) (PI) (PI) (PI) (SG) (DLTA) (DLTA) (PI) (PI)
                 (SG) (PHI) (PHI) (SG) (DLTA) (DLTA) (DLTA) (DLTA)
                 (PI) (PI) (SG) (SG) (PI) (PI) (SG) (SG) (PI) (PI)
                 (DLTA) (DLTA) (SG) (PHI) (PHI) (PHI) (PHI) (?A)
                 (?A) (DLTA) (DLTA) (PI) (PI) (SG) (DLTA) (DLTA)
                 (PI) (PI) (SG) (PHI) (PHI) (?A) (?A) (DLTA) (DLTA)
                 (PI) (PI) (SG) (PI) (PI) (PHI) (PHI) (PI) (PI)
                 (DLTA) (DLTA) (SG) (SG) (PI) (PI) (SG) (DLTA)
                 (DLTA) (PI) (PI) (SG) (SG) (SG) (PHI) (PHI) (DLTA)
                 (DLTA) (PI) (PI) (SG) (DLTA) (DLTA) (PI) (PI)
                 (SG) (PI) (PI) (SG) (SG) (SG) (PHI) (PHI) (DLTA)
                 (DLTA) (PI) (PI) (SG) (PI) (PI) (SG) (SG) (SG)
                 (SG) (SG) (SG)
 ExpMin= 8.39D-02 ExpMax= 1.06D+07 ExpMxC= 1.21D+04 IAcc=3 IRadAn=         5 AccDes= 0.00D+00
 Harris functional with IExCor= 1009 and IRadAn=       5 diagonalized for initial guess.
 HarFok:  IExCor= 1009 AccDes= 0.00D+00 IRadAn=         5 IDoV= 1 UseB2=F ITyADJ=14
 ICtDFT=  3500011 ScaDFX=  1.000000  1.000000  1.000000  1.000000
 FoFCou: FMM=F IPFlag=           0 FMFlag=      100000 FMFlg1=           0
         NFxFlg=           0 DoJE=T BraDBF=F KetDBF=T FulRan=T
         wScrn=  0.000000 ICntrl=       500 IOpCl=  0 I1Cent=   200000004 NGrid=           0
         NMat0=    1 NMatS0=      1 NMatT0=    0 NMatD0=    1 NMtDS0=    0 NMtDT0=    0
 Petite list used in FoFCou.
 Keep R1 ints in memory in symmetry-blocked form, NReq=101581942.
 Requested convergence on RMS density matrix=1.00D-08 within 128 cycles.
 Requested convergence on MAX density matrix=1.00D-06.
 Requested convergence on             energy=1.00D-06.
 No special actions if energy rises.
 Integral accuracy reduced to 1.0D-05 until final iterations.
 Initial convergence to 1.0D-05 achieved.  Increase integral accuracy.
 SCF Done:  E(RPBE1PBE) =  -3033.96549636     A.U. after   10 cycles
            NFock= 10  Conv=0.33D-08     -V/T= 2.0013
   4 Symmetry operations used in ECPInt.
 ECPInt:  NShTT=    1225 NPrTT=    5264 LenC2=    1180 LenP2D=    4222.
 LDataN:  DoStor=T MaxTD1= 9 Len=  602
 Calling FoFJK, ICntrl=      2127 FMM=F ISym2X=1 I1Cent= 0 IOpClX= 0 NMat=1 NMatS=1 NMatT=0.
 ***** Axes restored to original set *****
 -------------------------------------------------------------------
 Center     Atomic                   Forces (Hartrees/Bohr)
 Number     Number              X              Y              Z
 -------------------------------------------------------------------
      1       35          -0.000000000   -0.000000000   -0.004936489
      2       17          -0.000000000   -0.000000000    0.004936489
 -------------------------------------------------------------------
 Cartesian Forces:  Max     0.004936489 RMS     0.002850083

 GradGradGradGradGradGradGradGradGradGradGradGradGradGradGradGradGradGrad
 Berny optimization.
 Using GEDIIS/GDIIS optimizer.
 Internal  Forces:  Max     0.004936489 RMS     0.004936489
 Search for a local minimum.
 Step number   2 out of a maximum of   20
 All quantities printed in internal units (Hartrees-Bohrs-Radians)
 Mixed Optimization -- RFO/linear search
 Update second derivatives using D2CorX and points    1    2
 DE= -1.41D-03 DEPred=-1.70D-03 R= 8.30D-01
 TightC=F SS=  1.41D+00  RLast= 1.54D-01 DXNew= 5.0454D-01 4.6095D-01
 Trust test= 8.30D-01 RLast= 1.54D-01 DXMaxT set to 4.61D-01
 The second derivative matrix:
                          R1
           R1           0.17269
 ITU=  1  0
 Use linear search instead of GDIIS.
     Eigenvalues ---    0.17269
 RFO step:  Lambda= 0.00000000D+00 EMin= 1.72687561D-01
 Quartic linear search produced a step of -0.15980.
 Iteration  1 RMS(Cart)=  0.01736122 RMS(Int)=  0.00000000
 Iteration  2 RMS(Cart)=  0.00000000 RMS(Int)=  0.00000000
 ClnCor:  largest displacement from symmetrization is 0.00D+00 for atom     0.
 Variable       Old X    -DE/DX   Delta X   Delta X   Delta X     New X
                                 (Linear)    (Quad)   (Total)
    R1        3.99925   0.00494   0.02455   0.00000   0.02455   4.02381
         Item               Value     Threshold  Converged?
 Maximum Force            0.004936     0.000450     NO 
 RMS     Force            0.004936     0.000300     NO 
 Maximum Displacement     0.012276     0.001800     NO 
 RMS     Displacement     0.017361     0.001200     NO 
 Predicted change in Energy=-6.915291D-05
 GradGradGradGradGradGradGradGradGradGradGradGradGradGradGradGradGradGrad

                          Input orientation:                          
 ---------------------------------------------------------------------
 Center     Atomic      Atomic             Coordinates (Angstroms)
 Number     Number       Type             X           Y           Z
 ---------------------------------------------------------------------
      1         35           0        8.000000    8.000000    6.935347
      2         17           0        8.000000    8.000000    9.064653
 ---------------------------------------------------------------------
 Stoichiometry    BrCl
 Framework group  C*V[C*(ClBr)]
 Deg. of freedom     1
 Full point group                 C*V     NOp   4
 Largest Abelian subgroup         C2V     NOp   4
 Largest concise Abelian subgroup C1      NOp   1
                         Standard orientation:                         
 ---------------------------------------------------------------------
 Center     Atomic      Atomic             Coordinates (Angstroms)
 Number     Number       Type             X           Y           Z
 ---------------------------------------------------------------------
      1         35           0        0.000000    0.000000    0.696119
      2         17           0        0.000000    0.000000   -1.433187
 ---------------------------------------------------------------------
 Rotational constants (GHZ):           0.0000000           4.5999865           4.5999865
 Standard basis: def2QZVPP (5D, 7F)
 There are    87 symmetry adapted cartesian basis functions of A1  symmetry.
 There are    20 symmetry adapted cartesian basis functions of A2  symmetry.
 There are    45 symmetry adapted cartesian basis functions of B1  symmetry.
 There are    45 symmetry adapted cartesian basis functions of B2  symmetry.
 There are    67 symmetry adapted basis functions of A1  symmetry.
 There are    18 symmetry adapted basis functions of A2  symmetry.
 There are    37 symmetry adapted basis functions of B1  symmetry.
 There are    37 symmetry adapted basis functions of B2  symmetry.
   159 basis functions,   320 primitive gaussians,   197 cartesian basis functions
    26 alpha electrons       26 beta electrons
       nuclear repulsion energy       147.8699721343 Hartrees.
 NAtoms=    2 NActive=    2 NUniq=    2 SFac= 1.00D+00 NAtFMM=   60 NAOKFM=F Big=F
 Integral buffers will be    131072 words long.
 Raffenetti 2 integral format.
 Two-electron integral symmetry is turned on.
 One-electron integrals computed using PRISM.
   4 Symmetry operations used in ECPInt.
 ECPInt:  NShTT=    1225 NPrTT=    5264 LenC2=    1180 LenP2D=    4218.
 LDataN:  DoStor=T MaxTD1= 8 Len=  415
 NBasis=   159 RedAO= T EigKep=  5.79D-04  NBF=    67    18    37    37
 NBsUse=   159 1.00D-06 EigRej= -1.00D+00 NBFU=    67    18    37    37
 Initial guess from the checkpoint file:  "/data/hutter/SMG16/PBE0/Gau-15930.chk"
 B after Tr=     0.000000    0.000000    0.000000
         Rot=    1.000000    0.000000    0.000000    0.000000 Ang=   0.00 deg.
 Initial guess orbital symmetries:
       Occupied  (SG) (SG) (SG) (SG) (PI) (PI) (SG) (SG) (SG) (PI)
                 (PI) (SG) (PI) (PI) (SG) (PI) (PI) (DLTA) (DLTA)
                 (SG) (SG) (SG) (PI) (PI) (PI) (PI)
       Virtual   (SG) (SG) (SG) (PI) (PI) (SG) (PI) (PI) (PI) (PI)
                 (DLTA) (DLTA) (DLTA) (DLTA) (SG) (SG) (PI) (PI)
                 (SG) (SG) (DLTA) (DLTA) (PHI) (PHI) (PI) (PI)
                 (PI) (PI) (PI) (PI) (DLTA) (DLTA) (SG) (PI) (PI)
                 (SG) (PHI) (PHI) (SG) (DLTA) (DLTA) (DLTA) (DLTA)
                 (SG) (PI) (PI) (SG) (PI) (PI) (SG) (SG) (PI) (PI)
                 (DLTA) (DLTA) (PHI) (PHI) (SG) (PHI) (PHI) (?A)
                 (?A) (DLTA) (DLTA) (PI) (PI) (SG) (DLTA) (DLTA)
                 (PI) (PI) (SG) (PHI) (PHI) (?A) (?A) (DLTA) (DLTA)
                 (SG) (PI) (PI) (PI) (PI) (PHI) (PHI) (PI) (PI)
                 (SG) (DLTA) (DLTA) (SG) (PI) (PI) (SG) (DLTA)
                 (DLTA) (PI) (PI) (SG) (SG) (SG) (PHI) (PHI) (DLTA)
                 (DLTA) (PI) (PI) (SG) (DLTA) (DLTA) (PI) (PI)
                 (SG) (PI) (PI) (SG) (SG) (SG) (PHI) (PHI) (DLTA)
                 (DLTA) (PI) (PI) (SG) (PI) (PI) (SG) (SG) (SG)
                 (SG) (SG) (SG)
 Keep R1 ints in memory in symmetry-blocked form, NReq=101581942.
 Requested convergence on RMS density matrix=1.00D-08 within 128 cycles.
 Requested convergence on MAX density matrix=1.00D-06.
 Requested convergence on             energy=1.00D-06.
 No special actions if energy rises.
 SCF Done:  E(RPBE1PBE) =  -3033.96555623     A.U. after    8 cycles
            NFock=  8  Conv=0.31D-08     -V/T= 2.0013
   4 Symmetry operations used in ECPInt.
 ECPInt:  NShTT=    1225 NPrTT=    5264 LenC2=    1180 LenP2D=    4218.
 LDataN:  DoStor=T MaxTD1= 9 Len=  602
 Calling FoFJK, ICntrl=      2127 FMM=F ISym2X=1 I1Cent= 0 IOpClX= 0 NMat=1 NMatS=1 NMatT=0.
 ***** Axes restored to original set *****
 -------------------------------------------------------------------
 Center     Atomic                   Forces (Hartrees/Bohr)
 Number     Number              X              Y              Z
 -------------------------------------------------------------------
      1       35          -0.000000000   -0.000000000    0.000010231
      2       17          -0.000000000   -0.000000000   -0.000010231
 -------------------------------------------------------------------
 Cartesian Forces:  Max     0.000010231 RMS     0.000005907

 GradGradGradGradGradGradGradGradGradGradGradGradGradGradGradGradGradGrad
 Berny optimization.
 Using GEDIIS/GDIIS optimizer.
 Internal  Forces:  Max     0.000010231 RMS     0.000010231
 Search for a local minimum.
 Step number   3 out of a maximum of   20
 All quantities printed in internal units (Hartrees-Bohrs-Radians)
 Mixed Optimization -- En-DIIS/RFO-DIIS
 Update second derivatives using D2CorX and points    2    3
 DE= -5.99D-05 DEPred=-6.92D-05 R= 8.66D-01
 TightC=F SS=  1.41D+00  RLast= 2.46D-02 DXNew= 7.7522D-01 7.3657D-02
 Trust test= 8.66D-01 RLast= 2.46D-02 DXMaxT set to 4.61D-01
 The second derivative matrix:
                          R1
           R1           0.20148
 ITU=  1  1
 Use linear search instead of GDIIS.
     Eigenvalues ---    0.20148
 RFO step:  Lambda= 0.00000000D+00 EMin= 2.01475474D-01
 Quartic linear search produced a step of -0.00213.
 Iteration  1 RMS(Cart)=  0.00003700 RMS(Int)=  0.00000000
 Iteration  2 RMS(Cart)=  0.00000000 RMS(Int)=  0.00000000
 ClnCor:  largest displacement from symmetrization is 0.00D+00 for atom     0.
 Variable       Old X    -DE/DX   Delta X   Delta X   Delta X     New X
                                 (Linear)    (Quad)   (Total)
    R1        4.02381  -0.00001  -0.00005   0.00000  -0.00005   4.02375
         Item               Value     Threshold  Converged?
 Maximum Force            0.000010     0.000450     YES
 RMS     Force            0.000010     0.000300     YES
 Maximum Displacement     0.000026     0.001800     YES
 RMS     Displacement     0.000037     0.001200     YES
 Predicted change in Energy=-2.595242D-10
 Optimization completed.
    -- Stationary point found.
                           ----------------------------
                           !   Optimized Parameters   !
                           ! (Angstroms and Degrees)  !
 --------------------------                            --------------------------
 ! Name  Definition              Value          Derivative Info.                !
 --------------------------------------------------------------------------------
 ! R1    R(1,2)                  2.1293         -DE/DX =    0.0                 !
 --------------------------------------------------------------------------------
 GradGradGradGradGradGradGradGradGradGradGradGradGradGradGradGradGradGrad

                          Input orientation:                          
 ---------------------------------------------------------------------
 Center     Atomic      Atomic             Coordinates (Angstroms)
 Number     Number       Type             X           Y           Z
 ---------------------------------------------------------------------
      1         35           0        8.000000    8.000000    6.935347
      2         17           0        8.000000    8.000000    9.064653
 ---------------------------------------------------------------------
 Stoichiometry    BrCl
 Framework group  C*V[C*(ClBr)]
 Deg. of freedom     1
 Full point group                 C*V     NOp   4
 Largest Abelian subgroup         C2V     NOp   4
 Largest concise Abelian subgroup C1      NOp   1
                         Standard orientation:                         
 ---------------------------------------------------------------------
 Center     Atomic      Atomic             Coordinates (Angstroms)
 Number     Number       Type             X           Y           Z
 ---------------------------------------------------------------------
      1         35           0        0.000000    0.000000    0.696119
      2         17           0        0.000000    0.000000   -1.433187
 ---------------------------------------------------------------------
 Rotational constants (GHZ):           0.0000000           4.5999865           4.5999865

 **********************************************************************

            Population analysis using the SCF Density.

 **********************************************************************

 Orbital symmetries:
       Occupied  (SG) (SG) (SG) (SG) (PI) (PI) (SG) (SG) (SG) (PI)
                 (PI) (SG) (PI) (PI) (SG) (PI) (PI) (DLTA) (DLTA)
                 (SG) (SG) (SG) (PI) (PI) (PI) (PI)
       Virtual   (SG) (SG) (SG) (PI) (PI) (SG) (PI) (PI) (PI) (PI)
                 (DLTA) (DLTA) (DLTA) (DLTA) (SG) (SG) (PI) (PI)
                 (SG) (SG) (DLTA) (DLTA) (PHI) (PHI) (PI) (PI)
                 (PI) (PI) (PI) (PI) (DLTA) (DLTA) (SG) (PI) (PI)
                 (SG) (PHI) (PHI) (SG) (DLTA) (DLTA) (DLTA) (DLTA)
                 (SG) (PI) (PI) (SG) (PI) (PI) (SG) (SG) (PI) (PI)
                 (DLTA) (DLTA) (PHI) (PHI) (SG) (PHI) (PHI) (?A)
                 (?A) (DLTA) (DLTA) (PI) (PI) (SG) (DLTA) (DLTA)
                 (PI) (PI) (SG) (PHI) (PHI) (?A) (?A) (DLTA) (DLTA)
                 (SG) (PI) (PI) (PI) (PI) (PHI) (PHI) (PI) (PI)
                 (SG) (DLTA) (DLTA) (SG) (PI) (PI) (SG) (DLTA)
                 (DLTA) (PI) (PI) (SG) (SG) (SG) (PHI) (PHI) (DLTA)
                 (DLTA) (PI) (PI) (SG) (DLTA) (DLTA) (PI) (PI)
                 (SG) (PI) (PI) (SG) (SG) (SG) (PHI) (PHI) (DLTA)
                 (DLTA) (PI) (PI) (SG) (PI) (PI) (SG) (SG) (SG)
                 (SG) (SG) (SG)
 The electronic state is 1-SG.
 Alpha  occ. eigenvalues -- -483.31329-101.75695 -62.69925 -56.47546 -56.47005
 Alpha  occ. eigenvalues --  -56.47005  -9.57616  -8.82456  -7.31338  -7.30130
 Alpha  occ. eigenvalues --   -7.30130  -6.63869  -6.62192  -6.62192  -2.72361
 Alpha  occ. eigenvalues --   -2.71877  -2.71877  -2.70500  -2.70500  -0.92120
 Alpha  occ. eigenvalues --   -0.76852  -0.46533  -0.40495  -0.40495  -0.30743
 Alpha  occ. eigenvalues --   -0.30743
 Alpha virt. eigenvalues --   -0.12214   0.13739   0.15522   0.16835   0.16835
 Alpha virt. eigenvalues --    0.18512   0.21597   0.21597   0.23165   0.23165
 Alpha virt. eigenvalues --    0.25864   0.25864   0.36504   0.36504   0.38795
 Alpha virt. eigenvalues --    0.45183   0.52406   0.52406   0.68466   0.93203
 Alpha virt. eigenvalues --    0.93737   0.93737   0.96679   0.96679   0.99645
 Alpha virt. eigenvalues --    0.99645   1.02348   1.02348   1.10891   1.10891
 Alpha virt. eigenvalues --    1.14327   1.14327   1.14515   1.21503   1.21503
 Alpha virt. eigenvalues --    1.25003   1.31320   1.31320   1.34419   1.37362
 Alpha virt. eigenvalues --    1.37362   1.48342   1.48342   1.50363   1.51295
 Alpha virt. eigenvalues --    1.51295   1.76066   1.83536   1.83536   1.97208
 Alpha virt. eigenvalues --    2.49206   2.57007   2.57007   2.61619   2.61619
 Alpha virt. eigenvalues --    2.64972   2.64972   2.65337   2.65984   2.65984
 Alpha virt. eigenvalues --    2.67591   2.67597   2.73356   2.73356   2.99132
 Alpha virt. eigenvalues --    2.99132   3.12803   3.19904   3.19904   3.33515
 Alpha virt. eigenvalues --    3.33515   3.52716   3.57092   3.57092   3.57454
 Alpha virt. eigenvalues --    3.57454   3.67450   3.67450   3.77956   3.82430
 Alpha virt. eigenvalues --    3.82430   3.85256   3.85256   3.90233   3.90233
 Alpha virt. eigenvalues --    3.93986   3.93986   3.97225   4.01717   4.01717
 Alpha virt. eigenvalues --    4.35896   4.46655   4.46655   4.75954   4.92677
 Alpha virt. eigenvalues --    4.92681   5.05137   5.05137   5.65567   7.71953
 Alpha virt. eigenvalues --    8.57431   9.36265   9.36265   9.36854   9.36854
 Alpha virt. eigenvalues --    9.41753   9.41753   9.48813  10.60542  10.60542
 Alpha virt. eigenvalues --   10.65765  10.65765  10.93892  13.56309  13.56309
 Alpha virt. eigenvalues --   13.82885  28.44652  29.09363  34.24561  34.24561
 Alpha virt. eigenvalues --   34.24691  34.24691  34.27248  34.27248  34.30751
 Alpha virt. eigenvalues --   41.77233  41.77233  41.79831  94.64118  98.21865
 Alpha virt. eigenvalues --  321.59771 525.469071818.95504
          Condensed to atoms (all electrons):
               1          2
     1  Br  34.788893   0.128751
     2  Cl   0.128751  16.953605
 Mulliken charges:
               1
     1  Br   0.082356
     2  Cl  -0.082356
 Sum of Mulliken charges =  -0.00000
 Mulliken charges with hydrogens summed into heavy atoms:
               1
     1  Br   0.082356
     2  Cl  -0.082356
 Electronic spatial extent (au):  <R**2>=            251.9779
 Charge=             -0.0000 electrons
 Dipole moment (field-independent basis, Debye):
    X=              0.0000    Y=              0.0000    Z=              0.4662  Tot=              0.4662
 Quadrupole moment (field-independent basis, Debye-Ang):
   XX=            -31.0987   YY=            -31.0987   ZZ=            -27.5371
   XY=              0.0000   XZ=              0.0000   YZ=              0.0000
 Traceless Quadrupole moment (field-independent basis, Debye-Ang):
   XX=             -1.1872   YY=             -1.1872   ZZ=              2.3744
   XY=              0.0000   XZ=              0.0000   YZ=              0.0000
 Octapole moment (field-independent basis, Debye-Ang**2):
  XXX=              0.0000  YYY=              0.0000  ZZZ=             15.4432  XYY=              0.0000
  XXY=              0.0000  XXZ=              5.3444  XZZ=              0.0000  YZZ=              0.0000
  YYZ=              5.3444  XYZ=              0.0000
 Hexadecapole moment (field-independent basis, Debye-Ang**3):
 XXXX=            -36.1674 YYYY=            -36.1674 ZZZZ=           -209.4026 XXXY=              0.0000
 XXXZ=              0.0000 YYYX=              0.0000 YYYZ=              0.0000 ZZZX=              0.0000
 ZZZY=              0.0000 XXYY=            -12.0558 XXZZ=            -46.5814 YYZZ=            -46.5814
 XXYZ=              0.0000 YYXZ=              0.0000 ZZXY=              0.0000
 N-N= 1.478699721343D+02 E-N=-7.541600576395D+03  KE= 3.029890555657D+03
 Symmetry A1   KE= 2.228651004744D+03
 Symmetry A2   KE= 4.297584161632D+01
 Symmetry B1   KE= 3.791318546483D+02
 Symmetry B2   KE= 3.791318546483D+02
 Unable to Open any file for archive entry.
 1\1\GINC-TCOPT10\FOpt\RPBE1PBE\def2QZVPP\Br1Cl1\HUTTER\01-Aug-2021\0\\
 #N RPBE1PBE/Def2QZVPP scf=tight Int(Grid=ultrafine) OPT FREQ\\Mol job 
 1\\0,1\Br,8.,8.,6.9353469269\Cl,8.,8.,9.0646530731\\Version=ES64L-G16R
 evC.01\State=1-SG\HF=-3033.9655562\RMSD=3.072e-09\RMSF=5.907e-06\Dipol
 e=0.,0.,-0.1834012\Quadrupole=-0.8826419,-0.8826419,1.7652837,0.,0.,0.
 \PG=C*V [C*(Cl1Br1)]\\@
 The archive entry for this job was punched.


 THE WISE MAN HAS THE POWER TO REASON AWAY
 WHAT A FOOL BELIEVES.
                     - DOOBIE BROTHERS
 Job cpu time:       0 days  0 hours  9 minutes 39.8 seconds.
 Elapsed time:       0 days  0 hours  1 minutes 30.6 seconds.
 File lengths (MBytes):  RWF=     18 Int=      0 D2E=      0 Chk=      3 Scr=      1
 Normal termination of Gaussian 16 at Sun Aug  1 09:55:09 2021.
 Link1:  Proceeding to internal job step number  2.
 ----------------------------------------------------------------------
 #N Geom=AllCheck Guess=TCheck SCRF=Check GenChk RPBE1PBE/def2QZVPP Fre
 q
 ----------------------------------------------------------------------
 1/10=4,29=7,30=1,38=1,40=1/1,3;
 2/12=2,40=1/2;
 3/5=45,7=202,11=2,14=-4,25=1,30=1,70=2,71=2,74=-13,75=-5,116=1,140=1/1,2,3;
 4/5=101/1;
 5/5=2,32=2,38=6,98=1/2;
 8/6=4,10=90,11=11/1;
 11/6=1,8=1,9=11,15=111,16=1/1,2,10;
 10/6=1/2;
 6/7=2,8=2,9=2,10=2,28=1/1;
 7/8=1,10=1,25=1/1,2,3,16;
 1/10=4,30=1/3;
 99//99;
 Structure from the checkpoint file:  "/data/hutter/SMG16/PBE0/Gau-15930.chk"
 ---------
 Mol job 1
 ---------
 Charge =  0 Multiplicity = 1
 Redundant internal coordinates found in file.  (old form).
 Br,0,8.,8.,6.9353469269
 Cl,0,8.,8.,9.0646530731
 Recover connectivity data from disk.

 GradGradGradGradGradGradGradGradGradGradGradGradGradGradGradGradGradGrad
 Berny optimization.
 Initialization pass.
                           ----------------------------
                           !    Initial Parameters    !
                           ! (Angstroms and Degrees)  !
 --------------------------                            --------------------------
 ! Name  Definition              Value          Derivative Info.                !
 --------------------------------------------------------------------------------
 ! R1    R(1,2)                  2.1293         calculate D2E/DX2 analytically  !
 --------------------------------------------------------------------------------
 Trust Radius=3.00D-01 FncErr=1.00D-07 GrdErr=1.00D-07 EigMax=2.50D+02 EigMin=1.00D-04
 Number of steps in this run=      2 maximum allowed number of steps=      2.
 GradGradGradGradGradGradGradGradGradGradGradGradGradGradGradGradGradGrad

                          Input orientation:                          
 ---------------------------------------------------------------------
 Center     Atomic      Atomic             Coordinates (Angstroms)
 Number     Number       Type             X           Y           Z
 ---------------------------------------------------------------------
      1         35           0        8.000000    8.000000    6.935347
      2         17           0        8.000000    8.000000    9.064653
 ---------------------------------------------------------------------
 Stoichiometry    BrCl
 Framework group  C*V[C*(ClBr)]
 Deg. of freedom     1
 Full point group                 C*V     NOp   4
 Largest Abelian subgroup         C2V     NOp   4
 Largest concise Abelian subgroup C1      NOp   1
                         Standard orientation:                         
 ---------------------------------------------------------------------
 Center     Atomic      Atomic             Coordinates (Angstroms)
 Number     Number       Type             X           Y           Z
 ---------------------------------------------------------------------
      1         35           0        0.000000    0.000000    0.696119
      2         17           0        0.000000    0.000000   -1.433187
 ---------------------------------------------------------------------
 Rotational constants (GHZ):           0.0000000           4.5999865           4.5999865
 Standard basis: def2QZVPP (5D, 7F)
 There are    87 symmetry adapted cartesian basis functions of A1  symmetry.
 There are    20 symmetry adapted cartesian basis functions of A2  symmetry.
 There are    45 symmetry adapted cartesian basis functions of B1  symmetry.
 There are    45 symmetry adapted cartesian basis functions of B2  symmetry.
 There are    67 symmetry adapted basis functions of A1  symmetry.
 There are    18 symmetry adapted basis functions of A2  symmetry.
 There are    37 symmetry adapted basis functions of B1  symmetry.
 There are    37 symmetry adapted basis functions of B2  symmetry.
   159 basis functions,   320 primitive gaussians,   197 cartesian basis functions
    26 alpha electrons       26 beta electrons
       nuclear repulsion energy       147.8699721343 Hartrees.
 NAtoms=    2 NActive=    2 NUniq=    2 SFac= 1.00D+00 NAtFMM=   60 NAOKFM=F Big=F
 Integral buffers will be    131072 words long.
 Raffenetti 2 integral format.
 Two-electron integral symmetry is turned on.
 One-electron integrals computed using PRISM.
   4 Symmetry operations used in ECPInt.
 ECPInt:  NShTT=    1225 NPrTT=    5264 LenC2=    1180 LenP2D=    4218.
 LDataN:  DoStor=T MaxTD1= 8 Len=  415
 NBasis=   159 RedAO= T EigKep=  5.79D-04  NBF=    67    18    37    37
 NBsUse=   159 1.00D-06 EigRej= -1.00D+00 NBFU=    67    18    37    37
 Initial guess from the checkpoint file:  "/data/hutter/SMG16/PBE0/Gau-15930.chk"
 B after Tr=     0.000000    0.000000    0.000000
         Rot=    1.000000    0.000000    0.000000    0.000000 Ang=   0.00 deg.
 Initial guess orbital symmetries:
       Occupied  (SG) (SG) (SG) (SG) (PI) (PI) (SG) (SG) (SG) (PI)
                 (PI) (SG) (PI) (PI) (SG) (PI) (PI) (DLTA) (DLTA)
                 (SG) (SG) (SG) (PI) (PI) (PI) (PI)
       Virtual   (SG) (SG) (SG) (PI) (PI) (SG) (PI) (PI) (PI) (PI)
                 (DLTA) (DLTA) (DLTA) (DLTA) (SG) (SG) (PI) (PI)
                 (SG) (SG) (DLTA) (DLTA) (PHI) (PHI) (PI) (PI)
                 (PI) (PI) (PI) (PI) (DLTA) (DLTA) (SG) (PI) (PI)
                 (SG) (PHI) (PHI) (SG) (DLTA) (DLTA) (DLTA) (DLTA)
                 (SG) (PI) (PI) (SG) (PI) (PI) (SG) (SG) (PI) (PI)
                 (DLTA) (DLTA) (PHI) (PHI) (SG) (PHI) (PHI) (?A)
                 (?A) (DLTA) (DLTA) (PI) (PI) (SG) (DLTA) (DLTA)
                 (PI) (PI) (SG) (PHI) (PHI) (?A) (?A) (DLTA) (DLTA)
                 (SG) (PI) (PI) (PI) (PI) (PHI) (PHI) (PI) (PI)
                 (SG) (DLTA) (DLTA) (SG) (PI) (PI) (SG) (DLTA)
                 (DLTA) (PI) (PI) (SG) (SG) (SG) (PHI) (PHI) (DLTA)
                 (DLTA) (PI) (PI) (SG) (DLTA) (DLTA) (PI) (PI)
                 (SG) (PI) (PI) (SG) (SG) (SG) (PHI) (PHI) (DLTA)
                 (DLTA) (PI) (PI) (SG) (PI) (PI) (SG) (SG) (SG)
                 (SG) (SG) (SG)
 Keep R1 ints in memory in symmetry-blocked form, NReq=101581942.
 Requested convergence on RMS density matrix=1.00D-08 within 128 cycles.
 Requested convergence on MAX density matrix=1.00D-06.
 Requested convergence on             energy=1.00D-06.
 No special actions if energy rises.
 SCF Done:  E(RPBE1PBE) =  -3033.96555623     A.U. after    1 cycles
            NFock=  1  Conv=0.83D-09     -V/T= 2.0013
 DoSCS=F DFT=T ScalE2(SS,OS)=  1.000000  1.000000
 Range of M.O.s used for correlation:     1   159
 NBasis=   159 NAE=    26 NBE=    26 NFC=     0 NFV=     0
 NROrb=    159 NOA=    26 NOB=    26 NVA=   133 NVB=   133

 **** Warning!!: The largest alpha MO coefficient is  0.14177320D+02

   4 Symmetry operations used in ECPInt.
 ECPInt:  NShTT=    1225 NPrTT=    5264 LenC2=    1180 LenP2D=    4218.
 LDataN:  DoStor=T MaxTD1= 9 Len=  602
 Symmetrizing basis deriv contribution to polar:
 IMax=3 JMax=2 DiffMx= 0.00D+00
 G2DrvN: will do     3 centers at a time, making    1 passes.
 Calling FoFCou, ICntrl=  3107 FMM=F I1Cent=   0 AccDes= 0.00D+00.
 End of G2Drv F.D. properties file   721 does not exist.
 End of G2Drv F.D. properties file   722 does not exist.
 End of G2Drv F.D. properties file   788 does not exist.
          IDoAtm=11
          Differentiating once with respect to electric field.
                with respect to dipole field.
          Differentiating once with respect to nuclear coordinates.
 Keep R1 ints in memory in symmetry-blocked form, NReq=101583373.
          There are     9 degrees of freedom in the 1st order CPHF.  IDoFFX=6 NUNeed=     3.
      6 vectors produced by pass  0 Test12= 3.84D-14 1.11D-08 XBig12= 5.06D+01 6.07D+00.
 AX will form     6 AO Fock derivatives at one time.
      6 vectors produced by pass  1 Test12= 3.84D-14 1.11D-08 XBig12= 1.22D+01 1.40D+00.
      6 vectors produced by pass  2 Test12= 3.84D-14 1.11D-08 XBig12= 8.10D-01 4.14D-01.
      6 vectors produced by pass  3 Test12= 3.84D-14 1.11D-08 XBig12= 3.12D-02 4.62D-02.
      6 vectors produced by pass  4 Test12= 3.84D-14 1.11D-08 XBig12= 3.24D-03 1.64D-02.
      6 vectors produced by pass  5 Test12= 3.84D-14 1.11D-08 XBig12= 7.29D-05 1.52D-03.
      6 vectors produced by pass  6 Test12= 3.84D-14 1.11D-08 XBig12= 2.32D-06 3.24D-04.
      4 vectors produced by pass  7 Test12= 3.84D-14 1.11D-08 XBig12= 2.35D-08 4.63D-05.
      3 vectors produced by pass  8 Test12= 3.84D-14 1.11D-08 XBig12= 3.18D-10 3.88D-06.
      1 vectors produced by pass  9 Test12= 3.84D-14 1.11D-08 XBig12= 1.57D-12 3.86D-07.
      1 vectors produced by pass 10 Test12= 3.84D-14 1.11D-08 XBig12= 2.19D-15 1.20D-08.
 InvSVY:  IOpt=1 It=  1 EMax= 3.33D-16
 Solved reduced A of dimension    51 with     6 vectors.
 Isotropic polarizability for W=    0.000000       32.22 Bohr**3.
 End of Minotr F.D. properties file   721 does not exist.
 End of Minotr F.D. properties file   722 does not exist.
 End of Minotr F.D. properties file   788 does not exist.

 **********************************************************************

            Population analysis using the SCF Density.

 **********************************************************************

 Orbital symmetries:
       Occupied  (SG) (SG) (SG) (SG) (PI) (PI) (SG) (SG) (SG) (PI)
                 (PI) (SG) (PI) (PI) (SG) (PI) (PI) (DLTA) (DLTA)
                 (SG) (SG) (SG) (PI) (PI) (PI) (PI)
       Virtual   (SG) (SG) (SG) (PI) (PI) (SG) (PI) (PI) (PI) (PI)
                 (DLTA) (DLTA) (DLTA) (DLTA) (SG) (SG) (PI) (PI)
                 (SG) (SG) (DLTA) (DLTA) (PHI) (PHI) (PI) (PI)
                 (PI) (PI) (PI) (PI) (DLTA) (DLTA) (SG) (PI) (PI)
                 (SG) (PHI) (PHI) (SG) (DLTA) (DLTA) (DLTA) (DLTA)
                 (SG) (PI) (PI) (SG) (PI) (PI) (SG) (SG) (PI) (PI)
                 (DLTA) (DLTA) (PHI) (PHI) (SG) (PHI) (PHI) (?A)
                 (?A) (DLTA) (DLTA) (PI) (PI) (SG) (DLTA) (DLTA)
                 (PI) (PI) (SG) (PHI) (PHI) (?A) (?A) (DLTA) (DLTA)
                 (SG) (PI) (PI) (PI) (PI) (PHI) (PHI) (PI) (PI)
                 (SG) (DLTA) (DLTA) (SG) (PI) (PI) (SG) (DLTA)
                 (DLTA) (PI) (PI) (SG) (SG) (SG) (PHI) (PHI) (DLTA)
                 (DLTA) (PI) (PI) (SG) (DLTA) (DLTA) (PI) (PI)
                 (SG) (PI) (PI) (SG) (SG) (SG) (PHI) (PHI) (DLTA)
                 (DLTA) (PI) (PI) (SG) (PI) (PI) (SG) (SG) (SG)
                 (SG) (SG) (SG)
 The electronic state is 1-SG.
 Alpha  occ. eigenvalues -- -483.31329-101.75695 -62.69925 -56.47546 -56.47005
 Alpha  occ. eigenvalues --  -56.47005  -9.57616  -8.82456  -7.31338  -7.30130
 Alpha  occ. eigenvalues --   -7.30130  -6.63869  -6.62192  -6.62192  -2.72361
 Alpha  occ. eigenvalues --   -2.71877  -2.71877  -2.70500  -2.70500  -0.92120
 Alpha  occ. eigenvalues --   -0.76852  -0.46533  -0.40495  -0.40495  -0.30743
 Alpha  occ. eigenvalues --   -0.30743
 Alpha virt. eigenvalues --   -0.12214   0.13739   0.15522   0.16835   0.16835
 Alpha virt. eigenvalues --    0.18512   0.21597   0.21597   0.23165   0.23165
 Alpha virt. eigenvalues --    0.25864   0.25864   0.36504   0.36504   0.38795
 Alpha virt. eigenvalues --    0.45183   0.52406   0.52406   0.68466   0.93203
 Alpha virt. eigenvalues --    0.93737   0.93737   0.96679   0.96679   0.99645
 Alpha virt. eigenvalues --    0.99645   1.02348   1.02348   1.10891   1.10891
 Alpha virt. eigenvalues --    1.14327   1.14327   1.14515   1.21503   1.21503
 Alpha virt. eigenvalues --    1.25003   1.31320   1.31320   1.34419   1.37362
 Alpha virt. eigenvalues --    1.37362   1.48342   1.48342   1.50363   1.51295
 Alpha virt. eigenvalues --    1.51295   1.76066   1.83536   1.83536   1.97208
 Alpha virt. eigenvalues --    2.49206   2.57007   2.57007   2.61619   2.61619
 Alpha virt. eigenvalues --    2.64972   2.64972   2.65337   2.65984   2.65984
 Alpha virt. eigenvalues --    2.67591   2.67597   2.73356   2.73356   2.99132
 Alpha virt. eigenvalues --    2.99132   3.12803   3.19904   3.19904   3.33515
 Alpha virt. eigenvalues --    3.33515   3.52716   3.57092   3.57092   3.57454
 Alpha virt. eigenvalues --    3.57454   3.67450   3.67450   3.77956   3.82430
 Alpha virt. eigenvalues --    3.82430   3.85256   3.85256   3.90233   3.90233
 Alpha virt. eigenvalues --    3.93986   3.93986   3.97225   4.01717   4.01717
 Alpha virt. eigenvalues --    4.35896   4.46655   4.46655   4.75954   4.92677
 Alpha virt. eigenvalues --    4.92681   5.05137   5.05137   5.65567   7.71953
 Alpha virt. eigenvalues --    8.57431   9.36265   9.36265   9.36854   9.36854
 Alpha virt. eigenvalues --    9.41753   9.41753   9.48813  10.60542  10.60542
 Alpha virt. eigenvalues --   10.65765  10.65765  10.93892  13.56309  13.56309
 Alpha virt. eigenvalues --   13.82885  28.44652  29.09363  34.24561  34.24561
 Alpha virt. eigenvalues --   34.24691  34.24691  34.27248  34.27248  34.30751
 Alpha virt. eigenvalues --   41.77233  41.77233  41.79831  94.64118  98.21865
 Alpha virt. eigenvalues --  321.59771 525.469071818.95504
          Condensed to atoms (all electrons):
               1          2
     1  Br  34.788893   0.128751
     2  Cl   0.128751  16.953605
 Mulliken charges:
               1
     1  Br   0.082356
     2  Cl  -0.082356
 Sum of Mulliken charges =  -0.00000
 Mulliken charges with hydrogens summed into heavy atoms:
               1
     1  Br   0.082356
     2  Cl  -0.082356
 APT charges:
               1
     1  Br   0.098087
     2  Cl  -0.098087
 Sum of APT charges =  -0.00000
 APT charges with hydrogens summed into heavy atoms:
               1
     1  Br   0.098087
     2  Cl  -0.098087
 Electronic spatial extent (au):  <R**2>=            251.9779
 Charge=             -0.0000 electrons
 Dipole moment (field-independent basis, Debye):
    X=              0.0000    Y=              0.0000    Z=              0.4662  Tot=              0.4662
 Quadrupole moment (field-independent basis, Debye-Ang):
   XX=            -31.0987   YY=            -31.0987   ZZ=            -27.5371
   XY=              0.0000   XZ=              0.0000   YZ=              0.0000
 Traceless Quadrupole moment (field-independent basis, Debye-Ang):
   XX=             -1.1872   YY=             -1.1872   ZZ=              2.3744
   XY=              0.0000   XZ=              0.0000   YZ=              0.0000
 Octapole moment (field-independent basis, Debye-Ang**2):
  XXX=              0.0000  YYY=              0.0000  ZZZ=             15.4432  XYY=              0.0000
  XXY=              0.0000  XXZ=              5.3444  XZZ=              0.0000  YZZ=              0.0000
  YYZ=              5.3444  XYZ=              0.0000
 Hexadecapole moment (field-independent basis, Debye-Ang**3):
 XXXX=            -36.1674 YYYY=            -36.1674 ZZZZ=           -209.4026 XXXY=              0.0000
 XXXZ=              0.0000 YYYX=              0.0000 YYYZ=              0.0000 ZZZX=              0.0000
 ZZZY=              0.0000 XXYY=            -12.0558 XXZZ=            -46.5814 YYZZ=            -46.5814
 XXYZ=              0.0000 YYXZ=              0.0000 ZZXY=              0.0000
 N-N= 1.478699721343D+02 E-N=-7.541600575827D+03  KE= 3.029890556064D+03
 Symmetry A1   KE= 2.228651005017D+03
 Symmetry A2   KE= 4.297584167345D+01
 Symmetry B1   KE= 3.791318546868D+02
 Symmetry B2   KE= 3.791318546868D+02
  Exact polarizability:      24.769      -0.000      24.769       0.000       0.000      47.128
 Approx polarizability:      36.355      -0.000      36.355      -0.000      -0.000      81.101
   4 Symmetry operations used in ECPInt.
 ECPInt:  NShTT=    1225 NPrTT=    5264 LenC2=    1180 LenP2D=    4218.
 LDataN:  DoStor=T MaxTD1=10 Len=  848
 Calling FoFJK, ICntrl=    100127 FMM=F ISym2X=1 I1Cent= 0 IOpClX= 0 NMat=1 NMatS=1 NMatT=0.
 Full mass-weighted force constant matrix:
 Low frequencies ---   -0.0034   -0.0031    0.0095    6.2721    6.2721  461.7525
 Diagonal vibrational polarizability:
        0.0000000       0.0000000       0.2094977
 Harmonic frequencies (cm**-1), IR intensities (KM/Mole), Raman scattering
 activities (A**4/AMU), depolarization ratios for plane and unpolarized
 incident light, reduced masses (AMU), force constants (mDyne/A),
 and normal coordinates:
                      1
                     SG
 Frequencies --    461.7525
 Red. masses --     42.1817
 Frc consts  --      5.2990
 IR Inten    --      1.6598
  Atom  AN      X      Y      Z
     1  35    -0.00  -0.00  -0.41
     2  17    -0.00  -0.00   0.91

 -------------------
 - Thermochemistry -
 -------------------
 Temperature   298.150 Kelvin.  Pressure   1.00000 Atm.
 Atom     1 has atomic number 35 and mass  78.91834
 Atom     2 has atomic number 17 and mass  34.96885
 Molecular mass:   113.88719 amu.
 Principal axes and moments of inertia in atomic units:
                           1         2         3
     Eigenvalues --     0.00000 392.33620 392.33620
           X            0.00000  -0.00000   1.00000
           Y            0.00000   1.00000   0.00000
           Z            1.00000   0.00000   0.00000
 This molecule is a prolate symmetric top.
 Rotational symmetry number  1.
 Rotational temperature (Kelvin)      0.22076
 Rotational constant (GHZ):           4.599986
 Zero-point vibrational energy       2761.9 (Joules/Mol)
                                    0.66011 (Kcal/Mol)
 Warning -- explicit consideration of   1 degrees of freedom as
           vibrations may cause significant error
 Vibrational temperatures:    664.36
          (Kelvin)
 
 Zero-point correction=                           0.001052 (Hartree/Particle)
 Thermal correction to Energy=                    0.003666
 Thermal correction to Enthalpy=                  0.004611
 Thermal correction to Gibbs Free Energy=        -0.022557
 Sum of electronic and zero-point Energies=          -3033.964504
 Sum of electronic and thermal Energies=             -3033.961890
 Sum of electronic and thermal Enthalpies=           -3033.960946
 Sum of electronic and thermal Free Energies=        -3033.988113
 
                     E (Thermal)             CV                S
                      KCal/Mol        Cal/Mol-Kelvin    Cal/Mol-Kelvin
 Total                    2.301              6.303             57.178
 Electronic               0.000              0.000              0.000
 Translational            0.889              2.981             40.106
 Rotational               0.592              1.987             16.311
 Vibrational              0.819              1.335              0.761
 Vibration     1          0.819              1.335              0.761
                       Q            Log10(Q)             Ln(Q)
 Total Bot       0.237304D+11         10.375305         23.890023
 Total V=0       0.723049D+11         10.859168         25.004158
 Vib (Bot)       0.367818D+00         -0.434367         -1.000166
 Vib (Bot)    1  0.367818D+00         -0.434367         -1.000166
 Vib (V=0)       0.112072D+01          0.049496          0.113969
 Vib (V=0)    1  0.112072D+01          0.049496          0.113969
 Electronic      0.100000D+01          0.000000          0.000000
 Translational   0.477712D+08          7.679166         17.681934
 Rotational      0.135053D+04          3.130505          7.208255
 ***** Axes restored to original set *****
 -------------------------------------------------------------------
 Center     Atomic                   Forces (Hartrees/Bohr)
 Number     Number              X              Y              Z
 -------------------------------------------------------------------
      1       35          -0.000000000   -0.000000000    0.000010285
      2       17          -0.000000000   -0.000000000   -0.000010285
 -------------------------------------------------------------------
 Cartesian Forces:  Max     0.000010285 RMS     0.000005938
 FormGI is forming the generalized inverse of G from B-inverse, IUseBI=4.

 GradGradGradGradGradGradGradGradGradGradGradGradGradGradGradGradGradGrad
 Berny optimization.
 Internal  Forces:  Max     0.000010285 RMS     0.000010285
 Search for a local minimum.
 Step number   1 out of a maximum of    2
 All quantities printed in internal units (Hartrees-Bohrs-Radians)
 Second derivative matrix not updated -- analytic derivatives used.
 The second derivative matrix:
                          R1
           R1           0.19552
 ITU=  0
     Eigenvalues ---    0.19552
 Angle between quadratic step and forces=   0.00 degrees.
 Linear search not attempted -- first point.
 Iteration  1 RMS(Cart)=  0.00003719 RMS(Int)=  0.00000000
 Iteration  2 RMS(Cart)=  0.00000000 RMS(Int)=  0.00000000
 ClnCor:  largest displacement from symmetrization is 0.00D+00 for atom     0.
 Variable       Old X    -DE/DX   Delta X   Delta X   Delta X     New X
                                 (Linear)    (Quad)   (Total)
    R1        4.02381  -0.00001   0.00000  -0.00005  -0.00005   4.02375
         Item               Value     Threshold  Converged?
 Maximum Force            0.000010     0.000450     YES
 RMS     Force            0.000010     0.000300     YES
 Maximum Displacement     0.000026     0.001800     YES
 RMS     Displacement     0.000037     0.001200     YES
 Predicted change in Energy=-2.704935D-10
 Optimization completed.
    -- Stationary point found.
                           ----------------------------
                           !   Optimized Parameters   !
                           ! (Angstroms and Degrees)  !
 --------------------------                            --------------------------
 ! Name  Definition              Value          Derivative Info.                !
 --------------------------------------------------------------------------------
 ! R1    R(1,2)                  2.1293         -DE/DX =    0.0                 !
 --------------------------------------------------------------------------------
 GradGradGradGradGradGradGradGradGradGradGradGradGradGradGradGradGradGrad


 ----------------------------------------------------------------------

 Electric dipole moment (input orientation):
 (Debye = 10**-18 statcoulomb cm , SI units = C m)
                  (au)            (Debye)         (10**-30 SI)
   Tot        0.183400D+00      0.466157D+00      0.155493D+01
   x          0.000000D+00      0.000000D+00      0.000000D+00
   y          0.000000D+00      0.000000D+00      0.000000D+00
   z         -0.183400D+00     -0.466157D+00     -0.155493D+01

 Dipole polarizability, Alpha (input orientation).
 (esu units = cm**3 , SI units = C**2 m**2 J**-1)
 Alpha(0;0):
               (au)            (10**-24 esu)      (10**-40 SI)
   iso        0.322220D+02      0.477481D+01      0.531269D+01
   aniso      0.223596D+02      0.331335D+01      0.368659D+01
   xx         0.247688D+02      0.367036D+01      0.408383D+01
   yx         0.000000D+00      0.000000D+00      0.000000D+00
   yy         0.247688D+02      0.367036D+01      0.408383D+01
   zx         0.000000D+00      0.000000D+00      0.000000D+00
   zy         0.000000D+00      0.000000D+00      0.000000D+00
   zz         0.471284D+02      0.698371D+01      0.777042D+01

 ----------------------------------------------------------------------

 Dipole orientation:
    35         15.11780900        -15.11780900        -13.10590627
    17         15.11780900        -15.11780900        -17.12971172

 Electric dipole moment (dipole orientation):
 (Debye = 10**-18 statcoulomb cm , SI units = C m)
                  (au)            (Debye)         (10**-30 SI)
   Tot        0.183400D+00      0.466157D+00      0.155493D+01
   x          0.000000D+00      0.000000D+00      0.000000D+00
   y          0.000000D+00      0.000000D+00      0.000000D+00
   z          0.183400D+00      0.466157D+00      0.155493D+01

 Dipole polarizability, Alpha (dipole orientation).
 (esu units = cm**3 , SI units = C**2 m**2 J**-1)
 Alpha(0;0):
               (au)            (10**-24 esu)      (10**-40 SI)
   iso        0.322220D+02      0.477481D+01      0.531269D+01
   aniso      0.223596D+02      0.331335D+01      0.368659D+01
   xx         0.247688D+02      0.367036D+01      0.408383D+01
   yx         0.000000D+00      0.000000D+00      0.000000D+00
   yy         0.247688D+02      0.367036D+01      0.408383D+01
   zx         0.000000D+00      0.000000D+00      0.000000D+00
   zy         0.000000D+00      0.000000D+00      0.000000D+00
   zz         0.471284D+02      0.698371D+01      0.777042D+01

 ----------------------------------------------------------------------
 Unable to Open any file for archive entry.
 1\1\GINC-TCOPT10\Freq\RPBE1PBE\def2QZVPP\Br1Cl1\HUTTER\01-Aug-2021\0\\
 #N Geom=AllCheck Guess=TCheck SCRF=Check GenChk RPBE1PBE/def2QZVPP Fre
 q\\Mol job 1\\0,1\Br,8.,8.,6.9353469269\Cl,8.,8.,9.0646530731\\Version
 =ES64L-G16RevC.01\State=1-SG\HF=-3033.9655562\RMSD=8.275e-10\RMSF=5.93
 8e-06\ZeroPoint=0.0010519\Thermal=0.0036664\ETot=-3033.9618898\HTot=-3
 033.9609457\GTot=-3033.9881128\Dipole=0.,0.,-0.1834003\DipoleDeriv=0.0
 455708,0.,0.,0.,0.0455708,0.,0.,0.,0.2031182,-0.0455708,0.,0.,0.,-0.04
 55708,0.,0.,0.,-0.2031182\Polar=24.7688261,0.,24.7688261,0.,0.,47.1283
 897\Quadrupole=-0.882641,-0.882641,1.7652819,0.,0.,0.\PG=C*V [C*(Cl1Br
 1)]\NImag=0\\0.00003607,0.,0.00003607,0.,0.,0.19552146,-0.00003607,0.,
 0.,0.00003607,0.,-0.00003607,0.,0.,0.00003607,0.,0.,-0.19552146,0.,0.,
 0.19552146\\0.,0.,-0.00001028,0.,0.,0.00001028\\\@
 The archive entry for this job was punched.


 ALMOST ANYTHING IS EASIER TO GET INTO THAN OUT OF.

                         -- AGNES ALLEN'S LAW FROM
                PAUL DICKSON'S "THE OFFICIAL RULES"
 Job cpu time:       0 days  0 hours 10 minutes 57.5 seconds.
 Elapsed time:       0 days  0 hours  1 minutes 35.0 seconds.
 File lengths (MBytes):  RWF=     18 Int=      0 D2E=      0 Chk=      3 Scr=      1
 Normal termination of Gaussian 16 at Sun Aug  1 09:56:45 2021.
