 Entering Gaussian System, Link 0=g16
 Initial command:
 /sw-ng/spack/opt/spack/linux-opensuse_leap15-sandybridge/pgi-18.10/gaussian-src-16-C.01-zldqaomctopxhethwccpmxmwefdscg3m/g16/l1.exe "/data/hutter/SMG16/PBE0/Gau-3980.inp" -scrdir="/data/hutter/SMG16/PBE0/"
 Entering Link 1 = /sw-ng/spack/opt/spack/linux-opensuse_leap15-sandybridge/pgi-18.10/gaussian-src-16-C.01-zldqaomctopxhethwccpmxmwefdscg3m/g16/l1.exe PID=      3988.
  
 Copyright (c) 1988-2019, Gaussian, Inc.  All Rights Reserved.
  
 This is part of the Gaussian(R) 16 program.  It is based on
 the Gaussian(R) 09 system (copyright 2009, Gaussian, Inc.),
 the Gaussian(R) 03 system (copyright 2003, Gaussian, Inc.),
 the Gaussian(R) 98 system (copyright 1998, Gaussian, Inc.),
 the Gaussian(R) 94 system (copyright 1995, Gaussian, Inc.),
 the Gaussian 92(TM) system (copyright 1992, Gaussian, Inc.),
 the Gaussian 90(TM) system (copyright 1990, Gaussian, Inc.),
 the Gaussian 88(TM) system (copyright 1988, Gaussian, Inc.),
 the Gaussian 86(TM) system (copyright 1986, Carnegie Mellon
 University), and the Gaussian 82(TM) system (copyright 1983,
 Carnegie Mellon University). Gaussian is a federally registered
 trademark of Gaussian, Inc.
  
 This software contains proprietary and confidential information,
 including trade secrets, belonging to Gaussian, Inc.
  
 This software is provided under written license and may be
 used, copied, transmitted, or stored only in accord with that
 written license.
  
 The following legend is applicable only to US Government
 contracts under FAR:
  
                    RESTRICTED RIGHTS LEGEND
  
 Use, reproduction and disclosure by the US Government is
 subject to restrictions as set forth in subparagraphs (a)
 and (c) of the Commercial Computer Software - Restricted
 Rights clause in FAR 52.227-19.
  
 Gaussian, Inc.
 340 Quinnipiac St., Bldg. 40, Wallingford CT 06492
  
  
 ---------------------------------------------------------------
 Warning -- This program may not be used in any manner that
 competes with the business of Gaussian, Inc. or will provide
 assistance to any competitor of Gaussian, Inc.  The licensee
 of this program is prohibited from giving any competitor of
 Gaussian, Inc. access to this program.  By using this program,
 the user acknowledges that Gaussian, Inc. is engaged in the
 business of creating and licensing software in the field of
 computational chemistry and represents and warrants to the
 licensee that it is not a competitor of Gaussian, Inc. and that
 it will not use this program in any manner prohibited above.
 ---------------------------------------------------------------
  

 Cite this work as:
 Gaussian 16, Revision C.01,
 M. J. Frisch, G. W. Trucks, H. B. Schlegel, G. E. Scuseria, 
 M. A. Robb, J. R. Cheeseman, G. Scalmani, V. Barone, 
 G. A. Petersson, H. Nakatsuji, X. Li, M. Caricato, A. V. Marenich, 
 J. Bloino, B. G. Janesko, R. Gomperts, B. Mennucci, H. P. Hratchian, 
 J. V. Ortiz, A. F. Izmaylov, J. L. Sonnenberg, D. Williams-Young, 
 F. Ding, F. Lipparini, F. Egidi, J. Goings, B. Peng, A. Petrone, 
 T. Henderson, D. Ranasinghe, V. G. Zakrzewski, J. Gao, N. Rega, 
 G. Zheng, W. Liang, M. Hada, M. Ehara, K. Toyota, R. Fukuda, 
 J. Hasegawa, M. Ishida, T. Nakajima, Y. Honda, O. Kitao, H. Nakai, 
 T. Vreven, K. Throssell, J. A. Montgomery, Jr., J. E. Peralta, 
 F. Ogliaro, M. J. Bearpark, J. J. Heyd, E. N. Brothers, K. N. Kudin, 
 V. N. Staroverov, T. A. Keith, R. Kobayashi, J. Normand, 
 K. Raghavachari, A. P. Rendell, J. C. Burant, S. S. Iyengar, 
 J. Tomasi, M. Cossi, J. M. Millam, M. Klene, C. Adamo, R. Cammi, 
 J. W. Ochterski, R. L. Martin, K. Morokuma, O. Farkas, 
 J. B. Foresman, and D. J. Fox, Gaussian, Inc., Wallingford CT, 2019.
 
 ******************************************
 Gaussian 16:  ES64L-G16RevC.01  3-Jul-2019
                 1-Aug-2021 
 ******************************************
 %mem=8GB
 %NProcShare=8
 Will use up to    8 processors via shared memory.
 ------------------------------------------------------------
 #N RPBE1PBE/Def2QZVPP scf=tight Int(Grid=ultrafine) OPT FREQ
 ------------------------------------------------------------
 1/18=20,19=15,26=4,38=1/1,3;
 2/9=110,12=2,17=6,18=5,40=1/2;
 3/5=45,7=202,11=2,25=1,30=1,71=1,74=-13,75=-5,116=1/1,2,3;
 4//1;
 5/5=2,32=2,38=5/2;
 6/7=2,8=2,9=2,10=2,28=1/1;
 7//1,2,3,16;
 1/18=20,19=15,26=4/3(2);
 2/9=110/2;
 99//99;
 2/9=110/2;
 3/5=45,7=202,11=2,25=1,30=1,71=1,74=-13,75=-5,116=1/1,2,3;
 4/5=5,16=3,69=1/1;
 5/5=2,32=2,38=5/2;
 7//1,2,3,16;
 1/18=20,19=15,26=4/3(-5);
 2/9=110/2;
 6/7=2,8=2,9=2,10=2,19=2,28=1/1;
 99/9=1/99;
 ---------
 Mol job 1
 ---------
 Symbolic Z-matrix:
 Charge =  0 Multiplicity = 1
 Au                    8.        8.        6.86227 
 Cl                    8.        8.        9.13773 
 

 GradGradGradGradGradGradGradGradGradGradGradGradGradGradGradGradGradGrad
 Berny optimization.
 Initialization pass.
                           ----------------------------
                           !    Initial Parameters    !
                           ! (Angstroms and Degrees)  !
 --------------------------                            --------------------------
 ! Name  Definition              Value          Derivative Info.                !
 --------------------------------------------------------------------------------
 ! R1    R(1,2)                  2.2755         estimate D2E/DX2                !
 --------------------------------------------------------------------------------
 Trust Radius=3.00D-01 FncErr=1.00D-07 GrdErr=1.00D-06 EigMax=2.50D+02 EigMin=1.00D-04
 Number of steps in this run=     20 maximum allowed number of steps=    100.
 GradGradGradGradGradGradGradGradGradGradGradGradGradGradGradGradGradGrad

                          Input orientation:                          
 ---------------------------------------------------------------------
 Center     Atomic      Atomic             Coordinates (Angstroms)
 Number     Number       Type             X           Y           Z
 ---------------------------------------------------------------------
      1         79           0        8.000000    8.000000    6.862266
      2         17           0        8.000000    8.000000    9.137735
 ---------------------------------------------------------------------
 Stoichiometry    AuCl
 Framework group  C*V[C*(ClAu)]
 Deg. of freedom     1
 Full point group                 C*V     NOp   4
 Largest Abelian subgroup         C2V     NOp   4
 Largest concise Abelian subgroup C1      NOp   1
                         Standard orientation:                         
 ---------------------------------------------------------------------
 Center     Atomic      Atomic             Coordinates (Angstroms)
 Number     Number       Type             X           Y           Z
 ---------------------------------------------------------------------
      1         79           0        0.000000    0.000000    0.402948
      2         17           0        0.000000    0.000000   -1.872521
 ---------------------------------------------------------------------
 Rotational constants (GHZ):           0.0000000           3.2867640           3.2867640
 Standard basis: def2QZVPP (5D, 7F)
 There are    87 symmetry adapted cartesian basis functions of A1  symmetry.
 There are    23 symmetry adapted cartesian basis functions of A2  symmetry.
 There are    46 symmetry adapted cartesian basis functions of B1  symmetry.
 There are    46 symmetry adapted cartesian basis functions of B2  symmetry.
 There are    64 symmetry adapted basis functions of A1  symmetry.
 There are    20 symmetry adapted basis functions of A2  symmetry.
 There are    37 symmetry adapted basis functions of B1  symmetry.
 There are    37 symmetry adapted basis functions of B2  symmetry.
   158 basis functions,   260 primitive gaussians,   202 cartesian basis functions
    18 alpha electrons       18 beta electrons
       nuclear repulsion energy        75.1160482200 Hartrees.
 NAtoms=    2 NActive=    2 NUniq=    2 SFac= 1.00D+00 NAtFMM=   60 NAOKFM=F Big=F
 Integral buffers will be    131072 words long.
 Raffenetti 2 integral format.
 Two-electron integral symmetry is turned on.
 One-electron integrals computed using PRISM.
   4 Symmetry operations used in ECPInt.
 ECPInt:  NShTT=     990 NPrTT=    2574 LenC2=     980 LenP2D=    2356.
 LDataN:  DoStor=T MaxTD1= 8 Len=  415
 NBasis=   158 RedAO= T EigKep=  1.04D-03  NBF=    64    20    37    37
 NBsUse=   158 1.00D-06 EigRej= -1.00D+00 NBFU=    64    20    37    37
 Defaulting to unpruned grid for atomic number  79.
 ExpMin= 2.50D-02 ExpMax= 1.47D+06 ExpMxC= 1.67D+03 IAcc=3 IRadAn=         5 AccDes= 0.00D+00
 Harris functional with IExCor= 1009 and IRadAn=       5 diagonalized for initial guess.
 HarFok:  IExCor= 1009 AccDes= 0.00D+00 IRadAn=         5 IDoV= 1 UseB2=F ITyADJ=14
 ICtDFT=  3500011 ScaDFX=  1.000000  1.000000  1.000000  1.000000
 Defaulting to unpruned grid for atomic number  79.
 FoFCou: FMM=F IPFlag=           0 FMFlag=      100000 FMFlg1=           0
         NFxFlg=           0 DoJE=T BraDBF=F KetDBF=T FulRan=T
         wScrn=  0.000000 ICntrl=       500 IOpCl=  0 I1Cent=   200000004 NGrid=           0
         NMat0=    1 NMatS0=      1 NMatT0=    0 NMatD0=    1 NMtDS0=    0 NMtDT0=    0
 Petite list used in FoFCou.
 Initial guess orbital symmetries:
       Occupied  (SG) (SG) (SG) (PI) (PI) (SG) (SG) (PI) (PI) (SG)
                 (SG) (PI) (PI) (SG) (DLTA) (DLTA) (PI) (PI)
       Virtual   (SG) (PI) (PI) (SG) (SG) (PI) (PI) (SG) (SG) (PI)
                 (PI) (DLTA) (DLTA) (SG) (PI) (PI) (DLTA) (DLTA)
                 (SG) (PI) (PI) (PHI) (PHI) (DLTA) (DLTA) (SG)
                 (SG) (PI) (PI) (SG) (PI) (PI) (SG) (DLTA) (DLTA)
                 (PI) (PI) (PHI) (PHI) (SG) (PI) (PI) (DLTA) (DLTA)
                 (PI) (PI) (SG) (PHI) (PHI) (DLTA) (DLTA) (SG)
                 (DLTA) (DLTA) (PI) (PI) (SG) (PI) (PI) (SG) (SG)
                 (PHI) (PHI) (DLTA) (DLTA) (PI) (PI) (SG) (PHI)
                 (PHI) (?A) (?A) (DLTA) (DLTA) (SG) (PI) (PI) (SG)
                 (DLTA) (DLTA) (PI) (PI) (SG) (?A) (?A) (PHI) (PHI)
                 (DLTA) (DLTA) (PI) (PI) (SG) (PI) (PI) (PHI) (PHI)
                 (DLTA) (DLTA) (SG) (PI) (PI) (SG) (DLTA) (DLTA)
                 (PI) (PI) (SG) (PHI) (PHI) (DLTA) (DLTA) (PI)
                 (PI) (SG) (?A) (?A) (PHI) (PHI) (DLTA) (DLTA)
                 (PI) (PI) (SG) (SG) (DLTA) (DLTA) (PI) (PI) (SG)
                 (PI) (PI) (SG) (SG) (PI) (PI) (SG) (SG) (SG) (SG)
                 (SG)
 The electronic state of the initial guess is 1-SG.
 Keep R1 ints in memory in symmetry-blocked form, NReq=98933213.
 Requested convergence on RMS density matrix=1.00D-08 within 128 cycles.
 Requested convergence on MAX density matrix=1.00D-06.
 Requested convergence on             energy=1.00D-06.
 No special actions if energy rises.
 Defaulting to unpruned grid for atomic number  79.
 Defaulting to unpruned grid for atomic number  79.
 Defaulting to unpruned grid for atomic number  79.
 Defaulting to unpruned grid for atomic number  79.
 Defaulting to unpruned grid for atomic number  79.
 Defaulting to unpruned grid for atomic number  79.
 Defaulting to unpruned grid for atomic number  79.
 Defaulting to unpruned grid for atomic number  79.
 SCF Done:  E(RPBE1PBE) =  -595.819029873     A.U. after   12 cycles
            NFock= 12  Conv=0.13D-08     -V/T= 2.1791

 **********************************************************************

            Population analysis using the SCF Density.

 **********************************************************************

 Orbital symmetries:
       Occupied  (SG) (SG) (SG) (PI) (PI) (SG) (SG) (PI) (PI) (SG)
                 (SG) (PI) (PI) (DLTA) (DLTA) (SG) (PI) (PI)
       Virtual   (SG) (PI) (PI) (SG) (SG) (PI) (PI) (SG) (SG) (PI)
                 (PI) (DLTA) (DLTA) (SG) (PI) (PI) (DLTA) (DLTA)
                 (SG) (PHI) (PHI) (PI) (PI) (DLTA) (DLTA) (SG)
                 (SG) (PI) (PI) (SG) (PI) (PI) (SG) (DLTA) (DLTA)
                 (PI) (PI) (PHI) (PHI) (SG) (PI) (PI) (DLTA) (DLTA)
                 (PI) (PI) (SG) (DLTA) (DLTA) (PHI) (PHI) (SG)
                 (PI) (PI) (DLTA) (DLTA) (SG) (PI) (PI) (SG) (SG)
                 (PHI) (PHI) (DLTA) (DLTA) (PI) (PI) (SG) (PHI)
                 (PHI) (?A) (?A) (DLTA) (DLTA) (SG) (PI) (PI) (SG)
                 (DLTA) (DLTA) (PI) (PI) (SG) (PHI) (PHI) (?A)
                 (?A) (DLTA) (DLTA) (PI) (PI) (SG) (PI) (PI) (PHI)
                 (PHI) (DLTA) (DLTA) (SG) (PI) (PI) (SG) (DLTA)
                 (DLTA) (PI) (PI) (SG) (PHI) (PHI) (DLTA) (DLTA)
                 (PI) (PI) (SG) (PHI) (PHI) (?A) (?A) (DLTA) (DLTA)
                 (PI) (PI) (SG) (SG) (DLTA) (DLTA) (PI) (PI) (SG)
                 (PI) (PI) (SG) (SG) (PI) (PI) (SG) (SG) (SG) (SG)
                 (SG)
 The electronic state is 1-SG.
 Alpha  occ. eigenvalues -- -101.69444  -9.51389  -7.24823  -7.24064  -7.24064
 Alpha  occ. eigenvalues --   -4.21889  -2.39750  -2.38344  -2.38344  -0.80644
 Alpha  occ. eigenvalues --   -0.42361  -0.38424  -0.38424  -0.34963  -0.34963
 Alpha  occ. eigenvalues --   -0.30975  -0.29577  -0.29577
 Alpha virt. eigenvalues --   -0.14295  -0.00745  -0.00745   0.02429   0.06254
 Alpha virt. eigenvalues --    0.09060   0.09060   0.14392   0.20858   0.22564
 Alpha virt. eigenvalues --    0.22564   0.27128   0.27128   0.29428   0.30104
 Alpha virt. eigenvalues --    0.30104   0.31672   0.31672   0.37267   0.37532
 Alpha virt. eigenvalues --    0.37532   0.38247   0.38247   0.48357   0.48357
 Alpha virt. eigenvalues --    0.49452   0.57608   0.63292   0.63292   0.67212
 Alpha virt. eigenvalues --    0.78407   0.78407   0.81822   0.97164   0.97164
 Alpha virt. eigenvalues --    0.98717   0.98717   0.99811   0.99811   1.04757
 Alpha virt. eigenvalues --    1.15366   1.15366   1.22072   1.22072   1.24011
 Alpha virt. eigenvalues --    1.24011   1.24842   1.34778   1.34778   1.35583
 Alpha virt. eigenvalues --    1.35583   1.38422   1.42685   1.42685   1.42935
 Alpha virt. eigenvalues --    1.42935   1.55006   1.78163   1.78163   2.04731
 Alpha virt. eigenvalues --    2.22411   2.27916   2.27916   2.28069   2.28069
 Alpha virt. eigenvalues --    2.30080   2.30080   2.38974   2.51385   2.51385
 Alpha virt. eigenvalues --    2.52236   2.52240   2.54340   2.54340   2.63900
 Alpha virt. eigenvalues --    2.73079   2.73079   2.98745   3.28284   3.28284
 Alpha virt. eigenvalues --    3.41623   3.41623   3.50980   3.61513   3.61513
 Alpha virt. eigenvalues --    3.62401   3.62401   3.67029   3.67029   3.78449
 Alpha virt. eigenvalues --    3.78449   3.84987   3.94233   3.94233   3.95317
 Alpha virt. eigenvalues --    3.95317   4.02038   4.02038   4.23826   4.32101
 Alpha virt. eigenvalues --    4.32101   4.45511   5.30399   5.30412   5.44180
 Alpha virt. eigenvalues --    5.44180   5.64587   5.75697   5.75697   5.76354
 Alpha virt. eigenvalues --    5.76356   5.80371   5.80371   5.97724   6.44305
 Alpha virt. eigenvalues --    6.44305   6.44708   6.44732   6.48699   6.48701
 Alpha virt. eigenvalues --    6.68816   6.68816   6.70885   8.38625  10.68518
 Alpha virt. eigenvalues --   10.68518  10.78499  10.78499  10.88785  25.62199
 Alpha virt. eigenvalues --   25.62199  28.60805  33.44505  41.83559  41.83559
 Alpha virt. eigenvalues --   41.86328  45.81342  98.24083 206.86781 525.49239
          Condensed to atoms (all electrons):
               1          2
     1  Au  18.300291   0.245776
     2  Cl   0.245776  17.208156
 Mulliken charges:
               1
     1  Au   0.453933
     2  Cl  -0.453933
 Sum of Mulliken charges =  -0.00000
 Mulliken charges with hydrogens summed into heavy atoms:
               1
     1  Au   0.453933
     2  Cl  -0.453933
 Electronic spatial extent (au):  <R**2>=            303.2560
 Charge=             -0.0000 electrons
 Dipole moment (field-independent basis, Debye):
    X=              0.0000    Y=              0.0000    Z=              3.9105  Tot=              3.9105
 Quadrupole moment (field-independent basis, Debye-Ang):
   XX=            -35.6010   YY=            -35.6010   ZZ=            -35.5620
   XY=              0.0000   XZ=              0.0000   YZ=              0.0000
 Traceless Quadrupole moment (field-independent basis, Debye-Ang):
   XX=             -0.0130   YY=             -0.0130   ZZ=              0.0260
   XY=              0.0000   XZ=              0.0000   YZ=              0.0000
 Octapole moment (field-independent basis, Debye-Ang**2):
  XXX=              0.0000  YYY=              0.0000  ZZZ=             54.1621  XYY=              0.0000
  XXY=              0.0000  XXZ=             17.1931  XZZ=              0.0000  YZZ=              0.0000
  YYZ=             17.1931  XYZ=              0.0000
 Hexadecapole moment (field-independent basis, Debye-Ang**3):
 XXXX=            -41.2661 YYYY=            -41.2661 ZZZZ=           -317.7642 XXXY=              0.0000
 XXXZ=              0.0000 YYYX=              0.0000 YYYZ=              0.0000 ZZZX=              0.0000
 ZZZY=              0.0000 XXYY=            -13.7554 XXZZ=            -63.2832 YYZZ=            -63.2832
 XXYZ=              0.0000 YYXZ=              0.0000 ZZXY=              0.0000
 N-N= 7.511604822002D+01 E-N=-1.529464965836D+03  KE= 5.053200245437D+02
 Symmetry A1   KE= 3.879933547618D+02
 Symmetry A2   KE= 4.980000119035D+00
 Symmetry B1   KE= 5.617333483146D+01
 Symmetry B2   KE= 5.617333483146D+01
   4 Symmetry operations used in ECPInt.
 ECPInt:  NShTT=     990 NPrTT=    2574 LenC2=     980 LenP2D=    2356.
 LDataN:  DoStor=T MaxTD1= 9 Len=  602
 Calling FoFJK, ICntrl=      2127 FMM=F ISym2X=1 I1Cent= 0 IOpClX= 0 NMat=1 NMatS=1 NMatT=0.
 Defaulting to unpruned grid for atomic number  79.
 Defaulting to unpruned grid for atomic number  79.
 Defaulting to unpruned grid for atomic number  79.
 Defaulting to unpruned grid for atomic number  79.
 Defaulting to unpruned grid for atomic number  79.
 Defaulting to unpruned grid for atomic number  79.
 Defaulting to unpruned grid for atomic number  79.
 Defaulting to unpruned grid for atomic number  79.
 ***** Axes restored to original set *****
 -------------------------------------------------------------------
 Center     Atomic                   Forces (Hartrees/Bohr)
 Number     Number              X              Y              Z
 -------------------------------------------------------------------
      1       79          -0.000000000   -0.000000000    0.015063938
      2       17          -0.000000000   -0.000000000   -0.015063938
 -------------------------------------------------------------------
 Cartesian Forces:  Max     0.015063938 RMS     0.008697169

 GradGradGradGradGradGradGradGradGradGradGradGradGradGradGradGradGradGrad
 Berny optimization.
 FormGI is forming the generalized inverse of G from B-inverse, IUseBI=4.
 Internal  Forces:  Max     0.015063938 RMS     0.015063938
 Search for a local minimum.
 Step number   1 out of a maximum of   20
 All quantities printed in internal units (Hartrees-Bohrs-Radians)
 Mixed Optimization -- RFO/linear search
 Second derivative matrix not updated -- first step.
 The second derivative matrix:
                          R1
           R1           0.22287
 ITU=  0
     Eigenvalues ---    0.22287
 RFO step:  Lambda=-1.01355733D-03 EMin= 2.22873367D-01
 Linear search not attempted -- first point.
 Iteration  1 RMS(Cart)=  0.04757675 RMS(Int)=  0.00000000
 Iteration  2 RMS(Cart)=  0.00000000 RMS(Int)=  0.00000000
 ClnCor:  largest displacement from symmetrization is 0.00D+00 for atom     0.
 Variable       Old X    -DE/DX   Delta X   Delta X   Delta X     New X
                                 (Linear)    (Quad)   (Total)
    R1        4.30001  -0.01506   0.00000  -0.06728  -0.06728   4.23273
         Item               Value     Threshold  Converged?
 Maximum Force            0.015064     0.000450     NO 
 RMS     Force            0.015064     0.000300     NO 
 Maximum Displacement     0.033642     0.001800     NO 
 RMS     Displacement     0.047577     0.001200     NO 
 Predicted change in Energy=-5.090729D-04
 GradGradGradGradGradGradGradGradGradGradGradGradGradGradGradGradGradGrad

                          Input orientation:                          
 ---------------------------------------------------------------------
 Center     Atomic      Atomic             Coordinates (Angstroms)
 Number     Number       Type             X           Y           Z
 ---------------------------------------------------------------------
      1         79           0        8.000000    8.000000    6.880068
      2         17           0        8.000000    8.000000    9.119932
 ---------------------------------------------------------------------
 Stoichiometry    AuCl
 Framework group  C*V[C*(ClAu)]
 Deg. of freedom     1
 Full point group                 C*V     NOp   4
 Largest Abelian subgroup         C2V     NOp   4
 Largest concise Abelian subgroup C1      NOp   1
                         Standard orientation:                         
 ---------------------------------------------------------------------
 Center     Atomic      Atomic             Coordinates (Angstroms)
 Number     Number       Type             X           Y           Z
 ---------------------------------------------------------------------
      1         79           0        0.000000    0.000000    0.396643
      2         17           0        0.000000    0.000000   -1.843221
 ---------------------------------------------------------------------
 Rotational constants (GHZ):           0.0000000           3.3920876           3.3920876
 Standard basis: def2QZVPP (5D, 7F)
 There are    87 symmetry adapted cartesian basis functions of A1  symmetry.
 There are    23 symmetry adapted cartesian basis functions of A2  symmetry.
 There are    46 symmetry adapted cartesian basis functions of B1  symmetry.
 There are    46 symmetry adapted cartesian basis functions of B2  symmetry.
 There are    64 symmetry adapted basis functions of A1  symmetry.
 There are    20 symmetry adapted basis functions of A2  symmetry.
 There are    37 symmetry adapted basis functions of B1  symmetry.
 There are    37 symmetry adapted basis functions of B2  symmetry.
   158 basis functions,   260 primitive gaussians,   202 cartesian basis functions
    18 alpha electrons       18 beta electrons
       nuclear repulsion energy        76.3100968351 Hartrees.
 NAtoms=    2 NActive=    2 NUniq=    2 SFac= 1.00D+00 NAtFMM=   60 NAOKFM=F Big=F
 Integral buffers will be    131072 words long.
 Raffenetti 2 integral format.
 Two-electron integral symmetry is turned on.
 One-electron integrals computed using PRISM.
   4 Symmetry operations used in ECPInt.
 ECPInt:  NShTT=     990 NPrTT=    2574 LenC2=     981 LenP2D=    2358.
 LDataN:  DoStor=T MaxTD1= 8 Len=  415
 NBasis=   158 RedAO= T EigKep=  1.01D-03  NBF=    64    20    37    37
 NBsUse=   158 1.00D-06 EigRej= -1.00D+00 NBFU=    64    20    37    37
 Defaulting to unpruned grid for atomic number  79.
 Initial guess from the checkpoint file:  "/data/hutter/SMG16/PBE0/Gau-3988.chk"
 B after Tr=     0.000000    0.000000   -0.000000
         Rot=    1.000000    0.000000    0.000000    0.000000 Ang=   0.00 deg.
 Initial guess orbital symmetries:
       Occupied  (SG) (SG) (SG) (PI) (PI) (SG) (SG) (PI) (PI) (SG)
                 (SG) (PI) (PI) (DLTA) (DLTA) (SG) (PI) (PI)
       Virtual   (SG) (PI) (PI) (SG) (SG) (PI) (PI) (SG) (SG) (PI)
                 (PI) (DLTA) (DLTA) (SG) (PI) (PI) (DLTA) (DLTA)
                 (SG) (PHI) (PHI) (PI) (PI) (DLTA) (DLTA) (SG)
                 (SG) (PI) (PI) (SG) (PI) (PI) (SG) (DLTA) (DLTA)
                 (PI) (PI) (PHI) (PHI) (SG) (PI) (PI) (DLTA) (DLTA)
                 (PI) (PI) (SG) (DLTA) (DLTA) (PHI) (PHI) (SG)
                 (PI) (PI) (DLTA) (DLTA) (SG) (PI) (PI) (SG) (SG)
                 (PHI) (PHI) (DLTA) (DLTA) (PI) (PI) (SG) (PHI)
                 (PHI) (?A) (?A) (DLTA) (DLTA) (SG) (PI) (PI) (SG)
                 (DLTA) (DLTA) (PI) (PI) (SG) (PHI) (PHI) (?A)
                 (?A) (DLTA) (DLTA) (PI) (PI) (SG) (PI) (PI) (PHI)
                 (PHI) (DLTA) (DLTA) (SG) (PI) (PI) (SG) (DLTA)
                 (DLTA) (PI) (PI) (SG) (PHI) (PHI) (DLTA) (DLTA)
                 (PI) (PI) (SG) (PHI) (PHI) (?A) (?A) (DLTA) (DLTA)
                 (PI) (PI) (SG) (SG) (DLTA) (DLTA) (PI) (PI) (SG)
                 (PI) (PI) (SG) (SG) (PI) (PI) (SG) (SG) (SG) (SG)
                 (SG)
 ExpMin= 2.50D-02 ExpMax= 1.47D+06 ExpMxC= 1.67D+03 IAcc=3 IRadAn=         5 AccDes= 0.00D+00
 Harris functional with IExCor= 1009 and IRadAn=       5 diagonalized for initial guess.
 HarFok:  IExCor= 1009 AccDes= 0.00D+00 IRadAn=         5 IDoV= 1 UseB2=F ITyADJ=14
 ICtDFT=  3500011 ScaDFX=  1.000000  1.000000  1.000000  1.000000
 Defaulting to unpruned grid for atomic number  79.
 FoFCou: FMM=F IPFlag=           0 FMFlag=      100000 FMFlg1=           0
         NFxFlg=           0 DoJE=T BraDBF=F KetDBF=T FulRan=T
         wScrn=  0.000000 ICntrl=       500 IOpCl=  0 I1Cent=   200000004 NGrid=           0
         NMat0=    1 NMatS0=      1 NMatT0=    0 NMatD0=    1 NMtDS0=    0 NMtDT0=    0
 Petite list used in FoFCou.
 Keep R1 ints in memory in symmetry-blocked form, NReq=98933213.
 Requested convergence on RMS density matrix=1.00D-08 within 128 cycles.
 Requested convergence on MAX density matrix=1.00D-06.
 Requested convergence on             energy=1.00D-06.
 No special actions if energy rises.
 Defaulting to unpruned grid for atomic number  79.
 Defaulting to unpruned grid for atomic number  79.
 Defaulting to unpruned grid for atomic number  79.
 Defaulting to unpruned grid for atomic number  79.
 Defaulting to unpruned grid for atomic number  79.
 Defaulting to unpruned grid for atomic number  79.
 Defaulting to unpruned grid for atomic number  79.
 Defaulting to unpruned grid for atomic number  79.
 SCF Done:  E(RPBE1PBE) =  -595.819766625     A.U. after   11 cycles
            NFock= 11  Conv=0.88D-09     -V/T= 2.1791
   4 Symmetry operations used in ECPInt.
 ECPInt:  NShTT=     990 NPrTT=    2574 LenC2=     981 LenP2D=    2358.
 LDataN:  DoStor=T MaxTD1= 9 Len=  602
 Calling FoFJK, ICntrl=      2127 FMM=F ISym2X=1 I1Cent= 0 IOpClX= 0 NMat=1 NMatS=1 NMatT=0.
 Defaulting to unpruned grid for atomic number  79.
 Defaulting to unpruned grid for atomic number  79.
 Defaulting to unpruned grid for atomic number  79.
 Defaulting to unpruned grid for atomic number  79.
 Defaulting to unpruned grid for atomic number  79.
 Defaulting to unpruned grid for atomic number  79.
 Defaulting to unpruned grid for atomic number  79.
 Defaulting to unpruned grid for atomic number  79.
 ***** Axes restored to original set *****
 -------------------------------------------------------------------
 Center     Atomic                   Forces (Hartrees/Bohr)
 Number     Number              X              Y              Z
 -------------------------------------------------------------------
      1       79          -0.000000000   -0.000000000    0.006586064
      2       17          -0.000000000   -0.000000000   -0.006586064
 -------------------------------------------------------------------
 Cartesian Forces:  Max     0.006586064 RMS     0.003802466

 GradGradGradGradGradGradGradGradGradGradGradGradGradGradGradGradGradGrad
 Berny optimization.
 Using GEDIIS/GDIIS optimizer.
 Internal  Forces:  Max     0.006586064 RMS     0.006586064
 Search for a local minimum.
 Step number   2 out of a maximum of   20
 All quantities printed in internal units (Hartrees-Bohrs-Radians)
 Mixed Optimization -- RFO/linear search
 Update second derivatives using D2CorX and points    1    2
 DE= -7.37D-04 DEPred=-5.09D-04 R= 1.45D+00
 TightC=F SS=  1.41D+00  RLast= 6.73D-02 DXNew= 5.0454D-01 2.0185D-01
 Trust test= 1.45D+00 RLast= 6.73D-02 DXMaxT set to 3.00D-01
 The second derivative matrix:
                          R1
           R1           0.12600
 ITU=  1  0
 Use linear search instead of GDIIS.
     Eigenvalues ---    0.12600
 RFO step:  Lambda= 0.00000000D+00 EMin= 1.26001924D-01
 Quartic linear search produced a step of  0.67371.
 Iteration  1 RMS(Cart)=  0.03205283 RMS(Int)=  0.00000000
 Iteration  2 RMS(Cart)=  0.00000000 RMS(Int)=  0.00000000
 ClnCor:  largest displacement from symmetrization is 0.00D+00 for atom     0.
 Variable       Old X    -DE/DX   Delta X   Delta X   Delta X     New X
                                 (Linear)    (Quad)   (Total)
    R1        4.23273  -0.00659  -0.04533   0.00000  -0.04533   4.18740
         Item               Value     Threshold  Converged?
 Maximum Force            0.006586     0.000450     NO 
 RMS     Force            0.006586     0.000300     NO 
 Maximum Displacement     0.022665     0.001800     NO 
 RMS     Displacement     0.032053     0.001200     NO 
 Predicted change in Energy=-1.690909D-04
 GradGradGradGradGradGradGradGradGradGradGradGradGradGradGradGradGradGrad

                          Input orientation:                          
 ---------------------------------------------------------------------
 Center     Atomic      Atomic             Coordinates (Angstroms)
 Number     Number       Type             X           Y           Z
 ---------------------------------------------------------------------
      1         79           0        8.000000    8.000000    6.892062
      2         17           0        8.000000    8.000000    9.107938
 ---------------------------------------------------------------------
 Stoichiometry    AuCl
 Framework group  C*V[C*(ClAu)]
 Deg. of freedom     1
 Full point group                 C*V     NOp   4
 Largest Abelian subgroup         C2V     NOp   4
 Largest concise Abelian subgroup C1      NOp   1
                         Standard orientation:                         
 ---------------------------------------------------------------------
 Center     Atomic      Atomic             Coordinates (Angstroms)
 Number     Number       Type             X           Y           Z
 ---------------------------------------------------------------------
      1         79           0        0.000000    0.000000    0.392395
      2         17           0        0.000000    0.000000   -1.823482
 ---------------------------------------------------------------------
 Rotational constants (GHZ):           0.0000000           3.4659254           3.4659254
 Standard basis: def2QZVPP (5D, 7F)
 There are    87 symmetry adapted cartesian basis functions of A1  symmetry.
 There are    23 symmetry adapted cartesian basis functions of A2  symmetry.
 There are    46 symmetry adapted cartesian basis functions of B1  symmetry.
 There are    46 symmetry adapted cartesian basis functions of B2  symmetry.
 There are    64 symmetry adapted basis functions of A1  symmetry.
 There are    20 symmetry adapted basis functions of A2  symmetry.
 There are    37 symmetry adapted basis functions of B1  symmetry.
 There are    37 symmetry adapted basis functions of B2  symmetry.
   158 basis functions,   260 primitive gaussians,   202 cartesian basis functions
    18 alpha electrons       18 beta electrons
       nuclear repulsion energy        77.1361708181 Hartrees.
 NAtoms=    2 NActive=    2 NUniq=    2 SFac= 1.00D+00 NAtFMM=   60 NAOKFM=F Big=F
 Integral buffers will be    131072 words long.
 Raffenetti 2 integral format.
 Two-electron integral symmetry is turned on.
 One-electron integrals computed using PRISM.
   4 Symmetry operations used in ECPInt.
 ECPInt:  NShTT=     990 NPrTT=    2574 LenC2=     982 LenP2D=    2361.
 LDataN:  DoStor=T MaxTD1= 8 Len=  415
 NBasis=   158 RedAO= T EigKep=  9.91D-04  NBF=    64    20    37    37
 NBsUse=   158 1.00D-06 EigRej= -1.00D+00 NBFU=    64    20    37    37
 Defaulting to unpruned grid for atomic number  79.
 Initial guess from the checkpoint file:  "/data/hutter/SMG16/PBE0/Gau-3988.chk"
 B after Tr=     0.000000    0.000000   -0.000000
         Rot=    1.000000    0.000000    0.000000    0.000000 Ang=   0.00 deg.
 Initial guess orbital symmetries:
       Occupied  (SG) (SG) (SG) (PI) (PI) (SG) (SG) (PI) (PI) (SG)
                 (SG) (PI) (PI) (DLTA) (DLTA) (SG) (PI) (PI)
       Virtual   (SG) (PI) (PI) (SG) (SG) (PI) (PI) (SG) (SG) (PI)
                 (PI) (DLTA) (DLTA) (SG) (PI) (PI) (DLTA) (DLTA)
                 (SG) (PHI) (PHI) (PI) (PI) (DLTA) (DLTA) (SG)
                 (SG) (PI) (PI) (SG) (PI) (PI) (SG) (DLTA) (DLTA)
                 (PI) (PI) (PHI) (PHI) (SG) (PI) (PI) (DLTA) (DLTA)
                 (PI) (PI) (SG) (DLTA) (DLTA) (PHI) (PHI) (SG)
                 (PI) (PI) (DLTA) (DLTA) (SG) (PI) (PI) (SG) (SG)
                 (PHI) (PHI) (DLTA) (DLTA) (PI) (PI) (SG) (PHI)
                 (PHI) (?A) (?A) (DLTA) (DLTA) (SG) (PI) (PI) (SG)
                 (DLTA) (DLTA) (PI) (PI) (SG) (PHI) (PHI) (?A)
                 (?A) (DLTA) (DLTA) (PI) (PI) (SG) (PI) (PI) (PHI)
                 (PHI) (DLTA) (DLTA) (SG) (PI) (PI) (SG) (DLTA)
                 (DLTA) (PI) (PI) (SG) (PHI) (PHI) (DLTA) (DLTA)
                 (PI) (PI) (SG) (PHI) (PHI) (?A) (?A) (DLTA) (DLTA)
                 (PI) (PI) (SG) (SG) (DLTA) (DLTA) (PI) (PI) (SG)
                 (PI) (PI) (SG) (SG) (PI) (PI) (SG) (SG) (SG) (SG)
                 (SG)
 ExpMin= 2.50D-02 ExpMax= 1.47D+06 ExpMxC= 1.67D+03 IAcc=3 IRadAn=         5 AccDes= 0.00D+00
 Harris functional with IExCor= 1009 and IRadAn=       5 diagonalized for initial guess.
 HarFok:  IExCor= 1009 AccDes= 0.00D+00 IRadAn=         5 IDoV= 1 UseB2=F ITyADJ=14
 ICtDFT=  3500011 ScaDFX=  1.000000  1.000000  1.000000  1.000000
 Defaulting to unpruned grid for atomic number  79.
 FoFCou: FMM=F IPFlag=           0 FMFlag=      100000 FMFlg1=           0
         NFxFlg=           0 DoJE=T BraDBF=F KetDBF=T FulRan=T
         wScrn=  0.000000 ICntrl=       500 IOpCl=  0 I1Cent=   200000004 NGrid=           0
         NMat0=    1 NMatS0=      1 NMatT0=    0 NMatD0=    1 NMtDS0=    0 NMtDT0=    0
 Petite list used in FoFCou.
 Keep R1 ints in memory in symmetry-blocked form, NReq=98933213.
 Requested convergence on RMS density matrix=1.00D-08 within 128 cycles.
 Requested convergence on MAX density matrix=1.00D-06.
 Requested convergence on             energy=1.00D-06.
 No special actions if energy rises.
 Defaulting to unpruned grid for atomic number  79.
 Defaulting to unpruned grid for atomic number  79.
 Defaulting to unpruned grid for atomic number  79.
 Defaulting to unpruned grid for atomic number  79.
 Defaulting to unpruned grid for atomic number  79.
 Defaulting to unpruned grid for atomic number  79.
 Defaulting to unpruned grid for atomic number  79.
 Defaulting to unpruned grid for atomic number  79.
 SCF Done:  E(RPBE1PBE) =  -595.819918343     A.U. after    9 cycles
            NFock=  9  Conv=0.74D-08     -V/T= 2.1790
   4 Symmetry operations used in ECPInt.
 ECPInt:  NShTT=     990 NPrTT=    2574 LenC2=     982 LenP2D=    2361.
 LDataN:  DoStor=T MaxTD1= 9 Len=  602
 Calling FoFJK, ICntrl=      2127 FMM=F ISym2X=1 I1Cent= 0 IOpClX= 0 NMat=1 NMatS=1 NMatT=0.
 Defaulting to unpruned grid for atomic number  79.
 Defaulting to unpruned grid for atomic number  79.
 Defaulting to unpruned grid for atomic number  79.
 Defaulting to unpruned grid for atomic number  79.
 Defaulting to unpruned grid for atomic number  79.
 Defaulting to unpruned grid for atomic number  79.
 Defaulting to unpruned grid for atomic number  79.
 Defaulting to unpruned grid for atomic number  79.
 ***** Axes restored to original set *****
 -------------------------------------------------------------------
 Center     Atomic                   Forces (Hartrees/Bohr)
 Number     Number              X              Y              Z
 -------------------------------------------------------------------
      1       79          -0.000000000   -0.000000000   -0.000019425
      2       17          -0.000000000   -0.000000000    0.000019425
 -------------------------------------------------------------------
 Cartesian Forces:  Max     0.000019425 RMS     0.000011215

 GradGradGradGradGradGradGradGradGradGradGradGradGradGradGradGradGradGrad
 Berny optimization.
 Using GEDIIS/GDIIS optimizer.
 Internal  Forces:  Max     0.000019425 RMS     0.000019425
 Search for a local minimum.
 Step number   3 out of a maximum of   20
 All quantities printed in internal units (Hartrees-Bohrs-Radians)
 Mixed Optimization -- En-DIIS/RFO-DIIS
 Update second derivatives using D2CorX and points    2    3
 DE= -1.52D-04 DEPred=-1.69D-04 R= 8.97D-01
 TightC=F SS=  1.41D+00  RLast= 4.53D-02 DXNew= 5.0454D-01 1.3599D-01
 Trust test= 8.97D-01 RLast= 4.53D-02 DXMaxT set to 3.00D-01
 The second derivative matrix:
                          R1
           R1           0.14572
 ITU=  1  1
 Use linear search instead of GDIIS.
     Eigenvalues ---    0.14572
 RFO step:  Lambda= 0.00000000D+00 EMin= 1.45721492D-01
 Quartic linear search produced a step of -0.00278.
 Iteration  1 RMS(Cart)=  0.00008907 RMS(Int)=  0.00000000
 Iteration  2 RMS(Cart)=  0.00000000 RMS(Int)=  0.00000000
 ClnCor:  largest displacement from symmetrization is 0.00D+00 for atom     0.
 Variable       Old X    -DE/DX   Delta X   Delta X   Delta X     New X
                                 (Linear)    (Quad)   (Total)
    R1        4.18740   0.00002   0.00013   0.00000   0.00013   4.18753
         Item               Value     Threshold  Converged?
 Maximum Force            0.000019     0.000450     YES
 RMS     Force            0.000019     0.000300     YES
 Maximum Displacement     0.000063     0.001800     YES
 RMS     Displacement     0.000089     0.001200     YES
 Predicted change in Energy=-1.290831D-09
 Optimization completed.
    -- Stationary point found.
                           ----------------------------
                           !   Optimized Parameters   !
                           ! (Angstroms and Degrees)  !
 --------------------------                            --------------------------
 ! Name  Definition              Value          Derivative Info.                !
 --------------------------------------------------------------------------------
 ! R1    R(1,2)                  2.2159         -DE/DX =    0.0                 !
 --------------------------------------------------------------------------------
 GradGradGradGradGradGradGradGradGradGradGradGradGradGradGradGradGradGrad

                          Input orientation:                          
 ---------------------------------------------------------------------
 Center     Atomic      Atomic             Coordinates (Angstroms)
 Number     Number       Type             X           Y           Z
 ---------------------------------------------------------------------
      1         79           0        8.000000    8.000000    6.892062
      2         17           0        8.000000    8.000000    9.107938
 ---------------------------------------------------------------------
 Stoichiometry    AuCl
 Framework group  C*V[C*(ClAu)]
 Deg. of freedom     1
 Full point group                 C*V     NOp   4
 Largest Abelian subgroup         C2V     NOp   4
 Largest concise Abelian subgroup C1      NOp   1
                         Standard orientation:                         
 ---------------------------------------------------------------------
 Center     Atomic      Atomic             Coordinates (Angstroms)
 Number     Number       Type             X           Y           Z
 ---------------------------------------------------------------------
      1         79           0        0.000000    0.000000    0.392395
      2         17           0        0.000000    0.000000   -1.823482
 ---------------------------------------------------------------------
 Rotational constants (GHZ):           0.0000000           3.4659254           3.4659254

 **********************************************************************

            Population analysis using the SCF Density.

 **********************************************************************

 Orbital symmetries:
       Occupied  (SG) (SG) (SG) (PI) (PI) (SG) (SG) (PI) (PI) (SG)
                 (SG) (PI) (PI) (DLTA) (DLTA) (SG) (PI) (PI)
       Virtual   (SG) (PI) (PI) (SG) (SG) (PI) (PI) (SG) (SG) (PI)
                 (PI) (DLTA) (DLTA) (SG) (PI) (PI) (DLTA) (DLTA)
                 (SG) (PHI) (PHI) (PI) (PI) (DLTA) (DLTA) (SG)
                 (SG) (PI) (PI) (SG) (PI) (PI) (SG) (DLTA) (DLTA)
                 (PI) (PI) (PHI) (PHI) (SG) (PI) (PI) (DLTA) (DLTA)
                 (PI) (PI) (SG) (DLTA) (DLTA) (PHI) (PHI) (SG)
                 (PI) (PI) (DLTA) (DLTA) (SG) (PI) (PI) (SG) (SG)
                 (PHI) (PHI) (DLTA) (DLTA) (PI) (PI) (SG) (PHI)
                 (PHI) (?A) (?A) (DLTA) (DLTA) (SG) (PI) (PI) (SG)
                 (DLTA) (DLTA) (PI) (PI) (SG) (PHI) (PHI) (?A)
                 (?A) (DLTA) (DLTA) (PI) (PI) (SG) (PI) (PI) (PHI)
                 (PHI) (DLTA) (DLTA) (SG) (PI) (PI) (SG) (DLTA)
                 (DLTA) (PI) (PI) (SG) (PHI) (PHI) (DLTA) (DLTA)
                 (PI) (PI) (SG) (PHI) (PHI) (?A) (?A) (DLTA) (DLTA)
                 (PI) (PI) (SG) (SG) (DLTA) (DLTA) (PI) (PI) (SG)
                 (PI) (PI) (SG) (SG) (PI) (PI) (SG) (SG) (SG) (SG)
                 (SG)
 The electronic state is 1-SG.
 Alpha  occ. eigenvalues -- -101.69687  -9.51667  -7.25096  -7.24341  -7.24341
 Alpha  occ. eigenvalues --   -4.22036  -2.40018  -2.38416  -2.38416  -0.81312
 Alpha  occ. eigenvalues --   -0.43214  -0.39056  -0.39056  -0.34961  -0.34961
 Alpha  occ. eigenvalues --   -0.30876  -0.29489  -0.29489
 Alpha virt. eigenvalues --   -0.13838  -0.00627  -0.00627   0.02564   0.06272
 Alpha virt. eigenvalues --    0.09055   0.09055   0.14876   0.21086   0.22396
 Alpha virt. eigenvalues --    0.22396   0.26953   0.26953   0.29288   0.30355
 Alpha virt. eigenvalues --    0.30355   0.31652   0.31652   0.37056   0.37592
 Alpha virt. eigenvalues --    0.37592   0.38696   0.38696   0.48822   0.48822
 Alpha virt. eigenvalues --    0.49150   0.58026   0.63178   0.63178   0.67540
 Alpha virt. eigenvalues --    0.78330   0.78330   0.82363   0.96740   0.96740
 Alpha virt. eigenvalues --    0.99346   0.99346   0.99895   0.99895   1.05571
 Alpha virt. eigenvalues --    1.15531   1.15531   1.22133   1.22134   1.24282
 Alpha virt. eigenvalues --    1.24282   1.24820   1.34541   1.34541   1.35346
 Alpha virt. eigenvalues --    1.35346   1.38819   1.43777   1.43777   1.44175
 Alpha virt. eigenvalues --    1.44175   1.58763   1.81609   1.81609   2.04519
 Alpha virt. eigenvalues --    2.21908   2.27957   2.27957   2.28190   2.28190
 Alpha virt. eigenvalues --    2.29150   2.29150   2.41313   2.51377   2.51377
 Alpha virt. eigenvalues --    2.52353   2.52359   2.55072   2.55073   2.67676
 Alpha virt. eigenvalues --    2.74632   2.74632   2.99046   3.28405   3.28405
 Alpha virt. eigenvalues --    3.42624   3.42624   3.50958   3.61327   3.61327
 Alpha virt. eigenvalues --    3.62065   3.62065   3.68447   3.68447   3.81433
 Alpha virt. eigenvalues --    3.81433   3.84682   3.94720   3.94720   3.95118
 Alpha virt. eigenvalues --    3.95118   4.03193   4.03193   4.30851   4.35686
 Alpha virt. eigenvalues --    4.35686   4.47933   5.30536   5.30546   5.44685
 Alpha virt. eigenvalues --    5.44685   5.67315   5.75698   5.75698   5.76230
 Alpha virt. eigenvalues --    5.76231   5.80828   5.80828   6.02272   6.44356
 Alpha virt. eigenvalues --    6.44356   6.44710   6.44728   6.50000   6.50001
 Alpha virt. eigenvalues --    6.71693   6.71693   6.75227   8.40422  10.68511
 Alpha virt. eigenvalues --   10.68511  10.79237  10.79237  10.91132  25.76088
 Alpha virt. eigenvalues --   25.76088  28.62234  34.25234  41.83347  41.83347
 Alpha virt. eigenvalues --   41.86292  45.83224  98.25938 206.86982 525.52428
          Condensed to atoms (all electrons):
               1          2
     1  Au  18.296729   0.256839
     2  Cl   0.256839  17.189593
 Mulliken charges:
               1
     1  Au   0.446432
     2  Cl  -0.446432
 Sum of Mulliken charges =  -0.00000
 Mulliken charges with hydrogens summed into heavy atoms:
               1
     1  Au   0.446432
     2  Cl  -0.446432
 Electronic spatial extent (au):  <R**2>=            291.5138
 Charge=             -0.0000 electrons
 Dipole moment (field-independent basis, Debye):
    X=              0.0000    Y=              0.0000    Z=              3.7480  Tot=              3.7480
 Quadrupole moment (field-independent basis, Debye-Ang):
   XX=            -35.6647   YY=            -35.6647   ZZ=            -35.2067
   XY=              0.0000   XZ=              0.0000   YZ=              0.0000
 Traceless Quadrupole moment (field-independent basis, Debye-Ang):
   XX=             -0.1527   YY=             -0.1527   ZZ=              0.3054
   XY=              0.0000   XZ=              0.0000   YZ=              0.0000
 Octapole moment (field-independent basis, Debye-Ang**2):
  XXX=              0.0000  YYY=              0.0000  ZZZ=             52.0606  XYY=              0.0000
  XXY=              0.0000  XXZ=             16.5839  XZZ=              0.0000  YZZ=              0.0000
  YYZ=             16.5839  XYZ=              0.0000
 Hexadecapole moment (field-independent basis, Debye-Ang**3):
 XXXX=            -41.4977 YYYY=            -41.4977 ZZZZ=           -301.1502 XXXY=              0.0000
 XXXZ=              0.0000 YYYX=              0.0000 YYYZ=              0.0000 ZZZX=              0.0000
 ZZZY=              0.0000 XXYY=            -13.8326 XXZZ=            -60.5534 YYZZ=            -60.5534
 XXYZ=              0.0000 YYXZ=              0.0000 ZZXY=              0.0000
 N-N= 7.713617081814D+01 E-N=-1.533435730125D+03  KE= 5.053414714623D+02
 Symmetry A1   KE= 3.879965335330D+02
 Symmetry A2   KE= 4.981773282085D+00
 Symmetry B1   KE= 5.618158232360D+01
 Symmetry B2   KE= 5.618158232360D+01
 Unable to Open any file for archive entry.
 1\1\GINC-TCOPT10\FOpt\RPBE1PBE\def2QZVPP\Au1Cl1\HUTTER\01-Aug-2021\0\\
 #N RPBE1PBE/Def2QZVPP scf=tight Int(Grid=ultrafine) OPT FREQ\\Mol job 
 1\\0,1\Au,8.,8.,6.8920616793\Cl,8.,8.,9.1079383207\\Version=ES64L-G16R
 evC.01\State=1-SG\HF=-595.8199183\RMSD=7.364e-09\RMSF=1.122e-05\Dipole
 =0.,0.,-1.4745924\Quadrupole=-0.1135163,-0.1135163,0.2270325,0.,0.,0.\
 PG=C*V [C*(Cl1Au1)]\\@
 The archive entry for this job was punched.


 ALL PAPERS THAT YOU SAVE WILL NEVER BE NEEDED UNTIL
 SUCH TIME AS THEY ARE DISPOSED OF, WHEN THEY BECOME
 ESSENTIAL.

           -- JOHN CORCORAN IN
              PAUL DICKSON'S "THE OFFICIAL RULES"
 Job cpu time:       0 days  0 hours  5 minutes 55.0 seconds.
 Elapsed time:       0 days  0 hours  0 minutes 45.5 seconds.
 File lengths (MBytes):  RWF=     15 Int=      0 D2E=      0 Chk=      3 Scr=      1
 Normal termination of Gaussian 16 at Sun Aug  1 09:40:22 2021.
 Link1:  Proceeding to internal job step number  2.
 ----------------------------------------------------------------------
 #N Geom=AllCheck Guess=TCheck SCRF=Check GenChk RPBE1PBE/def2QZVPP Fre
 q
 ----------------------------------------------------------------------
 1/10=4,29=7,30=1,38=1,40=1/1,3;
 2/12=2,40=1/2;
 3/5=45,7=202,11=2,14=-4,25=1,30=1,70=2,71=2,74=-13,75=-5,116=1,140=1/1,2,3;
 4/5=101/1;
 5/5=2,32=2,38=6,98=1/2;
 8/6=4,10=90,11=11/1;
 11/6=1,8=1,9=11,15=111,16=1/1,2,10;
 10/6=1/2;
 6/7=2,8=2,9=2,10=2,28=1/1;
 7/8=1,10=1,25=1/1,2,3,16;
 1/10=4,30=1/3;
 99//99;
 Structure from the checkpoint file:  "/data/hutter/SMG16/PBE0/Gau-3988.chk"
 ---------
 Mol job 1
 ---------
 Charge =  0 Multiplicity = 1
 Redundant internal coordinates found in file.  (old form).
 Au,0,8.,8.,6.8920616793
 Cl,0,8.,8.,9.1079383207
 Recover connectivity data from disk.

 GradGradGradGradGradGradGradGradGradGradGradGradGradGradGradGradGradGrad
 Berny optimization.
 Initialization pass.
                           ----------------------------
                           !    Initial Parameters    !
                           ! (Angstroms and Degrees)  !
 --------------------------                            --------------------------
 ! Name  Definition              Value          Derivative Info.                !
 --------------------------------------------------------------------------------
 ! R1    R(1,2)                  2.2159         calculate D2E/DX2 analytically  !
 --------------------------------------------------------------------------------
 Trust Radius=3.00D-01 FncErr=1.00D-07 GrdErr=1.00D-07 EigMax=2.50D+02 EigMin=1.00D-04
 Number of steps in this run=      2 maximum allowed number of steps=      2.
 GradGradGradGradGradGradGradGradGradGradGradGradGradGradGradGradGradGrad

                          Input orientation:                          
 ---------------------------------------------------------------------
 Center     Atomic      Atomic             Coordinates (Angstroms)
 Number     Number       Type             X           Y           Z
 ---------------------------------------------------------------------
      1         79           0        8.000000    8.000000    6.892062
      2         17           0        8.000000    8.000000    9.107938
 ---------------------------------------------------------------------
 Stoichiometry    AuCl
 Framework group  C*V[C*(ClAu)]
 Deg. of freedom     1
 Full point group                 C*V     NOp   4
 Largest Abelian subgroup         C2V     NOp   4
 Largest concise Abelian subgroup C1      NOp   1
                         Standard orientation:                         
 ---------------------------------------------------------------------
 Center     Atomic      Atomic             Coordinates (Angstroms)
 Number     Number       Type             X           Y           Z
 ---------------------------------------------------------------------
      1         79           0        0.000000    0.000000    0.392395
      2         17           0        0.000000    0.000000   -1.823482
 ---------------------------------------------------------------------
 Rotational constants (GHZ):           0.0000000           3.4659254           3.4659254
 Standard basis: def2QZVPP (5D, 7F)
 There are    87 symmetry adapted cartesian basis functions of A1  symmetry.
 There are    23 symmetry adapted cartesian basis functions of A2  symmetry.
 There are    46 symmetry adapted cartesian basis functions of B1  symmetry.
 There are    46 symmetry adapted cartesian basis functions of B2  symmetry.
 There are    64 symmetry adapted basis functions of A1  symmetry.
 There are    20 symmetry adapted basis functions of A2  symmetry.
 There are    37 symmetry adapted basis functions of B1  symmetry.
 There are    37 symmetry adapted basis functions of B2  symmetry.
   158 basis functions,   260 primitive gaussians,   202 cartesian basis functions
    18 alpha electrons       18 beta electrons
       nuclear repulsion energy        77.1361708181 Hartrees.
 NAtoms=    2 NActive=    2 NUniq=    2 SFac= 1.00D+00 NAtFMM=   60 NAOKFM=F Big=F
 Integral buffers will be    131072 words long.
 Raffenetti 2 integral format.
 Two-electron integral symmetry is turned on.
 One-electron integrals computed using PRISM.
   4 Symmetry operations used in ECPInt.
 ECPInt:  NShTT=     990 NPrTT=    2574 LenC2=     982 LenP2D=    2361.
 LDataN:  DoStor=T MaxTD1= 8 Len=  415
 NBasis=   158 RedAO= T EigKep=  9.91D-04  NBF=    64    20    37    37
 NBsUse=   158 1.00D-06 EigRej= -1.00D+00 NBFU=    64    20    37    37
 Defaulting to unpruned grid for atomic number  79.
 Initial guess from the checkpoint file:  "/data/hutter/SMG16/PBE0/Gau-3988.chk"
 B after Tr=     0.000000    0.000000    0.000000
         Rot=    1.000000    0.000000    0.000000    0.000000 Ang=   0.00 deg.
 Initial guess orbital symmetries:
       Occupied  (SG) (SG) (SG) (PI) (PI) (SG) (SG) (PI) (PI) (SG)
                 (SG) (PI) (PI) (DLTA) (DLTA) (SG) (PI) (PI)
       Virtual   (SG) (PI) (PI) (SG) (SG) (PI) (PI) (SG) (SG) (PI)
                 (PI) (DLTA) (DLTA) (SG) (PI) (PI) (DLTA) (DLTA)
                 (SG) (PHI) (PHI) (PI) (PI) (DLTA) (DLTA) (SG)
                 (SG) (PI) (PI) (SG) (PI) (PI) (SG) (DLTA) (DLTA)
                 (PI) (PI) (PHI) (PHI) (SG) (PI) (PI) (DLTA) (DLTA)
                 (PI) (PI) (SG) (DLTA) (DLTA) (PHI) (PHI) (SG)
                 (PI) (PI) (DLTA) (DLTA) (SG) (PI) (PI) (SG) (SG)
                 (PHI) (PHI) (DLTA) (DLTA) (PI) (PI) (SG) (PHI)
                 (PHI) (?A) (?A) (DLTA) (DLTA) (SG) (PI) (PI) (SG)
                 (DLTA) (DLTA) (PI) (PI) (SG) (PHI) (PHI) (?A)
                 (?A) (DLTA) (DLTA) (PI) (PI) (SG) (PI) (PI) (PHI)
                 (PHI) (DLTA) (DLTA) (SG) (PI) (PI) (SG) (DLTA)
                 (DLTA) (PI) (PI) (SG) (PHI) (PHI) (DLTA) (DLTA)
                 (PI) (PI) (SG) (PHI) (PHI) (?A) (?A) (DLTA) (DLTA)
                 (PI) (PI) (SG) (SG) (DLTA) (DLTA) (PI) (PI) (SG)
                 (PI) (PI) (SG) (SG) (PI) (PI) (SG) (SG) (SG) (SG)
                 (SG)
 Keep R1 ints in memory in symmetry-blocked form, NReq=98933213.
 Requested convergence on RMS density matrix=1.00D-08 within 128 cycles.
 Requested convergence on MAX density matrix=1.00D-06.
 Requested convergence on             energy=1.00D-06.
 No special actions if energy rises.
 Defaulting to unpruned grid for atomic number  79.
 Defaulting to unpruned grid for atomic number  79.
 Defaulting to unpruned grid for atomic number  79.
 Defaulting to unpruned grid for atomic number  79.
 Defaulting to unpruned grid for atomic number  79.
 Defaulting to unpruned grid for atomic number  79.
 Defaulting to unpruned grid for atomic number  79.
 Defaulting to unpruned grid for atomic number  79.
 SCF Done:  E(RPBE1PBE) =  -595.819918343     A.U. after    1 cycles
            NFock=  1  Conv=0.13D-08     -V/T= 2.1790
 DoSCS=F DFT=T ScalE2(SS,OS)=  1.000000  1.000000
 Range of M.O.s used for correlation:     1   158
 NBasis=   158 NAE=    18 NBE=    18 NFC=     0 NFV=     0
 NROrb=    158 NOA=    18 NOB=    18 NVA=   140 NVB=   140

 **** Warning!!: The largest alpha MO coefficient is  0.10190016D+02

   4 Symmetry operations used in ECPInt.
 ECPInt:  NShTT=     990 NPrTT=    2574 LenC2=     982 LenP2D=    2361.
 LDataN:  DoStor=T MaxTD1= 9 Len=  602
 Symmetrizing basis deriv contribution to polar:
 IMax=3 JMax=2 DiffMx= 0.00D+00
 G2DrvN: will do     3 centers at a time, making    1 passes.
 Calling FoFCou, ICntrl=  3107 FMM=F I1Cent=   0 AccDes= 0.00D+00.
 Defaulting to unpruned grid for atomic number  79.
 Defaulting to unpruned grid for atomic number  79.
 Defaulting to unpruned grid for atomic number  79.
 Defaulting to unpruned grid for atomic number  79.
 Defaulting to unpruned grid for atomic number  79.
 Defaulting to unpruned grid for atomic number  79.
 Defaulting to unpruned grid for atomic number  79.
 Defaulting to unpruned grid for atomic number  79.
 End of G2Drv F.D. properties file   721 does not exist.
 End of G2Drv F.D. properties file   722 does not exist.
 End of G2Drv F.D. properties file   788 does not exist.
          IDoAtm=11
          Differentiating once with respect to electric field.
                with respect to dipole field.
          Differentiating once with respect to nuclear coordinates.
 Defaulting to unpruned grid for atomic number  79.
 Keep R1 ints in memory in symmetry-blocked form, NReq=98934648.
 Defaulting to unpruned grid for atomic number  79.
 Defaulting to unpruned grid for atomic number  79.
 Defaulting to unpruned grid for atomic number  79.
 Defaulting to unpruned grid for atomic number  79.
 Defaulting to unpruned grid for atomic number  79.
 Defaulting to unpruned grid for atomic number  79.
 Defaulting to unpruned grid for atomic number  79.
 Defaulting to unpruned grid for atomic number  79.
          There are     9 degrees of freedom in the 1st order CPHF.  IDoFFX=6 NUNeed=     3.
      6 vectors produced by pass  0 Test12= 2.80D-14 1.11D-08 XBig12= 8.63D+01 5.75D+00.
 AX will form     6 AO Fock derivatives at one time.
      6 vectors produced by pass  1 Test12= 2.80D-14 1.11D-08 XBig12= 1.74D+01 1.70D+00.
      6 vectors produced by pass  2 Test12= 2.80D-14 1.11D-08 XBig12= 9.59D-01 3.14D-01.
      6 vectors produced by pass  3 Test12= 2.80D-14 1.11D-08 XBig12= 3.14D-01 2.17D-01.
      6 vectors produced by pass  4 Test12= 2.80D-14 1.11D-08 XBig12= 9.07D-03 3.03D-02.
      6 vectors produced by pass  5 Test12= 2.80D-14 1.11D-08 XBig12= 7.12D-05 1.85D-03.
      6 vectors produced by pass  6 Test12= 2.80D-14 1.11D-08 XBig12= 1.30D-06 2.63D-04.
      4 vectors produced by pass  7 Test12= 2.80D-14 1.11D-08 XBig12= 2.06D-08 3.60D-05.
      4 vectors produced by pass  8 Test12= 2.80D-14 1.11D-08 XBig12= 6.96D-10 1.01D-05.
      3 vectors produced by pass  9 Test12= 2.80D-14 1.11D-08 XBig12= 3.18D-12 4.15D-07.
      1 vectors produced by pass 10 Test12= 2.80D-14 1.11D-08 XBig12= 1.74D-14 3.93D-08.
 InvSVY:  IOpt=1 It=  1 EMax= 4.44D-16
 Solved reduced A of dimension    54 with     6 vectors.
 Isotropic polarizability for W=    0.000000       44.87 Bohr**3.
 End of Minotr F.D. properties file   721 does not exist.
 End of Minotr F.D. properties file   722 does not exist.
 End of Minotr F.D. properties file   788 does not exist.

 **********************************************************************

            Population analysis using the SCF Density.

 **********************************************************************

 Orbital symmetries:
       Occupied  (SG) (SG) (SG) (PI) (PI) (SG) (SG) (PI) (PI) (SG)
                 (SG) (PI) (PI) (DLTA) (DLTA) (SG) (PI) (PI)
       Virtual   (SG) (PI) (PI) (SG) (SG) (PI) (PI) (SG) (SG) (PI)
                 (PI) (DLTA) (DLTA) (SG) (PI) (PI) (DLTA) (DLTA)
                 (SG) (PHI) (PHI) (PI) (PI) (DLTA) (DLTA) (SG)
                 (SG) (PI) (PI) (SG) (PI) (PI) (SG) (DLTA) (DLTA)
                 (PI) (PI) (PHI) (PHI) (SG) (PI) (PI) (DLTA) (DLTA)
                 (PI) (PI) (SG) (DLTA) (DLTA) (PHI) (PHI) (SG)
                 (PI) (PI) (DLTA) (DLTA) (SG) (PI) (PI) (SG) (SG)
                 (PHI) (PHI) (DLTA) (DLTA) (PI) (PI) (SG) (PHI)
                 (PHI) (?A) (?A) (DLTA) (DLTA) (SG) (PI) (PI) (SG)
                 (DLTA) (DLTA) (PI) (PI) (SG) (PHI) (PHI) (?A)
                 (?A) (DLTA) (DLTA) (PI) (PI) (SG) (PI) (PI) (PHI)
                 (PHI) (DLTA) (DLTA) (SG) (PI) (PI) (SG) (DLTA)
                 (DLTA) (PI) (PI) (SG) (PHI) (PHI) (DLTA) (DLTA)
                 (PI) (PI) (SG) (PHI) (PHI) (?A) (?A) (DLTA) (DLTA)
                 (PI) (PI) (SG) (SG) (DLTA) (DLTA) (PI) (PI) (SG)
                 (PI) (PI) (SG) (SG) (PI) (PI) (SG) (SG) (SG) (SG)
                 (SG)
 The electronic state is 1-SG.
 Alpha  occ. eigenvalues -- -101.69687  -9.51667  -7.25096  -7.24341  -7.24341
 Alpha  occ. eigenvalues --   -4.22036  -2.40018  -2.38416  -2.38416  -0.81312
 Alpha  occ. eigenvalues --   -0.43214  -0.39056  -0.39056  -0.34961  -0.34961
 Alpha  occ. eigenvalues --   -0.30876  -0.29489  -0.29489
 Alpha virt. eigenvalues --   -0.13838  -0.00627  -0.00627   0.02564   0.06272
 Alpha virt. eigenvalues --    0.09055   0.09055   0.14876   0.21086   0.22396
 Alpha virt. eigenvalues --    0.22396   0.26953   0.26953   0.29288   0.30355
 Alpha virt. eigenvalues --    0.30355   0.31652   0.31652   0.37056   0.37592
 Alpha virt. eigenvalues --    0.37592   0.38696   0.38696   0.48822   0.48822
 Alpha virt. eigenvalues --    0.49150   0.58026   0.63178   0.63178   0.67540
 Alpha virt. eigenvalues --    0.78330   0.78330   0.82363   0.96740   0.96740
 Alpha virt. eigenvalues --    0.99346   0.99346   0.99895   0.99895   1.05571
 Alpha virt. eigenvalues --    1.15531   1.15531   1.22133   1.22134   1.24282
 Alpha virt. eigenvalues --    1.24282   1.24820   1.34541   1.34541   1.35346
 Alpha virt. eigenvalues --    1.35346   1.38819   1.43777   1.43777   1.44175
 Alpha virt. eigenvalues --    1.44175   1.58763   1.81609   1.81609   2.04519
 Alpha virt. eigenvalues --    2.21908   2.27957   2.27957   2.28190   2.28190
 Alpha virt. eigenvalues --    2.29150   2.29150   2.41313   2.51377   2.51377
 Alpha virt. eigenvalues --    2.52353   2.52359   2.55072   2.55073   2.67676
 Alpha virt. eigenvalues --    2.74632   2.74632   2.99046   3.28405   3.28405
 Alpha virt. eigenvalues --    3.42624   3.42624   3.50958   3.61327   3.61327
 Alpha virt. eigenvalues --    3.62065   3.62065   3.68447   3.68447   3.81433
 Alpha virt. eigenvalues --    3.81433   3.84682   3.94720   3.94720   3.95118
 Alpha virt. eigenvalues --    3.95118   4.03193   4.03193   4.30851   4.35686
 Alpha virt. eigenvalues --    4.35686   4.47933   5.30536   5.30546   5.44685
 Alpha virt. eigenvalues --    5.44685   5.67315   5.75698   5.75698   5.76230
 Alpha virt. eigenvalues --    5.76231   5.80828   5.80828   6.02272   6.44356
 Alpha virt. eigenvalues --    6.44356   6.44710   6.44728   6.50000   6.50001
 Alpha virt. eigenvalues --    6.71693   6.71693   6.75227   8.40422  10.68511
 Alpha virt. eigenvalues --   10.68511  10.79237  10.79237  10.91132  25.76088
 Alpha virt. eigenvalues --   25.76088  28.62234  34.25234  41.83347  41.83347
 Alpha virt. eigenvalues --   41.86292  45.83224  98.25938 206.86982 525.52428
          Condensed to atoms (all electrons):
               1          2
     1  Au  18.296730   0.256839
     2  Cl   0.256839  17.189593
 Mulliken charges:
               1
     1  Au   0.446432
     2  Cl  -0.446432
 Sum of Mulliken charges =   0.00000
 Mulliken charges with hydrogens summed into heavy atoms:
               1
     1  Au   0.446432
     2  Cl  -0.446432
 APT charges:
               1
     1  Au   0.422437
     2  Cl  -0.422437
 Sum of APT charges =   0.00000
 APT charges with hydrogens summed into heavy atoms:
               1
     1  Au   0.422437
     2  Cl  -0.422437
 Electronic spatial extent (au):  <R**2>=            291.5138
 Charge=              0.0000 electrons
 Dipole moment (field-independent basis, Debye):
    X=              0.0000    Y=              0.0000    Z=              3.7480  Tot=              3.7480
 Quadrupole moment (field-independent basis, Debye-Ang):
   XX=            -35.6647   YY=            -35.6647   ZZ=            -35.2067
   XY=              0.0000   XZ=              0.0000   YZ=              0.0000
 Traceless Quadrupole moment (field-independent basis, Debye-Ang):
   XX=             -0.1527   YY=             -0.1527   ZZ=              0.3054
   XY=              0.0000   XZ=              0.0000   YZ=              0.0000
 Octapole moment (field-independent basis, Debye-Ang**2):
  XXX=              0.0000  YYY=              0.0000  ZZZ=             52.0606  XYY=              0.0000
  XXY=              0.0000  XXZ=             16.5839  XZZ=              0.0000  YZZ=              0.0000
  YYZ=             16.5839  XYZ=              0.0000
 Hexadecapole moment (field-independent basis, Debye-Ang**3):
 XXXX=            -41.4977 YYYY=            -41.4977 ZZZZ=           -301.1502 XXXY=              0.0000
 XXXZ=              0.0000 YYYX=              0.0000 YYYZ=              0.0000 ZZZX=              0.0000
 ZZZY=              0.0000 XXYY=            -13.8326 XXZZ=            -60.5534 YYZZ=            -60.5534
 XXYZ=              0.0000 YYXZ=              0.0000 ZZXY=              0.0000
 N-N= 7.713617081814D+01 E-N=-1.533435726721D+03  KE= 5.053414702158D+02
 Symmetry A1   KE= 3.879965327608D+02
 Symmetry A2   KE= 4.981773250563D+00
 Symmetry B1   KE= 5.618158210217D+01
 Symmetry B2   KE= 5.618158210217D+01
  Exact polarizability:      37.095       0.000      37.095       0.000       0.000      60.418
 Approx polarizability:      58.676      -0.000      58.676      -0.000      -0.000     101.919
   4 Symmetry operations used in ECPInt.
 ECPInt:  NShTT=     990 NPrTT=    2574 LenC2=     982 LenP2D=    2361.
 LDataN:  DoStor=T MaxTD1=10 Len=  848
 Calling FoFJK, ICntrl=    100127 FMM=F ISym2X=1 I1Cent= 0 IOpClX= 0 NMat=1 NMatS=1 NMatT=0.
 Defaulting to unpruned grid for atomic number  79.
 Defaulting to unpruned grid for atomic number  79.
 Defaulting to unpruned grid for atomic number  79.
 Defaulting to unpruned grid for atomic number  79.
 Defaulting to unpruned grid for atomic number  79.
 Defaulting to unpruned grid for atomic number  79.
 Defaulting to unpruned grid for atomic number  79.
 Defaulting to unpruned grid for atomic number  79.
 Full mass-weighted force constant matrix:
 Low frequencies ---   -0.0009   -0.0008    0.0024    5.4846    5.4846  370.5081
 Diagonal vibrational polarizability:
        0.0000000       0.0000000       2.0396529
 Harmonic frequencies (cm**-1), IR intensities (KM/Mole), Raman scattering
 activities (A**4/AMU), depolarization ratios for plane and unpolarized
 incident light, reduced masses (AMU), force constants (mDyne/A),
 and normal coordinates:
                      1
                     SG
 Frequencies --    370.5081
 Red. masses --     39.9189
 Frc consts  --      3.2287
 IR Inten    --     10.4044
  Atom  AN      X      Y      Z
     1  79    -0.00  -0.00  -0.17
     2  17    -0.00  -0.00   0.98

 -------------------
 - Thermochemistry -
 -------------------
 Temperature   298.150 Kelvin.  Pressure   1.00000 Atm.
 Atom     1 has atomic number 79 and mass 196.96660
 Atom     2 has atomic number 17 and mass  34.96885
 Molecular mass:   231.93545 amu.
 Principal axes and moments of inertia in atomic units:
                           1         2         3
     Eigenvalues --     0.00000 520.70977 520.70977
           X            0.00000  -0.00000   1.00000
           Y            0.00000   1.00000   0.00000
           Z            1.00000   0.00000   0.00000
 This molecule is a prolate symmetric top.
 Rotational symmetry number  1.
 Warning -- assumption of classical behavior for rotation
           may cause significant error
 Rotational temperature (Kelvin)      0.16634
 Rotational constant (GHZ):           3.465925
 Zero-point vibrational energy       2216.1 (Joules/Mol)
                                    0.52967 (Kcal/Mol)
 Warning -- explicit consideration of   1 degrees of freedom as
           vibrations may cause significant error
 Vibrational temperatures:    533.08
          (Kelvin)
 
 Zero-point correction=                           0.000844 (Hartree/Particle)
 Thermal correction to Energy=                    0.003544
 Thermal correction to Enthalpy=                  0.004488
 Thermal correction to Gibbs Free Energy=        -0.024104
 Sum of electronic and zero-point Energies=           -595.819074
 Sum of electronic and thermal Energies=              -595.816375
 Sum of electronic and thermal Enthalpies=            -595.815430
 Sum of electronic and thermal Free Energies=         -595.844023
 
                     E (Thermal)             CV                S
                      KCal/Mol        Cal/Mol-Kelvin    Cal/Mol-Kelvin
 Total                    2.224              6.501             60.177
 Electronic               0.000              0.000              0.000
 Translational            0.889              2.981             42.226
 Rotational               0.592              1.987             16.874
 Vibrational              0.743              1.533              1.078
 Vibration     1          0.743              1.533              1.078
                       Q            Log10(Q)             Ln(Q)
 Total Bot       0.122239D+12         11.087211         25.529246
 Total V=0       0.298855D+12         11.475460         26.423223
 Vib (Bot)       0.491205D+00         -0.308737         -0.710893
 Vib (Bot)    1  0.491205D+00         -0.308737         -0.710893
 Vib (V=0)       0.120092D+01          0.079513          0.183084
 Vib (V=0)    1  0.120092D+01          0.079513          0.183084
 Electronic      0.100000D+01          0.000000          0.000000
 Translational   0.138837D+09          8.142505         18.748810
 Rotational      0.179243D+04          3.253443          7.491329
 ***** Axes restored to original set *****
 -------------------------------------------------------------------
 Center     Atomic                   Forces (Hartrees/Bohr)
 Number     Number              X              Y              Z
 -------------------------------------------------------------------
      1       79          -0.000000000   -0.000000000   -0.000019413
      2       17          -0.000000000   -0.000000000    0.000019413
 -------------------------------------------------------------------
 Cartesian Forces:  Max     0.000019413 RMS     0.000011208
 FormGI is forming the generalized inverse of G from B-inverse, IUseBI=4.

 GradGradGradGradGradGradGradGradGradGradGradGradGradGradGradGradGradGrad
 Berny optimization.
 Internal  Forces:  Max     0.000019413 RMS     0.000019413
 Search for a local minimum.
 Step number   1 out of a maximum of    2
 All quantities printed in internal units (Hartrees-Bohrs-Radians)
 Second derivative matrix not updated -- analytic derivatives used.
 The second derivative matrix:
                          R1
           R1           0.15427
 ITU=  0
     Eigenvalues ---    0.15427
 Angle between quadratic step and forces=   0.00 degrees.
 Linear search not attempted -- first point.
 Iteration  1 RMS(Cart)=  0.00008898 RMS(Int)=  0.00000000
 Iteration  2 RMS(Cart)=  0.00000000 RMS(Int)=  0.00000000
 ClnCor:  largest displacement from symmetrization is 0.00D+00 for atom     0.
 Variable       Old X    -DE/DX   Delta X   Delta X   Delta X     New X
                                 (Linear)    (Quad)   (Total)
    R1        4.18740   0.00002   0.00000   0.00013   0.00013   4.18753
         Item               Value     Threshold  Converged?
 Maximum Force            0.000019     0.000450     YES
 RMS     Force            0.000019     0.000300     YES
 Maximum Displacement     0.000063     0.001800     YES
 RMS     Displacement     0.000089     0.001200     YES
 Predicted change in Energy=-1.221381D-09
 Optimization completed.
    -- Stationary point found.
                           ----------------------------
                           !   Optimized Parameters   !
                           ! (Angstroms and Degrees)  !
 --------------------------                            --------------------------
 ! Name  Definition              Value          Derivative Info.                !
 --------------------------------------------------------------------------------
 ! R1    R(1,2)                  2.2159         -DE/DX =    0.0                 !
 --------------------------------------------------------------------------------
 GradGradGradGradGradGradGradGradGradGradGradGradGradGradGradGradGradGrad


 ----------------------------------------------------------------------

 Electric dipole moment (input orientation):
 (Debye = 10**-18 statcoulomb cm , SI units = C m)
                  (au)            (Debye)         (10**-30 SI)
   Tot        0.147459D+01      0.374804D+01      0.125021D+02
   x          0.000000D+00      0.000000D+00      0.000000D+00
   y          0.000000D+00      0.000000D+00      0.000000D+00
   z         -0.147459D+01     -0.374804D+01     -0.125021D+02

 Dipole polarizability, Alpha (input orientation).
 (esu units = cm**3 , SI units = C**2 m**2 J**-1)
 Alpha(0;0):
               (au)            (10**-24 esu)      (10**-40 SI)
   iso        0.448693D+02      0.664895D+01      0.739795D+01
   aniso      0.233225D+02      0.345604D+01      0.384536D+01
   xx         0.370952D+02      0.549694D+01      0.611617D+01
   yx         0.000000D+00      0.000000D+00      0.000000D+00
   yy         0.370952D+02      0.549694D+01      0.611617D+01
   zx         0.000000D+00      0.000000D+00      0.000000D+00
   zy         0.000000D+00      0.000000D+00      0.000000D+00
   zz         0.604177D+02      0.895298D+01      0.996153D+01

 ----------------------------------------------------------------------

 Dipole orientation:
    79         15.11780900        -15.11780900        -13.02410901
    17         15.11780900        -15.11780900        -17.21150899

 Electric dipole moment (dipole orientation):
 (Debye = 10**-18 statcoulomb cm , SI units = C m)
                  (au)            (Debye)         (10**-30 SI)
   Tot        0.147459D+01      0.374804D+01      0.125021D+02
   x          0.000000D+00      0.000000D+00      0.000000D+00
   y          0.000000D+00      0.000000D+00      0.000000D+00
   z          0.147459D+01      0.374804D+01      0.125021D+02

 Dipole polarizability, Alpha (dipole orientation).
 (esu units = cm**3 , SI units = C**2 m**2 J**-1)
 Alpha(0;0):
               (au)            (10**-24 esu)      (10**-40 SI)
   iso        0.448693D+02      0.664895D+01      0.739795D+01
   aniso      0.233225D+02      0.345604D+01      0.384536D+01
   xx         0.370952D+02      0.549694D+01      0.611617D+01
   yx         0.000000D+00      0.000000D+00      0.000000D+00
   yy         0.370952D+02      0.549694D+01      0.611617D+01
   zx         0.000000D+00      0.000000D+00      0.000000D+00
   zy         0.000000D+00      0.000000D+00      0.000000D+00
   zz         0.604177D+02      0.895298D+01      0.996153D+01

 ----------------------------------------------------------------------
 Unable to Open any file for archive entry.
 1\1\GINC-TCOPT10\Freq\RPBE1PBE\def2QZVPP\Au1Cl1\HUTTER\01-Aug-2021\0\\
 #N Geom=AllCheck Guess=TCheck SCRF=Check GenChk RPBE1PBE/def2QZVPP Fre
 q\\Mol job 1\\0,1\Au,8.,8.,6.8920616793\Cl,8.,8.,9.1079383207\\Version
 =ES64L-G16RevC.01\State=1-SG\HF=-595.8199183\RMSD=1.307e-09\RMSF=1.121
 e-05\Thermal=0.0035437\ETot=-595.8163746\HTot=-595.8154304\GTot=-595.8
 440227\Dipole=0.,0.,-1.4745915\DipoleDeriv=0.3521699,0.,0.,0.,0.352169
 9,0.,0.,0.,0.5629724,-0.3521699,0.,0.,0.,-0.3521699,0.,0.,0.,-0.562972
 4\Polar=37.0951613,0.,37.0951613,0.,0.,60.4176802\Quadrupole=-0.113516
 9,-0.1135169,0.2270339,0.,0.,0.\PG=C*V [C*(Cl1Au1)]\NImag=0\\0.0000338
 1,0.,0.00003381,0.,0.,0.15427436,-0.00003381,0.,0.,0.00003381,0.,-0.00
 003381,0.,0.,0.00003381,0.,0.,-0.15427436,0.,0.,0.15427436\\0.,0.,0.00
 001941,0.,0.,-0.00001941\\\@
 The archive entry for this job was punched.


 ORIGINALITY CONSISTS NOT IN SAYING WHAT NO ONE HAS EVER SAID BEFORE, 
 BUT IN SAYING WHAT YOU THINK YOUR SELF.

                                    -- JAMES F. STEPHEN
 Job cpu time:       0 days  0 hours 10 minutes 57.1 seconds.
 Elapsed time:       0 days  0 hours  1 minutes 32.2 seconds.
 File lengths (MBytes):  RWF=     15 Int=      0 D2E=      0 Chk=      3 Scr=      1
 Normal termination of Gaussian 16 at Sun Aug  1 09:41:55 2021.
