 Entering Gaussian System, Link 0=g16
 Initial command:
 /sw-ng/spack/opt/spack/linux-opensuse_leap15-sandybridge/pgi-18.10/gaussian-src-16-C.01-zldqaomctopxhethwccpmxmwefdscg3m/g16/l1.exe "/data/hutter/SMG16/PBE0/Gau-75496.inp" -scrdir="/data/hutter/SMG16/PBE0/"
 Entering Link 1 = /sw-ng/spack/opt/spack/linux-opensuse_leap15-sandybridge/pgi-18.10/gaussian-src-16-C.01-zldqaomctopxhethwccpmxmwefdscg3m/g16/l1.exe PID=     75501.
  
 Copyright (c) 1988-2019, Gaussian, Inc.  All Rights Reserved.
  
 This is part of the Gaussian(R) 16 program.  It is based on
 the Gaussian(R) 09 system (copyright 2009, Gaussian, Inc.),
 the Gaussian(R) 03 system (copyright 2003, Gaussian, Inc.),
 the Gaussian(R) 98 system (copyright 1998, Gaussian, Inc.),
 the Gaussian(R) 94 system (copyright 1995, Gaussian, Inc.),
 the Gaussian 92(TM) system (copyright 1992, Gaussian, Inc.),
 the Gaussian 90(TM) system (copyright 1990, Gaussian, Inc.),
 the Gaussian 88(TM) system (copyright 1988, Gaussian, Inc.),
 the Gaussian 86(TM) system (copyright 1986, Carnegie Mellon
 University), and the Gaussian 82(TM) system (copyright 1983,
 Carnegie Mellon University). Gaussian is a federally registered
 trademark of Gaussian, Inc.
  
 This software contains proprietary and confidential information,
 including trade secrets, belonging to Gaussian, Inc.
  
 This software is provided under written license and may be
 used, copied, transmitted, or stored only in accord with that
 written license.
  
 The following legend is applicable only to US Government
 contracts under FAR:
  
                    RESTRICTED RIGHTS LEGEND
  
 Use, reproduction and disclosure by the US Government is
 subject to restrictions as set forth in subparagraphs (a)
 and (c) of the Commercial Computer Software - Restricted
 Rights clause in FAR 52.227-19.
  
 Gaussian, Inc.
 340 Quinnipiac St., Bldg. 40, Wallingford CT 06492
  
  
 ---------------------------------------------------------------
 Warning -- This program may not be used in any manner that
 competes with the business of Gaussian, Inc. or will provide
 assistance to any competitor of Gaussian, Inc.  The licensee
 of this program is prohibited from giving any competitor of
 Gaussian, Inc. access to this program.  By using this program,
 the user acknowledges that Gaussian, Inc. is engaged in the
 business of creating and licensing software in the field of
 computational chemistry and represents and warrants to the
 licensee that it is not a competitor of Gaussian, Inc. and that
 it will not use this program in any manner prohibited above.
 ---------------------------------------------------------------
  

 Cite this work as:
 Gaussian 16, Revision C.01,
 M. J. Frisch, G. W. Trucks, H. B. Schlegel, G. E. Scuseria, 
 M. A. Robb, J. R. Cheeseman, G. Scalmani, V. Barone, 
 G. A. Petersson, H. Nakatsuji, X. Li, M. Caricato, A. V. Marenich, 
 J. Bloino, B. G. Janesko, R. Gomperts, B. Mennucci, H. P. Hratchian, 
 J. V. Ortiz, A. F. Izmaylov, J. L. Sonnenberg, D. Williams-Young, 
 F. Ding, F. Lipparini, F. Egidi, J. Goings, B. Peng, A. Petrone, 
 T. Henderson, D. Ranasinghe, V. G. Zakrzewski, J. Gao, N. Rega, 
 G. Zheng, W. Liang, M. Hada, M. Ehara, K. Toyota, R. Fukuda, 
 J. Hasegawa, M. Ishida, T. Nakajima, Y. Honda, O. Kitao, H. Nakai, 
 T. Vreven, K. Throssell, J. A. Montgomery, Jr., J. E. Peralta, 
 F. Ogliaro, M. J. Bearpark, J. J. Heyd, E. N. Brothers, K. N. Kudin, 
 V. N. Staroverov, T. A. Keith, R. Kobayashi, J. Normand, 
 K. Raghavachari, A. P. Rendell, J. C. Burant, S. S. Iyengar, 
 J. Tomasi, M. Cossi, J. M. Millam, M. Klene, C. Adamo, R. Cammi, 
 J. W. Ochterski, R. L. Martin, K. Morokuma, O. Farkas, 
 J. B. Foresman, and D. J. Fox, Gaussian, Inc., Wallingford CT, 2019.
 
 ******************************************
 Gaussian 16:  ES64L-G16RevC.01  3-Jul-2019
                 1-Aug-2021 
 ******************************************
 %mem=8GB
 %NProcShare=8
 Will use up to    8 processors via shared memory.
 ------------------------------------------------------------
 #N RPBE1PBE/Def2QZVPP scf=tight Int(Grid=ultrafine) OPT FREQ
 ------------------------------------------------------------
 1/18=20,19=15,26=4,38=1/1,3;
 2/9=110,12=2,17=6,18=5,40=1/2;
 3/5=45,7=202,11=2,25=1,30=1,71=1,74=-13,75=-5,116=1/1,2,3;
 4//1;
 5/5=2,32=2,38=5/2;
 6/7=2,8=2,9=2,10=2,28=1/1;
 7//1,2,3,16;
 1/18=20,19=15,26=4/3(2);
 2/9=110/2;
 99//99;
 2/9=110/2;
 3/5=45,7=202,11=2,25=1,30=1,71=1,74=-13,75=-5,116=1/1,2,3;
 4/5=5,16=3,69=1/1;
 5/5=2,32=2,38=5/2;
 7//1,2,3,16;
 1/18=20,19=15,26=4/3(-5);
 2/9=110/2;
 6/7=2,8=2,9=2,10=2,19=2,28=1/1;
 99/9=1/99;
 ---------
 Mol job 1
 ---------
 Symbolic Z-matrix:
 Charge =  0 Multiplicity = 1
 Tl                    8.        8.        7.04035 
 H                     8.        8.        8.95965 
 

 GradGradGradGradGradGradGradGradGradGradGradGradGradGradGradGradGradGrad
 Berny optimization.
 Initialization pass.
                           ----------------------------
                           !    Initial Parameters    !
                           ! (Angstroms and Degrees)  !
 --------------------------                            --------------------------
 ! Name  Definition              Value          Derivative Info.                !
 --------------------------------------------------------------------------------
 ! R1    R(1,2)                  1.9193         estimate D2E/DX2                !
 --------------------------------------------------------------------------------
 Trust Radius=3.00D-01 FncErr=1.00D-07 GrdErr=1.00D-06 EigMax=2.50D+02 EigMin=1.00D-04
 Number of steps in this run=     20 maximum allowed number of steps=    100.
 GradGradGradGradGradGradGradGradGradGradGradGradGradGradGradGradGradGrad

                          Input orientation:                          
 ---------------------------------------------------------------------
 Center     Atomic      Atomic             Coordinates (Angstroms)
 Number     Number       Type             X           Y           Z
 ---------------------------------------------------------------------
      1         81           0        8.000000    8.000000    7.040349
      2          1           0        8.000000    8.000000    8.959651
 ---------------------------------------------------------------------
 Stoichiometry    HTl
 Framework group  C*V[C*(HTl)]
 Deg. of freedom     1
 Full point group                 C*V     NOp   4
 Largest Abelian subgroup         C2V     NOp   4
 Largest concise Abelian subgroup C1      NOp   1
                         Standard orientation:                         
 ---------------------------------------------------------------------
 Center     Atomic      Atomic             Coordinates (Angstroms)
 Number     Number       Type             X           Y           Z
 ---------------------------------------------------------------------
      1         81           0        0.000000    0.000000    0.023406
      2          1           0        0.000000    0.000000   -1.895895
 ---------------------------------------------------------------------
 Rotational constants (GHZ):           0.0000000         136.7967987         136.7967987
 Standard basis: def2QZVPP (5D, 7F)
 There are    59 symmetry adapted cartesian basis functions of A1  symmetry.
 There are    14 symmetry adapted cartesian basis functions of A2  symmetry.
 There are    33 symmetry adapted cartesian basis functions of B1  symmetry.
 There are    33 symmetry adapted cartesian basis functions of B2  symmetry.
 There are    45 symmetry adapted basis functions of A1  symmetry.
 There are    13 symmetry adapted basis functions of A2  symmetry.
 There are    27 symmetry adapted basis functions of B1  symmetry.
 There are    27 symmetry adapted basis functions of B2  symmetry.
   112 basis functions,   212 primitive gaussians,   139 cartesian basis functions
    11 alpha electrons       11 beta electrons
       nuclear repulsion energy         5.7899832380 Hartrees.
 NAtoms=    2 NActive=    2 NUniq=    2 SFac= 1.00D+00 NAtFMM=   60 NAOKFM=F Big=F
 Integral buffers will be    131072 words long.
 Raffenetti 2 integral format.
 Two-electron integral symmetry is turned on.
 One-electron integrals computed using PRISM.
   4 Symmetry operations used in ECPInt.
 ECPInt:  NShTT=     528 NPrTT=    1860 LenC2=     529 LenP2D=    1817.
 LDataN:  DoStor=T MaxTD1= 9 Len=  602
 NBasis=   112 RedAO= T EigKep=  1.19D-03  NBF=    45    13    27    27
 NBsUse=   112 1.00D-06 EigRej= -1.00D+00 NBFU=    45    13    27    27
 Defaulting to unpruned grid for atomic number  81.
 ExpMin= 2.61D-02 ExpMax= 9.68D+03 ExpMxC= 3.38D+01 IAcc=3 IRadAn=         5 AccDes= 0.00D+00
 Harris functional with IExCor= 1009 and IRadAn=       5 diagonalized for initial guess.
 HarFok:  IExCor= 1009 AccDes= 0.00D+00 IRadAn=         5 IDoV= 1 UseB2=F ITyADJ=14
 ICtDFT=  3500011 ScaDFX=  1.000000  1.000000  1.000000  1.000000
 Defaulting to unpruned grid for atomic number  81.
 FoFCou: FMM=F IPFlag=           0 FMFlag=      100000 FMFlg1=           0
         NFxFlg=           0 DoJE=T BraDBF=F KetDBF=T FulRan=T
         wScrn=  0.000000 ICntrl=       500 IOpCl=  0 I1Cent=   200000004 NGrid=           0
         NMat0=    1 NMatS0=      1 NMatT0=    0 NMatD0=    1 NMtDS0=    0 NMtDT0=    0
 Petite list used in FoFCou.
 Initial guess orbital symmetries:
       Occupied  (SG) (SG) (PI) (PI) (SG) (PI) (PI) (DLTA) (DLTA)
                 (SG) (SG)
       Virtual   (PI) (PI) (SG) (SG) (SG) (PI) (PI) (PI) (PI) (DLTA)
                 (DLTA) (SG) (SG) (SG) (PI) (PI) (PI) (PI) (DLTA)
                 (DLTA) (PHI) (PHI) (SG) (PI) (PI) (DLTA) (DLTA)
                 (SG) (SG) (PI) (PI) (SG) (SG) (PI) (PI) (PI) (PI)
                 (DLTA) (DLTA) (PHI) (PHI) (SG) (SG) (PI) (PI)
                 (DLTA) (DLTA) (DLTA) (DLTA) (SG) (PHI) (PHI) (?A)
                 (?A) (PI) (PI) (SG) (SG) (DLTA) (DLTA) (PI) (PI)
                 (SG) (PI) (PI) (DLTA) (DLTA) (PHI) (PHI) (SG)
                 (PI) (PI) (SG) (SG) (PHI) (PHI) (DLTA) (DLTA)
                 (PI) (PI) (SG) (PI) (PI) (DLTA) (DLTA) (SG) (PHI)
                 (PHI) (DLTA) (DLTA) (PI) (PI) (SG) (PI) (PI) (SG)
                 (SG) (PI) (PI) (SG) (SG)
 The electronic state of the initial guess is 1-SG.
 Keep R1 ints in memory in symmetry-blocked form, NReq=29115848.
 Requested convergence on RMS density matrix=1.00D-08 within 128 cycles.
 Requested convergence on MAX density matrix=1.00D-06.
 Requested convergence on             energy=1.00D-06.
 No special actions if energy rises.
 Defaulting to unpruned grid for atomic number  81.
 Defaulting to unpruned grid for atomic number  81.
 Defaulting to unpruned grid for atomic number  81.
 Defaulting to unpruned grid for atomic number  81.
 Defaulting to unpruned grid for atomic number  81.
 Defaulting to unpruned grid for atomic number  81.
 Defaulting to unpruned grid for atomic number  81.
 Defaulting to unpruned grid for atomic number  81.
 SCF Done:  E(RPBE1PBE) =  -173.092334344     A.U. after    9 cycles
            NFock=  9  Conv=0.43D-08     -V/T= 4.0320

 **********************************************************************

            Population analysis using the SCF Density.

 **********************************************************************

 Orbital symmetries:
       Occupied  (SG) (PI) (PI) (SG) (DLTA) (DLTA) (SG) (PI) (PI)
                 (SG) (SG)
       Virtual   (PI) (PI) (SG) (SG) (PI) (PI) (SG) (PI) (PI) (DLTA)
                 (DLTA) (SG) (SG) (PI) (PI) (SG) (PI) (PI) (DLTA)
                 (DLTA) (PHI) (PHI) (SG) (PI) (PI) (DLTA) (DLTA)
                 (SG) (SG) (PI) (PI) (SG) (PI) (PI) (SG) (PHI)
                 (PHI) (PI) (PI) (DLTA) (DLTA) (SG) (SG) (DLTA)
                 (DLTA) (PI) (PI) (SG) (DLTA) (DLTA) (?A) (?A)
                 (PHI) (PHI) (PI) (PI) (SG) (SG) (DLTA) (DLTA)
                 (PI) (PI) (SG) (PI) (PI) (PHI) (PHI) (DLTA) (DLTA)
                 (SG) (PI) (PI) (SG) (SG) (PHI) (PHI) (DLTA) (DLTA)
                 (PI) (PI) (SG) (PI) (PI) (PHI) (PHI) (DLTA) (DLTA)
                 (SG) (PI) (PI) (DLTA) (DLTA) (SG) (PI) (PI) (SG)
                 (SG) (PI) (PI) (SG) (SG)
 The electronic state is 1-SG.
 Alpha  occ. eigenvalues --   -5.04148  -3.00834  -3.00834  -2.99734  -0.65067
 Alpha  occ. eigenvalues --   -0.65067  -0.64213  -0.63968  -0.63968  -0.40577
 Alpha  occ. eigenvalues --   -0.21031
 Alpha virt. eigenvalues --   -0.06060  -0.06060   0.03018   0.05066   0.05948
 Alpha virt. eigenvalues --    0.05948   0.07491   0.11634   0.11634   0.11987
 Alpha virt. eigenvalues --    0.11987   0.19528   0.25734   0.30003   0.30003
 Alpha virt. eigenvalues --    0.31411   0.42846   0.42846   0.46315   0.46315
 Alpha virt. eigenvalues --    0.46439   0.46439   0.46667   0.46844   0.46844
 Alpha virt. eigenvalues --    0.46869   0.46869   0.53523   0.64340   0.76898
 Alpha virt. eigenvalues --    0.76898   0.92747   1.11479   1.11479   1.11822
 Alpha virt. eigenvalues --    1.18611   1.18611   1.18997   1.18997   1.19627
 Alpha virt. eigenvalues --    1.19627   1.26570   1.37091   1.38074   1.38074
 Alpha virt. eigenvalues --    1.38113   1.38113   1.45045   1.45211   1.45211
 Alpha virt. eigenvalues --    1.48116   1.48116   1.48977   1.48977   1.61104
 Alpha virt. eigenvalues --    1.61104   1.82534   2.00520   2.11996   2.11996
 Alpha virt. eigenvalues --    2.31468   2.31468   2.60207   2.62385   2.62385
 Alpha virt. eigenvalues --    2.95436   2.95436   2.96162   2.96162   3.11380
 Alpha virt. eigenvalues --    3.12062   3.12062   3.51525   5.43257   5.86920
 Alpha virt. eigenvalues --    5.86920   5.92618   5.92618   6.10432   6.10432
 Alpha virt. eigenvalues --    6.10871   7.63503   7.63503   7.84856   7.84856
 Alpha virt. eigenvalues --    7.86278   7.86279   7.97188   7.97347   7.97347
 Alpha virt. eigenvalues --    7.98304   7.98304   8.09367   8.34726   8.34726
 Alpha virt. eigenvalues --    8.83068  11.47039  31.93265  31.93265  32.46600
 Alpha virt. eigenvalues --   79.78222
          Condensed to atoms (all electrons):
               1          2
     1  Tl  20.472293   0.238569
     2  H    0.238569   1.050569
 Mulliken charges:
               1
     1  Tl   0.289138
     2  H   -0.289138
 Sum of Mulliken charges =  -0.00000
 Mulliken charges with hydrogens summed into heavy atoms:
               1
     1  Tl  -0.000000
 Electronic spatial extent (au):  <R**2>=             76.2621
 Charge=             -0.0000 electrons
 Dipole moment (field-independent basis, Debye):
    X=              0.0000    Y=              0.0000    Z=              1.5000  Tot=              1.5000
 Quadrupole moment (field-independent basis, Debye-Ang):
   XX=            -24.9287   YY=            -24.9287   ZZ=            -35.3978
   XY=              0.0000   XZ=              0.0000   YZ=              0.0000
 Traceless Quadrupole moment (field-independent basis, Debye-Ang):
   XX=              3.4897   YY=              3.4897   ZZ=             -6.9794
   XY=              0.0000   XZ=              0.0000   YZ=              0.0000
 Octapole moment (field-independent basis, Debye-Ang**2):
  XXX=              0.0000  YYY=              0.0000  ZZZ=             17.8957  XYY=              0.0000
  XXY=              0.0000  XXZ=              1.9715  XZZ=              0.0000  YZZ=              0.0000
  YYZ=              1.9715  XYZ=              0.0000
 Hexadecapole moment (field-independent basis, Debye-Ang**3):
 XXXX=            -29.5697 YYYY=            -29.5697 ZZZZ=           -118.6877 XXXY=              0.0000
 XXXZ=              0.0000 YYYX=              0.0000 YYYZ=              0.0000 ZZZX=              0.0000
 ZZZY=              0.0000 XXYY=             -9.8566 XXZZ=            -21.7485 YYZZ=            -21.7485
 XXYZ=              0.0000 YYXZ=              0.0000 ZZXY=              0.0000
 N-N= 5.789983238024D+00 E-N=-3.708702004701D+02  KE= 5.708782217667D+01
 Symmetry A1   KE= 2.623958989555D+01
 Symmetry A2   KE= 6.206341107719D+00
 Symmetry B1   KE= 1.232094558670D+01
 Symmetry B2   KE= 1.232094558670D+01
   4 Symmetry operations used in ECPInt.
 ECPInt:  NShTT=     528 NPrTT=    1860 LenC2=     529 LenP2D=    1817.
 LDataN:  DoStor=T MaxTD1=10 Len=  848
 Calling FoFJK, ICntrl=      2127 FMM=F ISym2X=1 I1Cent= 0 IOpClX= 0 NMat=1 NMatS=1 NMatT=0.
 Defaulting to unpruned grid for atomic number  81.
 Defaulting to unpruned grid for atomic number  81.
 Defaulting to unpruned grid for atomic number  81.
 Defaulting to unpruned grid for atomic number  81.
 Defaulting to unpruned grid for atomic number  81.
 Defaulting to unpruned grid for atomic number  81.
 Defaulting to unpruned grid for atomic number  81.
 Defaulting to unpruned grid for atomic number  81.
 ***** Axes restored to original set *****
 -------------------------------------------------------------------
 Center     Atomic                   Forces (Hartrees/Bohr)
 Number     Number              X              Y              Z
 -------------------------------------------------------------------
      1       81          -0.000000000   -0.000000000    0.002547622
      2        1          -0.000000000   -0.000000000   -0.002547622
 -------------------------------------------------------------------
 Cartesian Forces:  Max     0.002547622 RMS     0.001470870

 GradGradGradGradGradGradGradGradGradGradGradGradGradGradGradGradGradGrad
 Berny optimization.
 FormGI is forming the generalized inverse of G from B-inverse, IUseBI=4.
 Internal  Forces:  Max     0.002547622 RMS     0.002547622
 Search for a local minimum.
 Step number   1 out of a maximum of   20
 All quantities printed in internal units (Hartrees-Bohrs-Radians)
 Mixed Optimization -- RFO/linear search
 Second derivative matrix not updated -- first step.
 The second derivative matrix:
                          R1
           R1           0.09030
 ITU=  0
     Eigenvalues ---    0.09030
 RFO step:  Lambda=-7.18184745D-05 EMin= 9.03001868D-02
 Linear search not attempted -- first point.
 Iteration  1 RMS(Cart)=  0.01993362 RMS(Int)=  0.00000000
 Iteration  2 RMS(Cart)=  0.00000000 RMS(Int)=  0.00000000
 ClnCor:  largest displacement from symmetrization is 0.00D+00 for atom     0.
 Variable       Old X    -DE/DX   Delta X   Delta X   Delta X     New X
                                 (Linear)    (Quad)   (Total)
    R1        3.62695  -0.00255   0.00000  -0.02819  -0.02819   3.59876
         Item               Value     Threshold  Converged?
 Maximum Force            0.002548     0.000450     NO 
 RMS     Force            0.002548     0.000300     NO 
 Maximum Displacement     0.014095     0.001800     NO 
 RMS     Displacement     0.019934     0.001200     NO 
 Predicted change in Energy=-3.593777D-05
 GradGradGradGradGradGradGradGradGradGradGradGradGradGradGradGradGradGrad

                          Input orientation:                          
 ---------------------------------------------------------------------
 Center     Atomic      Atomic             Coordinates (Angstroms)
 Number     Number       Type             X           Y           Z
 ---------------------------------------------------------------------
      1         81           0        8.000000    8.000000    7.047808
      2          1           0        8.000000    8.000000    8.952192
 ---------------------------------------------------------------------
 Stoichiometry    HTl
 Framework group  C*V[C*(HTl)]
 Deg. of freedom     1
 Full point group                 C*V     NOp   4
 Largest Abelian subgroup         C2V     NOp   4
 Largest concise Abelian subgroup C1      NOp   1
                         Standard orientation:                         
 ---------------------------------------------------------------------
 Center     Atomic      Atomic             Coordinates (Angstroms)
 Number     Number       Type             X           Y           Z
 ---------------------------------------------------------------------
      1         81           0        0.000000    0.000000    0.023224
      2          1           0        0.000000    0.000000   -1.881159
 ---------------------------------------------------------------------
 Rotational constants (GHZ):           0.0000000         138.9483488         138.9483488
 Standard basis: def2QZVPP (5D, 7F)
 There are    59 symmetry adapted cartesian basis functions of A1  symmetry.
 There are    14 symmetry adapted cartesian basis functions of A2  symmetry.
 There are    33 symmetry adapted cartesian basis functions of B1  symmetry.
 There are    33 symmetry adapted cartesian basis functions of B2  symmetry.
 There are    45 symmetry adapted basis functions of A1  symmetry.
 There are    13 symmetry adapted basis functions of A2  symmetry.
 There are    27 symmetry adapted basis functions of B1  symmetry.
 There are    27 symmetry adapted basis functions of B2  symmetry.
   112 basis functions,   212 primitive gaussians,   139 cartesian basis functions
    11 alpha electrons       11 beta electrons
       nuclear repulsion energy         5.8353382384 Hartrees.
 NAtoms=    2 NActive=    2 NUniq=    2 SFac= 1.00D+00 NAtFMM=   60 NAOKFM=F Big=F
 Integral buffers will be    131072 words long.
 Raffenetti 2 integral format.
 Two-electron integral symmetry is turned on.
 One-electron integrals computed using PRISM.
   4 Symmetry operations used in ECPInt.
 ECPInt:  NShTT=     528 NPrTT=    1860 LenC2=     529 LenP2D=    1817.
 LDataN:  DoStor=T MaxTD1= 9 Len=  602
 NBasis=   112 RedAO= T EigKep=  1.13D-03  NBF=    45    13    27    27
 NBsUse=   112 1.00D-06 EigRej= -1.00D+00 NBFU=    45    13    27    27
 Defaulting to unpruned grid for atomic number  81.
 Initial guess from the checkpoint file:  "/data/hutter/SMG16/PBE0/Gau-75501.chk"
 B after Tr=     0.000000    0.000000    0.000000
         Rot=    1.000000    0.000000    0.000000    0.000000 Ang=   0.00 deg.
 Initial guess orbital symmetries:
       Occupied  (SG) (PI) (PI) (SG) (DLTA) (DLTA) (SG) (PI) (PI)
                 (SG) (SG)
       Virtual   (PI) (PI) (SG) (SG) (PI) (PI) (SG) (PI) (PI) (DLTA)
                 (DLTA) (SG) (SG) (PI) (PI) (SG) (PI) (PI) (DLTA)
                 (DLTA) (PHI) (PHI) (SG) (PI) (PI) (DLTA) (DLTA)
                 (SG) (SG) (PI) (PI) (SG) (PI) (PI) (SG) (PHI)
                 (PHI) (PI) (PI) (DLTA) (DLTA) (SG) (SG) (DLTA)
                 (DLTA) (PI) (PI) (SG) (DLTA) (DLTA) (?A) (?A)
                 (PHI) (PHI) (PI) (PI) (SG) (SG) (DLTA) (DLTA)
                 (PI) (PI) (SG) (PI) (PI) (PHI) (PHI) (DLTA) (DLTA)
                 (SG) (PI) (PI) (SG) (SG) (PHI) (PHI) (DLTA) (DLTA)
                 (PI) (PI) (SG) (PI) (PI) (PHI) (PHI) (DLTA) (DLTA)
                 (SG) (PI) (PI) (DLTA) (DLTA) (SG) (PI) (PI) (SG)
                 (SG) (PI) (PI) (SG) (SG)
 Keep R1 ints in memory in symmetry-blocked form, NReq=29115848.
 Requested convergence on RMS density matrix=1.00D-08 within 128 cycles.
 Requested convergence on MAX density matrix=1.00D-06.
 Requested convergence on             energy=1.00D-06.
 No special actions if energy rises.
 Defaulting to unpruned grid for atomic number  81.
 Defaulting to unpruned grid for atomic number  81.
 Defaulting to unpruned grid for atomic number  81.
 Defaulting to unpruned grid for atomic number  81.
 Defaulting to unpruned grid for atomic number  81.
 Defaulting to unpruned grid for atomic number  81.
 Defaulting to unpruned grid for atomic number  81.
 Defaulting to unpruned grid for atomic number  81.
 SCF Done:  E(RPBE1PBE) =  -173.092378957     A.U. after    8 cycles
            NFock=  8  Conv=0.36D-08     -V/T= 4.0318
   4 Symmetry operations used in ECPInt.
 ECPInt:  NShTT=     528 NPrTT=    1860 LenC2=     529 LenP2D=    1817.
 LDataN:  DoStor=T MaxTD1=10 Len=  848
 Calling FoFJK, ICntrl=      2127 FMM=F ISym2X=1 I1Cent= 0 IOpClX= 0 NMat=1 NMatS=1 NMatT=0.
 Defaulting to unpruned grid for atomic number  81.
 Defaulting to unpruned grid for atomic number  81.
 Defaulting to unpruned grid for atomic number  81.
 Defaulting to unpruned grid for atomic number  81.
 Defaulting to unpruned grid for atomic number  81.
 Defaulting to unpruned grid for atomic number  81.
 Defaulting to unpruned grid for atomic number  81.
 Defaulting to unpruned grid for atomic number  81.
 ***** Axes restored to original set *****
 -------------------------------------------------------------------
 Center     Atomic                   Forces (Hartrees/Bohr)
 Number     Number              X              Y              Z
 -------------------------------------------------------------------
      1       81          -0.000000000   -0.000000000    0.000601483
      2        1          -0.000000000   -0.000000000   -0.000601483
 -------------------------------------------------------------------
 Cartesian Forces:  Max     0.000601483 RMS     0.000347266

 GradGradGradGradGradGradGradGradGradGradGradGradGradGradGradGradGradGrad
 Berny optimization.
 Using GEDIIS/GDIIS optimizer.
 Internal  Forces:  Max     0.000601483 RMS     0.000601483
 Search for a local minimum.
 Step number   2 out of a maximum of   20
 All quantities printed in internal units (Hartrees-Bohrs-Radians)
 Mixed Optimization -- En-DIIS/RFO-DIIS
 Update second derivatives using D2CorX and points    1    2
 DE= -4.46D-05 DEPred=-3.59D-05 R= 1.24D+00
 TightC=F SS=  1.41D+00  RLast= 2.82D-02 DXNew= 5.0454D-01 8.4571D-02
 Trust test= 1.24D+00 RLast= 2.82D-02 DXMaxT set to 3.00D-01
 The second derivative matrix:
                          R1
           R1           0.06904
 ITU=  1  0
 Use linear search instead of GDIIS.
     Eigenvalues ---    0.06904
 RFO step:  Lambda= 0.00000000D+00 EMin= 6.90355489D-02
 Quartic linear search produced a step of  0.29940.
 Iteration  1 RMS(Cart)=  0.00596818 RMS(Int)=  0.00000000
 Iteration  2 RMS(Cart)=  0.00000000 RMS(Int)=  0.00000000
 ClnCor:  largest displacement from symmetrization is 0.00D+00 for atom     0.
 Variable       Old X    -DE/DX   Delta X   Delta X   Delta X     New X
                                 (Linear)    (Quad)   (Total)
    R1        3.59876  -0.00060  -0.00844   0.00000  -0.00844   3.59032
         Item               Value     Threshold  Converged?
 Maximum Force            0.000601     0.000450     NO 
 RMS     Force            0.000601     0.000300     NO 
 Maximum Displacement     0.004220     0.001800     NO 
 RMS     Displacement     0.005968     0.001200     NO 
 Predicted change in Energy=-2.617697D-06
 GradGradGradGradGradGradGradGradGradGradGradGradGradGradGradGradGradGrad

                          Input orientation:                          
 ---------------------------------------------------------------------
 Center     Atomic      Atomic             Coordinates (Angstroms)
 Number     Number       Type             X           Y           Z
 ---------------------------------------------------------------------
      1         81           0        8.000000    8.000000    7.050041
      2          1           0        8.000000    8.000000    8.949959
 ---------------------------------------------------------------------
 Stoichiometry    HTl
 Framework group  C*V[C*(HTl)]
 Deg. of freedom     1
 Full point group                 C*V     NOp   4
 Largest Abelian subgroup         C2V     NOp   4
 Largest concise Abelian subgroup C1      NOp   1
                         Standard orientation:                         
 ---------------------------------------------------------------------
 Center     Atomic      Atomic             Coordinates (Angstroms)
 Number     Number       Type             X           Y           Z
 ---------------------------------------------------------------------
      1         81           0        0.000000    0.000000    0.023170
      2          1           0        0.000000    0.000000   -1.876747
 ---------------------------------------------------------------------
 Rotational constants (GHZ):           0.0000000         139.6024080         139.6024080
 Standard basis: def2QZVPP (5D, 7F)
 There are    59 symmetry adapted cartesian basis functions of A1  symmetry.
 There are    14 symmetry adapted cartesian basis functions of A2  symmetry.
 There are    33 symmetry adapted cartesian basis functions of B1  symmetry.
 There are    33 symmetry adapted cartesian basis functions of B2  symmetry.
 There are    45 symmetry adapted basis functions of A1  symmetry.
 There are    13 symmetry adapted basis functions of A2  symmetry.
 There are    27 symmetry adapted basis functions of B1  symmetry.
 There are    27 symmetry adapted basis functions of B2  symmetry.
   112 basis functions,   212 primitive gaussians,   139 cartesian basis functions
    11 alpha electrons       11 beta electrons
       nuclear repulsion energy         5.8490561980 Hartrees.
 NAtoms=    2 NActive=    2 NUniq=    2 SFac= 1.00D+00 NAtFMM=   60 NAOKFM=F Big=F
 Integral buffers will be    131072 words long.
 Raffenetti 2 integral format.
 Two-electron integral symmetry is turned on.
 One-electron integrals computed using PRISM.
   4 Symmetry operations used in ECPInt.
 ECPInt:  NShTT=     528 NPrTT=    1860 LenC2=     529 LenP2D=    1817.
 LDataN:  DoStor=T MaxTD1= 9 Len=  602
 NBasis=   112 RedAO= T EigKep=  1.11D-03  NBF=    45    13    27    27
 NBsUse=   112 1.00D-06 EigRej= -1.00D+00 NBFU=    45    13    27    27
 Defaulting to unpruned grid for atomic number  81.
 Initial guess from the checkpoint file:  "/data/hutter/SMG16/PBE0/Gau-75501.chk"
 B after Tr=     0.000000    0.000000   -0.000000
         Rot=    1.000000    0.000000    0.000000    0.000000 Ang=   0.00 deg.
 Initial guess orbital symmetries:
       Occupied  (SG) (PI) (PI) (SG) (DLTA) (DLTA) (SG) (PI) (PI)
                 (SG) (SG)
       Virtual   (PI) (PI) (SG) (SG) (PI) (PI) (SG) (PI) (PI) (DLTA)
                 (DLTA) (SG) (SG) (PI) (PI) (SG) (PI) (PI) (DLTA)
                 (DLTA) (PHI) (PHI) (SG) (DLTA) (DLTA) (PI) (PI)
                 (SG) (SG) (PI) (PI) (SG) (PI) (PI) (SG) (PHI)
                 (PHI) (PI) (PI) (DLTA) (DLTA) (SG) (SG) (DLTA)
                 (DLTA) (PI) (PI) (DLTA) (DLTA) (SG) (?A) (?A)
                 (PHI) (PHI) (PI) (PI) (SG) (SG) (DLTA) (DLTA)
                 (PI) (PI) (SG) (PI) (PI) (PHI) (PHI) (DLTA) (DLTA)
                 (SG) (PI) (PI) (SG) (SG) (PHI) (PHI) (DLTA) (DLTA)
                 (SG) (PI) (PI) (PI) (PI) (PHI) (PHI) (DLTA) (DLTA)
                 (PI) (PI) (DLTA) (DLTA) (SG) (SG) (PI) (PI) (SG)
                 (SG) (PI) (PI) (SG) (SG)
 Keep R1 ints in memory in symmetry-blocked form, NReq=29115848.
 Requested convergence on RMS density matrix=1.00D-08 within 128 cycles.
 Requested convergence on MAX density matrix=1.00D-06.
 Requested convergence on             energy=1.00D-06.
 No special actions if energy rises.
 Defaulting to unpruned grid for atomic number  81.
 Defaulting to unpruned grid for atomic number  81.
 Defaulting to unpruned grid for atomic number  81.
 Defaulting to unpruned grid for atomic number  81.
 Defaulting to unpruned grid for atomic number  81.
 Defaulting to unpruned grid for atomic number  81.
 Defaulting to unpruned grid for atomic number  81.
 Defaulting to unpruned grid for atomic number  81.
 SCF Done:  E(RPBE1PBE) =  -173.092381501     A.U. after    7 cycles
            NFock=  7  Conv=0.48D-08     -V/T= 4.0317
   4 Symmetry operations used in ECPInt.
 ECPInt:  NShTT=     528 NPrTT=    1860 LenC2=     529 LenP2D=    1817.
 LDataN:  DoStor=T MaxTD1=10 Len=  848
 Calling FoFJK, ICntrl=      2127 FMM=F ISym2X=1 I1Cent= 0 IOpClX= 0 NMat=1 NMatS=1 NMatT=0.
 Defaulting to unpruned grid for atomic number  81.
 Defaulting to unpruned grid for atomic number  81.
 Defaulting to unpruned grid for atomic number  81.
 Defaulting to unpruned grid for atomic number  81.
 Defaulting to unpruned grid for atomic number  81.
 Defaulting to unpruned grid for atomic number  81.
 Defaulting to unpruned grid for atomic number  81.
 Defaulting to unpruned grid for atomic number  81.
 ***** Axes restored to original set *****
 -------------------------------------------------------------------
 Center     Atomic                   Forces (Hartrees/Bohr)
 Number     Number              X              Y              Z
 -------------------------------------------------------------------
      1       81          -0.000000000   -0.000000000   -0.000000273
      2        1          -0.000000000   -0.000000000    0.000000273
 -------------------------------------------------------------------
 Cartesian Forces:  Max     0.000000273 RMS     0.000000157

 GradGradGradGradGradGradGradGradGradGradGradGradGradGradGradGradGradGrad
 Berny optimization.
 Using GEDIIS/GDIIS optimizer.
 Internal  Forces:  Max     0.000000273 RMS     0.000000273
 Search for a local minimum.
 Step number   3 out of a maximum of   20
 All quantities printed in internal units (Hartrees-Bohrs-Radians)
 Mixed Optimization -- En-DIIS/RFO-DIIS
 Swapping is turned off.
 Update second derivatives using D2CorX and points    2    3
 DE= -2.54D-06 DEPred=-2.62D-06 R= 9.72D-01
 TightC=F SS=  1.41D+00  RLast= 8.44D-03 DXNew= 5.0454D-01 2.5321D-02
 Trust test= 9.72D-01 RLast= 8.44D-03 DXMaxT set to 3.00D-01
 The second derivative matrix:
                          R1
           R1           0.07130
 ITU=  1  1
     Eigenvalues ---    0.07130
 En-DIIS/RFO-DIIS/Sim-DIIS IScMMF=       -3 using points:     3    2
 RFO step:  Lambda=-1.04193043D-12.
 DidBck=F Rises=F RFO-DIIS coefs:    0.99955    0.00045
 Iteration  1 RMS(Cart)=  0.00000270 RMS(Int)=  0.00000000
 Iteration  2 RMS(Cart)=  0.00000000 RMS(Int)=  0.00000000
 ClnCor:  largest displacement from symmetrization is 0.00D+00 for atom     0.
 Variable       Old X    -DE/DX   Delta X   Delta X   Delta X     New X
                                 (Linear)    (Quad)   (Total)
    R1        3.59032   0.00000   0.00000   0.00000   0.00000   3.59033
         Item               Value     Threshold  Converged?
 Maximum Force            0.000000     0.000450     YES
 RMS     Force            0.000000     0.000300     YES
 Maximum Displacement     0.000002     0.001800     YES
 RMS     Displacement     0.000003     0.001200     YES
 Predicted change in Energy=-5.209642D-13
 Optimization completed.
    -- Stationary point found.
                           ----------------------------
                           !   Optimized Parameters   !
                           ! (Angstroms and Degrees)  !
 --------------------------                            --------------------------
 ! Name  Definition              Value          Derivative Info.                !
 --------------------------------------------------------------------------------
 ! R1    R(1,2)                  1.8999         -DE/DX =    0.0                 !
 --------------------------------------------------------------------------------
 GradGradGradGradGradGradGradGradGradGradGradGradGradGradGradGradGradGrad

                          Input orientation:                          
 ---------------------------------------------------------------------
 Center     Atomic      Atomic             Coordinates (Angstroms)
 Number     Number       Type             X           Y           Z
 ---------------------------------------------------------------------
      1         81           0        8.000000    8.000000    7.050041
      2          1           0        8.000000    8.000000    8.949959
 ---------------------------------------------------------------------
 Stoichiometry    HTl
 Framework group  C*V[C*(HTl)]
 Deg. of freedom     1
 Full point group                 C*V     NOp   4
 Largest Abelian subgroup         C2V     NOp   4
 Largest concise Abelian subgroup C1      NOp   1
                         Standard orientation:                         
 ---------------------------------------------------------------------
 Center     Atomic      Atomic             Coordinates (Angstroms)
 Number     Number       Type             X           Y           Z
 ---------------------------------------------------------------------
      1         81           0        0.000000    0.000000    0.023170
      2          1           0        0.000000    0.000000   -1.876747
 ---------------------------------------------------------------------
 Rotational constants (GHZ):           0.0000000         139.6024080         139.6024080

 **********************************************************************

            Population analysis using the SCF Density.

 **********************************************************************

 Orbital symmetries:
       Occupied  (SG) (PI) (PI) (SG) (DLTA) (DLTA) (SG) (PI) (PI)
                 (SG) (SG)
       Virtual   (PI) (PI) (SG) (SG) (PI) (PI) (SG) (PI) (PI) (DLTA)
                 (DLTA) (SG) (SG) (PI) (PI) (SG) (PI) (PI) (DLTA)
                 (DLTA) (PHI) (PHI) (SG) (DLTA) (DLTA) (PI) (PI)
                 (SG) (SG) (PI) (PI) (SG) (PI) (PI) (SG) (PHI)
                 (PHI) (PI) (PI) (DLTA) (DLTA) (SG) (SG) (DLTA)
                 (DLTA) (PI) (PI) (DLTA) (DLTA) (SG) (?A) (?A)
                 (PHI) (PHI) (PI) (PI) (SG) (SG) (DLTA) (DLTA)
                 (PI) (PI) (SG) (PI) (PI) (PHI) (PHI) (DLTA) (DLTA)
                 (SG) (PI) (PI) (SG) (SG) (PHI) (PHI) (DLTA) (DLTA)
                 (SG) (PI) (PI) (PI) (PI) (PHI) (PHI) (DLTA) (DLTA)
                 (PI) (PI) (DLTA) (DLTA) (SG) (SG) (PI) (PI) (SG)
                 (SG) (PI) (PI) (SG) (SG)
 The electronic state is 1-SG.
 Alpha  occ. eigenvalues --   -5.04102  -3.00789  -3.00789  -2.99686  -0.65023
 Alpha  occ. eigenvalues --   -0.65023  -0.64221  -0.63925  -0.63925  -0.40676
 Alpha  occ. eigenvalues --   -0.21030
 Alpha virt. eigenvalues --   -0.06038  -0.06038   0.03134   0.05034   0.05957
 Alpha virt. eigenvalues --    0.05957   0.07590   0.11650   0.11650   0.12001
 Alpha virt. eigenvalues --    0.12001   0.19575   0.25718   0.30023   0.30023
 Alpha virt. eigenvalues --    0.31577   0.42877   0.42877   0.46347   0.46347
 Alpha virt. eigenvalues --    0.46467   0.46467   0.46652   0.46879   0.46879
 Alpha virt. eigenvalues --    0.46894   0.46894   0.53583   0.64541   0.77281
 Alpha virt. eigenvalues --    0.77281   0.92641   1.11510   1.11510   1.11775
 Alpha virt. eigenvalues --    1.18651   1.18651   1.18922   1.18922   1.19661
 Alpha virt. eigenvalues --    1.19661   1.26932   1.37129   1.38111   1.38111
 Alpha virt. eigenvalues --    1.38129   1.38129   1.45177   1.45177   1.45470
 Alpha virt. eigenvalues --    1.48156   1.48156   1.49011   1.49011   1.61724
 Alpha virt. eigenvalues --    1.61724   1.82337   2.01504   2.12646   2.12646
 Alpha virt. eigenvalues --    2.32033   2.32033   2.61508   2.63256   2.63256
 Alpha virt. eigenvalues --    2.95477   2.95477   2.96206   2.96206   3.13012
 Alpha virt. eigenvalues --    3.13117   3.13117   3.50990   5.44514   5.86706
 Alpha virt. eigenvalues --    5.86706   5.92878   5.92878   6.10340   6.11261
 Alpha virt. eigenvalues --    6.11261   7.63786   7.63786   7.84900   7.84900
 Alpha virt. eigenvalues --    7.86395   7.86396   7.97532   7.97532   7.98489
 Alpha virt. eigenvalues --    7.98490   8.00007   8.07416   8.35633   8.35633
 Alpha virt. eigenvalues --    8.84444  11.47800  31.93436  31.93436  32.51195
 Alpha virt. eigenvalues --   79.79064
          Condensed to atoms (all electrons):
               1          2
     1  Tl  20.474824   0.238251
     2  H    0.238251   1.048673
 Mulliken charges:
               1
     1  Tl   0.286925
     2  H   -0.286925
 Sum of Mulliken charges =   0.00000
 Mulliken charges with hydrogens summed into heavy atoms:
               1
     1  Tl   0.000000
 Electronic spatial extent (au):  <R**2>=             75.9025
 Charge=             -0.0000 electrons
 Dipole moment (field-independent basis, Debye):
    X=              0.0000    Y=              0.0000    Z=              1.4046  Tot=              1.4046
 Quadrupole moment (field-independent basis, Debye-Ang):
   XX=            -24.9215   YY=            -24.9215   ZZ=            -35.2765
   XY=              0.0000   XZ=              0.0000   YZ=              0.0000
 Traceless Quadrupole moment (field-independent basis, Debye-Ang):
   XX=              3.4517   YY=              3.4517   ZZ=             -6.9033
   XY=              0.0000   XZ=              0.0000   YZ=              0.0000
 Octapole moment (field-independent basis, Debye-Ang**2):
  XXX=              0.0000  YYY=              0.0000  ZZZ=             17.2215  XYY=              0.0000
  XXY=              0.0000  XXZ=              1.8489  XZZ=              0.0000  YZZ=              0.0000
  YYZ=              1.8489  XYZ=              0.0000
 Hexadecapole moment (field-independent basis, Debye-Ang**3):
 XXXX=            -29.5674 YYYY=            -29.5674 ZZZZ=           -116.8060 XXXY=              0.0000
 XXXZ=              0.0000 YYYX=              0.0000 YYYZ=              0.0000 ZZZX=              0.0000
 ZZZY=              0.0000 XXYY=             -9.8558 XXZZ=            -21.5359 YYZZ=            -21.5359
 XXYZ=              0.0000 YYXZ=              0.0000 ZZXY=              0.0000
 N-N= 5.849056197977D+00 E-N=-3.709978199463D+02  KE= 5.709322997210D+01
 Symmetry A1   KE= 2.624679129914D+01
 Symmetry A2   KE= 6.206281438963D+00
 Symmetry B1   KE= 1.232007861700D+01
 Symmetry B2   KE= 1.232007861700D+01
 Unable to Open any file for archive entry.
 1\1\GINC-TCOPT10\FOpt\RPBE1PBE\def2QZVPP\H1Tl1\HUTTER\01-Aug-2021\0\\#
 N RPBE1PBE/Def2QZVPP scf=tight Int(Grid=ultrafine) OPT FREQ\\Mol job 1
 \\0,1\Tl,8.,8.,7.0500414893\H,8.,8.,8.9499585107\\Version=ES64L-G16Rev
 C.01\State=1-SG\HF=-173.0923815\RMSD=4.829e-09\RMSF=1.574e-07\Dipole=0
 .,0.,-0.5526133\Quadrupole=2.5662333,2.5662333,-5.1324665,0.,0.,0.\PG=
 C*V [C*(H1Tl1)]\\@
 The archive entry for this job was punched.


 A MAN IS EXACTLY AS GREAT AS THE TIDE SURGING
 BENEATH HIM.      - BISMARCK
 Job cpu time:       0 days  0 hours  7 minutes 44.1 seconds.
 Elapsed time:       0 days  0 hours  1 minutes 25.0 seconds.
 File lengths (MBytes):  RWF=     10 Int=      0 D2E=      0 Chk=      2 Scr=      1
 Normal termination of Gaussian 16 at Sun Aug  1 17:38:01 2021.
 Link1:  Proceeding to internal job step number  2.
 ----------------------------------------------------------------------
 #N Geom=AllCheck Guess=TCheck SCRF=Check GenChk RPBE1PBE/def2QZVPP Fre
 q
 ----------------------------------------------------------------------
 1/10=4,29=7,30=1,38=1,40=1/1,3;
 2/12=2,40=1/2;
 3/5=45,7=202,11=2,14=-4,25=1,30=1,70=2,71=2,74=-13,75=-5,116=1,140=1/1,2,3;
 4/5=101/1;
 5/5=2,32=2,38=6,98=1/2;
 8/6=4,10=90,11=11/1;
 11/6=1,8=1,9=11,15=111,16=1/1,2,10;
 10/6=1/2;
 6/7=2,8=2,9=2,10=2,28=1/1;
 7/8=1,10=1,25=1/1,2,3,16;
 1/10=4,30=1/3;
 99//99;
 Structure from the checkpoint file:  "/data/hutter/SMG16/PBE0/Gau-75501.chk"
 ---------
 Mol job 1
 ---------
 Charge =  0 Multiplicity = 1
 Redundant internal coordinates found in file.  (old form).
 Tl,0,8.,8.,7.0500414893
 H,0,8.,8.,8.9499585107
 Recover connectivity data from disk.

 GradGradGradGradGradGradGradGradGradGradGradGradGradGradGradGradGradGrad
 Berny optimization.
 Initialization pass.
                           ----------------------------
                           !    Initial Parameters    !
                           ! (Angstroms and Degrees)  !
 --------------------------                            --------------------------
 ! Name  Definition              Value          Derivative Info.                !
 --------------------------------------------------------------------------------
 ! R1    R(1,2)                  1.8999         calculate D2E/DX2 analytically  !
 --------------------------------------------------------------------------------
 Trust Radius=3.00D-01 FncErr=1.00D-07 GrdErr=1.00D-07 EigMax=2.50D+02 EigMin=1.00D-04
 Number of steps in this run=      2 maximum allowed number of steps=      2.
 GradGradGradGradGradGradGradGradGradGradGradGradGradGradGradGradGradGrad

                          Input orientation:                          
 ---------------------------------------------------------------------
 Center     Atomic      Atomic             Coordinates (Angstroms)
 Number     Number       Type             X           Y           Z
 ---------------------------------------------------------------------
      1         81           0        8.000000    8.000000    7.050041
      2          1           0        8.000000    8.000000    8.949959
 ---------------------------------------------------------------------
 Stoichiometry    HTl
 Framework group  C*V[C*(HTl)]
 Deg. of freedom     1
 Full point group                 C*V     NOp   4
 Largest Abelian subgroup         C2V     NOp   4
 Largest concise Abelian subgroup C1      NOp   1
                         Standard orientation:                         
 ---------------------------------------------------------------------
 Center     Atomic      Atomic             Coordinates (Angstroms)
 Number     Number       Type             X           Y           Z
 ---------------------------------------------------------------------
      1         81           0        0.000000    0.000000    0.023170
      2          1           0        0.000000    0.000000   -1.876747
 ---------------------------------------------------------------------
 Rotational constants (GHZ):           0.0000000         139.6024080         139.6024080
 Standard basis: def2QZVPP (5D, 7F)
 There are    59 symmetry adapted cartesian basis functions of A1  symmetry.
 There are    14 symmetry adapted cartesian basis functions of A2  symmetry.
 There are    33 symmetry adapted cartesian basis functions of B1  symmetry.
 There are    33 symmetry adapted cartesian basis functions of B2  symmetry.
 There are    45 symmetry adapted basis functions of A1  symmetry.
 There are    13 symmetry adapted basis functions of A2  symmetry.
 There are    27 symmetry adapted basis functions of B1  symmetry.
 There are    27 symmetry adapted basis functions of B2  symmetry.
   112 basis functions,   212 primitive gaussians,   139 cartesian basis functions
    11 alpha electrons       11 beta electrons
       nuclear repulsion energy         5.8490561980 Hartrees.
 NAtoms=    2 NActive=    2 NUniq=    2 SFac= 1.00D+00 NAtFMM=   60 NAOKFM=F Big=F
 Integral buffers will be    131072 words long.
 Raffenetti 2 integral format.
 Two-electron integral symmetry is turned on.
 One-electron integrals computed using PRISM.
   4 Symmetry operations used in ECPInt.
 ECPInt:  NShTT=     528 NPrTT=    1860 LenC2=     529 LenP2D=    1817.
 LDataN:  DoStor=T MaxTD1= 9 Len=  602
 NBasis=   112 RedAO= T EigKep=  1.11D-03  NBF=    45    13    27    27
 NBsUse=   112 1.00D-06 EigRej= -1.00D+00 NBFU=    45    13    27    27
 Defaulting to unpruned grid for atomic number  81.
 Initial guess from the checkpoint file:  "/data/hutter/SMG16/PBE0/Gau-75501.chk"
 B after Tr=     0.000000    0.000000    0.000000
         Rot=    1.000000    0.000000    0.000000    0.000000 Ang=   0.00 deg.
 Initial guess orbital symmetries:
       Occupied  (SG) (PI) (PI) (SG) (DLTA) (DLTA) (SG) (PI) (PI)
                 (SG) (SG)
       Virtual   (PI) (PI) (SG) (SG) (PI) (PI) (SG) (PI) (PI) (DLTA)
                 (DLTA) (SG) (SG) (PI) (PI) (SG) (PI) (PI) (DLTA)
                 (DLTA) (PHI) (PHI) (SG) (DLTA) (DLTA) (PI) (PI)
                 (SG) (SG) (PI) (PI) (SG) (PI) (PI) (SG) (PHI)
                 (PHI) (PI) (PI) (DLTA) (DLTA) (SG) (SG) (DLTA)
                 (DLTA) (PI) (PI) (DLTA) (DLTA) (SG) (?A) (?A)
                 (PHI) (PHI) (PI) (PI) (SG) (SG) (DLTA) (DLTA)
                 (PI) (PI) (SG) (PI) (PI) (PHI) (PHI) (DLTA) (DLTA)
                 (SG) (PI) (PI) (SG) (SG) (PHI) (PHI) (DLTA) (DLTA)
                 (SG) (PI) (PI) (PI) (PI) (PHI) (PHI) (DLTA) (DLTA)
                 (PI) (PI) (DLTA) (DLTA) (SG) (SG) (PI) (PI) (SG)
                 (SG) (PI) (PI) (SG) (SG)
 Keep R1 ints in memory in symmetry-blocked form, NReq=29115848.
 Requested convergence on RMS density matrix=1.00D-08 within 128 cycles.
 Requested convergence on MAX density matrix=1.00D-06.
 Requested convergence on             energy=1.00D-06.
 No special actions if energy rises.
 Defaulting to unpruned grid for atomic number  81.
 Defaulting to unpruned grid for atomic number  81.
 Defaulting to unpruned grid for atomic number  81.
 Defaulting to unpruned grid for atomic number  81.
 Defaulting to unpruned grid for atomic number  81.
 Defaulting to unpruned grid for atomic number  81.
 Defaulting to unpruned grid for atomic number  81.
 Defaulting to unpruned grid for atomic number  81.
 SCF Done:  E(RPBE1PBE) =  -173.092381501     A.U. after    1 cycles
            NFock=  1  Conv=0.12D-08     -V/T= 4.0317
 DoSCS=F DFT=T ScalE2(SS,OS)=  1.000000  1.000000
 Range of M.O.s used for correlation:     1   112
 NBasis=   112 NAE=    11 NBE=    11 NFC=     0 NFV=     0
 NROrb=    112 NOA=    11 NOB=    11 NVA=   101 NVB=   101

 **** Warning!!: The largest alpha MO coefficient is  0.11482668D+02

   4 Symmetry operations used in ECPInt.
 ECPInt:  NShTT=     528 NPrTT=    1860 LenC2=     529 LenP2D=    1817.
 LDataN:  DoStor=T MaxTD1=10 Len=  848
 Symmetrizing basis deriv contribution to polar:
 IMax=3 JMax=2 DiffMx= 0.00D+00
 G2DrvN: will do     3 centers at a time, making    1 passes.
 Calling FoFCou, ICntrl=  3107 FMM=F I1Cent=   0 AccDes= 0.00D+00.
 Defaulting to unpruned grid for atomic number  81.
 Defaulting to unpruned grid for atomic number  81.
 Defaulting to unpruned grid for atomic number  81.
 Defaulting to unpruned grid for atomic number  81.
 Defaulting to unpruned grid for atomic number  81.
 Defaulting to unpruned grid for atomic number  81.
 Defaulting to unpruned grid for atomic number  81.
 Defaulting to unpruned grid for atomic number  81.
 End of G2Drv F.D. properties file   721 does not exist.
 End of G2Drv F.D. properties file   722 does not exist.
 End of G2Drv F.D. properties file   788 does not exist.
          IDoAtm=11
          Differentiating once with respect to electric field.
                with respect to dipole field.
          Differentiating once with respect to nuclear coordinates.
 Defaulting to unpruned grid for atomic number  81.
 Keep R1 ints in memory in symmetry-blocked form, NReq=29117159.
 Defaulting to unpruned grid for atomic number  81.
 Defaulting to unpruned grid for atomic number  81.
 Defaulting to unpruned grid for atomic number  81.
 Defaulting to unpruned grid for atomic number  81.
 Defaulting to unpruned grid for atomic number  81.
 Defaulting to unpruned grid for atomic number  81.
 Defaulting to unpruned grid for atomic number  81.
 Defaulting to unpruned grid for atomic number  81.
          There are     9 degrees of freedom in the 1st order CPHF.  IDoFFX=6 NUNeed=     3.
      6 vectors produced by pass  0 Test12= 1.23D-14 1.11D-08 XBig12= 7.92D+01 6.64D+00.
 AX will form     6 AO Fock derivatives at one time.
      6 vectors produced by pass  1 Test12= 1.23D-14 1.11D-08 XBig12= 7.80D+00 1.58D+00.
      6 vectors produced by pass  2 Test12= 1.23D-14 1.11D-08 XBig12= 5.87D-01 2.52D-01.
      6 vectors produced by pass  3 Test12= 1.23D-14 1.11D-08 XBig12= 6.08D-03 2.72D-02.
      6 vectors produced by pass  4 Test12= 1.23D-14 1.11D-08 XBig12= 2.00D-05 1.23D-03.
      6 vectors produced by pass  5 Test12= 1.23D-14 1.11D-08 XBig12= 2.73D-07 2.10D-04.
      4 vectors produced by pass  6 Test12= 1.23D-14 1.11D-08 XBig12= 1.42D-09 1.48D-05.
      3 vectors produced by pass  7 Test12= 1.23D-14 1.11D-08 XBig12= 5.85D-12 7.76D-07.
      1 vectors produced by pass  8 Test12= 1.23D-14 1.11D-08 XBig12= 1.47D-14 3.33D-08.
 InvSVY:  IOpt=1 It=  1 EMax= 3.33D-16
 Solved reduced A of dimension    44 with     6 vectors.
 Isotropic polarizability for W=    0.000000       46.66 Bohr**3.
 End of Minotr F.D. properties file   721 does not exist.
 End of Minotr F.D. properties file   722 does not exist.
 End of Minotr F.D. properties file   788 does not exist.

 **********************************************************************

            Population analysis using the SCF Density.

 **********************************************************************

 Orbital symmetries:
       Occupied  (SG) (PI) (PI) (SG) (DLTA) (DLTA) (SG) (PI) (PI)
                 (SG) (SG)
       Virtual   (PI) (PI) (SG) (SG) (PI) (PI) (SG) (PI) (PI) (DLTA)
                 (DLTA) (SG) (SG) (PI) (PI) (SG) (PI) (PI) (DLTA)
                 (DLTA) (PHI) (PHI) (SG) (DLTA) (DLTA) (PI) (PI)
                 (SG) (SG) (PI) (PI) (SG) (PI) (PI) (SG) (PHI)
                 (PHI) (PI) (PI) (DLTA) (DLTA) (SG) (SG) (DLTA)
                 (DLTA) (PI) (PI) (DLTA) (DLTA) (SG) (?A) (?A)
                 (PHI) (PHI) (PI) (PI) (SG) (SG) (DLTA) (DLTA)
                 (PI) (PI) (SG) (PI) (PI) (PHI) (PHI) (DLTA) (DLTA)
                 (SG) (PI) (PI) (SG) (SG) (PHI) (PHI) (DLTA) (DLTA)
                 (SG) (PI) (PI) (PI) (PI) (PHI) (PHI) (DLTA) (DLTA)
                 (PI) (PI) (DLTA) (DLTA) (SG) (SG) (PI) (PI) (SG)
                 (SG) (PI) (PI) (SG) (SG)
 The electronic state is 1-SG.
 Alpha  occ. eigenvalues --   -5.04102  -3.00789  -3.00789  -2.99686  -0.65023
 Alpha  occ. eigenvalues --   -0.65023  -0.64221  -0.63925  -0.63925  -0.40676
 Alpha  occ. eigenvalues --   -0.21030
 Alpha virt. eigenvalues --   -0.06038  -0.06038   0.03134   0.05034   0.05957
 Alpha virt. eigenvalues --    0.05957   0.07590   0.11650   0.11650   0.12001
 Alpha virt. eigenvalues --    0.12001   0.19575   0.25718   0.30023   0.30023
 Alpha virt. eigenvalues --    0.31577   0.42877   0.42877   0.46347   0.46347
 Alpha virt. eigenvalues --    0.46467   0.46467   0.46652   0.46879   0.46879
 Alpha virt. eigenvalues --    0.46894   0.46894   0.53583   0.64541   0.77281
 Alpha virt. eigenvalues --    0.77281   0.92641   1.11510   1.11510   1.11775
 Alpha virt. eigenvalues --    1.18651   1.18651   1.18922   1.18922   1.19661
 Alpha virt. eigenvalues --    1.19661   1.26932   1.37129   1.38111   1.38111
 Alpha virt. eigenvalues --    1.38129   1.38129   1.45177   1.45177   1.45470
 Alpha virt. eigenvalues --    1.48156   1.48156   1.49011   1.49011   1.61724
 Alpha virt. eigenvalues --    1.61724   1.82337   2.01504   2.12646   2.12646
 Alpha virt. eigenvalues --    2.32033   2.32033   2.61508   2.63256   2.63256
 Alpha virt. eigenvalues --    2.95477   2.95477   2.96206   2.96206   3.13012
 Alpha virt. eigenvalues --    3.13117   3.13117   3.50990   5.44514   5.86706
 Alpha virt. eigenvalues --    5.86706   5.92878   5.92878   6.10340   6.11261
 Alpha virt. eigenvalues --    6.11261   7.63786   7.63786   7.84900   7.84900
 Alpha virt. eigenvalues --    7.86395   7.86396   7.97532   7.97532   7.98489
 Alpha virt. eigenvalues --    7.98490   8.00007   8.07416   8.35633   8.35633
 Alpha virt. eigenvalues --    8.84444  11.47800  31.93436  31.93436  32.51195
 Alpha virt. eigenvalues --   79.79064
          Condensed to atoms (all electrons):
               1          2
     1  Tl  20.474824   0.238251
     2  H    0.238251   1.048673
 Mulliken charges:
               1
     1  Tl   0.286925
     2  H   -0.286925
 Sum of Mulliken charges =   0.00000
 Mulliken charges with hydrogens summed into heavy atoms:
               1
     1  Tl   0.000000
 APT charges:
               1
     1  Tl   0.444424
     2  H   -0.444424
 Sum of APT charges =  -0.00000
 APT charges with hydrogens summed into heavy atoms:
               1
     1  Tl  -0.000000
 Electronic spatial extent (au):  <R**2>=             75.9025
 Charge=              0.0000 electrons
 Dipole moment (field-independent basis, Debye):
    X=              0.0000    Y=              0.0000    Z=              1.4046  Tot=              1.4046
 Quadrupole moment (field-independent basis, Debye-Ang):
   XX=            -24.9215   YY=            -24.9215   ZZ=            -35.2765
   XY=              0.0000   XZ=              0.0000   YZ=              0.0000
 Traceless Quadrupole moment (field-independent basis, Debye-Ang):
   XX=              3.4517   YY=              3.4517   ZZ=             -6.9033
   XY=              0.0000   XZ=              0.0000   YZ=              0.0000
 Octapole moment (field-independent basis, Debye-Ang**2):
  XXX=              0.0000  YYY=              0.0000  ZZZ=             17.2215  XYY=              0.0000
  XXY=              0.0000  XXZ=              1.8489  XZZ=              0.0000  YZZ=              0.0000
  YYZ=              1.8489  XYZ=              0.0000
 Hexadecapole moment (field-independent basis, Debye-Ang**3):
 XXXX=            -29.5674 YYYY=            -29.5674 ZZZZ=           -116.8060 XXXY=              0.0000
 XXXZ=              0.0000 YYYX=              0.0000 YYYZ=              0.0000 ZZZX=              0.0000
 ZZZY=              0.0000 XXYY=             -9.8558 XXZZ=            -21.5359 YYZZ=            -21.5359
 XXYZ=              0.0000 YYXZ=              0.0000 ZZXY=              0.0000
 N-N= 5.849056197977D+00 E-N=-3.709978200048D+02  KE= 5.709322993286D+01
 Symmetry A1   KE= 2.624679124974D+01
 Symmetry A2   KE= 6.206281438108D+00
 Symmetry B1   KE= 1.232007862251D+01
 Symmetry B2   KE= 1.232007862251D+01
  Exact polarizability:      36.825       0.000      36.825      -0.000      -0.000      66.325
 Approx polarizability:      55.607      -0.000      55.607      -0.000      -0.000      89.590
   4 Symmetry operations used in ECPInt.
 ECPInt:  NShTT=     528 NPrTT=    1860 LenC2=     529 LenP2D=    1817.
 LDataN:  DoStor=T MaxTD1=11 Len= 1166
 Calling FoFJK, ICntrl=    100127 FMM=F ISym2X=1 I1Cent= 0 IOpClX= 0 NMat=1 NMatS=1 NMatT=0.
 Defaulting to unpruned grid for atomic number  81.
 Defaulting to unpruned grid for atomic number  81.
 Defaulting to unpruned grid for atomic number  81.
 Defaulting to unpruned grid for atomic number  81.
 Defaulting to unpruned grid for atomic number  81.
 Defaulting to unpruned grid for atomic number  81.
 Defaulting to unpruned grid for atomic number  81.
 Defaulting to unpruned grid for atomic number  81.
 Full mass-weighted force constant matrix:
 Low frequencies ---  -25.5494  -25.5494   -0.0002   -0.0001   -0.0001 1375.7735
 Diagonal vibrational polarizability:
        0.0000000       0.0000000      14.5323170
 Harmonic frequencies (cm**-1), IR intensities (KM/Mole), Raman scattering
 activities (A**4/AMU), depolarization ratios for plane and unpolarized
 incident light, reduced masses (AMU), force constants (mDyne/A),
 and normal coordinates:
                      1
                     SG
 Frequencies --   1375.7735
 Red. masses --      1.0128
 Frc consts  --      1.1294
 IR Inten    --   1022.1052
  Atom  AN      X      Y      Z
     1  81     0.00   0.00  -0.00
     2   1     0.00   0.00   1.00

 -------------------
 - Thermochemistry -
 -------------------
 Temperature   298.150 Kelvin.  Pressure   1.00000 Atm.
 Atom     1 has atomic number 81 and mass 204.97450
 Atom     2 has atomic number  1 and mass   1.00783
 Molecular mass:   205.98233 amu.
 Principal axes and moments of inertia in atomic units:
                           1         2         3
     Eigenvalues --     0.00000  12.92772  12.92772
           X            0.00000  -0.00000   1.00000
           Y            0.00000   1.00000   0.00000
           Z            1.00000   0.00000   0.00000
 This molecule is a prolate symmetric top.
 Rotational symmetry number  1.
 Rotational temperature (Kelvin)      6.69986
 Rotational constant (GHZ):         139.602408
 Zero-point vibrational energy       8229.0 (Joules/Mol)
                                    1.96677 (Kcal/Mol)
 Vibrational temperatures:   1979.43
          (Kelvin)
 
 Zero-point correction=                           0.003134 (Hartree/Particle)
 Thermal correction to Energy=                    0.005503
 Thermal correction to Enthalpy=                  0.006447
 Thermal correction to Gibbs Free Energy=        -0.017985
 Sum of electronic and zero-point Energies=           -173.089247
 Sum of electronic and thermal Energies=              -173.086879
 Sum of electronic and thermal Enthalpies=            -173.085934
 Sum of electronic and thermal Free Energies=         -173.110366
 
                     E (Thermal)             CV                S
                      KCal/Mol        Cal/Mol-Kelvin    Cal/Mol-Kelvin
 Total                    3.453              5.083             51.422
 Electronic               0.000              0.000              0.000
 Translational            0.889              2.981             41.872
 Rotational               0.592              1.987              9.530
 Vibrational              1.972              0.115              0.020
                       Q            Log10(Q)             Ln(Q)
 Total Bot       0.187278D+09          8.272486         19.048104
 Total V=0       0.517770D+10          9.714136         22.367626
 Vib (Bot)       0.362175D-01         -1.441082         -3.318213
 Vib (V=0)       0.100131D+01          0.000569          0.001309
 Electronic      0.100000D+01          0.000000          0.000000
 Translational   0.116198D+09          8.065199         18.570807
 Rotational      0.445009D+02          1.648369          3.795510
 ***** Axes restored to original set *****
 -------------------------------------------------------------------
 Center     Atomic                   Forces (Hartrees/Bohr)
 Number     Number              X              Y              Z
 -------------------------------------------------------------------
      1       81          -0.000000000   -0.000000000   -0.000000254
      2        1          -0.000000000   -0.000000000    0.000000254
 -------------------------------------------------------------------
 Cartesian Forces:  Max     0.000000254 RMS     0.000000147
 FormGI is forming the generalized inverse of G from B-inverse, IUseBI=4.

 GradGradGradGradGradGradGradGradGradGradGradGradGradGradGradGradGradGrad
 Berny optimization.
 Internal  Forces:  Max     0.000000254 RMS     0.000000254
 Search for a local minimum.
 Step number   1 out of a maximum of    2
 All quantities printed in internal units (Hartrees-Bohrs-Radians)
 Second derivative matrix not updated -- analytic derivatives used.
 The second derivative matrix:
                          R1
           R1           0.07184
 ITU=  0
     Eigenvalues ---    0.07184
 Angle between quadratic step and forces=  90.00 degrees.
 Linear search not attempted -- first point.
 Iteration  1 RMS(Cart)=  0.00000250 RMS(Int)=  0.00000000
 Iteration  2 RMS(Cart)=  0.00000000 RMS(Int)=  0.00000000
 ClnCor:  largest displacement from symmetrization is 0.00D+00 for atom     0.
 Variable       Old X    -DE/DX   Delta X   Delta X   Delta X     New X
                                 (Linear)    (Quad)   (Total)
    R1        3.59032   0.00000   0.00000   0.00000   0.00000   3.59033
         Item               Value     Threshold  Converged?
 Maximum Force            0.000000     0.000450     YES
 RMS     Force            0.000000     0.000300     YES
 Maximum Displacement     0.000002     0.001800     YES
 RMS     Displacement     0.000003     0.001200     YES
 Predicted change in Energy=-4.501741D-13
 Optimization completed.
    -- Stationary point found.
                           ----------------------------
                           !   Optimized Parameters   !
                           ! (Angstroms and Degrees)  !
 --------------------------                            --------------------------
 ! Name  Definition              Value          Derivative Info.                !
 --------------------------------------------------------------------------------
 ! R1    R(1,2)                  1.8999         -DE/DX =    0.0                 !
 --------------------------------------------------------------------------------
 GradGradGradGradGradGradGradGradGradGradGradGradGradGradGradGradGradGrad


 ----------------------------------------------------------------------

 Electric dipole moment (input orientation):
 (Debye = 10**-18 statcoulomb cm , SI units = C m)
                  (au)            (Debye)         (10**-30 SI)
   Tot        0.552612D+00      0.140460D+01      0.468524D+01
   x          0.000000D+00      0.000000D+00      0.000000D+00
   y          0.000000D+00      0.000000D+00      0.000000D+00
   z         -0.552612D+00     -0.140460D+01     -0.468524D+01

 Dipole polarizability, Alpha (input orientation).
 (esu units = cm**3 , SI units = C**2 m**2 J**-1)
 Alpha(0;0):
               (au)            (10**-24 esu)      (10**-40 SI)
   iso        0.466583D+02      0.691404D+01      0.769291D+01
   aniso      0.295001D+02      0.437147D+01      0.486391D+01
   xx         0.368249D+02      0.545689D+01      0.607161D+01
   yx         0.000000D+00      0.000000D+00      0.000000D+00
   yy         0.368249D+02      0.545689D+01      0.607161D+01
   zx         0.000000D+00      0.000000D+00      0.000000D+00
   zy         0.000000D+00      0.000000D+00      0.000000D+00
   zz         0.663250D+02      0.982835D+01      0.109355D+02

 ----------------------------------------------------------------------

 Dipole orientation:
    81         15.11780900        -15.11780900        -13.32264758
     1         15.11780900        -15.11780900        -16.91297041

 Electric dipole moment (dipole orientation):
 (Debye = 10**-18 statcoulomb cm , SI units = C m)
                  (au)            (Debye)         (10**-30 SI)
   Tot        0.552612D+00      0.140460D+01      0.468524D+01
   x          0.000000D+00      0.000000D+00      0.000000D+00
   y          0.000000D+00      0.000000D+00      0.000000D+00
   z          0.552612D+00      0.140460D+01      0.468524D+01

 Dipole polarizability, Alpha (dipole orientation).
 (esu units = cm**3 , SI units = C**2 m**2 J**-1)
 Alpha(0;0):
               (au)            (10**-24 esu)      (10**-40 SI)
   iso        0.466583D+02      0.691404D+01      0.769291D+01
   aniso      0.295001D+02      0.437147D+01      0.486391D+01
   xx         0.368249D+02      0.545689D+01      0.607161D+01
   yx         0.000000D+00      0.000000D+00      0.000000D+00
   yy         0.368249D+02      0.545689D+01      0.607161D+01
   zx         0.000000D+00      0.000000D+00      0.000000D+00
   zy         0.000000D+00      0.000000D+00      0.000000D+00
   zz         0.663250D+02      0.982835D+01      0.109355D+02

 ----------------------------------------------------------------------
 Unable to Open any file for archive entry.
 1\1\GINC-TCOPT10\Freq\RPBE1PBE\def2QZVPP\H1Tl1\HUTTER\01-Aug-2021\0\\#
 N Geom=AllCheck Guess=TCheck SCRF=Check GenChk RPBE1PBE/def2QZVPP Freq
 \\Mol job 1\\0,1\Tl,8.,8.,7.0500414893\H,8.,8.,8.9499585107\\Version=E
 S64L-G16RevC.01\State=1-SG\HF=-173.0923815\RMSD=1.222e-09\RMSF=1.468e-
 07\ZeroPoint=0.0031342\Thermal=0.0055029\ETot=-173.0868786\HTot=-173.0
 859344\GTot=-173.1103664\Dipole=0.,0.,-0.5526125\DipoleDeriv=0.1539292
 ,0.,0.,0.,0.1539292,0.,0.,0.,1.025415,-0.1539292,0.,0.,0.,-0.1539292,0
 .,0.,0.,-1.025415\Polar=36.8249036,0.,36.8249036,0.,0.,66.3250129\Quad
 rupole=2.5662329,2.5662329,-5.1324658,0.,0.,0.\PG=C*V [C*(H1Tl1)]\NIma
 g=0\\-0.00002477,0.,-0.00002477,0.,0.,0.07183570,0.00002477,0.,0.,-0.0
 0002477,0.,0.00002477,0.,0.,-0.00002477,0.,0.,-0.07183570,0.,0.,0.0718
 3570\\0.,0.,0.00000025,0.,0.,-0.00000025\\\@
 The archive entry for this job was punched.


 Not by the face shall a man be known, but by the mask.
                               -- Karen Blixen
 Job cpu time:       0 days  0 hours  8 minutes 56.4 seconds.
 Elapsed time:       0 days  0 hours  1 minutes 31.5 seconds.
 File lengths (MBytes):  RWF=     10 Int=      0 D2E=      0 Chk=      2 Scr=      1
 Normal termination of Gaussian 16 at Sun Aug  1 17:39:34 2021.
