 Entering Gaussian System, Link 0=g16
 Initial command:
 /sw-ng/spack/opt/spack/linux-opensuse_leap15-sandybridge/pgi-18.10/gaussian-src-16-C.01-zldqaomctopxhethwccpmxmwefdscg3m/g16/l1.exe "/data/hutter/SMG16/PBE0/Gau-88112.inp" -scrdir="/data/hutter/SMG16/PBE0/"
 Entering Link 1 = /sw-ng/spack/opt/spack/linux-opensuse_leap15-sandybridge/pgi-18.10/gaussian-src-16-C.01-zldqaomctopxhethwccpmxmwefdscg3m/g16/l1.exe PID=     88118.
  
 Copyright (c) 1988-2019, Gaussian, Inc.  All Rights Reserved.
  
 This is part of the Gaussian(R) 16 program.  It is based on
 the Gaussian(R) 09 system (copyright 2009, Gaussian, Inc.),
 the Gaussian(R) 03 system (copyright 2003, Gaussian, Inc.),
 the Gaussian(R) 98 system (copyright 1998, Gaussian, Inc.),
 the Gaussian(R) 94 system (copyright 1995, Gaussian, Inc.),
 the Gaussian 92(TM) system (copyright 1992, Gaussian, Inc.),
 the Gaussian 90(TM) system (copyright 1990, Gaussian, Inc.),
 the Gaussian 88(TM) system (copyright 1988, Gaussian, Inc.),
 the Gaussian 86(TM) system (copyright 1986, Carnegie Mellon
 University), and the Gaussian 82(TM) system (copyright 1983,
 Carnegie Mellon University). Gaussian is a federally registered
 trademark of Gaussian, Inc.
  
 This software contains proprietary and confidential information,
 including trade secrets, belonging to Gaussian, Inc.
  
 This software is provided under written license and may be
 used, copied, transmitted, or stored only in accord with that
 written license.
  
 The following legend is applicable only to US Government
 contracts under FAR:
  
                    RESTRICTED RIGHTS LEGEND
  
 Use, reproduction and disclosure by the US Government is
 subject to restrictions as set forth in subparagraphs (a)
 and (c) of the Commercial Computer Software - Restricted
 Rights clause in FAR 52.227-19.
  
 Gaussian, Inc.
 340 Quinnipiac St., Bldg. 40, Wallingford CT 06492
  
  
 ---------------------------------------------------------------
 Warning -- This program may not be used in any manner that
 competes with the business of Gaussian, Inc. or will provide
 assistance to any competitor of Gaussian, Inc.  The licensee
 of this program is prohibited from giving any competitor of
 Gaussian, Inc. access to this program.  By using this program,
 the user acknowledges that Gaussian, Inc. is engaged in the
 business of creating and licensing software in the field of
 computational chemistry and represents and warrants to the
 licensee that it is not a competitor of Gaussian, Inc. and that
 it will not use this program in any manner prohibited above.
 ---------------------------------------------------------------
  

 Cite this work as:
 Gaussian 16, Revision C.01,
 M. J. Frisch, G. W. Trucks, H. B. Schlegel, G. E. Scuseria, 
 M. A. Robb, J. R. Cheeseman, G. Scalmani, V. Barone, 
 G. A. Petersson, H. Nakatsuji, X. Li, M. Caricato, A. V. Marenich, 
 J. Bloino, B. G. Janesko, R. Gomperts, B. Mennucci, H. P. Hratchian, 
 J. V. Ortiz, A. F. Izmaylov, J. L. Sonnenberg, D. Williams-Young, 
 F. Ding, F. Lipparini, F. Egidi, J. Goings, B. Peng, A. Petrone, 
 T. Henderson, D. Ranasinghe, V. G. Zakrzewski, J. Gao, N. Rega, 
 G. Zheng, W. Liang, M. Hada, M. Ehara, K. Toyota, R. Fukuda, 
 J. Hasegawa, M. Ishida, T. Nakajima, Y. Honda, O. Kitao, H. Nakai, 
 T. Vreven, K. Throssell, J. A. Montgomery, Jr., J. E. Peralta, 
 F. Ogliaro, M. J. Bearpark, J. J. Heyd, E. N. Brothers, K. N. Kudin, 
 V. N. Staroverov, T. A. Keith, R. Kobayashi, J. Normand, 
 K. Raghavachari, A. P. Rendell, J. C. Burant, S. S. Iyengar, 
 J. Tomasi, M. Cossi, J. M. Millam, M. Klene, C. Adamo, R. Cammi, 
 J. W. Ochterski, R. L. Martin, K. Morokuma, O. Farkas, 
 J. B. Foresman, and D. J. Fox, Gaussian, Inc., Wallingford CT, 2019.
 
 ******************************************
 Gaussian 16:  ES64L-G16RevC.01  3-Jul-2019
                 1-Aug-2021 
 ******************************************
 %mem=8GB
 %NProcShare=8
 Will use up to    8 processors via shared memory.
 ------------------------------------------------------------
 #N UPBE1PBE/Def2QZVPP scf=tight Int(Grid=ultrafine) OPT FREQ
 ------------------------------------------------------------
 1/18=20,19=15,26=4,38=1/1,3;
 2/9=110,12=2,17=6,18=5,40=1/2;
 3/5=45,7=202,11=2,25=1,30=1,71=1,74=-13,75=-5,116=2/1,2,3;
 4//1;
 5/5=2,32=2,38=5/2;
 6/7=2,8=2,9=2,10=2,28=1/1;
 7//1,2,3,16;
 1/18=20,19=15,26=4/3(2);
 2/9=110/2;
 99//99;
 2/9=110/2;
 3/5=45,7=202,11=2,25=1,30=1,71=1,74=-13,75=-5,116=2/1,2,3;
 4/5=5,16=3,69=1/1;
 5/5=2,32=2,38=5/2;
 7//1,2,3,16;
 1/18=20,19=15,26=4/3(-5);
 2/9=110/2;
 6/7=2,8=2,9=2,10=2,19=2,28=1/1;
 99/9=1/99;
 ---------
 Mol job 1
 ---------
 Symbolic Z-matrix:
 Charge =  0 Multiplicity = 2
 Zr                    8.01826   8.5       8.50157 
 F                     7.05479   10.16879   8.49843 
 F                     7.05479   6.83121   8.49843 
 F                     9.94521   8.5       8.49843 
 

 GradGradGradGradGradGradGradGradGradGradGradGradGradGradGradGradGradGrad
 Berny optimization.
 Initialization pass.
                           ----------------------------
                           !    Initial Parameters    !
                           ! (Angstroms and Degrees)  !
 --------------------------                            --------------------------
 ! Name  Definition              Value          Derivative Info.                !
 --------------------------------------------------------------------------------
 ! R1    R(1,2)                  1.927          estimate D2E/DX2                !
 ! R2    R(1,3)                  1.927          estimate D2E/DX2                !
 ! R3    R(1,4)                  1.927          estimate D2E/DX2                !
 ! A1    A(2,1,3)              119.9997         estimate D2E/DX2                !
 ! A2    A(2,1,4)              119.9997         estimate D2E/DX2                !
 ! A3    A(3,1,4)              119.9997         estimate D2E/DX2                !
 ! D1    D(2,1,4,3)           -179.6768         estimate D2E/DX2                !
 --------------------------------------------------------------------------------
 Trust Radius=3.00D-01 FncErr=1.00D-07 GrdErr=1.00D-06 EigMax=2.50D+02 EigMin=1.00D-04
 Number of steps in this run=     20 maximum allowed number of steps=    100.
 GradGradGradGradGradGradGradGradGradGradGradGradGradGradGradGradGradGrad

                          Input orientation:                          
 ---------------------------------------------------------------------
 Center     Atomic      Atomic             Coordinates (Angstroms)
 Number     Number       Type             X           Y           Z
 ---------------------------------------------------------------------
      1         40           0        8.018263    8.500000    8.501569
      2          9           0        7.054789   10.168786    8.498431
      3          9           0        7.054789    6.831214    8.498431
      4          9           0        9.945211    8.500000    8.498431
 ---------------------------------------------------------------------
                    Distance matrix (angstroms):
                    1          2          3          4
     1  Zr   0.000000
     2  F    1.926951   0.000000
     3  F    1.926951   3.337573   0.000000
     4  F    1.926951   3.337573   3.337573   0.000000
 Stoichiometry    F3Zr(2)
 Framework group  C3V[C3(Zr),3SGV(F)]
 Deg. of freedom     2
 Full point group                 C3V     NOp   6
 Largest Abelian subgroup         CS      NOp   2
 Largest concise Abelian subgroup CS      NOp   2
                         Standard orientation:                         
 ---------------------------------------------------------------------
 Center     Atomic      Atomic             Coordinates (Angstroms)
 Number     Number       Type             X           Y           Z
 ---------------------------------------------------------------------
      1         40           0        0.000000    0.000000    0.001264
      2          9           0       -0.000000    1.926949   -0.001873
      3          9           0       -1.668786   -0.963474   -0.001873
      4          9           0        1.668786   -0.963474   -0.001873
 ---------------------------------------------------------------------
 Rotational constants (GHZ):           4.7760312           4.7760312           2.3880234
 Standard basis: def2QZVPP (5D, 7F)
 There are   189 symmetry adapted cartesian basis functions of A'  symmetry.
 There are   133 symmetry adapted cartesian basis functions of A"  symmetry.
 There are   145 symmetry adapted basis functions of A'  symmetry.
 There are   107 symmetry adapted basis functions of A"  symmetry.
   252 basis functions,   410 primitive gaussians,   322 cartesian basis functions
    20 alpha electrons       19 beta electrons
       nuclear repulsion energy       127.5045392064 Hartrees.
 NAtoms=    4 NActive=    4 NUniq=    2 SFac= 4.00D+00 NAtFMM=   60 NAOKFM=F Big=F
 Integral buffers will be    131072 words long.
 Raffenetti 2 integral format.
 Two-electron integral symmetry is turned on.
 One-electron integrals computed using PRISM.
   6 Symmetry operations used in ECPInt.
 ECPInt:  NShTT=    2628 NPrTT=    6800 LenC2=    2440 LenP2D=    5276.
 LDataN:  DoStor=T MaxTD1= 8 Len=  415
 NBasis=   252 RedAO= T EigKep=  9.75D-04  NBF=   145   107
 NBsUse=   252 1.00D-06 EigRej= -1.00D+00 NBFU=   145   107
 Defaulting to unpruned grid for atomic number  40.
 ExpMin= 2.02D-02 ExpMax= 1.33D+05 ExpMxC= 1.27D+03 IAcc=3 IRadAn=         5 AccDes= 0.00D+00
 Harris functional with IExCor= 1009 and IRadAn=       5 diagonalized for initial guess.
 HarFok:  IExCor= 1009 AccDes= 0.00D+00 IRadAn=         5 IDoV= 1 UseB2=F ITyADJ=14
 ICtDFT=  3500011 ScaDFX=  1.000000  1.000000  1.000000  1.000000
 Defaulting to unpruned grid for atomic number  40.
 FoFCou: FMM=F IPFlag=           0 FMFlag=      100000 FMFlg1=           0
         NFxFlg=           0 DoJE=T BraDBF=F KetDBF=T FulRan=T
         wScrn=  0.000000 ICntrl=       500 IOpCl=  0 I1Cent=   200000004 NGrid=           0
         NMat0=    1 NMatS0=      1 NMatT0=    0 NMatD0=    1 NMtDS0=    0 NMtDT0=    0
 Petite list used in FoFCou.
 Initial guess orbital symmetries:
 Alpha Orbitals:
       Occupied  (A1) (E) (E) (A1) (E) (E) (A1) (A1) (E) (E) (A1)
                 (E) (E) (E) (E) (A1) (A2) (E) (E) (A1)
       Virtual   (E) (E) (E) (E) (A1) (A1) (E) (E) (A1) (A1) (E)
                 (E) (E) (E) (A1) (E) (E) (A1) (E) (E) (E) (E)
                 (A2) (A1) (A1) (E) (E) (E) (E) (A1) (E) (E) (A1)
                 (E) (E) (A1) (E) (E) (A2) (E) (E) (A1) (A2) (E)
                 (E) (E) (E) (A1) (A1) (E) (E) (E) (E) (A1) (E)
                 (E) (E) (E) (A2) (A1) (A1) (E) (E) (E) (E) (E)
                 (E) (A1) (A1) (E) (E) (A2) (A1) (A1) (E) (E) (A2)
                 (E) (E) (E) (E) (A1) (E) (E) (E) (E) (A2) (A1)
                 (A2) (E) (E) (A1) (E) (E) (A1) (E) (E) (A1) (E)
                 (E) (E) (E) (A1) (A2) (E) (E) (A1) (E) (E) (A2)
                 (E) (E) (E) (E) (A1) (A1) (E) (E) (E) (E) (A1)
                 (A2) (E) (E) (E) (E) (A1) (A2) (A1) (E) (E) (E)
                 (E) (E) (E) (A1) (A2) (E) (E) (A1) (E) (E) (A2)
                 (A1) (E) (E) (A1) (E) (E) (A2) (E) (E) (A1) (A1)
                 (E) (E) (E) (E) (E) (E) (E) (E) (A2) (E) (E) (A1)
                 (E) (E) (A1) (A2) (E) (E) (E) (E) (A1) (A2) (E)
                 (E) (A2) (E) (E) (A1) (A1) (E) (E) (A2) (E) (E)
                 (E) (E) (A1) (E) (E) (A1) (E) (E) (A2) (E) (E)
                 (E) (E) (A1) (A2) (A1) (E) (E) (A1) (E) (E) (E)
                 (E) (E) (E) (A1) (A2) (E) (E) (A1) (A2) (E) (E)
                 (A1) (E) (E) (A1) (E) (E) (A1) (A1) (E) (E) (A1)
 Beta  Orbitals:
       Occupied  (A1) (E) (E) (A1) (E) (E) (A1) (A1) (E) (E) (A1)
                 (E) (E) (E) (E) (A1) (A2) (E) (E)
       Virtual   (A1) (E) (E) (E) (E) (A1) (A1) (E) (E) (A1) (A1)
                 (E) (E) (E) (E) (A1) (E) (E) (A1) (E) (E) (E)
                 (E) (A2) (A1) (A1) (E) (E) (E) (E) (A1) (E) (E)
                 (A1) (E) (E) (A1) (E) (E) (A2) (E) (E) (A1) (A2)
                 (E) (E) (E) (E) (A1) (A1) (E) (E) (E) (E) (A1)
                 (E) (E) (E) (E) (A2) (A1) (A1) (E) (E) (E) (E)
                 (E) (E) (A1) (A1) (E) (E) (A2) (A1) (A1) (E) (E)
                 (A2) (E) (E) (E) (E) (A1) (E) (E) (E) (E) (A2)
                 (A1) (A2) (E) (E) (A1) (E) (E) (A1) (E) (E) (A1)
                 (E) (E) (E) (E) (A1) (A2) (E) (E) (A1) (E) (E)
                 (A2) (E) (E) (E) (E) (A1) (A1) (E) (E) (E) (E)
                 (A1) (A2) (E) (E) (E) (E) (A1) (A2) (A1) (E) (E)
                 (E) (E) (E) (E) (A1) (A2) (E) (E) (A1) (E) (E)
                 (A2) (A1) (E) (E) (A1) (E) (E) (A2) (E) (E) (A1)
                 (A1) (E) (E) (E) (E) (E) (E) (E) (E) (A2) (E)
                 (E) (A1) (E) (E) (A1) (A2) (E) (E) (E) (E) (A1)
                 (A2) (E) (E) (A2) (E) (E) (A1) (A1) (E) (E) (A2)
                 (E) (E) (E) (E) (A1) (E) (E) (A1) (E) (E) (A2)
                 (E) (E) (E) (E) (A1) (A2) (A1) (E) (E) (A1) (E)
                 (E) (E) (E) (E) (E) (A1) (A2) (E) (E) (A1) (A2)
                 (E) (E) (A1) (E) (E) (A1) (E) (E) (A1) (A1) (E)
                 (E) (A1)
 The electronic state of the initial guess is 2-A1.
 Initial guess <Sx>= 0.0000 <Sy>= 0.0000 <Sz>= 0.5000 <S**2>= 0.7500 S= 0.5000
 Keep R1 and R2 ints in memory in symmetry-blocked form, NReq=762811109.
 Requested convergence on RMS density matrix=1.00D-08 within 128 cycles.
 Requested convergence on MAX density matrix=1.00D-06.
 Requested convergence on             energy=1.00D-06.
 No special actions if energy rises.
 Defaulting to unpruned grid for atomic number  40.
 Defaulting to unpruned grid for atomic number  40.
 Defaulting to unpruned grid for atomic number  40.
 Defaulting to unpruned grid for atomic number  40.
 Defaulting to unpruned grid for atomic number  40.
 Defaulting to unpruned grid for atomic number  40.
 Defaulting to unpruned grid for atomic number  40.
 Defaulting to unpruned grid for atomic number  40.
 SCF Done:  E(UPBE1PBE) =  -346.665991376     A.U. after   11 cycles
            NFock= 11  Conv=0.33D-08     -V/T= 2.1048
 <Sx>= 0.0000 <Sy>= 0.0000 <Sz>= 0.5000 <S**2>= 0.7516 S= 0.5008
 <L.S>=  0.00000000000    
 Annihilation of the first spin contaminant:
 S**2 before annihilation     0.7516,   after     0.7500

 **********************************************************************

            Population analysis using the SCF Density.

 **********************************************************************

 Orbital symmetries:
 Alpha Orbitals:
       Occupied  (A1) (E) (E) (A1) (E) (E) (A1) (A1) (E) (E) (E)
                 (E) (A1) (E) (E) (A1) (A2) (E) (E) (A1)
       Virtual   (E) (E) (A1) (A1) (E) (E) (E) (E) (A1) (A1) (E)
                 (E) (A1) (E) (E) (E) (E) (E) (E) (A1) (E) (E)
                 (A1) (A2) (A1) (A1) (E) (E) (E) (E) (A1) (E) (E)
                 (E) (E) (A1) (E) (E) (A2) (A1) (E) (E) (A2) (E)
                 (E) (E) (E) (A1) (A1) (E) (E) (A1) (E) (E) (E)
                 (E) (A2) (A1) (E) (E) (A1) (E) (E) (E) (E) (E)
                 (E) (A1) (A1) (E) (E) (A1) (A2) (A1) (E) (E) (A2)
                 (E) (E) (E) (E) (A1) (E) (E) (E) (E) (A2) (A1)
                 (A2) (A1) (E) (E) (E) (E) (A1) (E) (E) (A1) (E)
                 (E) (E) (E) (A1) (A2) (E) (E) (A1) (E) (E) (A2)
                 (E) (E) (E) (E) (A1) (A1) (E) (E) (E) (E) (A1)
                 (A2) (E) (E) (E) (E) (A1) (A2) (A1) (E) (E) (E)
                 (E) (E) (E) (A1) (A2) (E) (E) (A1) (E) (E) (A2)
                 (A1) (E) (E) (A1) (E) (E) (A2) (E) (E) (A1) (A1)
                 (E) (E) (E) (E) (E) (E) (E) (E) (A2) (E) (E) (A1)
                 (E) (E) (A1) (A2) (E) (E) (E) (E) (A1) (A2) (E)
                 (E) (A2) (E) (E) (A1) (A1) (E) (E) (A2) (E) (E)
                 (E) (E) (A1) (E) (E) (A1) (E) (E) (A2) (E) (E)
                 (E) (E) (A1) (A2) (A1) (E) (E) (E) (E) (A1) (E)
                 (E) (E) (E) (A1) (A2) (E) (E) (A1) (A2) (E) (E)
                 (A1) (E) (E) (A1) (E) (E) (A1) (A1) (E) (E) (A1)
 Beta  Orbitals:
       Occupied  (A1) (E) (E) (A1) (E) (E) (A1) (A1) (E) (E) (E)
                 (E) (A1) (E) (E) (A1) (A2) (E) (E)
       Virtual   (A1) (E) (E) (E) (E) (A1) (A1) (E) (E) (A1) (A1)
                 (E) (E) (E) (E) (A1) (E) (E) (A1) (E) (E) (E)
                 (E) (A2) (A1) (A1) (E) (E) (E) (E) (A1) (A1) (E)
                 (E) (E) (E) (A1) (E) (E) (A2) (E) (E) (A1) (A2)
                 (E) (E) (E) (E) (A1) (A1) (E) (E) (E) (E) (A1)
                 (E) (E) (A2) (A1) (E) (E) (A1) (E) (E) (E) (E)
                 (E) (E) (A1) (A1) (E) (E) (A1) (A2) (A1) (E) (E)
                 (A2) (E) (E) (E) (E) (A1) (E) (E) (E) (E) (A2)
                 (A1) (A2) (E) (E) (A1) (E) (E) (A1) (E) (E) (A1)
                 (E) (E) (E) (E) (A1) (A2) (E) (E) (A1) (E) (E)
                 (A2) (E) (E) (E) (E) (A1) (A1) (E) (E) (E) (E)
                 (A1) (A2) (E) (E) (E) (E) (A1) (A2) (A1) (E) (E)
                 (E) (E) (E) (E) (A1) (A2) (E) (E) (A1) (E) (E)
                 (A2) (A1) (E) (E) (A1) (E) (E) (A2) (E) (E) (A1)
                 (A1) (E) (E) (E) (E) (E) (E) (E) (E) (A2) (E)
                 (E) (A1) (E) (E) (A1) (A2) (E) (E) (E) (E) (A1)
                 (A2) (E) (E) (A2) (E) (E) (A1) (A1) (E) (E) (A2)
                 (E) (E) (E) (E) (A1) (E) (E) (A1) (E) (E) (A2)
                 (E) (E) (E) (E) (A1) (A2) (A1) (E) (E) (E) (E)
                 (A1) (E) (E) (E) (E) (A1) (A2) (E) (E) (A1) (A2)
                 (E) (E) (A1) (E) (E) (A1) (E) (E) (A1) (A1) (E)
                 (E) (A1)
 The electronic state is 2-A1.
 Alpha  occ. eigenvalues --  -24.75780 -24.75780 -24.75780  -2.21640  -1.37388
 Alpha  occ. eigenvalues --   -1.37388  -1.34206  -1.18584  -1.14632  -1.14632
 Alpha  occ. eigenvalues --   -0.47737  -0.47737  -0.47686  -0.45116  -0.45116
 Alpha  occ. eigenvalues --   -0.43639  -0.43557  -0.43164  -0.43164  -0.22148
 Alpha virt. eigenvalues --   -0.07045  -0.07045  -0.02461  -0.01050  -0.00072
 Alpha virt. eigenvalues --   -0.00072   0.02328   0.02328   0.06252   0.08984
 Alpha virt. eigenvalues --    0.09846   0.09846   0.11119   0.11715   0.11715
 Alpha virt. eigenvalues --    0.13432   0.13432   0.32656   0.32656   0.34162
 Alpha virt. eigenvalues --    0.37337   0.37337   0.38529   0.38809   0.39554
 Alpha virt. eigenvalues --    0.42752   0.43680   0.43680   0.44629   0.44629
 Alpha virt. eigenvalues --    0.44912   0.48385   0.48385   0.51349   0.51349
 Alpha virt. eigenvalues --    0.51613   0.55914   0.55914   0.61095   0.61175
 Alpha virt. eigenvalues --    0.61282   0.61282   0.70341   0.82797   0.82797
 Alpha virt. eigenvalues --    0.85965   0.85965   0.89567   0.91623   0.99314
 Alpha virt. eigenvalues --    0.99314   1.05081   1.07037   1.07037   1.10707
 Alpha virt. eigenvalues --    1.10707   1.12303   1.14249   1.15362   1.15362
 Alpha virt. eigenvalues --    1.19820   1.45360   1.45360   1.50633   1.50633
 Alpha virt. eigenvalues --    1.50782   1.50782   1.52686   1.59809   1.66451
 Alpha virt. eigenvalues --    1.66451   1.68926   1.71125   1.73980   1.75582
 Alpha virt. eigenvalues --    1.75582   1.75859   1.76219   1.76219   1.80354
 Alpha virt. eigenvalues --    1.80354   1.88517   1.92928   1.92928   2.01495
 Alpha virt. eigenvalues --    2.01495   2.05730   2.06420   2.22550   2.28440
 Alpha virt. eigenvalues --    2.30394   2.30394   2.37104   2.37104   2.42022
 Alpha virt. eigenvalues --    2.49620   2.49620   2.73248   2.81607   2.81607
 Alpha virt. eigenvalues --    2.95572   2.95572   2.98144   3.12743   3.33239
 Alpha virt. eigenvalues --    3.33239   3.60317   4.07484   4.07484   4.14870
 Alpha virt. eigenvalues --    4.15797   4.15797   4.18376   4.18376   4.19075
 Alpha virt. eigenvalues --    4.19374   4.20387   4.20387   4.24602   4.24602
 Alpha virt. eigenvalues --    4.26523   4.29674   4.46742   4.46742   4.54715
 Alpha virt. eigenvalues --    4.54715   4.56496   4.62844   4.69750   4.79872
 Alpha virt. eigenvalues --    4.79872   5.03626   5.03626   5.12233   5.12233
 Alpha virt. eigenvalues --    5.12617   5.22010   5.42631   5.42631   5.43341
 Alpha virt. eigenvalues --    5.47383   5.47383   5.51896   5.65002   5.73821
 Alpha virt. eigenvalues --    5.73821   6.30003   6.31886   6.31886   6.34205
 Alpha virt. eigenvalues --    6.41145   6.41145   6.81102   7.03612   7.16267
 Alpha virt. eigenvalues --    7.16267   9.38964   9.38964  11.39647  11.39647
 Alpha virt. eigenvalues --   11.39835  11.39835  11.39959  11.40179  11.40179
 Alpha virt. eigenvalues --   11.40356  11.40367  11.40367  11.40774  11.41167
 Alpha virt. eigenvalues --   11.41182  11.41182  11.41191  11.41191  11.41214
 Alpha virt. eigenvalues --   11.41777  11.42744  11.42744  11.42876  11.43273
 Alpha virt. eigenvalues --   11.43273  11.43951  11.44692  11.52422  11.52422
 Alpha virt. eigenvalues --   14.56793  14.57176  14.57176  14.58600  14.58600
 Alpha virt. eigenvalues --   14.59025  14.59148  14.59148  14.60961  14.61337
 Alpha virt. eigenvalues --   14.61337  14.63682  14.74988  14.74988  14.76665
 Alpha virt. eigenvalues --   14.76665  14.78600  14.80895  14.82856  14.84743
 Alpha virt. eigenvalues --   14.84743  15.17955  15.17955  15.18439  15.82048
 Alpha virt. eigenvalues --   15.82048  15.87563  15.87563  15.87656  15.94113
 Alpha virt. eigenvalues --   16.08082  16.08082  16.10268  16.14467  16.17381
 Alpha virt. eigenvalues --   16.17381  16.32510  16.49622  16.49622  22.10960
 Alpha virt. eigenvalues --   54.09240  54.09240  54.18594  74.80261 285.07827
 Alpha virt. eigenvalues --  285.07827 285.19718
  Beta  occ. eigenvalues --  -24.75828 -24.75828 -24.75828  -2.20054  -1.36362
  Beta  occ. eigenvalues --   -1.36362  -1.31031  -1.18672  -1.14479  -1.14479
  Beta  occ. eigenvalues --   -0.47690  -0.47690  -0.47551  -0.45157  -0.45157
  Beta  occ. eigenvalues --   -0.43762  -0.43623  -0.43199  -0.43199
  Beta virt. eigenvalues --   -0.08841  -0.05474  -0.05474   0.00566   0.00566
  Beta virt. eigenvalues --    0.00681   0.00748   0.02818   0.02818   0.08892
  Beta virt. eigenvalues --    0.10671   0.11026   0.11026   0.12085   0.12085
  Beta virt. eigenvalues --    0.12854   0.14192   0.14192   0.34413   0.34572
  Beta virt. eigenvalues --    0.34572   0.37905   0.37905   0.38800   0.40748
  Beta virt. eigenvalues --    0.40918   0.43993   0.43993   0.45583   0.45583
  Beta virt. eigenvalues --    0.45593   0.48447   0.48942   0.48942   0.52454
  Beta virt. eigenvalues --    0.52454   0.52764   0.56455   0.56455   0.61246
  Beta virt. eigenvalues --    0.61948   0.61948   0.63305   0.70547   0.83710
  Beta virt. eigenvalues --    0.83710   0.88383   0.88383   0.91500   0.92609
  Beta virt. eigenvalues --    1.01477   1.01477   1.07720   1.07720   1.09599
  Beta virt. eigenvalues --    1.12432   1.12432   1.12669   1.14799   1.15655
  Beta virt. eigenvalues --    1.15655   1.20335   1.45987   1.45987   1.50970
  Beta virt. eigenvalues --    1.50970   1.51192   1.51192   1.55710   1.60255
  Beta virt. eigenvalues --    1.66775   1.66775   1.69955   1.71101   1.74033
  Beta virt. eigenvalues --    1.75815   1.75815   1.75910   1.76267   1.76267
  Beta virt. eigenvalues --    1.80394   1.80394   1.89162   1.94642   1.94642
  Beta virt. eigenvalues --    2.01731   2.01731   2.06010   2.07324   2.22831
  Beta virt. eigenvalues --    2.32103   2.32103   2.32331   2.39585   2.39585
  Beta virt. eigenvalues --    2.42615   2.50008   2.50008   2.73843   2.83159
  Beta virt. eigenvalues --    2.83159   2.96066   2.96066   3.00632   3.13536
  Beta virt. eigenvalues --    3.33926   3.33926   3.61103   4.07575   4.07575
  Beta virt. eigenvalues --    4.14846   4.15786   4.15786   4.18368   4.18368
  Beta virt. eigenvalues --    4.19121   4.19354   4.20393   4.20393   4.24664
  Beta virt. eigenvalues --    4.24664   4.26617   4.29674   4.46880   4.46880
  Beta virt. eigenvalues --    4.54873   4.54873   4.56782   4.62879   4.70003
  Beta virt. eigenvalues --    4.80167   4.80167   5.03556   5.03556   5.12193
  Beta virt. eigenvalues --    5.12193   5.12573   5.21951   5.42680   5.42680
  Beta virt. eigenvalues --    5.43483   5.47363   5.47363   5.51906   5.65057
  Beta virt. eigenvalues --    5.73970   5.73970   6.30053   6.31832   6.31832
  Beta virt. eigenvalues --    6.34185   6.41118   6.41118   6.83710   7.03685
  Beta virt. eigenvalues --    7.16365   7.16365   9.39769   9.39769  11.39603
  Beta virt. eigenvalues --   11.39603  11.39777  11.39777  11.39896  11.40120
  Beta virt. eigenvalues --   11.40120  11.40293  11.40307  11.40307  11.40715
  Beta virt. eigenvalues --   11.41093  11.41109  11.41109  11.41118  11.41118
  Beta virt. eigenvalues --   11.41143  11.41722  11.42679  11.42679  11.42840
  Beta virt. eigenvalues --   11.43226  11.43226  11.43908  11.44629  11.52395
  Beta virt. eigenvalues --   11.52395  14.56682  14.57069  14.57069  14.58490
  Beta virt. eigenvalues --   14.58490  14.58915  14.59053  14.59053  14.60869
  Beta virt. eigenvalues --   14.61256  14.61256  14.63589  14.74916  14.74916
  Beta virt. eigenvalues --   14.76564  14.76564  14.78505  14.80834  14.82781
  Beta virt. eigenvalues --   14.84674  14.84674  15.17900  15.17900  15.18374
  Beta virt. eigenvalues --   15.81921  15.81921  15.87447  15.87447  15.87531
  Beta virt. eigenvalues --   15.93989  16.07966  16.07966  16.10173  16.14412
  Beta virt. eigenvalues --   16.17316  16.17316  16.32446  16.49558  16.49558
  Beta virt. eigenvalues --   22.11465  54.09187  54.09187  54.18539  74.80752
  Beta virt. eigenvalues --  285.07807 285.07807 285.19698
          Condensed to atoms (all electrons):
               1          2          3          4
     1  Zr   9.863810   0.266053   0.266053   0.266053
     2  F    0.266053   9.175108   0.002424   0.002424
     3  F    0.266053   0.002424   9.175108   0.002424
     4  F    0.266053   0.002424   0.002424   9.175108
          Atomic-Atomic Spin Densities.
               1          2          3          4
     1  Zr   0.996960   0.008434   0.008434   0.008434
     2  F    0.008434  -0.016019   0.000082   0.000082
     3  F    0.008434   0.000082  -0.016019   0.000082
     4  F    0.008434   0.000082   0.000082  -0.016019
 Mulliken charges and spin densities:
               1          2
     1  Zr   1.338031   1.022261
     2  F   -0.446010  -0.007420
     3  F   -0.446010  -0.007420
     4  F   -0.446010  -0.007420
 Sum of Mulliken charges =  -0.00000   1.00000
 Mulliken charges and spin densities with hydrogens summed into heavy atoms:
               1          2
     1  Zr   1.338031   1.022261
     2  F   -0.446010  -0.007420
     3  F   -0.446010  -0.007420
     4  F   -0.446010  -0.007420
 Electronic spatial extent (au):  <R**2>=            447.4413
 Charge=             -0.0000 electrons
 Dipole moment (field-independent basis, Debye):
    X=              0.0000    Y=              0.0000    Z=              0.0101  Tot=              0.0101
 Quadrupole moment (field-independent basis, Debye-Ang):
   XX=            -42.8357   YY=            -42.8357   ZZ=            -34.6089
   XY=              0.0000   XZ=              0.0000   YZ=             -0.0000
 Traceless Quadrupole moment (field-independent basis, Debye-Ang):
   XX=             -2.7423   YY=             -2.7423   ZZ=              5.4845
   XY=              0.0000   XZ=              0.0000   YZ=             -0.0000
 Octapole moment (field-independent basis, Debye-Ang**2):
  XXX=              0.0000  YYY=            -10.8763  ZZZ=             -0.0304  XYY=             -0.0000
  XXY=             10.8763  XXZ=              0.0213  XZZ=              0.0000  YZZ=              0.0000
  YYZ=              0.0213  XYZ=              0.0000
 Hexadecapole moment (field-independent basis, Debye-Ang**3):
 XXXX=           -237.3535 YYYY=           -237.3535 ZZZZ=            -49.8109 XXXY=              0.0000
 XXXZ=             -0.0000 YYYX=              0.0000 YYYZ=              0.0125 ZZZX=             -0.0000
 ZZZY=             -0.0000 XXYY=            -79.1178 XXZZ=            -42.5878 YYZZ=            -42.5878
 XXYZ=             -0.0125 YYXZ=             -0.0000 ZZXY=              0.0000
 N-N= 1.275045392064D+02 E-N=-1.065704772666D+03  KE= 3.137836122306D+02
 Symmetry A'   KE= 2.042326265110D+02
 Symmetry A"   KE= 1.095509857197D+02
 Symmetry A'   SP= 1.000000000000D+00
 Symmetry A"   SP= 4.122676939755D-14
                          Isotropic Fermi Contact Couplings
        Atom                 a.u.       MegaHertz       Gauss      10(-4) cm-1
     1  Zr(91)             0.00000      -0.00047      -0.00017      -0.00016
     2  F(19)              0.00178       7.48099       2.66940       2.49539
     3  F(19)              0.00178       7.48099       2.66940       2.49539
     4  F(19)              0.00178       7.48099       2.66940       2.49539
 --------------------------------------------------------
       Center         ----  Spin Dipole Couplings  ----
                      3XX-RR        3YY-RR        3ZZ-RR
 --------------------------------------------------------
     1   Atom       -0.015735     -0.015735      0.031469
     2   Atom        0.018689      0.035061     -0.053750
     3   Atom        0.030968      0.022782     -0.053750
     4   Atom        0.030968      0.022782     -0.053750
 --------------------------------------------------------
                        XY            XZ            YZ
 --------------------------------------------------------
     1   Atom        0.000000      0.000000     -0.000000
     2   Atom       -0.000000     -0.000000     -0.000457
     3   Atom        0.007089      0.000396      0.000228
     4   Atom       -0.007089     -0.000396      0.000228
 --------------------------------------------------------


 ---------------------------------------------------------------------------------
              Anisotropic Spin Dipole Couplings in Principal Axis System
 ---------------------------------------------------------------------------------

       Atom             a.u.   MegaHertz   Gauss  10(-4) cm-1        Axes

              Baa    -0.0157     0.784     0.280     0.261 -0.3578  0.9338 -0.0000
     1 Zr(91) Bbb    -0.0157     0.784     0.280     0.261  0.9338  0.3578  0.0000
              Bcc     0.0315    -1.567    -0.559    -0.523  0.0000  0.0000  1.0000
 
              Baa    -0.0538   -26.996    -9.633    -9.005  0.0000  0.0051  1.0000
     2 F(19)  Bbb     0.0187     9.386     3.349     3.131  1.0000  0.0000 -0.0000
              Bcc     0.0351    17.610     6.284     5.874 -0.0000  1.0000 -0.0051
 
              Baa    -0.0538   -26.996    -9.633    -9.005 -0.0045 -0.0026  1.0000
     3 F(19)  Bbb     0.0187     9.386     3.349     3.131 -0.5000  0.8660  0.0000
              Bcc     0.0351    17.610     6.284     5.874  0.8660  0.5000  0.0051
 
              Baa    -0.0538   -26.996    -9.633    -9.005  0.0045 -0.0026  1.0000
     4 F(19)  Bbb     0.0187     9.386     3.349     3.131  0.5000  0.8660 -0.0000
              Bcc     0.0351    17.610     6.284     5.874  0.8660 -0.5000 -0.0051
 

 ---------------------------------------------------------------------------------

   6 Symmetry operations used in ECPInt.
 ECPInt:  NShTT=    2628 NPrTT=    6800 LenC2=    2440 LenP2D=    5276.
 LDataN:  DoStor=T MaxTD1= 9 Len=  602
 Calling FoFJK, ICntrl=      2127 FMM=F ISym2X=1 I1Cent= 0 IOpClX= 1 NMat=1 NMatS=1 NMatT=0.
 Defaulting to unpruned grid for atomic number  40.
 Defaulting to unpruned grid for atomic number  40.
 Defaulting to unpruned grid for atomic number  40.
 Defaulting to unpruned grid for atomic number  40.
 Defaulting to unpruned grid for atomic number  40.
 Defaulting to unpruned grid for atomic number  40.
 Defaulting to unpruned grid for atomic number  40.
 Defaulting to unpruned grid for atomic number  40.
 ***** Axes restored to original set *****
 -------------------------------------------------------------------
 Center     Atomic                   Forces (Hartrees/Bohr)
 Number     Number              X              Y              Z
 -------------------------------------------------------------------
      1       40          -0.000000000    0.000000000   -0.000101663
      2        9           0.006839398   -0.011846185    0.000033888
      3        9           0.006839398    0.011846185    0.000033888
      4        9          -0.013678796    0.000000000    0.000033888
 -------------------------------------------------------------------
 Cartesian Forces:  Max     0.013678796 RMS     0.006839482

 GradGradGradGradGradGradGradGradGradGradGradGradGradGradGradGradGradGrad
 Berny optimization.
 FormGI is forming the generalized inverse of G from B-inverse, IUseBI=4.
 Internal  Forces:  Max     0.013678833 RMS     0.008954909
 Search for a local minimum.
 Step number   1 out of a maximum of   20
 All quantities printed in internal units (Hartrees-Bohrs-Radians)
 Mixed Optimization -- RFO/linear search
 Second derivative matrix not updated -- first step.
 The second derivative matrix:
                          R1        R2        R3        A1        A2
           R1           0.22120
           R2           0.00000   0.22120
           R3           0.00000   0.00000   0.22120
           A1           0.00000   0.00000   0.00000   0.25000
           A2           0.00000   0.00000   0.00000   0.00000   0.25000
           A3           0.00000   0.00000   0.00000   0.00000   0.00000
           D1           0.00000   0.00000   0.00000   0.00000   0.00000
                          A3        D1
           A3           0.25000
           D1           0.00000   0.00230
 ITU=  0
     Eigenvalues ---    0.00230   0.22120   0.22120   0.22120   0.25000
     Eigenvalues ---    0.25000
 RFO step:  Lambda=-2.50952753D-03 EMin= 2.30196986D-03
 Linear search not attempted -- first point.
 Iteration  1 RMS(Cart)=  0.04010910 RMS(Int)=  0.00004982
 Iteration  2 RMS(Cart)=  0.00004439 RMS(Int)=  0.00000548
 Iteration  3 RMS(Cart)=  0.00000000 RMS(Int)=  0.00000548
 ClnCor:  largest displacement from symmetrization is 3.66D-07 for atom     4.
 Variable       Old X    -DE/DX   Delta X   Delta X   Delta X     New X
                                 (Linear)    (Quad)   (Total)
    R1        3.64141  -0.01368   0.00000  -0.06115  -0.06115   3.58026
    R2        3.64141  -0.01368   0.00000  -0.06115  -0.06115   3.58026
    R3        3.64141  -0.01368   0.00000  -0.06115  -0.06115   3.58026
    A1        2.09439  -0.00000   0.00000   0.00001   0.00000   2.09439
    A2        2.09439   0.00000   0.00000   0.00001   0.00000   2.09439
    A3        2.09439   0.00000   0.00000   0.00001   0.00000   2.09439
    D1       -3.13595  -0.00004   0.00000  -0.00761  -0.00761   3.13962
         Item               Value     Threshold  Converged?
 Maximum Force            0.013679     0.000450     NO 
 RMS     Force            0.008955     0.000300     NO 
 Maximum Displacement     0.061143     0.001800     NO 
 RMS     Displacement     0.040112     0.001200     NO 
 Predicted change in Energy=-1.268909D-03
 GradGradGradGradGradGradGradGradGradGradGradGradGradGradGradGradGradGrad

                          Input orientation:                          
 ---------------------------------------------------------------------
 Center     Atomic      Atomic             Coordinates (Angstroms)
 Number     Number       Type             X           Y           Z
 ---------------------------------------------------------------------
      1         40           0        8.018263    8.500000    8.498406
      2          9           0        7.070966   10.140766    8.499486
      3          9           0        7.070966    6.859234    8.499486
      4          9           0        9.912856    8.500000    8.499486
 ---------------------------------------------------------------------
                    Distance matrix (angstroms):
                    1          2          3          4
     1  Zr   0.000000
     2  F    1.894594   0.000000
     3  F    1.894594   3.281532   0.000000
     4  F    1.894594   3.281532   3.281532   0.000000
 Stoichiometry    F3Zr(2)
 Framework group  C3V[C3(Zr),3SGV(F)]
 Deg. of freedom     2
 Full point group                 C3V     NOp   6
 Largest Abelian subgroup         CS      NOp   2
 Largest concise Abelian subgroup CS      NOp   2
                         Standard orientation:                         
 ---------------------------------------------------------------------
 Center     Atomic      Atomic             Coordinates (Angstroms)
 Number     Number       Type             X           Y           Z
 ---------------------------------------------------------------------
      1         40           0        0.000000    0.000000   -0.000435
      2          9           0       -0.000000    1.894593    0.000644
      3          9           0       -1.640766   -0.947297    0.000644
      4          9           0        1.640766   -0.947297    0.000644
 ---------------------------------------------------------------------
 Rotational constants (GHZ):           4.9405652           4.9405652           2.4702836
 Standard basis: def2QZVPP (5D, 7F)
 There are   189 symmetry adapted cartesian basis functions of A'  symmetry.
 There are   133 symmetry adapted cartesian basis functions of A"  symmetry.
 There are   145 symmetry adapted basis functions of A'  symmetry.
 There are   107 symmetry adapted basis functions of A"  symmetry.
   252 basis functions,   410 primitive gaussians,   322 cartesian basis functions
    20 alpha electrons       19 beta electrons
       nuclear repulsion energy       129.6821247361 Hartrees.
 NAtoms=    4 NActive=    4 NUniq=    2 SFac= 4.00D+00 NAtFMM=   60 NAOKFM=F Big=F
 Integral buffers will be    131072 words long.
 Raffenetti 2 integral format.
 Two-electron integral symmetry is turned on.
 One-electron integrals computed using PRISM.
   6 Symmetry operations used in ECPInt.
 ECPInt:  NShTT=    2628 NPrTT=    6800 LenC2=    2452 LenP2D=    5297.
 LDataN:  DoStor=T MaxTD1= 8 Len=  415
 NBasis=   252 RedAO= T EigKep=  8.54D-04  NBF=   145   107
 NBsUse=   252 1.00D-06 EigRej= -1.00D+00 NBFU=   145   107
 Defaulting to unpruned grid for atomic number  40.
 Initial guess from the checkpoint file:  "/data/hutter/SMG16/PBE0/Gau-88118.chk"
 B after Tr=     0.000000    0.000000    0.000000
         Rot=    1.000000    0.000000   -0.000000   -0.000000 Ang=   0.00 deg.
 Initial guess orbital symmetries:
 Alpha Orbitals:
       Occupied  (A1) (?A) (?A) (?B) (?A) (?A) (?B) (?B) (?A) (?A)
                 (?A) (?A) (?B) (?A) (?A) (?B) (?B) (?A) (?A) (?B)
       Virtual   (?A) (?A) (?B) (?B) (?A) (?A) (?A) (?A) (?B) (?B)
                 (?A) (?A) (?B) (?A) (?A) (?A) (?A) (?A) (?A) (?B)
                 (?A) (?A) (?B) (?B) (?B) (?B) (?A) (?A) (?A) (?A)
                 (?B) (?A) (?A) (?A) (?A) (?B) (?A) (?A) (?B) (?B)
                 (?A) (?A) (?B) (?A) (?A) (?A) (?A) (?B) (?B) (?A)
                 (?A) (?B) (?A) (?A) (?A) (?A) (?B) (?B) (?A) (?A)
                 (?B) (?A) (?A) (?A) (?A) (?A) (?A) (?B) (?B) (?A)
                 (?A) (?B) (?B) (?B) (?A) (?A) (?B) (?A) (?A) (?A)
                 (?A) (?B) (?A) (?A) (?A) (?A) (?B) (?B) (?B) (?B)
                 (?A) (?A) (?A) (?A) (?B) (?A) (?A) (?B) (?A) (?A)
                 (?A) (?A) (?B) (?B) (?A) (?A) (?B) (?A) (?A) (?B)
                 (?A) (?A) (?A) (?A) (?B) (?B) (?A) (?A) (?A) (?A)
                 (?B) (?B) (?A) (?A) (?A) (?A) (?B) (?B) (?B) (?A)
                 (?A) (?A) (?A) (?A) (?A) (?B) (?B) (?A) (?A) (?B)
                 (?A) (?A) (?B) (?B) (?A) (?A) (?B) (?A) (?A) (?B)
                 (?A) (?A) (?B) (?B) (?A) (?A) (?A) (?A) (?A) (?A)
                 (?A) (?A) (?B) (?A) (?A) (?B) (?A) (?A) (?B) (?B)
                 (?A) (?A) (?A) (?A) (?B) (?B) (?A) (?A) (?B) (?A)
                 (?A) (?B) (?B) (?A) (?A) (?B) (?A) (?A) (?A) (?A)
                 (?B) (?A) (?A) (?B) (?A) (?A) (?B) (?A) (?A) (?A)
                 (?A) (?B) (?B) (?B) (?A) (?A) (?A) (?A) (?B) (?A)
                 (?A) (?A) (?A) (?B) (?B) (?A) (?A) (?B) (?B) (?A)
                 (?A) (?B) (?A) (?A) (?B) (?A) (?A) (?B) (?B) (?A)
                 (?A) (?B)
 Beta  Orbitals:
       Occupied  (A1) (?A) (?A) (?B) (?A) (?A) (?B) (?B) (?A) (?A)
                 (?A) (?A) (?B) (?A) (?A) (?B) (?B) (?A) (?A)
       Virtual   (?B) (?A) (?A) (?A) (?A) (?B) (?B) (?A) (?A) (?B)
                 (?B) (?A) (?A) (?A) (?A) (?B) (?A) (?A) (?B) (?A)
                 (?A) (?A) (?A) (?B) (?B) (?B) (?A) (?A) (?A) (?A)
                 (?B) (?B) (?A) (?A) (?A) (?A) (?B) (?A) (?A) (?B)
                 (?A) (?A) (?B) (?B) (?A) (?A) (?A) (?A) (?B) (?B)
                 (?A) (?A) (?A) (?A) (?B) (?A) (?A) (?B) (?B) (?A)
                 (?A) (?B) (?A) (?A) (?A) (?A) (?A) (?A) (?B) (?B)
                 (?A) (?A) (?B) (?B) (?B) (?A) (?A) (?B) (?A) (?A)
                 (?A) (?A) (?B) (?A) (?A) (?A) (?A) (?B) (?B) (?B)
                 (?A) (?A) (?B) (?A) (?A) (?B) (?A) (?A) (?B) (?A)
                 (?A) (?A) (?A) (?B) (?B) (?A) (?A) (?B) (?A) (?A)
                 (?B) (?A) (?A) (?A) (?A) (?B) (?B) (?A) (?A) (?A)
                 (?A) (?B) (?B) (?A) (?A) (?A) (?A) (?B) (?B) (?B)
                 (?A) (?A) (?A) (?A) (?A) (?A) (?B) (?B) (?A) (?A)
                 (?B) (?A) (?A) (?B) (?B) (?A) (?A) (?B) (?A) (?A)
                 (?B) (?A) (?A) (?B) (?B) (?A) (?A) (?A) (?A) (?A)
                 (?A) (?A) (?A) (?B) (?A) (?A) (?B) (?A) (?A) (?B)
                 (?B) (?A) (?A) (?A) (?A) (?B) (?B) (?A) (?A) (?B)
                 (?A) (?A) (?B) (?B) (?A) (?A) (?B) (?A) (?A) (?A)
                 (?A) (?B) (?A) (?A) (?B) (?A) (?A) (?B) (?A) (?A)
                 (?A) (?A) (?B) (?B) (?B) (?A) (?A) (?A) (?A) (?B)
                 (?A) (?A) (?A) (?A) (?B) (?B) (?A) (?A) (?B) (?B)
                 (?A) (?A) (?B) (?A) (?A) (?B) (?A) (?A) (?B) (?B)
                 (?A) (?A) (?B)
 Initial guess <Sx>= 0.0000 <Sy>= 0.0000 <Sz>= 0.5000 <S**2>= 0.7516 S= 0.5008
 ExpMin= 2.02D-02 ExpMax= 1.33D+05 ExpMxC= 1.27D+03 IAcc=3 IRadAn=         5 AccDes= 0.00D+00
 Harris functional with IExCor= 1009 and IRadAn=       5 diagonalized for initial guess.
 HarFok:  IExCor= 1009 AccDes= 0.00D+00 IRadAn=         5 IDoV= 1 UseB2=F ITyADJ=14
 ICtDFT=  3500011 ScaDFX=  1.000000  1.000000  1.000000  1.000000
 Defaulting to unpruned grid for atomic number  40.
 FoFCou: FMM=F IPFlag=           0 FMFlag=      100000 FMFlg1=           0
         NFxFlg=           0 DoJE=T BraDBF=F KetDBF=T FulRan=T
         wScrn=  0.000000 ICntrl=       500 IOpCl=  0 I1Cent=   200000004 NGrid=           0
         NMat0=    1 NMatS0=      1 NMatT0=    0 NMatD0=    1 NMtDS0=    0 NMtDT0=    0
 Petite list used in FoFCou.
 Keep R1 and R2 ints in memory in symmetry-blocked form, NReq=762811109.
 Requested convergence on RMS density matrix=1.00D-08 within 128 cycles.
 Requested convergence on MAX density matrix=1.00D-06.
 Requested convergence on             energy=1.00D-06.
 No special actions if energy rises.
 Defaulting to unpruned grid for atomic number  40.
 Defaulting to unpruned grid for atomic number  40.
 Defaulting to unpruned grid for atomic number  40.
 Defaulting to unpruned grid for atomic number  40.
 Defaulting to unpruned grid for atomic number  40.
 Defaulting to unpruned grid for atomic number  40.
 Defaulting to unpruned grid for atomic number  40.
 Defaulting to unpruned grid for atomic number  40.
 SCF Done:  E(UPBE1PBE) =  -346.666982390     A.U. after    9 cycles
            NFock=  9  Conv=0.48D-08     -V/T= 2.1043
 <Sx>= 0.0000 <Sy>= 0.0000 <Sz>= 0.5000 <S**2>= 0.7515 S= 0.5008
 <L.S>=  0.00000000000    
 Annihilation of the first spin contaminant:
 S**2 before annihilation     0.7515,   after     0.7500
   6 Symmetry operations used in ECPInt.
 ECPInt:  NShTT=    2628 NPrTT=    6800 LenC2=    2452 LenP2D=    5297.
 LDataN:  DoStor=T MaxTD1= 9 Len=  602
 Calling FoFJK, ICntrl=      2127 FMM=F ISym2X=1 I1Cent= 0 IOpClX= 1 NMat=1 NMatS=1 NMatT=0.
 Defaulting to unpruned grid for atomic number  40.
 Defaulting to unpruned grid for atomic number  40.
 Defaulting to unpruned grid for atomic number  40.
 Defaulting to unpruned grid for atomic number  40.
 Defaulting to unpruned grid for atomic number  40.
 Defaulting to unpruned grid for atomic number  40.
 Defaulting to unpruned grid for atomic number  40.
 Defaulting to unpruned grid for atomic number  40.
 ***** Axes restored to original set *****
 -------------------------------------------------------------------
 Center     Atomic                   Forces (Hartrees/Bohr)
 Number     Number              X              Y              Z
 -------------------------------------------------------------------
      1       40           0.000000000   -0.000000000    0.000002983
      2        9          -0.001663236    0.002880810   -0.000000994
      3        9          -0.001663236   -0.002880810   -0.000000994
      4        9           0.003326472   -0.000000000   -0.000000994
 -------------------------------------------------------------------
 Cartesian Forces:  Max     0.003326472 RMS     0.001663237

 GradGradGradGradGradGradGradGradGradGradGradGradGradGradGradGradGradGrad
 Berny optimization.
 Using GEDIIS/GDIIS optimizer.
 FormGI is forming the generalized inverse of G from B-inverse, IUseBI=4.
 Internal  Forces:  Max     0.003326471 RMS     0.002177689
 Search for a local minimum.
 Step number   2 out of a maximum of   20
 All quantities printed in internal units (Hartrees-Bohrs-Radians)
 Mixed Optimization -- RFO/linear search
 Update second derivatives using D2CorX and points    1    2
 DE= -9.91D-04 DEPred=-1.27D-03 R= 7.81D-01
 TightC=F SS=  1.41D+00  RLast= 1.06D-01 DXNew= 5.0454D-01 3.1855D-01
 Trust test= 7.81D-01 RLast= 1.06D-01 DXMaxT set to 3.19D-01
 The second derivative matrix:
                          R1        R2        R3        A1        A2
           R1           0.24016
           R2           0.01896   0.24016
           R3           0.01896   0.01896   0.24016
           A1           0.00001   0.00001   0.00001   0.25000
           A2           0.00000   0.00000   0.00000  -0.00000   0.25000
           A3           0.00000   0.00000   0.00000  -0.00000  -0.00000
           D1           0.00015   0.00015   0.00015   0.00000   0.00000
                          A3        D1
           A3           0.25000
           D1           0.00000   0.00230
 ITU=  1  0
 Use linear search instead of GDIIS.
     Eigenvalues ---    0.00230   0.22120   0.22120   0.25000   0.25000
     Eigenvalues ---    0.27809
 RFO step:  Lambda=-2.66440005D-07 EMin= 2.30052910D-03
 Quartic linear search produced a step of -0.18358.
 Iteration  1 RMS(Cart)=  0.00800282 RMS(Int)=  0.00001549
 Iteration  2 RMS(Cart)=  0.00001258 RMS(Int)=  0.00000728
 Iteration  3 RMS(Cart)=  0.00000000 RMS(Int)=  0.00000728
 ClnCor:  largest displacement from symmetrization is 9.46D-08 for atom     4.
 Variable       Old X    -DE/DX   Delta X   Delta X   Delta X     New X
                                 (Linear)    (Quad)   (Total)
    R1        3.58026   0.00333   0.01123   0.00001   0.01124   3.59150
    R2        3.58026   0.00333   0.01123   0.00001   0.01124   3.59150
    R3        3.58026   0.00333   0.01123   0.00001   0.01124   3.59150
    A1        2.09439  -0.00000  -0.00000  -0.00001  -0.00002   2.09438
    A2        2.09439   0.00000  -0.00000  -0.00001  -0.00002   2.09438
    A3        2.09439   0.00000  -0.00000  -0.00001  -0.00002   2.09438
    D1        3.13962   0.00001   0.00140  -0.01076  -0.00936   3.13026
         Item               Value     Threshold  Converged?
 Maximum Force            0.003326     0.000450     NO 
 RMS     Force            0.002178     0.000300     NO 
 Maximum Displacement     0.011216     0.001800     NO 
 RMS     Displacement     0.008002     0.001200     NO 
 Predicted change in Energy=-5.932983D-05
 GradGradGradGradGradGradGradGradGradGradGradGradGradGradGradGradGradGrad

                          Input orientation:                          
 ---------------------------------------------------------------------
 Center     Atomic      Atomic             Coordinates (Angstroms)
 Number     Number       Type             X           Y           Z
 ---------------------------------------------------------------------
      1         40           0        8.018263    8.500000    8.494551
      2          9           0        7.067998   10.145906    8.500771
      3          9           0        7.067998    6.854094    8.500771
      4          9           0        9.918792    8.500000    8.500771
 ---------------------------------------------------------------------
                    Distance matrix (angstroms):
                    1          2          3          4
     1  Zr   0.000000
     2  F    1.900539   0.000000
     3  F    1.900539   3.291813   0.000000
     4  F    1.900539   3.291813   3.291813   0.000000
 Stoichiometry    F3Zr(2)
 Framework group  C3V[C3(Zr),3SGV(F)]
 Deg. of freedom     2
 Full point group                 C3V     NOp   6
 Largest Abelian subgroup         CS      NOp   2
 Largest concise Abelian subgroup CS      NOp   2
                         Standard orientation:                         
 ---------------------------------------------------------------------
 Center     Atomic      Atomic             Coordinates (Angstroms)
 Number     Number       Type             X           Y           Z
 ---------------------------------------------------------------------
      1         40           0        0.000000    0.000000   -0.002506
      2          9           0       -0.000000    1.900529    0.003713
      3          9           0       -1.645906   -0.950264    0.003713
      4          9           0        1.645906   -0.950264    0.003713
 ---------------------------------------------------------------------
 Rotational constants (GHZ):           4.9096914           4.9096914           2.4548779
 Standard basis: def2QZVPP (5D, 7F)
 There are   189 symmetry adapted cartesian basis functions of A'  symmetry.
 There are   133 symmetry adapted cartesian basis functions of A"  symmetry.
 There are   145 symmetry adapted basis functions of A'  symmetry.
 There are   107 symmetry adapted basis functions of A"  symmetry.
   252 basis functions,   410 primitive gaussians,   322 cartesian basis functions
    20 alpha electrons       19 beta electrons
       nuclear repulsion energy       129.2766487139 Hartrees.
 NAtoms=    4 NActive=    4 NUniq=    2 SFac= 4.00D+00 NAtFMM=   60 NAOKFM=F Big=F
 Integral buffers will be    131072 words long.
 Raffenetti 2 integral format.
 Two-electron integral symmetry is turned on.
 One-electron integrals computed using PRISM.
   6 Symmetry operations used in ECPInt.
 ECPInt:  NShTT=    2628 NPrTT=    6800 LenC2=    2452 LenP2D=    5297.
 LDataN:  DoStor=T MaxTD1= 8 Len=  415
 NBasis=   252 RedAO= T EigKep=  8.75D-04  NBF=   145   107
 NBsUse=   252 1.00D-06 EigRej= -1.00D+00 NBFU=   145   107
 Defaulting to unpruned grid for atomic number  40.
 Initial guess from the checkpoint file:  "/data/hutter/SMG16/PBE0/Gau-88118.chk"
 B after Tr=     0.000000   -0.000000   -0.000000
         Rot=    1.000000    0.000000   -0.000000    0.000000 Ang=   0.00 deg.
 Initial guess orbital symmetries:
 Alpha Orbitals:
       Occupied  (A1) (?A) (?A) (?B) (?A) (?A) (?B) (?B) (?A) (?A)
                 (?A) (?A) (?B) (?A) (?A) (?B) (?B) (?A) (?A) (?B)
       Virtual   (?A) (?A) (?B) (?B) (?A) (?A) (?A) (?A) (?B) (?B)
                 (?A) (?A) (?B) (?A) (?A) (?A) (?A) (?A) (?A) (?B)
                 (?A) (?A) (?B) (?B) (?B) (?B) (?A) (?A) (?A) (?A)
                 (?B) (?A) (?A) (?A) (?A) (?B) (?A) (?A) (?B) (?A)
                 (?A) (?B) (?B) (?A) (?A) (?A) (?A) (?B) (?B) (?A)
                 (?A) (?B) (?A) (?A) (?A) (?A) (?B) (?B) (?A) (?A)
                 (?B) (?A) (?A) (?A) (?A) (?A) (?A) (?B) (?B) (?A)
                 (?A) (?B) (?B) (?B) (?A) (?A) (?A) (?A) (?B) (?A)
                 (?A) (?B) (?A) (?A) (?A) (?A) (?B) (?B) (?B) (?B)
                 (?A) (?A) (?A) (?A) (?B) (?A) (?A) (?B) (?A) (?A)
                 (?A) (?A) (?B) (?B) (?A) (?A) (?B) (?A) (?A) (?B)
                 (?A) (?A) (?A) (?A) (?B) (?B) (?A) (?A) (?A) (?A)
                 (?B) (?B) (?A) (?A) (?A) (?A) (?B) (?B) (?B) (?A)
                 (?A) (?A) (?A) (?A) (?A) (?B) (?B) (?A) (?A) (?B)
                 (?A) (?A) (?B) (?B) (?A) (?A) (?B) (?A) (?A) (?B)
                 (?A) (?A) (?B) (?B) (?A) (?A) (?A) (?A) (?A) (?A)
                 (?A) (?A) (?B) (?A) (?A) (?B) (?A) (?A) (?B) (?B)
                 (?A) (?A) (?A) (?A) (?B) (?B) (?A) (?A) (?B) (?A)
                 (?A) (?B) (?B) (?A) (?A) (?B) (?A) (?A) (?A) (?A)
                 (?B) (?A) (?A) (?B) (?A) (?A) (?B) (?A) (?A) (?A)
                 (?A) (?B) (?B) (?B) (?A) (?A) (?B) (?A) (?A) (?A)
                 (?A) (?B) (?A) (?A) (?B) (?A) (?A) (?B) (?B) (?A)
                 (?A) (?B) (?A) (?A) (?B) (?A) (?A) (?B) (?B) (?A)
                 (?A) (?B)
 Beta  Orbitals:
       Occupied  (A1) (?A) (?A) (?B) (?A) (?A) (?B) (?B) (?A) (?A)
                 (?A) (?A) (?B) (?A) (?A) (?B) (?B) (?A) (?A)
       Virtual   (?B) (?A) (?A) (?B) (?B) (?A) (?A) (?A) (?A) (?B)
                 (?B) (?A) (?A) (?A) (?A) (?B) (?A) (?A) (?B) (?A)
                 (?A) (?A) (?A) (?B) (?B) (?B) (?A) (?A) (?A) (?A)
                 (?B) (?B) (?A) (?A) (?A) (?A) (?B) (?A) (?A) (?A)
                 (?A) (?B) (?B) (?B) (?A) (?A) (?A) (?A) (?B) (?B)
                 (?A) (?A) (?A) (?A) (?B) (?B) (?A) (?A) (?A) (?A)
                 (?B) (?B) (?A) (?A) (?A) (?A) (?A) (?A) (?B) (?B)
                 (?A) (?A) (?B) (?B) (?B) (?A) (?A) (?A) (?A) (?B)
                 (?A) (?A) (?B) (?A) (?A) (?A) (?A) (?B) (?B) (?B)
                 (?B) (?A) (?A) (?A) (?A) (?B) (?A) (?A) (?B) (?A)
                 (?A) (?A) (?A) (?B) (?B) (?A) (?A) (?B) (?A) (?A)
                 (?B) (?A) (?A) (?A) (?A) (?B) (?B) (?A) (?A) (?A)
                 (?A) (?B) (?B) (?A) (?A) (?A) (?A) (?B) (?B) (?B)
                 (?A) (?A) (?A) (?A) (?A) (?A) (?B) (?B) (?A) (?A)
                 (?B) (?A) (?A) (?B) (?B) (?A) (?A) (?B) (?A) (?A)
                 (?B) (?A) (?A) (?B) (?B) (?A) (?A) (?A) (?A) (?A)
                 (?A) (?A) (?A) (?B) (?A) (?A) (?B) (?A) (?A) (?B)
                 (?B) (?A) (?A) (?A) (?A) (?B) (?B) (?A) (?A) (?B)
                 (?A) (?A) (?B) (?B) (?A) (?A) (?B) (?A) (?A) (?A)
                 (?A) (?B) (?A) (?A) (?B) (?A) (?A) (?B) (?A) (?A)
                 (?A) (?A) (?B) (?B) (?B) (?A) (?A) (?B) (?A) (?A)
                 (?A) (?A) (?B) (?A) (?A) (?B) (?A) (?A) (?B) (?B)
                 (?A) (?A) (?B) (?A) (?A) (?B) (?A) (?A) (?B) (?B)
                 (?A) (?A) (?B)
 Initial guess <Sx>= 0.0000 <Sy>= 0.0000 <Sz>= 0.5000 <S**2>= 0.7515 S= 0.5008
 Keep R1 and R2 ints in memory in symmetry-blocked form, NReq=762811109.
 Requested convergence on RMS density matrix=1.00D-08 within 128 cycles.
 Requested convergence on MAX density matrix=1.00D-06.
 Requested convergence on             energy=1.00D-06.
 No special actions if energy rises.
 Defaulting to unpruned grid for atomic number  40.
 Defaulting to unpruned grid for atomic number  40.
 Defaulting to unpruned grid for atomic number  40.
 Defaulting to unpruned grid for atomic number  40.
 Defaulting to unpruned grid for atomic number  40.
 Defaulting to unpruned grid for atomic number  40.
 Defaulting to unpruned grid for atomic number  40.
 Defaulting to unpruned grid for atomic number  40.
 SCF Done:  E(UPBE1PBE) =  -346.667037799     A.U. after    9 cycles
            NFock=  9  Conv=0.11D-08     -V/T= 2.1044
 <Sx>= 0.0000 <Sy>= 0.0000 <Sz>= 0.5000 <S**2>= 0.7515 S= 0.5008
 <L.S>=  0.00000000000    
 Annihilation of the first spin contaminant:
 S**2 before annihilation     0.7515,   after     0.7500
   6 Symmetry operations used in ECPInt.
 ECPInt:  NShTT=    2628 NPrTT=    6800 LenC2=    2452 LenP2D=    5297.
 LDataN:  DoStor=T MaxTD1= 9 Len=  602
 Calling FoFJK, ICntrl=      2127 FMM=F ISym2X=1 I1Cent= 0 IOpClX= 1 NMat=1 NMatS=1 NMatT=0.
 Defaulting to unpruned grid for atomic number  40.
 Defaulting to unpruned grid for atomic number  40.
 Defaulting to unpruned grid for atomic number  40.
 Defaulting to unpruned grid for atomic number  40.
 Defaulting to unpruned grid for atomic number  40.
 Defaulting to unpruned grid for atomic number  40.
 Defaulting to unpruned grid for atomic number  40.
 Defaulting to unpruned grid for atomic number  40.
 ***** Axes restored to original set *****
 -------------------------------------------------------------------
 Center     Atomic                   Forces (Hartrees/Bohr)
 Number     Number              X              Y              Z
 -------------------------------------------------------------------
      1       40           0.000000000   -0.000000000    0.000053934
      2        9           0.000002459   -0.000004258   -0.000017978
      3        9           0.000002459    0.000004258   -0.000017978
      4        9          -0.000004917    0.000000000   -0.000017978
 -------------------------------------------------------------------
 Cartesian Forces:  Max     0.000053934 RMS     0.000018145

 GradGradGradGradGradGradGradGradGradGradGradGradGradGradGradGradGradGrad
 Berny optimization.
 Using GEDIIS/GDIIS optimizer.
 FormGI is forming the generalized inverse of G from B-inverse, IUseBI=4.
 Internal  Forces:  Max     0.000055867 RMS     0.000021366
 Search for a local minimum.
 Step number   3 out of a maximum of   20
 All quantities printed in internal units (Hartrees-Bohrs-Radians)
 Mixed Optimization -- En-DIIS/RFO-DIIS
 Update second derivatives using D2CorX and points    1    2    3
 DE= -5.54D-05 DEPred=-5.93D-05 R= 9.34D-01
 TightC=F SS=  1.41D+00  RLast= 2.16D-02 DXNew= 5.3573D-01 6.4785D-02
 Trust test= 9.34D-01 RLast= 2.16D-02 DXMaxT set to 3.19D-01
 The second derivative matrix:
                          R1        R2        R3        A1        A2
           R1           0.24610
           R2           0.02490   0.24610
           R3           0.02490   0.02490   0.24610
           A1           0.00013   0.00013   0.00013   0.25000
           A2           0.00012   0.00012   0.00012  -0.00000   0.25000
           A3           0.00012   0.00012   0.00012  -0.00000  -0.00000
           D1          -0.00075  -0.00075  -0.00075  -0.00000  -0.00000
                          A3        D1
           A3           0.25000
           D1          -0.00000   0.00232
 ITU=  1  1  0
 Use linear search instead of GDIIS.
     Eigenvalues ---    0.00232   0.22120   0.22120   0.25000   0.25000
     Eigenvalues ---    0.29590
 RFO step:  Lambda=-1.34661135D-06 EMin= 2.32377995D-03
 Quartic linear search produced a step of -0.00621.
 Iteration  1 RMS(Cart)=  0.00817699 RMS(Int)=  0.00007898
 Iteration  2 RMS(Cart)=  0.00005687 RMS(Int)=  0.00005481
 Iteration  3 RMS(Cart)=  0.00000000 RMS(Int)=  0.00005481
 ClnCor:  largest displacement from symmetrization is 1.13D-06 for atom     4.
 Variable       Old X    -DE/DX   Delta X   Delta X   Delta X     New X
                                 (Linear)    (Quad)   (Total)
    R1        3.59150  -0.00000  -0.00007   0.00011   0.00004   3.59154
    R2        3.59150  -0.00000  -0.00007   0.00011   0.00004   3.59154
    R3        3.59150  -0.00000  -0.00007   0.00011   0.00004   3.59154
    A1        2.09438  -0.00000   0.00000   0.00008  -0.00000   2.09437
    A2        2.09438   0.00000   0.00000   0.00008  -0.00000   2.09437
    A3        2.09438   0.00000   0.00000   0.00008  -0.00000   2.09437
    D1        3.13026   0.00006   0.00006   0.02404   0.02409  -3.12884
         Item               Value     Threshold  Converged?
 Maximum Force            0.000056     0.000450     YES
 RMS     Force            0.000021     0.000300     YES
 Maximum Displacement     0.018735     0.001800     NO 
 RMS     Displacement     0.008177     0.001200     NO 
 Predicted change in Energy=-6.730691D-07
 GradGradGradGradGradGradGradGradGradGradGradGradGradGradGradGradGradGrad

                          Input orientation:                          
 ---------------------------------------------------------------------
 Center     Atomic      Atomic             Coordinates (Angstroms)
 Number     Number       Type             X           Y           Z
 ---------------------------------------------------------------------
      1         40           0        8.018263    8.500000    8.504465
      2          9           0        7.067988   10.145924    8.497466
      3          9           0        7.067988    6.854076    8.497466
      4          9           0        9.918812    8.500000    8.497466
 ---------------------------------------------------------------------
                    Distance matrix (angstroms):
                    1          2          3          4
     1  Zr   0.000000
     2  F    1.900562   0.000000
     3  F    1.900562   3.291847   0.000000
     4  F    1.900562   3.291847   3.291847   0.000000
 Stoichiometry    F3Zr(2)
 Framework group  C3V[C3(Zr),3SGV(F)]
 Deg. of freedom     2
 Full point group                 C3V     NOp   6
 Largest Abelian subgroup         CS      NOp   2
 Largest concise Abelian subgroup CS      NOp   2
                         Standard orientation:                         
 ---------------------------------------------------------------------
 Center     Atomic      Atomic             Coordinates (Angstroms)
 Number     Number       Type             X           Y           Z
 ---------------------------------------------------------------------
      1         40           0        0.000000    0.000000    0.002821
      2          9           0       -0.000000    1.900549   -0.004179
      3          9           0       -1.645924   -0.950274   -0.004179
      4          9           0        1.645924   -0.950274   -0.004179
 ---------------------------------------------------------------------
 Rotational constants (GHZ):           4.9095715           4.9095715           2.4548265
 Standard basis: def2QZVPP (5D, 7F)
 There are   189 symmetry adapted cartesian basis functions of A'  symmetry.
 There are   133 symmetry adapted cartesian basis functions of A"  symmetry.
 There are   145 symmetry adapted basis functions of A'  symmetry.
 There are   107 symmetry adapted basis functions of A"  symmetry.
   252 basis functions,   410 primitive gaussians,   322 cartesian basis functions
    20 alpha electrons       19 beta electrons
       nuclear repulsion energy       129.2751666213 Hartrees.
 NAtoms=    4 NActive=    4 NUniq=    2 SFac= 4.00D+00 NAtFMM=   60 NAOKFM=F Big=F
 Integral buffers will be    131072 words long.
 Raffenetti 2 integral format.
 Two-electron integral symmetry is turned on.
 One-electron integrals computed using PRISM.
   6 Symmetry operations used in ECPInt.
 ECPInt:  NShTT=    2628 NPrTT=    6800 LenC2=    2452 LenP2D=    5297.
 LDataN:  DoStor=T MaxTD1= 8 Len=  415
 NBasis=   252 RedAO= T EigKep=  8.76D-04  NBF=   145   107
 NBsUse=   252 1.00D-06 EigRej= -1.00D+00 NBFU=   145   107
 Defaulting to unpruned grid for atomic number  40.
 Initial guess from the checkpoint file:  "/data/hutter/SMG16/PBE0/Gau-88118.chk"
 B after Tr=    -0.000000    0.000000    0.000000
         Rot=    1.000000   -0.000000    0.000000    0.000000 Ang=   0.00 deg.
 Initial guess orbital symmetries:
 Alpha Orbitals:
       Occupied  (A1) (E) (E) (A1) (E) (E) (A1) (A1) (E) (E) (E)
                 (E) (A1) (E) (E) (A1) (A2) (E) (E) (A1)
       Virtual   (E) (E) (A1) (A1) (E) (E) (E) (E) (A1) (A1) (E)
                 (E) (A1) (E) (E) (E) (E) (E) (E) (A1) (E) (E)
                 (A1) (A2) (A1) (A1) (E) (E) (E) (E) (A1) (E) (E)
                 (E) (E) (A1) (E) (E) (A1) (E) (E) (A2) (A2) (E)
                 (E) (E) (E) (A1) (A1) (E) (E) (A1) (E) (E) (E)
                 (E) (A2) (A1) (E) (E) (A1) (E) (E) (E) (E) (E)
                 (E) (A1) (A1) (E) (E) (A1) (A2) (A1) (E) (E) (E)
                 (E) (A2) (E) (E) (A1) (E) (E) (E) (E) (A1) (A2)
                 (A2) (A1) (E) (E) (E) (E) (A1) (E) (E) (A1) (E)
                 (E) (E) (E) (A1) (A2) (E) (E) (A1) (E) (E) (A2)
                 (E) (E) (E) (E) (A1) (A1) (E) (E) (E) (E) (A1)
                 (A2) (E) (E) (E) (E) (A1) (A2) (A1) (E) (E) (E)
                 (E) (E) (E) (A1) (A2) (E) (E) (A1) (E) (E) (A2)
                 (A1) (E) (E) (A1) (E) (E) (A2) (E) (E) (A1) (A1)
                 (E) (E) (E) (E) (E) (E) (E) (E) (A2) (E) (E) (A1)
                 (E) (E) (A1) (A2) (E) (E) (E) (E) (A1) (A2) (E)
                 (E) (A2) (E) (E) (A1) (A1) (E) (E) (A2) (E) (E)
                 (E) (E) (A1) (E) (E) (A1) (E) (E) (A2) (E) (E)
                 (E) (E) (A1) (A2) (A1) (E) (E) (A1) (E) (E) (E)
                 (E) (A1) (E) (E) (A2) (E) (E) (A1) (A2) (E) (E)
                 (A1) (E) (E) (A1) (E) (E) (A1) (A1) (E) (E) (A1)
 Beta  Orbitals:
       Occupied  (A1) (E) (E) (A1) (E) (E) (A1) (A1) (E) (E) (E)
                 (E) (A1) (E) (E) (A1) (A2) (E) (E)
       Virtual   (A1) (E) (E) (A1) (A1) (E) (E) (E) (E) (A1) (A1)
                 (E) (E) (E) (E) (A1) (E) (E) (A1) (E) (E) (E)
                 (E) (A2) (A1) (A1) (E) (E) (E) (E) (A1) (A1) (E)
                 (E) (E) (E) (A1) (E) (E) (E) (E) (A2) (A1) (A2)
                 (E) (E) (E) (E) (A1) (A1) (E) (E) (E) (E) (A1)
                 (A2) (E) (E) (A1) (E) (E) (A1) (E) (E) (E) (E)
                 (E) (E) (A1) (A1) (E) (E) (A1) (A2) (A1) (E) (E)
                 (E) (E) (A2) (E) (E) (A1) (E) (E) (E) (E) (A1)
                 (A2) (A2) (A1) (E) (E) (E) (E) (A1) (E) (E) (A1)
                 (E) (E) (E) (E) (A1) (A2) (E) (E) (A1) (E) (E)
                 (A2) (E) (E) (E) (E) (A1) (A1) (E) (E) (E) (E)
                 (A1) (A2) (E) (E) (E) (E) (A1) (A2) (A1) (E) (E)
                 (E) (E) (E) (E) (A1) (A2) (E) (E) (A1) (E) (E)
                 (A2) (A1) (E) (E) (A1) (E) (E) (A2) (E) (E) (A1)
                 (A1) (E) (E) (E) (E) (E) (E) (E) (E) (A2) (E)
                 (E) (A1) (E) (E) (A1) (A2) (E) (E) (E) (E) (A1)
                 (A2) (E) (E) (A2) (E) (E) (A1) (A1) (E) (E) (A2)
                 (E) (E) (E) (E) (A1) (E) (E) (A1) (E) (E) (A2)
                 (E) (E) (E) (E) (A1) (A2) (A1) (E) (E) (A1) (E)
                 (E) (E) (E) (A1) (E) (E) (A2) (E) (E) (A1) (A2)
                 (E) (E) (A1) (E) (E) (A1) (E) (E) (A1) (A1) (E)
                 (E) (A1)
 Initial guess <Sx>= 0.0000 <Sy>= 0.0000 <Sz>= 0.5000 <S**2>= 0.7515 S= 0.5008
 Keep R1 and R2 ints in memory in symmetry-blocked form, NReq=762811109.
 Requested convergence on RMS density matrix=1.00D-08 within 128 cycles.
 Requested convergence on MAX density matrix=1.00D-06.
 Requested convergence on             energy=1.00D-06.
 No special actions if energy rises.
 Defaulting to unpruned grid for atomic number  40.
 Defaulting to unpruned grid for atomic number  40.
 Defaulting to unpruned grid for atomic number  40.
 Defaulting to unpruned grid for atomic number  40.
 Defaulting to unpruned grid for atomic number  40.
 Defaulting to unpruned grid for atomic number  40.
 Defaulting to unpruned grid for atomic number  40.
 Defaulting to unpruned grid for atomic number  40.
 SCF Done:  E(UPBE1PBE) =  -346.667037713     A.U. after    8 cycles
            NFock=  8  Conv=0.31D-08     -V/T= 2.1044
 <Sx>= 0.0000 <Sy>= 0.0000 <Sz>= 0.5000 <S**2>= 0.7515 S= 0.5008
 <L.S>=  0.00000000000    
 Annihilation of the first spin contaminant:
 S**2 before annihilation     0.7515,   after     0.7500
   6 Symmetry operations used in ECPInt.
 ECPInt:  NShTT=    2628 NPrTT=    6800 LenC2=    2452 LenP2D=    5297.
 LDataN:  DoStor=T MaxTD1= 9 Len=  602
 Calling FoFJK, ICntrl=      2127 FMM=F ISym2X=1 I1Cent= 0 IOpClX= 1 NMat=1 NMatS=1 NMatT=0.
 Defaulting to unpruned grid for atomic number  40.
 Defaulting to unpruned grid for atomic number  40.
 Defaulting to unpruned grid for atomic number  40.
 Defaulting to unpruned grid for atomic number  40.
 Defaulting to unpruned grid for atomic number  40.
 Defaulting to unpruned grid for atomic number  40.
 Defaulting to unpruned grid for atomic number  40.
 Defaulting to unpruned grid for atomic number  40.
 ***** Axes restored to original set *****
 -------------------------------------------------------------------
 Center     Atomic                   Forces (Hartrees/Bohr)
 Number     Number              X              Y              Z
 -------------------------------------------------------------------
      1       40          -0.000000000   -0.000000000   -0.000060854
      2        9           0.000008787   -0.000015220    0.000020285
      3        9           0.000008787    0.000015220    0.000020285
      4        9          -0.000017574   -0.000000000    0.000020285
 -------------------------------------------------------------------
 Cartesian Forces:  Max     0.000060854 RMS     0.000022106

 GradGradGradGradGradGradGradGradGradGradGradGradGradGradGradGradGradGrad
 Berny optimization.
 Using GEDIIS/GDIIS optimizer.
 FormGI is forming the generalized inverse of G from B-inverse, IUseBI=4.
 Internal  Forces:  Max     0.000062892 RMS     0.000026431
 Search for a local minimum.
 Step number   4 out of a maximum of   20
 All quantities printed in internal units (Hartrees-Bohrs-Radians)
 Mixed Optimization -- En-DIIS/RFO-DIIS
 Swapping is turned off.
 Update second derivatives using D2CorX and points    1    2    3    4
 DE=  8.58D-08 DEPred=-6.73D-07 R=-1.28D-01
 Trust test=-1.28D-01 RLast= 2.41D-02 DXMaxT set to 1.59D-01
 The second derivative matrix:
                          R1        R2        R3        A1        A2
           R1           0.24477
           R2           0.02357   0.24477
           R3           0.02357   0.02357   0.24477
           A1           0.00020   0.00020   0.00020   0.25000
           A2           0.00019   0.00019   0.00019  -0.00000   0.25000
           A3           0.00019   0.00019   0.00019  -0.00000  -0.00000
           D1           0.00001   0.00001   0.00001   0.00005   0.00005
                          A3        D1
           A3           0.25000
           D1           0.00005   0.00493
 ITU= -1  1  1  0
     Eigenvalues ---    0.00494   0.22120   0.22120   0.25000   0.25000
     Eigenvalues ---    0.29191
 En-DIIS/RFO-DIIS/Sim-DIIS IScMMF=       -3 using points:     4    3
 RFO step:  Lambda=-8.04207791D-07.
 DidBck=T Rises=F RFO-DIIS coefs:    0.47040    0.52960
 Iteration  1 RMS(Cart)=  0.00433025 RMS(Int)=  0.00002100
 Iteration  2 RMS(Cart)=  0.00001595 RMS(Int)=  0.00001367
 Iteration  3 RMS(Cart)=  0.00000000 RMS(Int)=  0.00001367
 ClnCor:  largest displacement from symmetrization is 1.28D-06 for atom     4.
 Variable       Old X    -DE/DX   Delta X   Delta X   Delta X     New X
                                 (Linear)    (Quad)   (Total)
    R1        3.59154  -0.00002  -0.00002  -0.00004  -0.00006   3.59148
    R2        3.59154  -0.00002  -0.00002  -0.00004  -0.00006   3.59148
    R3        3.59154  -0.00002  -0.00002  -0.00004  -0.00006   3.59148
    A1        2.09437  -0.00000   0.00000  -0.00000   0.00002   2.09440
    A2        2.09437   0.00000   0.00000   0.00000   0.00002   2.09440
    A3        2.09437   0.00000   0.00000   0.00000   0.00002   2.09440
    D1       -3.12884  -0.00006  -0.01276   0.00000  -0.01276   3.14159
         Item               Value     Threshold  Converged?
 Maximum Force            0.000063     0.000450     YES
 RMS     Force            0.000026     0.000300     YES
 Maximum Displacement     0.009922     0.001800     NO 
 RMS     Displacement     0.004330     0.001200     NO 
 Predicted change in Energy=-4.026679D-07
 GradGradGradGradGradGradGradGradGradGradGradGradGradGradGradGradGradGrad

                          Input orientation:                          
 ---------------------------------------------------------------------
 Center     Atomic      Atomic             Coordinates (Angstroms)
 Number     Number       Type             X           Y           Z
 ---------------------------------------------------------------------
      1         40           0        8.018263    8.500000    8.499215
      2          9           0        7.067998   10.145907    8.499216
      3          9           0        7.067998    6.854093    8.499216
      4          9           0        9.918792    8.500000    8.499216
 ---------------------------------------------------------------------
                    Distance matrix (angstroms):
                    1          2          3          4
     1  Zr   0.000000
     2  F    1.900530   0.000000
     3  F    1.900530   3.291814   0.000000
     4  F    1.900530   3.291814   3.291814   0.000000
 Stoichiometry    F3Zr(2)
 Framework group  C3V[C3(Zr),3SGV(F)]
 Deg. of freedom     2
 Full point group                 C3V     NOp   6
 Largest Abelian subgroup         CS      NOp   2
 Largest concise Abelian subgroup CS      NOp   2
                         Standard orientation:                         
 ---------------------------------------------------------------------
 Center     Atomic      Atomic             Coordinates (Angstroms)
 Number     Number       Type             X           Y           Z
 ---------------------------------------------------------------------
      1         40           0        0.000000    0.000000   -0.000001
      2          9           0       -0.000000    1.900530    0.000001
      3          9           0       -1.645907   -0.950265    0.000001
      4          9           0        1.645907   -0.950265    0.000001
 ---------------------------------------------------------------------
 Rotational constants (GHZ):           4.9097518           4.9097518           2.4548759
 Standard basis: def2QZVPP (5D, 7F)
 There are   189 symmetry adapted cartesian basis functions of A'  symmetry.
 There are   133 symmetry adapted cartesian basis functions of A"  symmetry.
 There are   145 symmetry adapted basis functions of A'  symmetry.
 There are   107 symmetry adapted basis functions of A"  symmetry.
   252 basis functions,   410 primitive gaussians,   322 cartesian basis functions
    20 alpha electrons       19 beta electrons
       nuclear repulsion energy       129.2770801046 Hartrees.
 NAtoms=    4 NActive=    4 NUniq=    2 SFac= 4.00D+00 NAtFMM=   60 NAOKFM=F Big=F
 Integral buffers will be    131072 words long.
 Raffenetti 2 integral format.
 Two-electron integral symmetry is turned on.
 One-electron integrals computed using PRISM.
   6 Symmetry operations used in ECPInt.
 ECPInt:  NShTT=    2628 NPrTT=    6800 LenC2=    2452 LenP2D=    5297.
 LDataN:  DoStor=T MaxTD1= 8 Len=  415
 NBasis=   252 RedAO= T EigKep=  8.75D-04  NBF=   145   107
 NBsUse=   252 1.00D-06 EigRej= -1.00D+00 NBFU=   145   107
 Defaulting to unpruned grid for atomic number  40.
 Initial guess from the checkpoint file:  "/data/hutter/SMG16/PBE0/Gau-88118.chk"
 B after Tr=     0.000000   -0.000000   -0.000000
         Rot=    1.000000    0.000000   -0.000000   -0.000000 Ang=   0.00 deg.
 Initial guess orbital symmetries:
 Alpha Orbitals:
       Occupied  (A1) (?A) (?A) (?B) (?A) (?A) (?B) (?B) (?A) (?A)
                 (?A) (?A) (?B) (?A) (?A) (?B) (?B) (?A) (?A) (?B)
       Virtual   (?A) (?A) (?B) (?B) (?A) (?A) (?A) (?A) (?B) (?B)
                 (?A) (?A) (?B) (?A) (?A) (?A) (?A) (?A) (?A) (?B)
                 (?A) (?A) (?B) (?B) (?B) (?B) (?A) (?A) (?A) (?A)
                 (?B) (?A) (?A) (?A) (?A) (?B) (?A) (?A) (?B) (?A)
                 (?A) (?B) (?B) (?A) (?A) (?A) (?A) (?B) (?B) (?A)
                 (?A) (?B) (?A) (?A) (?A) (?A) (?B) (?B) (?A) (?A)
                 (?B) (?A) (?A) (?A) (?A) (?A) (?A) (?B) (?B) (?A)
                 (?A) (?B) (?B) (?B) (?A) (?A) (?A) (?A) (?B) (?A)
                 (?A) (?B) (?A) (?A) (?A) (?A) (?B) (?B) (?B) (?B)
                 (?A) (?A) (?A) (?A) (?B) (?A) (?A) (?B) (?A) (?A)
                 (?A) (?A) (?B) (?B) (?A) (?A) (?B) (?A) (?A) (?B)
                 (?A) (?A) (?A) (?A) (?B) (?B) (?A) (?A) (?A) (?A)
                 (?B) (?B) (?A) (?A) (?A) (?A) (?B) (?B) (?B) (?A)
                 (?A) (?A) (?A) (?A) (?A) (?B) (?B) (?A) (?A) (?B)
                 (?A) (?A) (?B) (?B) (?A) (?A) (?B) (?A) (?A) (?B)
                 (?A) (?A) (?B) (?B) (?A) (?A) (?A) (?A) (?A) (?A)
                 (?A) (?A) (?B) (?A) (?A) (?B) (?A) (?A) (?B) (?B)
                 (?A) (?A) (?A) (?A) (?B) (?B) (?A) (?A) (?B) (?A)
                 (?A) (?B) (?B) (?A) (?A) (?B) (?A) (?A) (?A) (?A)
                 (?B) (?A) (?A) (?B) (?A) (?A) (?B) (?A) (?A) (?A)
                 (?A) (?B) (?B) (?B) (?A) (?A) (?B) (?A) (?A) (?A)
                 (?A) (?B) (?A) (?A) (?B) (?A) (?A) (?B) (?B) (?A)
                 (?A) (?B) (?A) (?A) (?B) (?A) (?A) (?B) (?B) (?A)
                 (?A) (?B)
 Beta  Orbitals:
       Occupied  (A1) (?A) (?A) (?B) (?A) (?A) (?B) (?B) (?A) (?A)
                 (?A) (?A) (?B) (?A) (?A) (?B) (?B) (?A) (?A)
       Virtual   (?B) (?A) (?A) (?B) (?B) (?A) (?A) (?A) (?A) (?B)
                 (?B) (?A) (?A) (?A) (?A) (?B) (?A) (?A) (?B) (?A)
                 (?A) (?A) (?A) (?B) (?B) (?B) (?A) (?A) (?A) (?A)
                 (?B) (?B) (?A) (?A) (?A) (?A) (?B) (?A) (?A) (?A)
                 (?A) (?B) (?B) (?B) (?A) (?A) (?A) (?A) (?B) (?B)
                 (?A) (?A) (?A) (?A) (?B) (?B) (?A) (?A) (?B) (?A)
                 (?A) (?B) (?A) (?A) (?A) (?A) (?A) (?A) (?B) (?B)
                 (?A) (?A) (?B) (?B) (?B) (?A) (?A) (?A) (?A) (?B)
                 (?A) (?A) (?B) (?A) (?A) (?A) (?A) (?B) (?B) (?B)
                 (?B) (?A) (?A) (?A) (?A) (?B) (?A) (?A) (?B) (?A)
                 (?A) (?A) (?A) (?B) (?B) (?A) (?A) (?B) (?A) (?A)
                 (?B) (?A) (?A) (?A) (?A) (?B) (?B) (?A) (?A) (?A)
                 (?A) (?B) (?B) (?A) (?A) (?A) (?A) (?B) (?B) (?B)
                 (?A) (?A) (?A) (?A) (?A) (?A) (?B) (?B) (?A) (?A)
                 (?B) (?A) (?A) (?B) (?B) (?A) (?A) (?B) (?A) (?A)
                 (?B) (?A) (?A) (?B) (?B) (?A) (?A) (?A) (?A) (?A)
                 (?A) (?A) (?A) (?B) (?A) (?A) (?B) (?A) (?A) (?B)
                 (?B) (?A) (?A) (?A) (?A) (?B) (?B) (?A) (?A) (?B)
                 (?A) (?A) (?B) (?B) (?A) (?A) (?B) (?A) (?A) (?A)
                 (?A) (?B) (?A) (?A) (?B) (?A) (?A) (?B) (?A) (?A)
                 (?A) (?A) (?B) (?B) (?B) (?A) (?A) (?B) (?A) (?A)
                 (?A) (?A) (?B) (?A) (?A) (?B) (?A) (?A) (?B) (?B)
                 (?A) (?A) (?B) (?A) (?A) (?B) (?A) (?A) (?B) (?B)
                 (?A) (?A) (?B)
 Initial guess <Sx>= 0.0000 <Sy>= 0.0000 <Sz>= 0.5000 <S**2>= 0.7515 S= 0.5008
 Keep R1 and R2 ints in memory in symmetry-blocked form, NReq=762811109.
 Requested convergence on RMS density matrix=1.00D-08 within 128 cycles.
 Requested convergence on MAX density matrix=1.00D-06.
 Requested convergence on             energy=1.00D-06.
 No special actions if energy rises.
 Defaulting to unpruned grid for atomic number  40.
 Defaulting to unpruned grid for atomic number  40.
 Defaulting to unpruned grid for atomic number  40.
 Defaulting to unpruned grid for atomic number  40.
 Defaulting to unpruned grid for atomic number  40.
 Defaulting to unpruned grid for atomic number  40.
 Defaulting to unpruned grid for atomic number  40.
 Defaulting to unpruned grid for atomic number  40.
 SCF Done:  E(UPBE1PBE) =  -346.667038115     A.U. after    8 cycles
            NFock=  8  Conv=0.17D-08     -V/T= 2.1044
 <Sx>= 0.0000 <Sy>= 0.0000 <Sz>= 0.5000 <S**2>= 0.7515 S= 0.5008
 <L.S>=  0.00000000000    
 Annihilation of the first spin contaminant:
 S**2 before annihilation     0.7515,   after     0.7500
   6 Symmetry operations used in ECPInt.
 ECPInt:  NShTT=    2628 NPrTT=    6800 LenC2=    2452 LenP2D=    5297.
 LDataN:  DoStor=T MaxTD1= 9 Len=  602
 Calling FoFJK, ICntrl=      2127 FMM=F ISym2X=1 I1Cent= 0 IOpClX= 1 NMat=1 NMatS=1 NMatT=0.
 Defaulting to unpruned grid for atomic number  40.
 Defaulting to unpruned grid for atomic number  40.
 Defaulting to unpruned grid for atomic number  40.
 Defaulting to unpruned grid for atomic number  40.
 Defaulting to unpruned grid for atomic number  40.
 Defaulting to unpruned grid for atomic number  40.
 Defaulting to unpruned grid for atomic number  40.
 Defaulting to unpruned grid for atomic number  40.
 ***** Axes restored to original set *****
 -------------------------------------------------------------------
 Center     Atomic                   Forces (Hartrees/Bohr)
 Number     Number              X              Y              Z
 -------------------------------------------------------------------
      1       40           0.000000000   -0.000000000    0.000000008
      2        9          -0.000000477    0.000000826   -0.000000003
      3        9          -0.000000477   -0.000000826   -0.000000003
      4        9           0.000000953    0.000000000   -0.000000003
 -------------------------------------------------------------------
 Cartesian Forces:  Max     0.000000953 RMS     0.000000477

 GradGradGradGradGradGradGradGradGradGradGradGradGradGradGradGradGradGrad
 Berny optimization.
 Using GEDIIS/GDIIS optimizer.
 FormGI is forming the generalized inverse of G from B-inverse, IUseBI=4.
 Internal  Forces:  Max     0.000000953 RMS     0.000000624
 Search for a local minimum.
 Step number   5 out of a maximum of   20
 All quantities printed in internal units (Hartrees-Bohrs-Radians)
 Mixed Optimization -- En-DIIS/RFO-DIIS
 Swapping is turned off.
 Update second derivatives using D2CorX and points    1    2    3    4    5
 DE= -4.03D-07 DEPred=-4.03D-07 R= 1.00D+00
 Trust test= 1.00D+00 RLast= 1.28D-02 DXMaxT set to 1.59D-01
 The second derivative matrix:
                          R1        R2        R3        A1        A2
           R1           0.24636
           R2           0.02516   0.24636
           R3           0.02516   0.02516   0.24636
           A1           0.00028   0.00028   0.00028   0.24980
           A2           0.00026   0.00026   0.00026  -0.00019   0.24981
           A3           0.00026   0.00026   0.00026  -0.00019  -0.00019
           D1           0.00005   0.00005   0.00005   0.00046   0.00043
                          A3        D1
           A3           0.24981
           D1           0.00043   0.00493
 ITU=  0 -1  1  1  0
     Eigenvalues ---    0.00493   0.22120   0.22120   0.25000   0.25000
     Eigenvalues ---    0.29668
 En-DIIS/RFO-DIIS/Sim-DIIS IScMMF=       -3 using points:     5    4    3
 RFO step:  Lambda=-7.98060664D-12.
 DIIS inversion failure, remove point   3.
 RFO-DIIS uses    2 points instead of    3
 DidBck=F Rises=F RFO-DIIS coefs:    0.99987    0.00013    0.00000
 Iteration  1 RMS(Cart)=  0.00000218 RMS(Int)=  0.00000000
 Iteration  2 RMS(Cart)=  0.00000000 RMS(Int)=  0.00000000
 ClnCor:  largest displacement from symmetrization is 8.69D-10 for atom     4.
 Variable       Old X    -DE/DX   Delta X   Delta X   Delta X     New X
                                 (Linear)    (Quad)   (Total)
    R1        3.59148   0.00000   0.00000   0.00000   0.00000   3.59148
    R2        3.59148   0.00000   0.00000   0.00000   0.00000   3.59148
    R3        3.59148   0.00000   0.00000   0.00000   0.00000   3.59148
    A1        2.09440  -0.00000  -0.00000  -0.00000   0.00000   2.09440
    A2        2.09440  -0.00000  -0.00000   0.00000   0.00000   2.09440
    A3        2.09440   0.00000  -0.00000   0.00000   0.00000   2.09440
    D1        3.14159   0.00000   0.00000  -0.00000   0.00000   3.14159
         Item               Value     Threshold  Converged?
 Maximum Force            0.000001     0.000450     YES
 RMS     Force            0.000001     0.000300     YES
 Maximum Displacement     0.000003     0.001800     YES
 RMS     Displacement     0.000002     0.001200     YES
 Predicted change in Energy=-4.602547D-12
 Optimization completed.
    -- Stationary point found.
                           ----------------------------
                           !   Optimized Parameters   !
                           ! (Angstroms and Degrees)  !
 --------------------------                            --------------------------
 ! Name  Definition              Value          Derivative Info.                !
 --------------------------------------------------------------------------------
 ! R1    R(1,2)                  1.9005         -DE/DX =    0.0                 !
 ! R2    R(1,3)                  1.9005         -DE/DX =    0.0                 !
 ! R3    R(1,4)                  1.9005         -DE/DX =    0.0                 !
 ! A1    A(2,1,3)              120.0            -DE/DX =    0.0                 !
 ! A2    A(2,1,4)              120.0            -DE/DX =    0.0                 !
 ! A3    A(3,1,4)              120.0            -DE/DX =    0.0                 !
 ! D1    D(2,1,4,3)            179.9999         -DE/DX =    0.0                 !
 --------------------------------------------------------------------------------
 GradGradGradGradGradGradGradGradGradGradGradGradGradGradGradGradGradGrad

                          Input orientation:                          
 ---------------------------------------------------------------------
 Center     Atomic      Atomic             Coordinates (Angstroms)
 Number     Number       Type             X           Y           Z
 ---------------------------------------------------------------------
      1         40           0        8.018263    8.500000    8.499215
      2          9           0        7.067998   10.145907    8.499216
      3          9           0        7.067998    6.854093    8.499216
      4          9           0        9.918792    8.500000    8.499216
 ---------------------------------------------------------------------
                    Distance matrix (angstroms):
                    1          2          3          4
     1  Zr   0.000000
     2  F    1.900530   0.000000
     3  F    1.900530   3.291814   0.000000
     4  F    1.900530   3.291814   3.291814   0.000000
 Stoichiometry    F3Zr(2)
 Framework group  C3V[C3(Zr),3SGV(F)]
 Deg. of freedom     2
 Full point group                 C3V     NOp   6
 Largest Abelian subgroup         CS      NOp   2
 Largest concise Abelian subgroup CS      NOp   2
                         Standard orientation:                         
 ---------------------------------------------------------------------
 Center     Atomic      Atomic             Coordinates (Angstroms)
 Number     Number       Type             X           Y           Z
 ---------------------------------------------------------------------
      1         40           0        0.000000    0.000000   -0.000001
      2          9           0       -0.000000    1.900530    0.000001
      3          9           0       -1.645907   -0.950265    0.000001
      4          9           0        1.645907   -0.950265    0.000001
 ---------------------------------------------------------------------
 Rotational constants (GHZ):           4.9097518           4.9097518           2.4548759

 **********************************************************************

            Population analysis using the SCF Density.

 **********************************************************************

 Orbital symmetries:
 Alpha Orbitals:
       Occupied  (A1) (?A) (?A) (?B) (?A) (?A) (?C) (?B) (?A) (?A)
                 (?A) (?A) (?B) (?D) (?D) (?C) (?B) (?A) (?A) (?B)
       Virtual   (?D) (?D) (?C) (?B) (?A) (?A) (?A) (?A) (?C) (?B)
                 (?D) (?D) (?B) (?A) (?A) (?A) (?A) (?A) (?A) (?B)
                 (?D) (?D) (?C) (?B) (?B) (?B) (?A) (?A) (?D) (?D)
                 (?C) (?A) (?A) (?D) (?D) (?C) (?A) (?A) (?B) (?A)
                 (?A) (?B) (?C) (?A) (?A) (?D) (?D) (?B) (?C) (?A)
                 (?A) (?C) (?D) (?D) (?A) (?A) (?B) (?B) (?A) (?A)
                 (?B) (?D) (?D) (?D) (?D) (?A) (?A) (?B) (?B) (?A)
                 (?A) (?B) (?B) (?C) (?A) (?A) (?D) (?D) (?C) (?A)
                 (?A) (?C) (?D) (?D) (?A) (?A) (?B) (?B) (?C) (?B)
                 (?A) (?A) (?D) (?D) (?C) (?A) (?A) (?B) (?A) (?A)
                 (?D) (?D) (?C) (?B) (?A) (?A) (?B) (?A) (?A) (?B)
                 (?D) (?D) (?A) (?A) (?C) (?B) (?D) (?D) (?A) (?A)
                 (?B) (?C) (?A) (?A) (?D) (?D) (?C) (?B) (?B) (?A)
                 (?A) (?D) (?D) (?A) (?A) (?B) (?C) (?D) (?D) (?C)
                 (?A) (?A) (?B) (?B) (?A) (?A) (?C) (?D) (?D) (?B)
                 (?A) (?A) (?C) (?B) (?A) (?A) (?A) (?A) (?A) (?A)
                 (?D) (?D) (?B) (?D) (?D) (?C) (?A) (?A) (?B) (?C)
                 (?A) (?A) (?D) (?D) (?B) (?C) (?D) (?D) (?B) (?A)
                 (?A) (?B) (?C) (?A) (?A) (?B) (?D) (?D) (?A) (?A)
                 (?C) (?D) (?D) (?B) (?A) (?A) (?C) (?A) (?A) (?D)
                 (?D) (?C) (?B) (?B) (?A) (?A) (?B) (?A) (?A) (?D)
                 (?D) (?B) (?A) (?A) (?C) (?D) (?D) (?C) (?B) (?A)
                 (?A) (?B) (?A) (?A) (?B) (?A) (?A) (?B) (?B) (?A)
                 (?A) (?B)
 Beta  Orbitals:
       Occupied  (A1) (?A) (?A) (?B) (?A) (?A) (?C) (?B) (?A) (?A)
                 (?A) (?A) (?B) (?D) (?D) (?C) (?B) (?A) (?A)
       Virtual   (?B) (?D) (?D) (?C) (?B) (?A) (?A) (?A) (?A) (?C)
                 (?B) (?D) (?D) (?A) (?A) (?B) (?A) (?A) (?B) (?A)
                 (?A) (?D) (?D) (?B) (?C) (?B) (?A) (?A) (?D) (?D)
                 (?B) (?C) (?A) (?A) (?D) (?D) (?C) (?A) (?A) (?A)
                 (?A) (?B) (?B) (?C) (?A) (?A) (?D) (?D) (?B) (?C)
                 (?A) (?A) (?D) (?D) (?C) (?B) (?A) (?A) (?B) (?A)
                 (?A) (?B) (?D) (?D) (?D) (?D) (?A) (?A) (?B) (?B)
                 (?A) (?A) (?B) (?B) (?C) (?A) (?A) (?D) (?D) (?C)
                 (?A) (?A) (?C) (?D) (?D) (?A) (?A) (?B) (?B) (?C)
                 (?B) (?A) (?A) (?D) (?D) (?C) (?A) (?A) (?B) (?A)
                 (?A) (?D) (?D) (?C) (?B) (?A) (?A) (?B) (?A) (?A)
                 (?B) (?D) (?D) (?A) (?A) (?C) (?B) (?D) (?D) (?A)
                 (?A) (?B) (?C) (?A) (?A) (?D) (?D) (?C) (?B) (?B)
                 (?A) (?A) (?D) (?D) (?A) (?A) (?B) (?C) (?D) (?D)
                 (?C) (?A) (?A) (?B) (?B) (?A) (?A) (?C) (?D) (?D)
                 (?B) (?A) (?A) (?C) (?B) (?A) (?A) (?A) (?A) (?A)
                 (?A) (?D) (?D) (?B) (?D) (?D) (?C) (?A) (?A) (?B)
                 (?C) (?A) (?A) (?D) (?D) (?B) (?C) (?D) (?D) (?B)
                 (?A) (?A) (?B) (?C) (?A) (?A) (?B) (?D) (?D) (?A)
                 (?A) (?C) (?D) (?D) (?B) (?A) (?A) (?C) (?A) (?A)
                 (?D) (?D) (?C) (?B) (?B) (?A) (?A) (?B) (?A) (?A)
                 (?D) (?D) (?B) (?A) (?A) (?C) (?D) (?D) (?C) (?B)
                 (?A) (?A) (?B) (?A) (?A) (?B) (?A) (?A) (?B) (?B)
                 (?A) (?A) (?B)
 Unable to determine electronic state:  an orbital has unidentified symmetry.
 Alpha  occ. eigenvalues --  -24.75925 -24.75925 -24.75925  -2.20954  -1.37436
 Alpha  occ. eigenvalues --   -1.37436  -1.33494  -1.18949  -1.14354  -1.14354
 Alpha  occ. eigenvalues --   -0.48194  -0.48194  -0.47967  -0.45555  -0.45555
 Alpha  occ. eigenvalues --   -0.43941  -0.43897  -0.43281  -0.43281  -0.21648
 Alpha virt. eigenvalues --   -0.06329  -0.06329  -0.02351  -0.00752   0.00589
 Alpha virt. eigenvalues --    0.00589   0.02713   0.02713   0.06343   0.09072
 Alpha virt. eigenvalues --    0.09864   0.09864   0.11505   0.11774   0.11774
 Alpha virt. eigenvalues --    0.13640   0.13640   0.32747   0.32747   0.34257
 Alpha virt. eigenvalues --    0.37533   0.37533   0.38778   0.38877   0.40192
 Alpha virt. eigenvalues --    0.42851   0.44123   0.44123   0.44737   0.44737
 Alpha virt. eigenvalues --    0.44833   0.48540   0.48540   0.51615   0.51615
 Alpha virt. eigenvalues --    0.52165   0.56037   0.56037   0.61293   0.61585
 Alpha virt. eigenvalues --    0.61585   0.62175   0.70340   0.83089   0.83089
 Alpha virt. eigenvalues --    0.86620   0.86620   0.89657   0.92416   0.99296
 Alpha virt. eigenvalues --    0.99296   1.05210   1.07254   1.07254   1.12071
 Alpha virt. eigenvalues --    1.12071   1.12441   1.15844   1.16116   1.16116
 Alpha virt. eigenvalues --    1.20353   1.45553   1.45553   1.51375   1.51375
 Alpha virt. eigenvalues --    1.52382   1.52382   1.53822   1.60630   1.67865
 Alpha virt. eigenvalues --    1.67865   1.68644   1.71127   1.73975   1.75854
 Alpha virt. eigenvalues --    1.75854   1.76117   1.76117   1.77015   1.80425
 Alpha virt. eigenvalues --    1.80425   1.89846   1.94614   1.94614   2.02298
 Alpha virt. eigenvalues --    2.02298   2.05512   2.08487   2.22446   2.29595
 Alpha virt. eigenvalues --    2.32341   2.32341   2.38813   2.38813   2.43724
 Alpha virt. eigenvalues --    2.52630   2.52630   2.77508   2.83848   2.83848
 Alpha virt. eigenvalues --    2.97240   2.97240   3.00221   3.15971   3.35015
 Alpha virt. eigenvalues --    3.35015   3.59253   4.08838   4.08838   4.14540
 Alpha virt. eigenvalues --    4.15541   4.15541   4.18142   4.18142   4.19413
 Alpha virt. eigenvalues --    4.19481   4.20907   4.20907   4.25038   4.25038
 Alpha virt. eigenvalues --    4.28005   4.31261   4.48702   4.48702   4.56759
 Alpha virt. eigenvalues --    4.56759   4.58113   4.64718   4.71817   4.83887
 Alpha virt. eigenvalues --    4.83887   5.03886   5.03886   5.13118   5.13118
 Alpha virt. eigenvalues --    5.13492   5.23155   5.44364   5.44364   5.45868
 Alpha virt. eigenvalues --    5.48677   5.48677   5.54078   5.65434   5.73541
 Alpha virt. eigenvalues --    5.73541   6.30832   6.32444   6.32444   6.35131
 Alpha virt. eigenvalues --    6.42237   6.42237   6.82778   7.03048   7.15682
 Alpha virt. eigenvalues --    7.15682   9.45141   9.45141  11.39239  11.39239
 Alpha virt. eigenvalues --   11.39454  11.39454  11.39544  11.39844  11.39844
 Alpha virt. eigenvalues --   11.39981  11.40000  11.40000  11.40638  11.40812
 Alpha virt. eigenvalues --   11.40830  11.40830  11.40840  11.40840  11.40881
 Alpha virt. eigenvalues --   11.41868  11.42534  11.42534  11.42590  11.43280
 Alpha virt. eigenvalues --   11.43280  11.43751  11.44879  11.54347  11.54347
 Alpha virt. eigenvalues --   14.56515  14.56942  14.56942  14.58444  14.58444
 Alpha virt. eigenvalues --   14.58948  14.59218  14.59218  14.61252  14.61418
 Alpha virt. eigenvalues --   14.61418  14.64151  14.75911  14.75911  14.78137
 Alpha virt. eigenvalues --   14.78137  14.80446  14.82694  14.83619  14.86139
 Alpha virt. eigenvalues --   14.86139  15.19731  15.23036  15.23036  15.82179
 Alpha virt. eigenvalues --   15.82179  15.88077  15.88177  15.88177  15.94835
 Alpha virt. eigenvalues --   16.09107  16.09107  16.11116  16.15751  16.18450
 Alpha virt. eigenvalues --   16.18450  16.32330  16.52586  16.52586  22.20936
 Alpha virt. eigenvalues --   54.11738  54.11738  54.19654  74.83854 285.10881
 Alpha virt. eigenvalues --  285.10881 285.21086
  Beta  occ. eigenvalues --  -24.75971 -24.75971 -24.75971  -2.19414  -1.36477
  Beta  occ. eigenvalues --   -1.36477  -1.30421  -1.19031  -1.14166  -1.14166
  Beta  occ. eigenvalues --   -0.48144  -0.48144  -0.47824  -0.45587  -0.45587
  Beta  occ. eigenvalues --   -0.44058  -0.43960  -0.43307  -0.43307
  Beta virt. eigenvalues --   -0.08550  -0.04763  -0.04763   0.00806   0.01065
  Beta virt. eigenvalues --    0.01221   0.01221   0.03216   0.03216   0.09059
  Beta virt. eigenvalues --    0.10897   0.11089   0.11089   0.12164   0.12164
  Beta virt. eigenvalues --    0.13182   0.14421   0.14421   0.34509   0.34695
  Beta virt. eigenvalues --    0.34695   0.38120   0.38120   0.38872   0.41187
  Beta virt. eigenvalues --    0.41398   0.44438   0.44438   0.45687   0.45687
  Beta virt. eigenvalues --    0.45703   0.48335   0.49101   0.49101   0.52782
  Beta virt. eigenvalues --    0.52782   0.53341   0.56591   0.56591   0.62262
  Beta virt. eigenvalues --    0.62262   0.62333   0.63431   0.70564   0.84005
  Beta virt. eigenvalues --    0.84005   0.89038   0.89038   0.91600   0.93404
  Beta virt. eigenvalues --    1.01513   1.01513   1.07938   1.07938   1.09730
  Beta virt. eigenvalues --    1.12789   1.13677   1.13677   1.16369   1.16436
  Beta virt. eigenvalues --    1.16436   1.20933   1.46147   1.46147   1.51751
  Beta virt. eigenvalues --    1.51751   1.52814   1.52814   1.56593   1.61094
  Beta virt. eigenvalues --    1.68152   1.68152   1.69857   1.71105   1.74025
  Beta virt. eigenvalues --    1.76129   1.76129   1.76173   1.76173   1.77071
  Beta virt. eigenvalues --    1.80482   1.80482   1.90500   1.96419   1.96419
  Beta virt. eigenvalues --    2.02561   2.02561   2.06381   2.08780   2.22740
  Beta virt. eigenvalues --    2.33398   2.34009   2.34009   2.41145   2.41145
  Beta virt. eigenvalues --    2.44355   2.53009   2.53009   2.78076   2.85357
  Beta virt. eigenvalues --    2.85357   2.97766   2.97766   3.02643   3.16748
  Beta virt. eigenvalues --    3.35667   3.35667   3.60059   4.08937   4.08937
  Beta virt. eigenvalues --    4.14518   4.15533   4.15533   4.18139   4.18139
  Beta virt. eigenvalues --    4.19396   4.19534   4.20920   4.20920   4.25114
  Beta virt. eigenvalues --    4.25114   4.28118   4.31267   4.48861   4.48861
  Beta virt. eigenvalues --    4.56932   4.56932   4.58434   4.64750   4.72074
  Beta virt. eigenvalues --    4.84209   4.84209   5.03820   5.03820   5.13081
  Beta virt. eigenvalues --    5.13081   5.13454   5.23101   5.44426   5.44426
  Beta virt. eigenvalues --    5.46020   5.48664   5.48664   5.54096   5.65498
  Beta virt. eigenvalues --    5.73716   5.73716   6.30875   6.32397   6.32397
  Beta virt. eigenvalues --    6.35116   6.42214   6.42214   6.85350   7.03118
  Beta virt. eigenvalues --    7.15802   7.15802   9.45885   9.45885  11.39199
  Beta virt. eigenvalues --   11.39199  11.39398  11.39398  11.39483  11.39788
  Beta virt. eigenvalues --   11.39788  11.39920  11.39942  11.39942  11.40577
  Beta virt. eigenvalues --   11.40738  11.40757  11.40757  11.40767  11.40767
  Beta virt. eigenvalues --   11.40815  11.41814  11.42471  11.42471  11.42557
  Beta virt. eigenvalues --   11.43234  11.43234  11.43711  11.44821  11.54327
  Beta virt. eigenvalues --   11.54327  14.56405  14.56835  14.56835  14.58334
  Beta virt. eigenvalues --   14.58334  14.58838  14.59126  14.59126  14.61164
  Beta virt. eigenvalues --   14.61341  14.61341  14.64061  14.75842  14.75842
  Beta virt. eigenvalues --   14.78040  14.78040  14.80356  14.82638  14.83549
  Beta virt. eigenvalues --   14.86077  14.86077  15.19671  15.22984  15.22984
  Beta virt. eigenvalues --   15.82052  15.82052  15.87953  15.88062  15.88062
  Beta virt. eigenvalues --   15.94711  16.08997  16.08997  16.11026  16.15703
  Beta virt. eigenvalues --   16.18391  16.18391  16.32271  16.52530  16.52530
  Beta virt. eigenvalues --   22.21432  54.11687  54.11687  54.19601  74.84330
  Beta virt. eigenvalues --  285.10863 285.10863 285.21067
          Condensed to atoms (all electrons):
               1          2          3          4
     1  Zr   9.892514   0.263500   0.263500   0.263500
     2  F    0.263500   9.169824   0.002835   0.002835
     3  F    0.263500   0.002835   9.169824   0.002835
     4  F    0.263500   0.002835   0.002835   9.169824
          Atomic-Atomic Spin Densities.
               1          2          3          4
     1  Zr   0.992420   0.009124   0.009124   0.009124
     2  F    0.009124  -0.015916   0.000098   0.000098
     3  F    0.009124   0.000098  -0.015916   0.000098
     4  F    0.009124   0.000098   0.000098  -0.015916
 Mulliken charges and spin densities:
               1          2
     1  Zr   1.316985   1.019791
     2  F   -0.438995  -0.006597
     3  F   -0.438995  -0.006597
     4  F   -0.438995  -0.006597
 Sum of Mulliken charges =  -0.00000   1.00000
 Mulliken charges and spin densities with hydrogens summed into heavy atoms:
               1          2
     1  Zr   1.316985   1.019791
     2  F   -0.438995  -0.006597
     3  F   -0.438995  -0.006597
     4  F   -0.438995  -0.006597
 Electronic spatial extent (au):  <R**2>=            437.0898
 Charge=             -0.0000 electrons
 Dipole moment (field-independent basis, Debye):
    X=             -0.0000    Y=              0.0000    Z=             -0.0000  Tot=              0.0000
 Quadrupole moment (field-independent basis, Debye-Ang):
   XX=            -42.3748   YY=            -42.3748   ZZ=            -34.7217
   XY=              0.0000   XZ=             -0.0000   YZ=              0.0000
 Traceless Quadrupole moment (field-independent basis, Debye-Ang):
   XX=             -2.5510   YY=             -2.5510   ZZ=              5.1021
   XY=              0.0000   XZ=             -0.0000   YZ=              0.0000
 Octapole moment (field-independent basis, Debye-Ang**2):
  XXX=             -0.0000  YYY=            -10.3666  ZZZ=              0.0000  XYY=             -0.0000
  XXY=             10.3666  XXZ=             -0.0000  XZZ=              0.0000  YZZ=              0.0000
  YYZ=             -0.0000  XYZ=              0.0000
 Hexadecapole moment (field-independent basis, Debye-Ang**3):
 XXXX=           -230.2126 YYYY=           -230.2126 ZZZZ=            -50.9369 XXXY=              0.0000
 XXXZ=             -0.0000 YYYX=              0.0000 YYYZ=             -0.0000 ZZZX=              0.0000
 ZZZY=              0.0000 XXYY=            -76.7375 XXZZ=            -41.8171 YYZZ=            -41.8171
 XXYZ=              0.0000 YYXZ=             -0.0000 ZZXY=             -0.0000
 N-N= 1.292770801046D+02 E-N=-1.069315383833D+03  KE= 3.138936582577D+02
 Symmetry A'   KE= 2.042976708753D+02
 Symmetry A"   KE= 1.095959873825D+02
 Symmetry A'   SP= 1.000000000000D+00
 Symmetry A"   SP=-2.670233037978D-14
                          Isotropic Fermi Contact Couplings
        Atom                 a.u.       MegaHertz       Gauss      10(-4) cm-1
     1  Zr(91)             0.00000      -0.00047      -0.00017      -0.00016
     2  F(19)              0.00258      10.84982       3.87149       3.61911
     3  F(19)              0.00258      10.84982       3.87149       3.61911
     4  F(19)              0.00258      10.84982       3.87149       3.61911
 --------------------------------------------------------
       Center         ----  Spin Dipole Couplings  ----
                      3XX-RR        3YY-RR        3ZZ-RR
 --------------------------------------------------------
     1   Atom       -0.013864     -0.013864      0.027728
     2   Atom        0.017680      0.037815     -0.055495
     3   Atom        0.032781      0.022713     -0.055495
     4   Atom        0.032781      0.022713     -0.055495
 --------------------------------------------------------
                        XY            XZ            YZ
 --------------------------------------------------------
     1   Atom        0.000000     -0.000000      0.000000
     2   Atom       -0.000000      0.000000      0.000000
     3   Atom        0.008719     -0.000000     -0.000000
     4   Atom       -0.008719      0.000000     -0.000000
 --------------------------------------------------------


 ---------------------------------------------------------------------------------
              Anisotropic Spin Dipole Couplings in Principal Axis System
 ---------------------------------------------------------------------------------

       Atom             a.u.   MegaHertz   Gauss  10(-4) cm-1        Axes

              Baa    -0.0139     0.691     0.246     0.230  0.9999 -0.0160  0.0000
     1 Zr(91) Bbb    -0.0139     0.691     0.246     0.230  0.0160  0.9999  0.0000
              Bcc     0.0277    -1.381    -0.493    -0.461  0.0000  0.0000  1.0000
 
              Baa    -0.0555   -27.871    -9.945    -9.297 -0.0000 -0.0000  1.0000
     2 F(19)  Bbb     0.0177     8.879     3.168     2.962  1.0000  0.0000  0.0000
              Bcc     0.0378    18.992     6.777     6.335 -0.0000  1.0000  0.0000
 
              Baa    -0.0555   -27.871    -9.945    -9.297  0.0000  0.0000  1.0000
     3 F(19)  Bbb     0.0177     8.879     3.168     2.962 -0.5000  0.8660  0.0000
              Bcc     0.0378    18.992     6.777     6.335  0.8660  0.5000 -0.0000
 
              Baa    -0.0555   -27.871    -9.945    -9.297 -0.0000  0.0000  1.0000
     4 F(19)  Bbb     0.0177     8.879     3.168     2.962  0.5000  0.8660  0.0000
              Bcc     0.0378    18.992     6.777     6.335  0.8660 -0.5000  0.0000
 

 ---------------------------------------------------------------------------------

 Unable to Open any file for archive entry.
 1\1\GINC-TCOPT10\FOpt\UPBE1PBE\def2QZVPP\F3Zr1(2)\HUTTER\01-Aug-2021\0
 \\#N UPBE1PBE/Def2QZVPP scf=tight Int(Grid=ultrafine) OPT FREQ\\Mol jo
 b 1\\0,2\Zr,8.0182628487,8.5,8.4992147187\F,7.0679980252,10.1459069548
 ,8.4992159736\F,7.0679980252,6.8540930452,8.4992159736\F,9.9187924955,
 8.5,8.4992159736\\Version=ES64L-G16RevC.01\HF=-346.6670381\S2=0.751544
 \S2-1=0.\S2A=0.750002\RMSD=1.684e-09\RMSF=4.767e-07\Dipole=0.,0.,-0.00
 00015\Quadrupole=-1.8966262,-1.8966262,3.7932524,0.,0.,0.\PG=C03V [C3(
 Zr1),3SGV(F1)]\\@
 The archive entry for this job was punched.


 SI MONUMENTUM REQUIRIS, CIRCUMSPICE
     -- FROM SIR CHRISTOPHER WREN'S TOMBSTONE
 Job cpu time:       0 days  0 hours 27 minutes 52.1 seconds.
 Elapsed time:       0 days  0 hours  4 minutes  4.8 seconds.
 File lengths (MBytes):  RWF=     55 Int=      0 D2E=      0 Chk=      7 Scr=      1
 Normal termination of Gaussian 16 at Sun Aug  1 18:03:16 2021.
 Link1:  Proceeding to internal job step number  2.
 ----------------------------------------------------------------------
 #N Geom=AllCheck Guess=TCheck SCRF=Check GenChk UPBE1PBE/def2QZVPP Fre
 q
 ----------------------------------------------------------------------
 1/10=4,29=7,30=1,38=1,40=1/1,3;
 2/12=2,40=1/2;
 3/5=45,7=202,11=2,14=-4,25=1,30=1,70=2,71=2,74=-13,75=-5,116=2,140=1/1,2,3;
 4/5=101/1;
 5/5=2,32=2,38=6,98=1/2;
 8/6=4,10=90,11=11/1;
 11/6=1,8=1,9=11,15=111,16=1/1,2,10;
 10/6=1/2;
 6/7=2,8=2,9=2,10=2,28=1/1;
 7/8=1,10=1,25=1/1,2,3,16;
 1/10=4,30=1/3;
 99//99;
 Structure from the checkpoint file:  "/data/hutter/SMG16/PBE0/Gau-88118.chk"
 ---------
 Mol job 1
 ---------
 Charge =  0 Multiplicity = 2
 Redundant internal coordinates found in file.  (old form).
 Zr,0,8.0182628487,8.5,8.4992147187
 F,0,7.0679980252,10.1459069548,8.4992159736
 F,0,7.0679980252,6.8540930452,8.4992159736
 F,0,9.9187924955,8.5,8.4992159736
 Recover connectivity data from disk.

 GradGradGradGradGradGradGradGradGradGradGradGradGradGradGradGradGradGrad
 Berny optimization.
 Initialization pass.
                           ----------------------------
                           !    Initial Parameters    !
                           ! (Angstroms and Degrees)  !
 --------------------------                            --------------------------
 ! Name  Definition              Value          Derivative Info.                !
 --------------------------------------------------------------------------------
 ! R1    R(1,2)                  1.9005         calculate D2E/DX2 analytically  !
 ! R2    R(1,3)                  1.9005         calculate D2E/DX2 analytically  !
 ! R3    R(1,4)                  1.9005         calculate D2E/DX2 analytically  !
 ! A1    A(2,1,3)              120.0            calculate D2E/DX2 analytically  !
 ! A2    A(2,1,4)              120.0            calculate D2E/DX2 analytically  !
 ! A3    A(3,1,4)              120.0            calculate D2E/DX2 analytically  !
 ! D1    D(2,1,4,3)            179.9999         calculate D2E/DX2 analytically  !
 --------------------------------------------------------------------------------
 Trust Radius=3.00D-01 FncErr=1.00D-07 GrdErr=1.00D-07 EigMax=2.50D+02 EigMin=1.00D-04
 Number of steps in this run=      2 maximum allowed number of steps=      2.
 GradGradGradGradGradGradGradGradGradGradGradGradGradGradGradGradGradGrad

                          Input orientation:                          
 ---------------------------------------------------------------------
 Center     Atomic      Atomic             Coordinates (Angstroms)
 Number     Number       Type             X           Y           Z
 ---------------------------------------------------------------------
      1         40           0        8.018263    8.500000    8.499215
      2          9           0        7.067998   10.145907    8.499216
      3          9           0        7.067998    6.854093    8.499216
      4          9           0        9.918792    8.500000    8.499216
 ---------------------------------------------------------------------
                    Distance matrix (angstroms):
                    1          2          3          4
     1  Zr   0.000000
     2  F    1.900530   0.000000
     3  F    1.900530   3.291814   0.000000
     4  F    1.900530   3.291814   3.291814   0.000000
 Stoichiometry    F3Zr(2)
 Framework group  C3V[C3(Zr),3SGV(F)]
 Deg. of freedom     2
 Full point group                 C3V     NOp   6
 Largest Abelian subgroup         CS      NOp   2
 Largest concise Abelian subgroup CS      NOp   2
                         Standard orientation:                         
 ---------------------------------------------------------------------
 Center     Atomic      Atomic             Coordinates (Angstroms)
 Number     Number       Type             X           Y           Z
 ---------------------------------------------------------------------
      1         40           0        0.000000    0.000000   -0.000001
      2          9           0       -0.000000    1.900530    0.000001
      3          9           0       -1.645907   -0.950265    0.000001
      4          9           0        1.645907   -0.950265    0.000001
 ---------------------------------------------------------------------
 Rotational constants (GHZ):           4.9097518           4.9097518           2.4548759
 Standard basis: def2QZVPP (5D, 7F)
 There are   189 symmetry adapted cartesian basis functions of A'  symmetry.
 There are   133 symmetry adapted cartesian basis functions of A"  symmetry.
 There are   145 symmetry adapted basis functions of A'  symmetry.
 There are   107 symmetry adapted basis functions of A"  symmetry.
   252 basis functions,   410 primitive gaussians,   322 cartesian basis functions
    20 alpha electrons       19 beta electrons
       nuclear repulsion energy       129.2770801046 Hartrees.
 NAtoms=    4 NActive=    4 NUniq=    2 SFac= 4.00D+00 NAtFMM=   60 NAOKFM=F Big=F
 Integral buffers will be    131072 words long.
 Raffenetti 2 integral format.
 Two-electron integral symmetry is turned on.
 One-electron integrals computed using PRISM.
   6 Symmetry operations used in ECPInt.
 ECPInt:  NShTT=    2628 NPrTT=    6800 LenC2=    2452 LenP2D=    5297.
 LDataN:  DoStor=T MaxTD1= 8 Len=  415
 NBasis=   252 RedAO= T EigKep=  8.75D-04  NBF=   145   107
 NBsUse=   252 1.00D-06 EigRej= -1.00D+00 NBFU=   145   107
 Defaulting to unpruned grid for atomic number  40.
 Initial guess from the checkpoint file:  "/data/hutter/SMG16/PBE0/Gau-88118.chk"
 B after Tr=     0.000000    0.000000    0.000000
         Rot=    1.000000    0.000000    0.000000   -0.000000 Ang=   0.00 deg.
 Initial guess orbital symmetries:
 Alpha Orbitals:
       Occupied  (A1) (?A) (?A) (?B) (?A) (?A) (?C) (?B) (?A) (?A)
                 (?A) (?A) (?B) (?D) (?D) (?C) (?B) (?A) (?A) (?B)
       Virtual   (?D) (?D) (?C) (?B) (?A) (?A) (?A) (?A) (?C) (?B)
                 (?D) (?D) (?B) (?A) (?A) (?A) (?A) (?A) (?A) (?B)
                 (?D) (?D) (?C) (?B) (?B) (?B) (?A) (?A) (?D) (?D)
                 (?C) (?A) (?A) (?D) (?D) (?C) (?A) (?A) (?B) (?A)
                 (?A) (?B) (?C) (?A) (?A) (?D) (?D) (?B) (?C) (?A)
                 (?A) (?C) (?D) (?D) (?A) (?A) (?B) (?B) (?A) (?A)
                 (?B) (?D) (?D) (?D) (?D) (?A) (?A) (?B) (?B) (?A)
                 (?A) (?B) (?B) (?C) (?A) (?A) (?D) (?D) (?C) (?A)
                 (?A) (?C) (?D) (?D) (?A) (?A) (?B) (?B) (?C) (?B)
                 (?A) (?A) (?D) (?D) (?C) (?A) (?A) (?B) (?A) (?A)
                 (?D) (?D) (?C) (?B) (?A) (?A) (?B) (?A) (?A) (?B)
                 (?D) (?D) (?A) (?A) (?C) (?B) (?D) (?D) (?A) (?A)
                 (?B) (?C) (?A) (?A) (?D) (?D) (?C) (?B) (?B) (?A)
                 (?A) (?D) (?D) (?A) (?A) (?B) (?C) (?D) (?D) (?C)
                 (?A) (?A) (?B) (?B) (?A) (?A) (?C) (?D) (?D) (?B)
                 (?A) (?A) (?C) (?B) (?A) (?A) (?A) (?A) (?A) (?A)
                 (?D) (?D) (?B) (?D) (?D) (?C) (?A) (?A) (?B) (?C)
                 (?A) (?A) (?D) (?D) (?B) (?C) (?D) (?D) (?B) (?A)
                 (?A) (?B) (?C) (?A) (?A) (?B) (?D) (?D) (?A) (?A)
                 (?C) (?D) (?D) (?B) (?A) (?A) (?C) (?A) (?A) (?D)
                 (?D) (?C) (?B) (?B) (?A) (?A) (?B) (?A) (?A) (?D)
                 (?D) (?B) (?A) (?A) (?C) (?D) (?D) (?C) (?B) (?A)
                 (?A) (?B) (?A) (?A) (?B) (?A) (?A) (?B) (?B) (?A)
                 (?A) (?B)
 Beta  Orbitals:
       Occupied  (A1) (?A) (?A) (?B) (?A) (?A) (?C) (?B) (?A) (?A)
                 (?A) (?A) (?B) (?D) (?D) (?C) (?B) (?A) (?A)
       Virtual   (?B) (?D) (?D) (?C) (?B) (?A) (?A) (?A) (?A) (?C)
                 (?B) (?D) (?D) (?A) (?A) (?B) (?A) (?A) (?B) (?A)
                 (?A) (?D) (?D) (?B) (?C) (?B) (?A) (?A) (?D) (?D)
                 (?B) (?C) (?A) (?A) (?D) (?D) (?C) (?A) (?A) (?A)
                 (?A) (?B) (?B) (?C) (?A) (?A) (?D) (?D) (?B) (?C)
                 (?A) (?A) (?D) (?D) (?C) (?B) (?A) (?A) (?B) (?A)
                 (?A) (?B) (?D) (?D) (?D) (?D) (?A) (?A) (?B) (?B)
                 (?A) (?A) (?B) (?B) (?C) (?A) (?A) (?D) (?D) (?C)
                 (?A) (?A) (?C) (?D) (?D) (?A) (?A) (?B) (?B) (?C)
                 (?B) (?A) (?A) (?D) (?D) (?C) (?A) (?A) (?B) (?A)
                 (?A) (?D) (?D) (?C) (?B) (?A) (?A) (?B) (?A) (?A)
                 (?B) (?D) (?D) (?A) (?A) (?C) (?B) (?D) (?D) (?A)
                 (?A) (?B) (?C) (?A) (?A) (?D) (?D) (?C) (?B) (?B)
                 (?A) (?A) (?D) (?D) (?A) (?A) (?B) (?C) (?D) (?D)
                 (?C) (?A) (?A) (?B) (?B) (?A) (?A) (?C) (?D) (?D)
                 (?B) (?A) (?A) (?C) (?B) (?A) (?A) (?A) (?A) (?A)
                 (?A) (?D) (?D) (?B) (?D) (?D) (?C) (?A) (?A) (?B)
                 (?C) (?A) (?A) (?D) (?D) (?B) (?C) (?D) (?D) (?B)
                 (?A) (?A) (?B) (?C) (?A) (?A) (?B) (?D) (?D) (?A)
                 (?A) (?C) (?D) (?D) (?B) (?A) (?A) (?C) (?A) (?A)
                 (?D) (?D) (?C) (?B) (?B) (?A) (?A) (?B) (?A) (?A)
                 (?D) (?D) (?B) (?A) (?A) (?C) (?D) (?D) (?C) (?B)
                 (?A) (?A) (?B) (?A) (?A) (?B) (?A) (?A) (?B) (?B)
                 (?A) (?A) (?B)
 Initial guess <Sx>= 0.0000 <Sy>= 0.0000 <Sz>= 0.5000 <S**2>= 0.7515 S= 0.5008
 Keep R1 and R2 ints in memory in symmetry-blocked form, NReq=762811109.
 Requested convergence on RMS density matrix=1.00D-08 within 128 cycles.
 Requested convergence on MAX density matrix=1.00D-06.
 Requested convergence on             energy=1.00D-06.
 No special actions if energy rises.
 Defaulting to unpruned grid for atomic number  40.
 Defaulting to unpruned grid for atomic number  40.
 Defaulting to unpruned grid for atomic number  40.
 Defaulting to unpruned grid for atomic number  40.
 Defaulting to unpruned grid for atomic number  40.
 Defaulting to unpruned grid for atomic number  40.
 Defaulting to unpruned grid for atomic number  40.
 Defaulting to unpruned grid for atomic number  40.
 SCF Done:  E(UPBE1PBE) =  -346.667038115     A.U. after    1 cycles
            NFock=  1  Conv=0.42D-09     -V/T= 2.1044
 <Sx>= 0.0000 <Sy>= 0.0000 <Sz>= 0.5000 <S**2>= 0.7515 S= 0.5008
 <L.S>=  0.00000000000    
 Annihilation of the first spin contaminant:
 S**2 before annihilation     0.7515,   after     0.7500
 DoSCS=F DFT=T ScalE2(SS,OS)=  1.000000  1.000000
 Range of M.O.s used for correlation:     1   252
 NBasis=   252 NAE=    20 NBE=    19 NFC=     0 NFV=     0
 NROrb=    252 NOA=    20 NOB=    19 NVA=   232 NVB=   233

 **** Warning!!: The largest alpha MO coefficient is  0.11860709D+02


 **** Warning!!: The largest beta MO coefficient is  0.11825509D+02

   6 Symmetry operations used in ECPInt.
 ECPInt:  NShTT=    2628 NPrTT=    6800 LenC2=    2452 LenP2D=    5297.
 LDataN:  DoStor=T MaxTD1= 9 Len=  602
 Symmetrizing basis deriv contribution to polar:
 IMax=3 JMax=2 DiffMx= 0.00D+00
 G2DrvN: will do     5 centers at a time, making    1 passes.
 Calling FoFCou, ICntrl=  3107 FMM=F I1Cent=   0 AccDes= 0.00D+00.
 Defaulting to unpruned grid for atomic number  40.
 Defaulting to unpruned grid for atomic number  40.
 Defaulting to unpruned grid for atomic number  40.
 Defaulting to unpruned grid for atomic number  40.
 Defaulting to unpruned grid for atomic number  40.
 Defaulting to unpruned grid for atomic number  40.
 Defaulting to unpruned grid for atomic number  40.
 Defaulting to unpruned grid for atomic number  40.
 End of G2Drv F.D. properties file   721 does not exist.
 End of G2Drv F.D. properties file   722 does not exist.
 End of G2Drv F.D. properties file   788 does not exist.
          IDoAtm=1111
          Differentiating once with respect to electric field.
                with respect to dipole field.
          Differentiating once with respect to nuclear coordinates.
 Defaulting to unpruned grid for atomic number  40.
 Keep R1 and R2 ints in memory in symmetry-blocked form, NReq=762813912.
 Defaulting to unpruned grid for atomic number  40.
 Defaulting to unpruned grid for atomic number  40.
 Defaulting to unpruned grid for atomic number  40.
 Defaulting to unpruned grid for atomic number  40.
 Defaulting to unpruned grid for atomic number  40.
 Defaulting to unpruned grid for atomic number  40.
 Defaulting to unpruned grid for atomic number  40.
 Defaulting to unpruned grid for atomic number  40.
          There are     9 degrees of freedom in the 1st order CPHF.  IDoFFX=4 NUNeed=     9.
      9 vectors produced by pass  0 Test12= 1.01D-13 1.11D-08 XBig12= 1.37D+02 1.06D+01.
 AX will form     9 AO Fock derivatives at one time.
      9 vectors produced by pass  1 Test12= 1.01D-13 1.11D-08 XBig12= 1.78D+01 1.51D+00.
      9 vectors produced by pass  2 Test12= 1.01D-13 1.11D-08 XBig12= 1.02D+00 2.16D-01.
      9 vectors produced by pass  3 Test12= 1.01D-13 1.11D-08 XBig12= 1.71D-01 1.49D-01.
      9 vectors produced by pass  4 Test12= 1.01D-13 1.11D-08 XBig12= 4.60D-03 1.64D-02.
      9 vectors produced by pass  5 Test12= 1.01D-13 1.11D-08 XBig12= 1.95D-04 3.75D-03.
      9 vectors produced by pass  6 Test12= 1.01D-13 1.11D-08 XBig12= 3.60D-06 7.54D-04.
      8 vectors produced by pass  7 Test12= 1.01D-13 1.11D-08 XBig12= 4.89D-08 3.00D-05.
      6 vectors produced by pass  8 Test12= 1.01D-13 1.11D-08 XBig12= 7.41D-10 5.63D-06.
      3 vectors produced by pass  9 Test12= 1.01D-13 1.11D-08 XBig12= 1.08D-11 8.52D-07.
      3 vectors produced by pass 10 Test12= 1.01D-13 1.11D-08 XBig12= 1.41D-13 7.60D-08.
      1 vectors produced by pass 11 Test12= 1.01D-13 1.11D-08 XBig12= 8.62D-16 2.27D-08.
 InvSVY:  IOpt=1 It=  1 EMax= 2.09D-15
 Solved reduced A of dimension    84 with     9 vectors.
 Isotropic polarizability for W=    0.000000       46.21 Bohr**3.
 End of Minotr F.D. properties file   721 does not exist.
 End of Minotr F.D. properties file   722 does not exist.
 End of Minotr F.D. properties file   788 does not exist.

 **********************************************************************

            Population analysis using the SCF Density.

 **********************************************************************

 Orbital symmetries:
 Alpha Orbitals:
       Occupied  (A1) (?A) (?A) (?B) (?A) (?A) (?C) (?B) (?A) (?A)
                 (?A) (?A) (?B) (?D) (?D) (?C) (?B) (?A) (?A) (?B)
       Virtual   (?D) (?D) (?C) (?B) (?A) (?A) (?A) (?A) (?C) (?B)
                 (?D) (?D) (?B) (?A) (?A) (?A) (?A) (?A) (?A) (?B)
                 (?D) (?D) (?C) (?B) (?B) (?B) (?A) (?A) (?D) (?D)
                 (?C) (?A) (?A) (?D) (?D) (?C) (?A) (?A) (?B) (?A)
                 (?A) (?B) (?C) (?A) (?A) (?D) (?D) (?B) (?C) (?A)
                 (?A) (?C) (?D) (?D) (?A) (?A) (?B) (?B) (?A) (?A)
                 (?B) (?D) (?D) (?D) (?D) (?A) (?A) (?B) (?B) (?A)
                 (?A) (?B) (?B) (?C) (?A) (?A) (?D) (?D) (?C) (?A)
                 (?A) (?C) (?D) (?D) (?A) (?A) (?B) (?B) (?C) (?B)
                 (?A) (?A) (?D) (?D) (?C) (?A) (?A) (?B) (?A) (?A)
                 (?D) (?D) (?C) (?B) (?A) (?A) (?B) (?A) (?A) (?B)
                 (?D) (?D) (?A) (?A) (?C) (?B) (?D) (?D) (?A) (?A)
                 (?B) (?C) (?A) (?A) (?D) (?D) (?C) (?B) (?B) (?A)
                 (?A) (?D) (?D) (?A) (?A) (?B) (?C) (?D) (?D) (?C)
                 (?A) (?A) (?B) (?B) (?A) (?A) (?C) (?D) (?D) (?B)
                 (?A) (?A) (?C) (?B) (?A) (?A) (?A) (?A) (?A) (?A)
                 (?D) (?D) (?B) (?D) (?D) (?C) (?A) (?A) (?B) (?C)
                 (?A) (?A) (?D) (?D) (?B) (?C) (?D) (?D) (?B) (?A)
                 (?A) (?B) (?C) (?A) (?A) (?B) (?D) (?D) (?A) (?A)
                 (?C) (?D) (?D) (?B) (?A) (?A) (?C) (?A) (?A) (?D)
                 (?D) (?C) (?B) (?B) (?A) (?A) (?B) (?A) (?A) (?D)
                 (?D) (?B) (?A) (?A) (?C) (?D) (?D) (?C) (?B) (?A)
                 (?A) (?B) (?A) (?A) (?B) (?A) (?A) (?B) (?B) (?A)
                 (?A) (?B)
 Beta  Orbitals:
       Occupied  (A1) (?A) (?A) (?B) (?A) (?A) (?C) (?B) (?A) (?A)
                 (?A) (?A) (?B) (?D) (?D) (?C) (?B) (?A) (?A)
       Virtual   (?B) (?D) (?D) (?C) (?B) (?A) (?A) (?A) (?A) (?C)
                 (?B) (?D) (?D) (?A) (?A) (?B) (?A) (?A) (?B) (?A)
                 (?A) (?D) (?D) (?B) (?C) (?B) (?A) (?A) (?D) (?D)
                 (?B) (?C) (?A) (?A) (?D) (?D) (?C) (?A) (?A) (?A)
                 (?A) (?B) (?B) (?C) (?A) (?A) (?D) (?D) (?B) (?C)
                 (?A) (?A) (?D) (?D) (?C) (?B) (?A) (?A) (?B) (?A)
                 (?A) (?B) (?D) (?D) (?D) (?D) (?A) (?A) (?B) (?B)
                 (?A) (?A) (?B) (?B) (?C) (?A) (?A) (?D) (?D) (?C)
                 (?A) (?A) (?C) (?D) (?D) (?A) (?A) (?B) (?B) (?C)
                 (?B) (?A) (?A) (?D) (?D) (?C) (?A) (?A) (?B) (?A)
                 (?A) (?D) (?D) (?C) (?B) (?A) (?A) (?B) (?A) (?A)
                 (?B) (?D) (?D) (?A) (?A) (?C) (?B) (?D) (?D) (?A)
                 (?A) (?B) (?C) (?A) (?A) (?D) (?D) (?C) (?B) (?B)
                 (?A) (?A) (?D) (?D) (?A) (?A) (?B) (?C) (?D) (?D)
                 (?C) (?A) (?A) (?B) (?B) (?A) (?A) (?C) (?D) (?D)
                 (?B) (?A) (?A) (?C) (?B) (?A) (?A) (?A) (?A) (?A)
                 (?A) (?D) (?D) (?B) (?D) (?D) (?C) (?A) (?A) (?B)
                 (?C) (?A) (?A) (?D) (?D) (?B) (?C) (?D) (?D) (?B)
                 (?A) (?A) (?B) (?C) (?A) (?A) (?B) (?D) (?D) (?A)
                 (?A) (?C) (?D) (?D) (?B) (?A) (?A) (?C) (?A) (?A)
                 (?D) (?D) (?C) (?B) (?B) (?A) (?A) (?B) (?A) (?A)
                 (?D) (?D) (?B) (?A) (?A) (?C) (?D) (?D) (?C) (?B)
                 (?A) (?A) (?B) (?A) (?A) (?B) (?A) (?A) (?B) (?B)
                 (?A) (?A) (?B)
 Unable to determine electronic state:  an orbital has unidentified symmetry.
 Alpha  occ. eigenvalues --  -24.75925 -24.75925 -24.75925  -2.20954  -1.37436
 Alpha  occ. eigenvalues --   -1.37436  -1.33494  -1.18949  -1.14354  -1.14354
 Alpha  occ. eigenvalues --   -0.48194  -0.48194  -0.47967  -0.45555  -0.45555
 Alpha  occ. eigenvalues --   -0.43941  -0.43897  -0.43281  -0.43281  -0.21648
 Alpha virt. eigenvalues --   -0.06329  -0.06329  -0.02351  -0.00752   0.00589
 Alpha virt. eigenvalues --    0.00589   0.02713   0.02713   0.06343   0.09072
 Alpha virt. eigenvalues --    0.09864   0.09864   0.11505   0.11774   0.11774
 Alpha virt. eigenvalues --    0.13640   0.13640   0.32747   0.32747   0.34257
 Alpha virt. eigenvalues --    0.37533   0.37533   0.38778   0.38877   0.40192
 Alpha virt. eigenvalues --    0.42851   0.44123   0.44123   0.44737   0.44737
 Alpha virt. eigenvalues --    0.44833   0.48540   0.48540   0.51615   0.51615
 Alpha virt. eigenvalues --    0.52165   0.56037   0.56037   0.61293   0.61585
 Alpha virt. eigenvalues --    0.61585   0.62175   0.70340   0.83089   0.83089
 Alpha virt. eigenvalues --    0.86620   0.86620   0.89657   0.92416   0.99296
 Alpha virt. eigenvalues --    0.99296   1.05210   1.07254   1.07254   1.12071
 Alpha virt. eigenvalues --    1.12071   1.12441   1.15844   1.16116   1.16116
 Alpha virt. eigenvalues --    1.20353   1.45553   1.45553   1.51375   1.51375
 Alpha virt. eigenvalues --    1.52382   1.52382   1.53822   1.60630   1.67865
 Alpha virt. eigenvalues --    1.67865   1.68644   1.71127   1.73975   1.75854
 Alpha virt. eigenvalues --    1.75854   1.76117   1.76117   1.77015   1.80425
 Alpha virt. eigenvalues --    1.80425   1.89846   1.94614   1.94614   2.02298
 Alpha virt. eigenvalues --    2.02298   2.05512   2.08487   2.22446   2.29595
 Alpha virt. eigenvalues --    2.32341   2.32341   2.38813   2.38813   2.43724
 Alpha virt. eigenvalues --    2.52630   2.52630   2.77508   2.83848   2.83848
 Alpha virt. eigenvalues --    2.97240   2.97240   3.00221   3.15971   3.35015
 Alpha virt. eigenvalues --    3.35015   3.59253   4.08838   4.08838   4.14540
 Alpha virt. eigenvalues --    4.15541   4.15541   4.18142   4.18142   4.19413
 Alpha virt. eigenvalues --    4.19481   4.20907   4.20907   4.25038   4.25038
 Alpha virt. eigenvalues --    4.28005   4.31261   4.48702   4.48702   4.56759
 Alpha virt. eigenvalues --    4.56759   4.58113   4.64718   4.71817   4.83887
 Alpha virt. eigenvalues --    4.83887   5.03886   5.03886   5.13118   5.13118
 Alpha virt. eigenvalues --    5.13492   5.23155   5.44364   5.44364   5.45868
 Alpha virt. eigenvalues --    5.48677   5.48677   5.54078   5.65434   5.73541
 Alpha virt. eigenvalues --    5.73541   6.30832   6.32444   6.32444   6.35131
 Alpha virt. eigenvalues --    6.42237   6.42237   6.82778   7.03048   7.15682
 Alpha virt. eigenvalues --    7.15682   9.45141   9.45141  11.39239  11.39239
 Alpha virt. eigenvalues --   11.39454  11.39454  11.39544  11.39844  11.39844
 Alpha virt. eigenvalues --   11.39981  11.40000  11.40000  11.40638  11.40812
 Alpha virt. eigenvalues --   11.40830  11.40830  11.40840  11.40840  11.40881
 Alpha virt. eigenvalues --   11.41868  11.42534  11.42534  11.42590  11.43280
 Alpha virt. eigenvalues --   11.43280  11.43751  11.44879  11.54347  11.54347
 Alpha virt. eigenvalues --   14.56515  14.56942  14.56942  14.58444  14.58444
 Alpha virt. eigenvalues --   14.58948  14.59218  14.59218  14.61252  14.61418
 Alpha virt. eigenvalues --   14.61418  14.64151  14.75911  14.75911  14.78137
 Alpha virt. eigenvalues --   14.78137  14.80446  14.82694  14.83619  14.86139
 Alpha virt. eigenvalues --   14.86139  15.19731  15.23036  15.23036  15.82179
 Alpha virt. eigenvalues --   15.82179  15.88077  15.88177  15.88177  15.94835
 Alpha virt. eigenvalues --   16.09107  16.09107  16.11116  16.15751  16.18450
 Alpha virt. eigenvalues --   16.18450  16.32330  16.52586  16.52586  22.20936
 Alpha virt. eigenvalues --   54.11738  54.11738  54.19654  74.83854 285.10881
 Alpha virt. eigenvalues --  285.10881 285.21086
  Beta  occ. eigenvalues --  -24.75971 -24.75971 -24.75971  -2.19414  -1.36477
  Beta  occ. eigenvalues --   -1.36477  -1.30421  -1.19031  -1.14166  -1.14166
  Beta  occ. eigenvalues --   -0.48144  -0.48144  -0.47824  -0.45587  -0.45587
  Beta  occ. eigenvalues --   -0.44058  -0.43960  -0.43307  -0.43307
  Beta virt. eigenvalues --   -0.08550  -0.04763  -0.04763   0.00806   0.01065
  Beta virt. eigenvalues --    0.01221   0.01221   0.03216   0.03216   0.09059
  Beta virt. eigenvalues --    0.10897   0.11089   0.11089   0.12164   0.12164
  Beta virt. eigenvalues --    0.13182   0.14421   0.14421   0.34509   0.34695
  Beta virt. eigenvalues --    0.34695   0.38120   0.38120   0.38872   0.41187
  Beta virt. eigenvalues --    0.41398   0.44438   0.44438   0.45687   0.45687
  Beta virt. eigenvalues --    0.45703   0.48335   0.49101   0.49101   0.52782
  Beta virt. eigenvalues --    0.52782   0.53341   0.56591   0.56591   0.62262
  Beta virt. eigenvalues --    0.62262   0.62333   0.63431   0.70564   0.84005
  Beta virt. eigenvalues --    0.84005   0.89038   0.89038   0.91600   0.93404
  Beta virt. eigenvalues --    1.01513   1.01513   1.07938   1.07938   1.09730
  Beta virt. eigenvalues --    1.12789   1.13677   1.13677   1.16369   1.16436
  Beta virt. eigenvalues --    1.16436   1.20933   1.46147   1.46147   1.51751
  Beta virt. eigenvalues --    1.51751   1.52814   1.52814   1.56593   1.61094
  Beta virt. eigenvalues --    1.68152   1.68152   1.69857   1.71105   1.74025
  Beta virt. eigenvalues --    1.76129   1.76129   1.76173   1.76173   1.77071
  Beta virt. eigenvalues --    1.80482   1.80482   1.90500   1.96419   1.96419
  Beta virt. eigenvalues --    2.02561   2.02561   2.06381   2.08780   2.22740
  Beta virt. eigenvalues --    2.33398   2.34009   2.34009   2.41145   2.41145
  Beta virt. eigenvalues --    2.44355   2.53009   2.53009   2.78076   2.85357
  Beta virt. eigenvalues --    2.85357   2.97766   2.97766   3.02643   3.16748
  Beta virt. eigenvalues --    3.35667   3.35667   3.60059   4.08937   4.08937
  Beta virt. eigenvalues --    4.14518   4.15533   4.15533   4.18139   4.18139
  Beta virt. eigenvalues --    4.19396   4.19534   4.20920   4.20920   4.25114
  Beta virt. eigenvalues --    4.25114   4.28118   4.31267   4.48861   4.48861
  Beta virt. eigenvalues --    4.56932   4.56932   4.58434   4.64750   4.72074
  Beta virt. eigenvalues --    4.84209   4.84209   5.03820   5.03820   5.13081
  Beta virt. eigenvalues --    5.13081   5.13454   5.23101   5.44426   5.44426
  Beta virt. eigenvalues --    5.46020   5.48664   5.48664   5.54096   5.65498
  Beta virt. eigenvalues --    5.73716   5.73716   6.30875   6.32397   6.32397
  Beta virt. eigenvalues --    6.35116   6.42214   6.42214   6.85350   7.03118
  Beta virt. eigenvalues --    7.15802   7.15802   9.45885   9.45885  11.39199
  Beta virt. eigenvalues --   11.39199  11.39398  11.39398  11.39483  11.39788
  Beta virt. eigenvalues --   11.39788  11.39920  11.39942  11.39942  11.40577
  Beta virt. eigenvalues --   11.40738  11.40757  11.40757  11.40767  11.40767
  Beta virt. eigenvalues --   11.40815  11.41814  11.42471  11.42471  11.42557
  Beta virt. eigenvalues --   11.43234  11.43234  11.43711  11.44821  11.54327
  Beta virt. eigenvalues --   11.54327  14.56405  14.56835  14.56835  14.58334
  Beta virt. eigenvalues --   14.58334  14.58838  14.59126  14.59126  14.61164
  Beta virt. eigenvalues --   14.61341  14.61341  14.64061  14.75842  14.75842
  Beta virt. eigenvalues --   14.78040  14.78040  14.80356  14.82638  14.83549
  Beta virt. eigenvalues --   14.86077  14.86077  15.19671  15.22984  15.22984
  Beta virt. eigenvalues --   15.82052  15.82052  15.87953  15.88062  15.88062
  Beta virt. eigenvalues --   15.94711  16.08997  16.08997  16.11026  16.15703
  Beta virt. eigenvalues --   16.18391  16.18391  16.32271  16.52530  16.52530
  Beta virt. eigenvalues --   22.21432  54.11687  54.11687  54.19601  74.84330
  Beta virt. eigenvalues --  285.10863 285.10863 285.21067
          Condensed to atoms (all electrons):
               1          2          3          4
     1  Zr   9.892514   0.263500   0.263500   0.263500
     2  F    0.263500   9.169824   0.002835   0.002835
     3  F    0.263500   0.002835   9.169824   0.002835
     4  F    0.263500   0.002835   0.002835   9.169824
          Atomic-Atomic Spin Densities.
               1          2          3          4
     1  Zr   0.992420   0.009124   0.009124   0.009124
     2  F    0.009124  -0.015916   0.000098   0.000098
     3  F    0.009124   0.000098  -0.015916   0.000098
     4  F    0.009124   0.000098   0.000098  -0.015916
 Mulliken charges and spin densities:
               1          2
     1  Zr   1.316985   1.019791
     2  F   -0.438995  -0.006597
     3  F   -0.438995  -0.006597
     4  F   -0.438995  -0.006597
 Sum of Mulliken charges =   0.00000   1.00000
 Mulliken charges and spin densities with hydrogens summed into heavy atoms:
               1          2
     1  Zr   1.316985   1.019791
     2  F   -0.438995  -0.006597
     3  F   -0.438995  -0.006597
     4  F   -0.438995  -0.006597
 APT charges:
               1
     1  Zr   1.924998
     2  F   -0.641636
     3  F   -0.641658
     4  F   -0.641658
 Sum of APT charges =   0.00004
 APT charges with hydrogens summed into heavy atoms:
               1
     1  Zr   1.924998
     2  F   -0.641636
     3  F   -0.641658
     4  F   -0.641658
 Electronic spatial extent (au):  <R**2>=            437.0898
 Charge=             -0.0000 electrons
 Dipole moment (field-independent basis, Debye):
    X=             -0.0000    Y=             -0.0000    Z=             -0.0000  Tot=              0.0000
 Quadrupole moment (field-independent basis, Debye-Ang):
   XX=            -42.3748   YY=            -42.3748   ZZ=            -34.7217
   XY=             -0.0000   XZ=             -0.0000   YZ=              0.0000
 Traceless Quadrupole moment (field-independent basis, Debye-Ang):
   XX=             -2.5510   YY=             -2.5510   ZZ=              5.1021
   XY=             -0.0000   XZ=             -0.0000   YZ=              0.0000
 Octapole moment (field-independent basis, Debye-Ang**2):
  XXX=             -0.0000  YYY=            -10.3666  ZZZ=              0.0000  XYY=              0.0000
  XXY=             10.3666  XXZ=             -0.0000  XZZ=             -0.0000  YZZ=             -0.0000
  YYZ=             -0.0000  XYZ=              0.0000
 Hexadecapole moment (field-independent basis, Debye-Ang**3):
 XXXX=           -230.2126 YYYY=           -230.2126 ZZZZ=            -50.9369 XXXY=             -0.0000
 XXXZ=             -0.0000 YYYX=             -0.0000 YYYZ=             -0.0000 ZZZX=             -0.0000
 ZZZY=             -0.0000 XXYY=            -76.7375 XXZZ=            -41.8171 YYZZ=            -41.8171
 XXYZ=              0.0000 YYXZ=              0.0000 ZZXY=             -0.0000
 N-N= 1.292770801046D+02 E-N=-1.069315383847D+03  KE= 3.138936581271D+02
 Symmetry A'   KE= 2.042976708417D+02
 Symmetry A"   KE= 1.095959872855D+02
 Symmetry A'   SP= 1.000000000000D+00
 Symmetry A"   SP= 8.066139326157D-15
  Exact polarizability:      38.386       0.000      38.389       0.000      -0.000      61.845
 Approx polarizability:      50.311       0.000      50.311       0.000       0.000      72.698
                          Isotropic Fermi Contact Couplings
        Atom                 a.u.       MegaHertz       Gauss      10(-4) cm-1
     1  Zr(91)             0.00000      -0.00047      -0.00017      -0.00016
     2  F(19)              0.00258      10.84982       3.87148       3.61911
     3  F(19)              0.00258      10.84982       3.87148       3.61911
     4  F(19)              0.00258      10.84982       3.87148       3.61911
 --------------------------------------------------------
       Center         ----  Spin Dipole Couplings  ----
                      3XX-RR        3YY-RR        3ZZ-RR
 --------------------------------------------------------
     1   Atom       -0.013864     -0.013864      0.027728
     2   Atom        0.017680      0.037815     -0.055495
     3   Atom        0.032781      0.022713     -0.055495
     4   Atom        0.032781      0.022713     -0.055495
 --------------------------------------------------------
                        XY            XZ            YZ
 --------------------------------------------------------
     1   Atom        0.000000     -0.000000     -0.000000
     2   Atom       -0.000000      0.000000      0.000000
     3   Atom        0.008719     -0.000000     -0.000000
     4   Atom       -0.008719      0.000000     -0.000000
 --------------------------------------------------------


 ---------------------------------------------------------------------------------
              Anisotropic Spin Dipole Couplings in Principal Axis System
 ---------------------------------------------------------------------------------

       Atom             a.u.   MegaHertz   Gauss  10(-4) cm-1        Axes

              Baa    -0.0139     0.691     0.246     0.230  0.9933 -0.1158  0.0000
     1 Zr(91) Bbb    -0.0139     0.691     0.246     0.230  0.1158  0.9933  0.0000
              Bcc     0.0277    -1.381    -0.493    -0.461  0.0000  0.0000  1.0000
 
              Baa    -0.0555   -27.871    -9.945    -9.297 -0.0000 -0.0000  1.0000
     2 F(19)  Bbb     0.0177     8.879     3.168     2.962  1.0000  0.0000  0.0000
              Bcc     0.0378    18.992     6.777     6.335 -0.0000  1.0000  0.0000
 
              Baa    -0.0555   -27.871    -9.945    -9.297  0.0000  0.0000  1.0000
     3 F(19)  Bbb     0.0177     8.879     3.168     2.962 -0.5000  0.8660 -0.0000
              Bcc     0.0378    18.992     6.777     6.335  0.8660  0.5000 -0.0000
 
              Baa    -0.0555   -27.871    -9.945    -9.297 -0.0000  0.0000  1.0000
     4 F(19)  Bbb     0.0177     8.879     3.168     2.962  0.5000  0.8660 -0.0000
              Bcc     0.0378    18.992     6.777     6.335  0.8660 -0.5000  0.0000
 

 ---------------------------------------------------------------------------------

   6 Symmetry operations used in ECPInt.
 ECPInt:  NShTT=    2628 NPrTT=    6800 LenC2=    2452 LenP2D=    5297.
 LDataN:  DoStor=T MaxTD1=10 Len=  848
 Calling FoFJK, ICntrl=    100127 FMM=F ISym2X=1 I1Cent= 0 IOpClX= 1 NMat=1 NMatS=1 NMatT=0.
 Defaulting to unpruned grid for atomic number  40.
 Defaulting to unpruned grid for atomic number  40.
 Defaulting to unpruned grid for atomic number  40.
 Defaulting to unpruned grid for atomic number  40.
 Defaulting to unpruned grid for atomic number  40.
 Defaulting to unpruned grid for atomic number  40.
 Defaulting to unpruned grid for atomic number  40.
 Defaulting to unpruned grid for atomic number  40.
 Full mass-weighted force constant matrix:
 Low frequencies ---   -6.4028   -6.3991   -0.0156   -0.0047    0.2119    8.4000
 Low frequencies ---   58.7810  160.8711  160.8717
 Diagonal vibrational polarizability:
       23.1944181      23.1930983      77.6776492
 Harmonic frequencies (cm**-1), IR intensities (KM/Mole), Raman scattering
 activities (A**4/AMU), depolarization ratios for plane and unpolarized
 incident light, reduced masses (AMU), force constants (mDyne/A),
 and normal coordinates:
                      1                      2                      3
                     A1                     ?A                     ?A
 Frequencies --     58.7810               160.8711               160.8717
 Red. masses --     27.3752                21.0999                21.0999
 Frc consts  --      0.0557                 0.3217                 0.3217
 IR Inten    --      9.9732                10.4320                10.4321
  Atom  AN      X      Y      Z        X      Y      Z        X      Y      Z
     1  40    -0.00  -0.00   0.34     0.00  -0.17  -0.00    -0.17  -0.00   0.00
     2   9    -0.00   0.00  -0.54    -0.00  -0.23   0.00     0.77  -0.00   0.00
     3   9    -0.00  -0.00  -0.54    -0.43   0.52  -0.00     0.02  -0.43  -0.00
     4   9     0.00  -0.00  -0.54     0.43   0.52  -0.00     0.02   0.43   0.00
                      4                      5                      6
                     ?B                     ?A                     ?A
 Frequencies --    637.4795               673.2476               673.2507
 Red. masses --     18.9984                23.9395                23.9396
 Frc consts  --      4.5488                 6.3932                 6.3932
 IR Inten    --      0.0000               207.9299               207.9530
  Atom  AN      X      Y      Z        X      Y      Z        X      Y      Z
     1  40    -0.00  -0.00  -0.00     0.00  -0.26  -0.00    -0.26  -0.00  -0.00
     2   9     0.00   0.58   0.00    -0.00   0.79   0.00     0.05   0.00   0.00
     3   9    -0.50  -0.29   0.00     0.32   0.23  -0.00     0.60   0.32  -0.00
     4   9     0.50  -0.29   0.00    -0.32   0.23  -0.00     0.60  -0.32   0.00

 -------------------
 - Thermochemistry -
 -------------------
 Temperature   298.150 Kelvin.  Pressure   1.00000 Atm.
 Atom     1 has atomic number 40 and mass  89.90430
 Atom     2 has atomic number  9 and mass  18.99840
 Atom     3 has atomic number  9 and mass  18.99840
 Atom     4 has atomic number  9 and mass  18.99840
 Molecular mass:   146.89951 amu.
 Principal axes and moments of inertia in atomic units:
                           1         2         3
     Eigenvalues --   367.58298 367.58298 735.16596
           X            0.62155   0.78337   0.00000
           Y            0.78337  -0.62155   0.00000
           Z           -0.00000  -0.00000   1.00000
 This molecule is an oblate symmetric top.
 Rotational symmetry number  3.
 Rotational temperatures (Kelvin)      0.23563     0.23563     0.11782
 Rotational constants (GHZ):           4.90975     4.90975     2.45488
 Zero-point vibrational energy      14142.9 (Joules/Mol)
                                    3.38022 (Kcal/Mol)
 Warning -- explicit consideration of   3 degrees of freedom as
           vibrations may cause significant error
 Vibrational temperatures:     84.57   231.46   231.46   917.19   968.65
          (Kelvin)            968.66
 
 Zero-point correction=                           0.005387 (Hartree/Particle)
 Thermal correction to Energy=                    0.010673
 Thermal correction to Enthalpy=                  0.011618
 Thermal correction to Gibbs Free Energy=        -0.024874
 Sum of electronic and zero-point Energies=           -346.661651
 Sum of electronic and thermal Energies=              -346.656365
 Sum of electronic and thermal Enthalpies=            -346.655421
 Sum of electronic and thermal Free Energies=         -346.691912
 
                     E (Thermal)             CV                S
                      KCal/Mol        Cal/Mol-Kelvin    Cal/Mol-Kelvin
 Total                    6.698             14.432             76.803
 Electronic               0.000              0.000              1.377
 Translational            0.889              2.981             40.864
 Rotational               0.889              2.981             23.916
 Vibrational              4.920              8.471             10.645
 Vibration     1          0.596              1.974              4.498
 Vibration     2          0.622              1.890              2.540
 Vibration     3          0.622              1.890              2.540
                       Q            Log10(Q)             Ln(Q)
 Total Bot       0.276173D+12         11.441181         26.344292
 Total V=0       0.829665D+14         13.918903         32.049458
 Vib (Bot)       0.524679D-01         -1.280106         -2.947553
 Vib (Bot)    1  0.351358D+01          0.545750          1.256635
 Vib (Bot)    2  0.125635D+01          0.099112          0.228214
 Vib (Bot)    3  0.125635D+01          0.099110          0.228210
 Vib (V=0)       0.157622D+02          1.197616          2.757612
 Vib (V=0)    1  0.404898D+01          0.607345          1.398464
 Vib (V=0)    2  0.185219D+01          0.267686          0.616370
 Vib (V=0)    3  0.185219D+01          0.267685          0.616368
 Electronic      0.200000D+01          0.301030          0.693147
 Translational   0.699817D+08          7.844984         18.063744
 Rotational      0.376073D+05          4.575272         10.534954
 ***** Axes restored to original set *****
 -------------------------------------------------------------------
 Center     Atomic                   Forces (Hartrees/Bohr)
 Number     Number              X              Y              Z
 -------------------------------------------------------------------
      1       40           0.000000000   -0.000000000    0.000000016
      2        9          -0.000000475    0.000000823   -0.000000005
      3        9          -0.000000475   -0.000000823   -0.000000005
      4        9           0.000000950   -0.000000000   -0.000000005
 -------------------------------------------------------------------
 Cartesian Forces:  Max     0.000000950 RMS     0.000000475
 FormGI is forming the generalized inverse of G from B-inverse, IUseBI=4.

 GradGradGradGradGradGradGradGradGradGradGradGradGradGradGradGradGradGrad
 Berny optimization.
 Internal  Forces:  Max     0.000000950 RMS     0.000000622
 Search for a local minimum.
 Step number   1 out of a maximum of    2
 All quantities printed in internal units (Hartrees-Bohrs-Radians)
 Second derivative matrix not updated -- analytic derivatives used.
 The second derivative matrix:
                          R1        R2        R3        A1        A2
           R1           0.25810
           R2           0.01704   0.25810
           R3           0.01704   0.01704   0.25810
           A1          -0.00678  -0.00678   0.01356   0.04527
           A2          -0.00678   0.01356  -0.00678  -0.02264   0.04527
           A3           0.01356  -0.00678  -0.00678  -0.02263  -0.02263
           D1          -0.00000  -0.00000  -0.00000  -0.00000   0.00000
                          A3        D1
           A3           0.04527
           D1           0.00000   0.00491
 ITU=  0
     Eigenvalues ---    0.00491   0.06555   0.06555   0.24342   0.24342
     Eigenvalues ---    0.29217
 Angle between quadratic step and forces=  30.03 degrees.
 Linear search not attempted -- first point.
 Iteration  1 RMS(Cart)=  0.00000241 RMS(Int)=  0.00000000
 Iteration  2 RMS(Cart)=  0.00000000 RMS(Int)=  0.00000000
 ClnCor:  largest displacement from symmetrization is 8.76D-11 for atom     3.
 Variable       Old X    -DE/DX   Delta X   Delta X   Delta X     New X
                                 (Linear)    (Quad)   (Total)
    R1        3.59148   0.00000   0.00000   0.00000   0.00000   3.59148
    R2        3.59148   0.00000   0.00000   0.00000   0.00000   3.59148
    R3        3.59148   0.00000   0.00000   0.00000   0.00000   3.59148
    A1        2.09440   0.00000   0.00000  -0.00000   0.00000   2.09440
    A2        2.09440   0.00000   0.00000  -0.00000   0.00000   2.09440
    A3        2.09440  -0.00000   0.00000   0.00000   0.00000   2.09440
    D1        3.14159   0.00000   0.00000   0.00000   0.00000  -3.14159
         Item               Value     Threshold  Converged?
 Maximum Force            0.000001     0.000450     YES
 RMS     Force            0.000001     0.000300     YES
 Maximum Displacement     0.000003     0.001800     YES
 RMS     Displacement     0.000002     0.001200     YES
 Predicted change in Energy=-4.663149D-12
 Optimization completed.
    -- Stationary point found.
                           ----------------------------
                           !   Optimized Parameters   !
                           ! (Angstroms and Degrees)  !
 --------------------------                            --------------------------
 ! Name  Definition              Value          Derivative Info.                !
 --------------------------------------------------------------------------------
 ! R1    R(1,2)                  1.9005         -DE/DX =    0.0                 !
 ! R2    R(1,3)                  1.9005         -DE/DX =    0.0                 !
 ! R3    R(1,4)                  1.9005         -DE/DX =    0.0                 !
 ! A1    A(2,1,3)              120.0            -DE/DX =    0.0                 !
 ! A2    A(2,1,4)              120.0            -DE/DX =    0.0                 !
 ! A3    A(3,1,4)              120.0            -DE/DX =    0.0                 !
 ! D1    D(2,1,4,3)           -180.0001         -DE/DX =    0.0                 !
 --------------------------------------------------------------------------------
 GradGradGradGradGradGradGradGradGradGradGradGradGradGradGradGradGradGrad


 ----------------------------------------------------------------------

 Electric dipole moment (input orientation):
 (Debye = 10**-18 statcoulomb cm , SI units = C m)
                  (au)            (Debye)         (10**-30 SI)
   Tot        0.000000D+00      0.000000D+00      0.000000D+00
   x          0.000000D+00      0.000000D+00      0.000000D+00
   y          0.000000D+00      0.000000D+00      0.000000D+00
   z          0.000000D+00      0.000000D+00      0.000000D+00

 Dipole polarizability, Alpha (input orientation).
 (esu units = cm**3 , SI units = C**2 m**2 J**-1)
 Alpha(0;0):
               (au)            (10**-24 esu)      (10**-40 SI)
   iso        0.462069D+02      0.684716D+01      0.761849D+01
   aniso      0.234575D+02      0.347604D+01      0.386762D+01
   xx         0.383871D+02      0.568838D+01      0.632918D+01
   yx        -0.112125D-02     -0.166152D-03     -0.184869D-03
   yy         0.383884D+02      0.568857D+01      0.632939D+01
   zx         0.000000D+00      0.000000D+00      0.000000D+00
   zy         0.000000D+00      0.000000D+00      0.000000D+00
   zz         0.618452D+02      0.916452D+01      0.101969D+02

 ----------------------------------------------------------------------

 Dipole orientation:
    40         15.15232077        -16.06267195        -16.06118821
     9         13.35658051        -19.17298532        -16.06119060
     9         13.35658051        -12.95235858        -16.06119056
     9         18.74380130        -16.06267195        -16.06119058

 Electric dipole moment (dipole orientation):
 (Debye = 10**-18 statcoulomb cm , SI units = C m)
                  (au)            (Debye)         (10**-30 SI)
   Tot        0.000000D+00      0.000000D+00      0.000000D+00
   x          0.000000D+00      0.000000D+00      0.000000D+00
   y          0.000000D+00      0.000000D+00      0.000000D+00
   z          0.000000D+00      0.000000D+00      0.000000D+00

 Dipole polarizability, Alpha (dipole orientation).
 (esu units = cm**3 , SI units = C**2 m**2 J**-1)
 Alpha(0;0):
               (au)            (10**-24 esu)      (10**-40 SI)
   iso        0.462069D+02      0.684716D+01      0.761849D+01
   aniso      0.234575D+02      0.347604D+01      0.386762D+01
   xx         0.383871D+02      0.568838D+01      0.632918D+01
   yx         0.112125D-02      0.166152D-03      0.184869D-03
   yy         0.383884D+02      0.568857D+01      0.632939D+01
   zx         0.000000D+00      0.000000D+00      0.000000D+00
   zy         0.000000D+00      0.000000D+00      0.000000D+00
   zz         0.618452D+02      0.916452D+01      0.101969D+02

 ----------------------------------------------------------------------
 Unable to Open any file for archive entry.
 1\1\GINC-TCOPT10\Freq\UPBE1PBE\def2QZVPP\F3Zr1(2)\HUTTER\01-Aug-2021\0
 \\#N Geom=AllCheck Guess=TCheck SCRF=Check GenChk UPBE1PBE/def2QZVPP F
 req\\Mol job 1\\0,2\Zr,8.0182628487,8.5,8.4992147187\F,7.0679980252,10
 .1459069548,8.4992159736\F,7.0679980252,6.8540930452,8.4992159736\F,9.
 9187924955,8.5,8.4992159736\\Version=ES64L-G16RevC.01\HF=-346.6670381\
 S2=0.751544\S2-1=0.\S2A=0.750002\RMSD=4.164e-10\RMSF=4.752e-07\ZeroPoi
 nt=0.0053867\Thermal=0.0106734\ETot=-346.6563647\HTot=-346.6554205\GTo
 t=-346.691912\Dipole=0.,0.,-0.0000016\DipoleDeriv=2.588843,0.0000815,0
 .,0.0000815,2.5887489,0.,0.,0.,0.5974011,-0.6382746,0.3890726,0.000000
 6,0.3890726,-1.0875369,-0.000001,0.0000004,-0.0000007,-0.1990973,-0.63
 83033,-0.3890787,0.0000006,-0.3891103,-1.0875475,0.000001,0.0000004,0.
 0000007,-0.1991246,-1.3122022,-0.0000346,-0.0000012,-0.000003,-0.41364
 86,0.,-0.0000009,0.,-0.1991246\Polar=38.3870863,-0.0011212,38.388381,0
 .,0.,61.8452422\Quadrupole=-1.8966259,-1.8966259,3.7932519,0.,0.,0.\PG
 =C03V [C3(Zr1),3SGV(F1)]\NImag=0\\0.41471047,0.00000646,0.41470301,0.,
 0.,0.00456934,-0.08191629,0.09754343,0.00000011,0.07243388,0.09754343,
 -0.19454974,-0.00000019,-0.10719309,0.19620980,0.00000009,-0.00000016,
 -0.00151859,-0.00000009,0.00000016,0.00048657,-0.08191752,-0.09754543,
 0.00000011,0.01309834,-0.00793620,-0.00000002,0.07243388,-0.09754653,-
 0.19455236,0.00000019,0.00793620,-0.00918716,-0.00000001,0.10719309,0.
 19620980,0.00000009,0.00000016,-0.00152198,-0.00000002,0.00000001,0.00
 051601,-0.00000009,-0.00000016,0.00048657,-0.25087094,-0.00000123,-0.0
 0000021,-0.00361579,0.01758611,0.00000002,-0.00361579,-0.01758611,0.00
 000002,0.25809775,-0.00000013,-0.02559893,0.,0.00171371,0.00752696,0.,
 -0.00171371,0.00752696,0.,0.,0.01054592,-0.00000018,0.,-0.00152198,0.,
 0.00000002,0.00051601,0.,-0.00000002,0.00051601,0.00000018,0.,0.000486
 57\\0.,0.,-0.00000002,0.00000048,-0.00000082,0.,0.00000048,0.00000082,
 0.,-0.00000095,0.,0.\\\@
 The archive entry for this job was punched.


 HE THAT RISETH LATE MUST TROT ALL DAY.

                  -- BENJAMIN FRANKLIN
 Job cpu time:       0 days  0 hours 21 minutes  0.5 seconds.
 Elapsed time:       0 days  0 hours  2 minutes 39.1 seconds.
 File lengths (MBytes):  RWF=     55 Int=      0 D2E=      0 Chk=      8 Scr=      1
 Normal termination of Gaussian 16 at Sun Aug  1 18:05:55 2021.
