 Entering Gaussian System, Link 0=g16
 Initial command:
 /sw-ng/spack/opt/spack/linux-opensuse_leap15-sandybridge/pgi-18.10/gaussian-src-16-C.01-zldqaomctopxhethwccpmxmwefdscg3m/g16/l1.exe "/data/hutter/SMG16/PBE0/Gau-19414.inp" -scrdir="/data/hutter/SMG16/PBE0/"
 Entering Link 1 = /sw-ng/spack/opt/spack/linux-opensuse_leap15-sandybridge/pgi-18.10/gaussian-src-16-C.01-zldqaomctopxhethwccpmxmwefdscg3m/g16/l1.exe PID=     19422.
  
 Copyright (c) 1988-2019, Gaussian, Inc.  All Rights Reserved.
  
 This is part of the Gaussian(R) 16 program.  It is based on
 the Gaussian(R) 09 system (copyright 2009, Gaussian, Inc.),
 the Gaussian(R) 03 system (copyright 2003, Gaussian, Inc.),
 the Gaussian(R) 98 system (copyright 1998, Gaussian, Inc.),
 the Gaussian(R) 94 system (copyright 1995, Gaussian, Inc.),
 the Gaussian 92(TM) system (copyright 1992, Gaussian, Inc.),
 the Gaussian 90(TM) system (copyright 1990, Gaussian, Inc.),
 the Gaussian 88(TM) system (copyright 1988, Gaussian, Inc.),
 the Gaussian 86(TM) system (copyright 1986, Carnegie Mellon
 University), and the Gaussian 82(TM) system (copyright 1983,
 Carnegie Mellon University). Gaussian is a federally registered
 trademark of Gaussian, Inc.
  
 This software contains proprietary and confidential information,
 including trade secrets, belonging to Gaussian, Inc.
  
 This software is provided under written license and may be
 used, copied, transmitted, or stored only in accord with that
 written license.
  
 The following legend is applicable only to US Government
 contracts under FAR:
  
                    RESTRICTED RIGHTS LEGEND
  
 Use, reproduction and disclosure by the US Government is
 subject to restrictions as set forth in subparagraphs (a)
 and (c) of the Commercial Computer Software - Restricted
 Rights clause in FAR 52.227-19.
  
 Gaussian, Inc.
 340 Quinnipiac St., Bldg. 40, Wallingford CT 06492
  
  
 ---------------------------------------------------------------
 Warning -- This program may not be used in any manner that
 competes with the business of Gaussian, Inc. or will provide
 assistance to any competitor of Gaussian, Inc.  The licensee
 of this program is prohibited from giving any competitor of
 Gaussian, Inc. access to this program.  By using this program,
 the user acknowledges that Gaussian, Inc. is engaged in the
 business of creating and licensing software in the field of
 computational chemistry and represents and warrants to the
 licensee that it is not a competitor of Gaussian, Inc. and that
 it will not use this program in any manner prohibited above.
 ---------------------------------------------------------------
  

 Cite this work as:
 Gaussian 16, Revision C.01,
 M. J. Frisch, G. W. Trucks, H. B. Schlegel, G. E. Scuseria, 
 M. A. Robb, J. R. Cheeseman, G. Scalmani, V. Barone, 
 G. A. Petersson, H. Nakatsuji, X. Li, M. Caricato, A. V. Marenich, 
 J. Bloino, B. G. Janesko, R. Gomperts, B. Mennucci, H. P. Hratchian, 
 J. V. Ortiz, A. F. Izmaylov, J. L. Sonnenberg, D. Williams-Young, 
 F. Ding, F. Lipparini, F. Egidi, J. Goings, B. Peng, A. Petrone, 
 T. Henderson, D. Ranasinghe, V. G. Zakrzewski, J. Gao, N. Rega, 
 G. Zheng, W. Liang, M. Hada, M. Ehara, K. Toyota, R. Fukuda, 
 J. Hasegawa, M. Ishida, T. Nakajima, Y. Honda, O. Kitao, H. Nakai, 
 T. Vreven, K. Throssell, J. A. Montgomery, Jr., J. E. Peralta, 
 F. Ogliaro, M. J. Bearpark, J. J. Heyd, E. N. Brothers, K. N. Kudin, 
 V. N. Staroverov, T. A. Keith, R. Kobayashi, J. Normand, 
 K. Raghavachari, A. P. Rendell, J. C. Burant, S. S. Iyengar, 
 J. Tomasi, M. Cossi, J. M. Millam, M. Klene, C. Adamo, R. Cammi, 
 J. W. Ochterski, R. L. Martin, K. Morokuma, O. Farkas, 
 J. B. Foresman, and D. J. Fox, Gaussian, Inc., Wallingford CT, 2019.
 
 ******************************************
 Gaussian 16:  ES64L-G16RevC.01  3-Jul-2019
                 1-Aug-2021 
 ******************************************
 %mem=8GB
 %NProcShare=8
 Will use up to    8 processors via shared memory.
 ------------------------------------------------------------
 #N RPBE1PBE/Def2QZVPP scf=tight Int(Grid=ultrafine) OPT FREQ
 ------------------------------------------------------------
 1/18=20,19=15,26=4,38=1/1,3;
 2/9=110,12=2,17=6,18=5,40=1/2;
 3/5=45,7=202,11=2,25=1,30=1,71=1,74=-13,75=-5,116=1/1,2,3;
 4//1;
 5/5=2,32=2,38=5/2;
 6/7=2,8=2,9=2,10=2,28=1/1;
 7//1,2,3,16;
 1/18=20,19=15,26=4/3(2);
 2/9=110/2;
 99//99;
 2/9=110/2;
 3/5=45,7=202,11=2,25=1,30=1,71=1,74=-13,75=-5,116=1/1,2,3;
 4/5=5,16=3,69=1/1;
 5/5=2,32=2,38=5/2;
 7//1,2,3,16;
 1/18=20,19=15,26=4/3(-5);
 2/9=110/2;
 6/7=2,8=2,9=2,10=2,19=2,28=1/1;
 99/9=1/99;
 ---------
 Mol job 1
 ---------
 Symbolic Z-matrix:
 Charge =  0 Multiplicity = 1
 Rb                    8.5       8.5       7.26313 
 H                     8.5       8.5       9.73687 
 

 GradGradGradGradGradGradGradGradGradGradGradGradGradGradGradGradGradGrad
 Berny optimization.
 Initialization pass.
                           ----------------------------
                           !    Initial Parameters    !
                           ! (Angstroms and Degrees)  !
 --------------------------                            --------------------------
 ! Name  Definition              Value          Derivative Info.                !
 --------------------------------------------------------------------------------
 ! R1    R(1,2)                  2.4737         estimate D2E/DX2                !
 --------------------------------------------------------------------------------
 Trust Radius=3.00D-01 FncErr=1.00D-07 GrdErr=1.00D-06 EigMax=2.50D+02 EigMin=1.00D-04
 Number of steps in this run=     20 maximum allowed number of steps=    100.
 GradGradGradGradGradGradGradGradGradGradGradGradGradGradGradGradGradGrad

                          Input orientation:                          
 ---------------------------------------------------------------------
 Center     Atomic      Atomic             Coordinates (Angstroms)
 Number     Number       Type             X           Y           Z
 ---------------------------------------------------------------------
      1         37           0        8.500000    8.500000    7.263128
      2          1           0        8.500000    8.500000    9.736872
 ---------------------------------------------------------------------
 Stoichiometry    HRb
 Framework group  C*V[C*(HRb)]
 Deg. of freedom     1
 Full point group                 C*V     NOp   4
 Largest Abelian subgroup         C2V     NOp   4
 Largest concise Abelian subgroup C1      NOp   1
                         Standard orientation:                         
 ---------------------------------------------------------------------
 Center     Atomic      Atomic             Coordinates (Angstroms)
 Number     Number       Type             X           Y           Z
 ---------------------------------------------------------------------
      1         37           0        0.000000    0.000000    0.065099
      2          1           0        0.000000    0.000000   -2.408646
 ---------------------------------------------------------------------
 Rotational constants (GHZ):           0.0000000          82.9175737          82.9175737
 Standard basis: def2QZVPP (5D, 7F)
 There are    49 symmetry adapted cartesian basis functions of A1  symmetry.
 There are    10 symmetry adapted cartesian basis functions of A2  symmetry.
 There are    26 symmetry adapted cartesian basis functions of B1  symmetry.
 There are    26 symmetry adapted cartesian basis functions of B2  symmetry.
 There are    39 symmetry adapted basis functions of A1  symmetry.
 There are    10 symmetry adapted basis functions of A2  symmetry.
 There are    22 symmetry adapted basis functions of B1  symmetry.
 There are    22 symmetry adapted basis functions of B2  symmetry.
    93 basis functions,   130 primitive gaussians,   111 cartesian basis functions
     5 alpha electrons        5 beta electrons
       nuclear repulsion energy         1.9252571329 Hartrees.
 NAtoms=    2 NActive=    2 NUniq=    2 SFac= 1.00D+00 NAtFMM=   60 NAOKFM=F Big=F
 Integral buffers will be    131072 words long.
 Raffenetti 2 integral format.
 Two-electron integral symmetry is turned on.
 One-electron integrals computed using PRISM.
   4 Symmetry operations used in ECPInt.
 ECPInt:  NShTT=     435 NPrTT=     717 LenC2=     436 LenP2D=     702.
 LDataN:  DoStor=T MaxTD1= 7 Len=  274
 NBasis=    93 RedAO= T EigKep=  5.45D-03  NBF=    39    10    22    22
 NBsUse=    93 1.00D-06 EigRej= -1.00D+00 NBFU=    39    10    22    22
 Defaulting to unpruned grid for atomic number  37.
 ExpMin= 9.54D-03 ExpMax= 1.91D+02 ExpMxC= 2.86D+01 IAcc=3 IRadAn=         5 AccDes= 0.00D+00
 Harris functional with IExCor= 1009 and IRadAn=       5 diagonalized for initial guess.
 HarFok:  IExCor= 1009 AccDes= 0.00D+00 IRadAn=         5 IDoV= 1 UseB2=F ITyADJ=14
 ICtDFT=  3500011 ScaDFX=  1.000000  1.000000  1.000000  1.000000
 Defaulting to unpruned grid for atomic number  37.
 FoFCou: FMM=F IPFlag=           0 FMFlag=      100000 FMFlg1=           0
         NFxFlg=           0 DoJE=T BraDBF=F KetDBF=T FulRan=T
         wScrn=  0.000000 ICntrl=       500 IOpCl=  0 I1Cent=   200000004 NGrid=           0
         NMat0=    1 NMatS0=      1 NMatT0=    0 NMatD0=    1 NMtDS0=    0 NMtDT0=    0
 Petite list used in FoFCou.
 Initial guess orbital symmetries:
       Occupied  (SG) (SG) (PI) (PI) (SG)
       Virtual   (SG) (PI) (PI) (SG) (PI) (PI) (SG) (DLTA) (DLTA)
                 (SG) (PI) (PI) (SG) (DLTA) (DLTA) (PI) (PI) (SG)
                 (SG) (PI) (PI) (SG) (DLTA) (DLTA) (PI) (PI) (DLTA)
                 (DLTA) (PHI) (PHI) (SG) (PI) (PI) (SG) (SG) (PI)
                 (PI) (SG) (DLTA) (DLTA) (PI) (PI) (SG) (SG) (SG)
                 (PI) (PI) (DLTA) (DLTA) (PHI) (PHI) (SG) (SG)
                 (PI) (PI) (DLTA) (DLTA) (PI) (PI) (SG) (PI) (PI)
                 (SG) (DLTA) (DLTA) (PHI) (PHI) (PI) (PI) (SG)
                 (SG) (DLTA) (DLTA) (PI) (PI) (PHI) (PHI) (SG)
                 (PI) (PI) (SG) (DLTA) (DLTA) (PI) (PI) (SG) (SG)
                 (SG)
 The electronic state of the initial guess is 1-SG.
 Keep R1 ints in memory in symmetry-blocked form, NReq=17046956.
 Requested convergence on RMS density matrix=1.00D-08 within 128 cycles.
 Requested convergence on MAX density matrix=1.00D-06.
 Requested convergence on             energy=1.00D-06.
 No special actions if energy rises.
 Defaulting to unpruned grid for atomic number  37.
 Defaulting to unpruned grid for atomic number  37.
 Defaulting to unpruned grid for atomic number  37.
 Defaulting to unpruned grid for atomic number  37.
 Defaulting to unpruned grid for atomic number  37.
 Defaulting to unpruned grid for atomic number  37.
 Defaulting to unpruned grid for atomic number  37.
 Defaulting to unpruned grid for atomic number  37.
 SCF Done:  E(RPBE1PBE) =  -24.6417615951     A.U. after   11 cycles
            NFock= 11  Conv=0.63D-09     -V/T= 4.0109

 **********************************************************************

            Population analysis using the SCF Density.

 **********************************************************************

 Orbital symmetries:
       Occupied  (SG) (PI) (PI) (SG) (SG)
       Virtual   (SG) (PI) (PI) (SG) (DLTA) (DLTA) (SG) (PI) (PI)
                 (SG) (PI) (PI) (SG) (DLTA) (DLTA) (PI) (PI) (SG)
                 (SG) (DLTA) (DLTA) (PI) (PI) (SG) (PI) (PI) (PHI)
                 (PHI) (DLTA) (DLTA) (SG) (PI) (PI) (SG) (SG) (PI)
                 (PI) (DLTA) (DLTA) (SG) (PI) (PI) (SG) (SG) (SG)
                 (PHI) (PHI) (PI) (PI) (DLTA) (DLTA) (SG) (PI)
                 (PI) (SG) (DLTA) (DLTA) (PI) (PI) (SG) (PI) (PI)
                 (SG) (PHI) (PHI) (DLTA) (DLTA) (PI) (PI) (SG)
                 (SG) (DLTA) (DLTA) (PI) (PI) (PHI) (PHI) (SG)
                 (PI) (PI) (SG) (DLTA) (DLTA) (PI) (PI) (SG) (SG)
                 (SG)
 The electronic state is 1-SG.
 Alpha  occ. eigenvalues --   -1.28392  -0.64617  -0.64617  -0.63884  -0.15047
 Alpha virt. eigenvalues --   -0.04318  -0.00449  -0.00449   0.00645   0.02036
 Alpha virt. eigenvalues --    0.02036   0.02271   0.02394   0.02394   0.03533
 Alpha virt. eigenvalues --    0.04847   0.04847   0.05250   0.05703   0.05703
 Alpha virt. eigenvalues --    0.06689   0.06689   0.11659   0.14954   0.16986
 Alpha virt. eigenvalues --    0.16986   0.17332   0.17332   0.18320   0.23052
 Alpha virt. eigenvalues --    0.23052   0.23421   0.23421   0.23836   0.23836
 Alpha virt. eigenvalues --    0.26712   0.29259   0.29259   0.31762   0.40524
 Alpha virt. eigenvalues --    0.65820   0.65820   0.73194   0.73195   0.76335
 Alpha virt. eigenvalues --    0.76884   0.76884   0.82929   0.93246   1.21202
 Alpha virt. eigenvalues --    1.23015   1.23015   1.23077   1.23077   1.23714
 Alpha virt. eigenvalues --    1.23714   1.40781   1.41852   1.41852   1.44399
 Alpha virt. eigenvalues --    2.03253   2.03253   2.05451   2.05451   2.21313
 Alpha virt. eigenvalues --    2.43806   2.43806   2.71566   3.46575   3.46575
 Alpha virt. eigenvalues --    3.46921   3.46922   3.48614   3.48614   3.63653
 Alpha virt. eigenvalues --    5.39856   5.95769   5.95769   5.96027   5.96027
 Alpha virt. eigenvalues --    5.96260   5.96260   5.99431   7.72662   7.72662
 Alpha virt. eigenvalues --    7.86741   8.00998   8.00998   8.04661   8.04661
 Alpha virt. eigenvalues --    8.21317  13.08783  39.31899
          Condensed to atoms (all electrons):
               1          2
     1  Rb   8.299836   0.298264
     2  H    0.298264   1.103636
 Mulliken charges:
               1
     1  Rb   0.401900
     2  H   -0.401900
 Sum of Mulliken charges =  -0.00000
 Mulliken charges with hydrogens summed into heavy atoms:
               1
     1  Rb  -0.000000
 Electronic spatial extent (au):  <R**2>=             75.3986
 Charge=             -0.0000 electrons
 Dipole moment (field-independent basis, Debye):
    X=              0.0000    Y=              0.0000    Z=              8.3219  Tot=              8.3219
 Quadrupole moment (field-independent basis, Debye-Ang):
   XX=            -18.0128   YY=            -18.0128   ZZ=            -37.3388
   XY=              0.0000   XZ=              0.0000   YZ=              0.0000
 Traceless Quadrupole moment (field-independent basis, Debye-Ang):
   XX=              6.4420   YY=              6.4420   ZZ=            -12.8840
   XY=              0.0000   XZ=              0.0000   YZ=              0.0000
 Octapole moment (field-independent basis, Debye-Ang**2):
  XXX=              0.0000  YYY=              0.0000  ZZZ=             68.7647  XYY=              0.0000
  XXY=              0.0000  XXZ=             10.3742  XZZ=              0.0000  YZZ=              0.0000
  YYZ=             10.3742  XYZ=              0.0000
 Hexadecapole moment (field-independent basis, Debye-Ang**3):
 XXXX=            -34.1514 YYYY=            -34.1514 ZZZZ=           -265.0929 XXXY=              0.0000
 XXXZ=              0.0000 YYYX=              0.0000 YYYZ=              0.0000 ZZZX=              0.0000
 ZZZY=              0.0000 XXYY=            -11.3838 XXZZ=            -36.9515 YYZZ=            -36.9515
 XXYZ=              0.0000 YYXZ=              0.0000 ZZXY=              0.0000
 N-N= 1.925257132939D+00 E-N=-5.237629431535D+01  KE= 8.184275444815D+00
 Symmetry A1   KE= 4.209960070898D+00
 Symmetry A2   KE= 1.054533854987D-51
 Symmetry B1   KE= 1.987157686959D+00
 Symmetry B2   KE= 1.987157686959D+00
   4 Symmetry operations used in ECPInt.
 ECPInt:  NShTT=     435 NPrTT=     717 LenC2=     436 LenP2D=     702.
 LDataN:  DoStor=T MaxTD1= 8 Len=  415
 Calling FoFJK, ICntrl=      2127 FMM=F ISym2X=1 I1Cent= 0 IOpClX= 0 NMat=1 NMatS=1 NMatT=0.
 Defaulting to unpruned grid for atomic number  37.
 Defaulting to unpruned grid for atomic number  37.
 Defaulting to unpruned grid for atomic number  37.
 Defaulting to unpruned grid for atomic number  37.
 Defaulting to unpruned grid for atomic number  37.
 Defaulting to unpruned grid for atomic number  37.
 Defaulting to unpruned grid for atomic number  37.
 Defaulting to unpruned grid for atomic number  37.
 ***** Axes restored to original set *****
 -------------------------------------------------------------------
 Center     Atomic                   Forces (Hartrees/Bohr)
 Number     Number              X              Y              Z
 -------------------------------------------------------------------
      1       37          -0.000000000   -0.000000000    0.003818410
      2        1          -0.000000000   -0.000000000   -0.003818410
 -------------------------------------------------------------------
 Cartesian Forces:  Max     0.003818410 RMS     0.002204560

 GradGradGradGradGradGradGradGradGradGradGradGradGradGradGradGradGradGrad
 Berny optimization.
 FormGI is forming the generalized inverse of G from B-inverse, IUseBI=4.
 Internal  Forces:  Max     0.003818410 RMS     0.003818410
 Search for a local minimum.
 Step number   1 out of a maximum of   20
 All quantities printed in internal units (Hartrees-Bohrs-Radians)
 Mixed Optimization -- RFO/linear search
 Second derivative matrix not updated -- first step.
 The second derivative matrix:
                          R1
           R1           0.03059
 ITU=  0
     Eigenvalues ---    0.03059
 RFO step:  Lambda=-4.69358725D-04 EMin= 3.05948443D-02
 Linear search not attempted -- first point.
 Iteration  1 RMS(Cart)=  0.08691752 RMS(Int)=  0.00000000
 Iteration  2 RMS(Cart)=  0.00000000 RMS(Int)=  0.00000000
 ClnCor:  largest displacement from symmetrization is 0.00D+00 for atom     0.
 Variable       Old X    -DE/DX   Delta X   Delta X   Delta X     New X
                                 (Linear)    (Quad)   (Total)
    R1        4.67470  -0.00382   0.00000  -0.12292  -0.12292   4.55178
         Item               Value     Threshold  Converged?
 Maximum Force            0.003818     0.000450     NO 
 RMS     Force            0.003818     0.000300     NO 
 Maximum Displacement     0.061460     0.001800     NO 
 RMS     Displacement     0.086918     0.001200     NO 
 Predicted change in Energy=-2.382252D-04
 GradGradGradGradGradGradGradGradGradGradGradGradGradGradGradGradGradGrad

                          Input orientation:                          
 ---------------------------------------------------------------------
 Center     Atomic      Atomic             Coordinates (Angstroms)
 Number     Number       Type             X           Y           Z
 ---------------------------------------------------------------------
      1         37           0        8.500000    8.500000    7.295651
      2          1           0        8.500000    8.500000    9.704349
 ---------------------------------------------------------------------
 Stoichiometry    HRb
 Framework group  C*V[C*(HRb)]
 Deg. of freedom     1
 Full point group                 C*V     NOp   4
 Largest Abelian subgroup         C2V     NOp   4
 Largest concise Abelian subgroup C1      NOp   1
                         Standard orientation:                         
 ---------------------------------------------------------------------
 Center     Atomic      Atomic             Coordinates (Angstroms)
 Number     Number       Type             X           Y           Z
 ---------------------------------------------------------------------
      1         37           0        0.000000    0.000000    0.063387
      2          1           0        0.000000    0.000000   -2.345312
 ---------------------------------------------------------------------
 Rotational constants (GHZ):           0.0000000          87.4563880          87.4563880
 Standard basis: def2QZVPP (5D, 7F)
 There are    49 symmetry adapted cartesian basis functions of A1  symmetry.
 There are    10 symmetry adapted cartesian basis functions of A2  symmetry.
 There are    26 symmetry adapted cartesian basis functions of B1  symmetry.
 There are    26 symmetry adapted cartesian basis functions of B2  symmetry.
 There are    39 symmetry adapted basis functions of A1  symmetry.
 There are    10 symmetry adapted basis functions of A2  symmetry.
 There are    22 symmetry adapted basis functions of B1  symmetry.
 There are    22 symmetry adapted basis functions of B2  symmetry.
    93 basis functions,   130 primitive gaussians,   111 cartesian basis functions
     5 alpha electrons        5 beta electrons
       nuclear repulsion energy         1.9772483265 Hartrees.
 NAtoms=    2 NActive=    2 NUniq=    2 SFac= 1.00D+00 NAtFMM=   60 NAOKFM=F Big=F
 Integral buffers will be    131072 words long.
 Raffenetti 2 integral format.
 Two-electron integral symmetry is turned on.
 One-electron integrals computed using PRISM.
   4 Symmetry operations used in ECPInt.
 ECPInt:  NShTT=     435 NPrTT=     717 LenC2=     436 LenP2D=     702.
 LDataN:  DoStor=T MaxTD1= 7 Len=  274
 NBasis=    93 RedAO= T EigKep=  5.44D-03  NBF=    39    10    22    22
 NBsUse=    93 1.00D-06 EigRej= -1.00D+00 NBFU=    39    10    22    22
 Defaulting to unpruned grid for atomic number  37.
 Initial guess from the checkpoint file:  "/data/hutter/SMG16/PBE0/Gau-19422.chk"
 B after Tr=     0.000000    0.000000    0.000000
         Rot=    1.000000    0.000000    0.000000    0.000000 Ang=   0.00 deg.
 Initial guess orbital symmetries:
       Occupied  (SG) (PI) (PI) (SG) (SG)
       Virtual   (SG) (PI) (PI) (SG) (DLTA) (DLTA) (SG) (PI) (PI)
                 (SG) (PI) (PI) (SG) (DLTA) (DLTA) (PI) (PI) (SG)
                 (SG) (DLTA) (DLTA) (PI) (PI) (SG) (PI) (PI) (PHI)
                 (PHI) (DLTA) (DLTA) (SG) (PI) (PI) (SG) (SG) (PI)
                 (PI) (DLTA) (DLTA) (SG) (PI) (PI) (SG) (SG) (SG)
                 (PHI) (PHI) (PI) (PI) (DLTA) (DLTA) (SG) (PI)
                 (PI) (SG) (DLTA) (DLTA) (PI) (PI) (SG) (PI) (PI)
                 (SG) (PHI) (PHI) (DLTA) (DLTA) (PI) (PI) (SG)
                 (SG) (DLTA) (DLTA) (PI) (PI) (PHI) (PHI) (SG)
                 (PI) (PI) (SG) (DLTA) (DLTA) (PI) (PI) (SG) (SG)
                 (SG)
 ExpMin= 9.54D-03 ExpMax= 1.91D+02 ExpMxC= 2.86D+01 IAcc=3 IRadAn=         5 AccDes= 0.00D+00
 Harris functional with IExCor= 1009 and IRadAn=       5 diagonalized for initial guess.
 HarFok:  IExCor= 1009 AccDes= 0.00D+00 IRadAn=         5 IDoV= 1 UseB2=F ITyADJ=14
 ICtDFT=  3500011 ScaDFX=  1.000000  1.000000  1.000000  1.000000
 Defaulting to unpruned grid for atomic number  37.
 FoFCou: FMM=F IPFlag=           0 FMFlag=      100000 FMFlg1=           0
         NFxFlg=           0 DoJE=T BraDBF=F KetDBF=T FulRan=T
         wScrn=  0.000000 ICntrl=       500 IOpCl=  0 I1Cent=   200000004 NGrid=           0
         NMat0=    1 NMatS0=      1 NMatT0=    0 NMatD0=    1 NMtDS0=    0 NMtDT0=    0
 Petite list used in FoFCou.
 Keep R1 ints in memory in symmetry-blocked form, NReq=17046956.
 Requested convergence on RMS density matrix=1.00D-08 within 128 cycles.
 Requested convergence on MAX density matrix=1.00D-06.
 Requested convergence on             energy=1.00D-06.
 No special actions if energy rises.
 Defaulting to unpruned grid for atomic number  37.
 Defaulting to unpruned grid for atomic number  37.
 Defaulting to unpruned grid for atomic number  37.
 Defaulting to unpruned grid for atomic number  37.
 Defaulting to unpruned grid for atomic number  37.
 Defaulting to unpruned grid for atomic number  37.
 Defaulting to unpruned grid for atomic number  37.
 Defaulting to unpruned grid for atomic number  37.
 SCF Done:  E(RPBE1PBE) =  -24.6420176300     A.U. after    8 cycles
            NFock=  8  Conv=0.32D-08     -V/T= 4.0067
   4 Symmetry operations used in ECPInt.
 ECPInt:  NShTT=     435 NPrTT=     717 LenC2=     436 LenP2D=     702.
 LDataN:  DoStor=T MaxTD1= 8 Len=  415
 Calling FoFJK, ICntrl=      2127 FMM=F ISym2X=1 I1Cent= 0 IOpClX= 0 NMat=1 NMatS=1 NMatT=0.
 Defaulting to unpruned grid for atomic number  37.
 Defaulting to unpruned grid for atomic number  37.
 Defaulting to unpruned grid for atomic number  37.
 Defaulting to unpruned grid for atomic number  37.
 Defaulting to unpruned grid for atomic number  37.
 Defaulting to unpruned grid for atomic number  37.
 Defaulting to unpruned grid for atomic number  37.
 Defaulting to unpruned grid for atomic number  37.
 ***** Axes restored to original set *****
 -------------------------------------------------------------------
 Center     Atomic                   Forces (Hartrees/Bohr)
 Number     Number              X              Y              Z
 -------------------------------------------------------------------
      1       37          -0.000000000   -0.000000000    0.000231084
      2        1          -0.000000000   -0.000000000   -0.000231084
 -------------------------------------------------------------------
 Cartesian Forces:  Max     0.000231084 RMS     0.000133417

 GradGradGradGradGradGradGradGradGradGradGradGradGradGradGradGradGradGrad
 Berny optimization.
 Using GEDIIS/GDIIS optimizer.
 Internal  Forces:  Max     0.000231084 RMS     0.000231084
 Search for a local minimum.
 Step number   2 out of a maximum of   20
 All quantities printed in internal units (Hartrees-Bohrs-Radians)
 Mixed Optimization -- En-DIIS/RFO-DIIS
 Update second derivatives using D2CorX and points    1    2
 DE= -2.56D-04 DEPred=-2.38D-04 R= 1.07D+00
 TightC=F SS=  1.41D+00  RLast= 1.23D-01 DXNew= 5.0454D-01 3.6876D-01
 Trust test= 1.07D+00 RLast= 1.23D-01 DXMaxT set to 3.69D-01
 The second derivative matrix:
                          R1
           R1           0.02918
 ITU=  1  0
 Use linear search instead of GDIIS.
     Eigenvalues ---    0.02918
 RFO step:  Lambda= 0.00000000D+00 EMin= 2.91842448D-02
 Quartic linear search produced a step of  0.05830.
 Iteration  1 RMS(Cart)=  0.00506751 RMS(Int)=  0.00000000
 Iteration  2 RMS(Cart)=  0.00000000 RMS(Int)=  0.00000000
 ClnCor:  largest displacement from symmetrization is 0.00D+00 for atom     0.
 Variable       Old X    -DE/DX   Delta X   Delta X   Delta X     New X
                                 (Linear)    (Quad)   (Total)
    R1        4.55178  -0.00023  -0.00717   0.00000  -0.00717   4.54461
         Item               Value     Threshold  Converged?
 Maximum Force            0.000231     0.000450     YES
 RMS     Force            0.000231     0.000300     YES
 Maximum Displacement     0.003583     0.001800     NO 
 RMS     Displacement     0.005068     0.001200     NO 
 Predicted change in Energy=-9.066342D-07
 GradGradGradGradGradGradGradGradGradGradGradGradGradGradGradGradGradGrad

                          Input orientation:                          
 ---------------------------------------------------------------------
 Center     Atomic      Atomic             Coordinates (Angstroms)
 Number     Number       Type             X           Y           Z
 ---------------------------------------------------------------------
      1         37           0        8.500000    8.500000    7.297547
      2          1           0        8.500000    8.500000    9.702453
 ---------------------------------------------------------------------
 Stoichiometry    HRb
 Framework group  C*V[C*(HRb)]
 Deg. of freedom     1
 Full point group                 C*V     NOp   4
 Largest Abelian subgroup         C2V     NOp   4
 Largest concise Abelian subgroup C1      NOp   1
                         Standard orientation:                         
 ---------------------------------------------------------------------
 Center     Atomic      Atomic             Coordinates (Angstroms)
 Number     Number       Type             X           Y           Z
 ---------------------------------------------------------------------
      1         37           0        0.000000    0.000000    0.063287
      2          1           0        0.000000    0.000000   -2.341619
 ---------------------------------------------------------------------
 Rotational constants (GHZ):           0.0000000          87.7324308          87.7324308
 Standard basis: def2QZVPP (5D, 7F)
 There are    49 symmetry adapted cartesian basis functions of A1  symmetry.
 There are    10 symmetry adapted cartesian basis functions of A2  symmetry.
 There are    26 symmetry adapted cartesian basis functions of B1  symmetry.
 There are    26 symmetry adapted cartesian basis functions of B2  symmetry.
 There are    39 symmetry adapted basis functions of A1  symmetry.
 There are    10 symmetry adapted basis functions of A2  symmetry.
 There are    22 symmetry adapted basis functions of B1  symmetry.
 There are    22 symmetry adapted basis functions of B2  symmetry.
    93 basis functions,   130 primitive gaussians,   111 cartesian basis functions
     5 alpha electrons        5 beta electrons
       nuclear repulsion energy         1.9803663101 Hartrees.
 NAtoms=    2 NActive=    2 NUniq=    2 SFac= 1.00D+00 NAtFMM=   60 NAOKFM=F Big=F
 Integral buffers will be    131072 words long.
 Raffenetti 2 integral format.
 Two-electron integral symmetry is turned on.
 One-electron integrals computed using PRISM.
   4 Symmetry operations used in ECPInt.
 ECPInt:  NShTT=     435 NPrTT=     717 LenC2=     436 LenP2D=     702.
 LDataN:  DoStor=T MaxTD1= 7 Len=  274
 NBasis=    93 RedAO= T EigKep=  5.44D-03  NBF=    39    10    22    22
 NBsUse=    93 1.00D-06 EigRej= -1.00D+00 NBFU=    39    10    22    22
 Defaulting to unpruned grid for atomic number  37.
 Initial guess from the checkpoint file:  "/data/hutter/SMG16/PBE0/Gau-19422.chk"
 B after Tr=     0.000000    0.000000    0.000000
         Rot=    1.000000    0.000000    0.000000    0.000000 Ang=   0.00 deg.
 Initial guess orbital symmetries:
       Occupied  (SG) (PI) (PI) (SG) (SG)
       Virtual   (SG) (PI) (PI) (SG) (DLTA) (DLTA) (SG) (PI) (PI)
                 (SG) (PI) (PI) (SG) (DLTA) (DLTA) (PI) (PI) (SG)
                 (SG) (DLTA) (DLTA) (PI) (PI) (SG) (PI) (PI) (PHI)
                 (PHI) (DLTA) (DLTA) (SG) (PI) (PI) (SG) (SG) (PI)
                 (PI) (DLTA) (DLTA) (SG) (PI) (PI) (SG) (SG) (SG)
                 (PI) (PI) (PHI) (PHI) (DLTA) (DLTA) (SG) (PI)
                 (PI) (SG) (DLTA) (DLTA) (PI) (PI) (SG) (PI) (PI)
                 (SG) (PHI) (PHI) (DLTA) (DLTA) (PI) (PI) (SG)
                 (SG) (DLTA) (DLTA) (PHI) (PHI) (PI) (PI) (SG)
                 (PI) (PI) (SG) (DLTA) (DLTA) (PI) (PI) (SG) (SG)
                 (SG)
 Keep R1 ints in memory in symmetry-blocked form, NReq=17046956.
 Requested convergence on RMS density matrix=1.00D-08 within 128 cycles.
 Requested convergence on MAX density matrix=1.00D-06.
 Requested convergence on             energy=1.00D-06.
 No special actions if energy rises.
 Defaulting to unpruned grid for atomic number  37.
 Defaulting to unpruned grid for atomic number  37.
 Defaulting to unpruned grid for atomic number  37.
 Defaulting to unpruned grid for atomic number  37.
 Defaulting to unpruned grid for atomic number  37.
 Defaulting to unpruned grid for atomic number  37.
 Defaulting to unpruned grid for atomic number  37.
 Defaulting to unpruned grid for atomic number  37.
 SCF Done:  E(RPBE1PBE) =  -24.6420184586     A.U. after    6 cycles
            NFock=  6  Conv=0.69D-08     -V/T= 4.0064
   4 Symmetry operations used in ECPInt.
 ECPInt:  NShTT=     435 NPrTT=     717 LenC2=     436 LenP2D=     702.
 LDataN:  DoStor=T MaxTD1= 8 Len=  415
 Calling FoFJK, ICntrl=      2127 FMM=F ISym2X=1 I1Cent= 0 IOpClX= 0 NMat=1 NMatS=1 NMatT=0.
 Defaulting to unpruned grid for atomic number  37.
 Defaulting to unpruned grid for atomic number  37.
 Defaulting to unpruned grid for atomic number  37.
 Defaulting to unpruned grid for atomic number  37.
 Defaulting to unpruned grid for atomic number  37.
 Defaulting to unpruned grid for atomic number  37.
 Defaulting to unpruned grid for atomic number  37.
 Defaulting to unpruned grid for atomic number  37.
 ***** Axes restored to original set *****
 -------------------------------------------------------------------
 Center     Atomic                   Forces (Hartrees/Bohr)
 Number     Number              X              Y              Z
 -------------------------------------------------------------------
      1       37          -0.000000000   -0.000000000   -0.000000260
      2        1          -0.000000000   -0.000000000    0.000000260
 -------------------------------------------------------------------
 Cartesian Forces:  Max     0.000000260 RMS     0.000000150

 GradGradGradGradGradGradGradGradGradGradGradGradGradGradGradGradGradGrad
 Berny optimization.
 Using GEDIIS/GDIIS optimizer.
 Internal  Forces:  Max     0.000000260 RMS     0.000000260
 Search for a local minimum.
 Step number   3 out of a maximum of   20
 All quantities printed in internal units (Hartrees-Bohrs-Radians)
 Mixed Optimization -- En-DIIS/RFO-DIIS
 Swapping is turned off.
 Update second derivatives using D2CorX and points    2    3
 DE= -8.29D-07 DEPred=-9.07D-07 R= 9.14D-01
 Trust test= 9.14D-01 RLast= 7.17D-03 DXMaxT set to 3.69D-01
 The second derivative matrix:
                          R1
           R1           0.03228
 ITU=  0  1
     Eigenvalues ---    0.03228
 En-DIIS/RFO-DIIS/Sim-DIIS IScMMF=       -3 using points:     3    2
 RFO step:  Lambda=-2.09322837D-12.
 DidBck=F Rises=F RFO-DIIS coefs:    0.99888    0.00112
 Iteration  1 RMS(Cart)=  0.00000569 RMS(Int)=  0.00000000
 Iteration  2 RMS(Cart)=  0.00000000 RMS(Int)=  0.00000000
 ClnCor:  largest displacement from symmetrization is 0.00D+00 for atom     0.
 Variable       Old X    -DE/DX   Delta X   Delta X   Delta X     New X
                                 (Linear)    (Quad)   (Total)
    R1        4.54461   0.00000   0.00001  -0.00000   0.00001   4.54462
         Item               Value     Threshold  Converged?
 Maximum Force            0.000000     0.000450     YES
 RMS     Force            0.000000     0.000300     YES
 Maximum Displacement     0.000004     0.001800     YES
 RMS     Displacement     0.000006     0.001200     YES
 Predicted change in Energy=-1.046613D-12
 Optimization completed.
    -- Stationary point found.
                           ----------------------------
                           !   Optimized Parameters   !
                           ! (Angstroms and Degrees)  !
 --------------------------                            --------------------------
 ! Name  Definition              Value          Derivative Info.                !
 --------------------------------------------------------------------------------
 ! R1    R(1,2)                  2.4049         -DE/DX =    0.0                 !
 --------------------------------------------------------------------------------
 GradGradGradGradGradGradGradGradGradGradGradGradGradGradGradGradGradGrad

                          Input orientation:                          
 ---------------------------------------------------------------------
 Center     Atomic      Atomic             Coordinates (Angstroms)
 Number     Number       Type             X           Y           Z
 ---------------------------------------------------------------------
      1         37           0        8.500000    8.500000    7.297547
      2          1           0        8.500000    8.500000    9.702453
 ---------------------------------------------------------------------
 Stoichiometry    HRb
 Framework group  C*V[C*(HRb)]
 Deg. of freedom     1
 Full point group                 C*V     NOp   4
 Largest Abelian subgroup         C2V     NOp   4
 Largest concise Abelian subgroup C1      NOp   1
                         Standard orientation:                         
 ---------------------------------------------------------------------
 Center     Atomic      Atomic             Coordinates (Angstroms)
 Number     Number       Type             X           Y           Z
 ---------------------------------------------------------------------
      1         37           0        0.000000    0.000000    0.063287
      2          1           0        0.000000    0.000000   -2.341619
 ---------------------------------------------------------------------
 Rotational constants (GHZ):           0.0000000          87.7324308          87.7324308

 **********************************************************************

            Population analysis using the SCF Density.

 **********************************************************************

 Orbital symmetries:
       Occupied  (SG) (PI) (PI) (SG) (SG)
       Virtual   (SG) (PI) (PI) (SG) (DLTA) (DLTA) (SG) (PI) (PI)
                 (SG) (PI) (PI) (SG) (DLTA) (DLTA) (PI) (PI) (SG)
                 (SG) (DLTA) (DLTA) (PI) (PI) (SG) (PI) (PI) (PHI)
                 (PHI) (DLTA) (DLTA) (SG) (PI) (PI) (SG) (SG) (PI)
                 (PI) (DLTA) (DLTA) (SG) (PI) (PI) (SG) (SG) (SG)
                 (PI) (PI) (PHI) (PHI) (DLTA) (DLTA) (SG) (PI)
                 (PI) (SG) (DLTA) (DLTA) (PI) (PI) (SG) (PI) (PI)
                 (SG) (PHI) (PHI) (DLTA) (DLTA) (PI) (PI) (SG)
                 (SG) (DLTA) (DLTA) (PHI) (PHI) (PI) (PI) (SG)
                 (PI) (PI) (SG) (DLTA) (DLTA) (PI) (PI) (SG) (SG)
                 (SG)
 The electronic state is 1-SG.
 Alpha  occ. eigenvalues --   -1.28097  -0.64338  -0.64338  -0.63630  -0.15158
 Alpha virt. eigenvalues --   -0.04172  -0.00383  -0.00383   0.00702   0.02063
 Alpha virt. eigenvalues --    0.02063   0.02329   0.02411   0.02411   0.03513
 Alpha virt. eigenvalues --    0.04918   0.04918   0.05302   0.05777   0.05777
 Alpha virt. eigenvalues --    0.06735   0.06735   0.11619   0.15070   0.17129
 Alpha virt. eigenvalues --    0.17129   0.17455   0.17455   0.18645   0.23100
 Alpha virt. eigenvalues --    0.23100   0.23525   0.23525   0.23924   0.23924
 Alpha virt. eigenvalues --    0.26573   0.29374   0.29374   0.32090   0.41421
 Alpha virt. eigenvalues --    0.66572   0.66572   0.73428   0.73428   0.75435
 Alpha virt. eigenvalues --    0.76983   0.76983   0.83022   0.94349   1.22523
 Alpha virt. eigenvalues --    1.23003   1.23003   1.23271   1.23271   1.23983
 Alpha virt. eigenvalues --    1.23983   1.40993   1.42015   1.42015   1.45992
 Alpha virt. eigenvalues --    2.03138   2.03138   2.05805   2.05805   2.25974
 Alpha virt. eigenvalues --    2.44656   2.44656   2.74525   3.46859   3.46859
 Alpha virt. eigenvalues --    3.47208   3.47208   3.49640   3.49640   3.65569
 Alpha virt. eigenvalues --    5.40755   5.95471   5.95471   5.96022   5.96022
 Alpha virt. eigenvalues --    5.96104   5.96104   6.00537   7.73146   7.73146
 Alpha virt. eigenvalues --    7.87526   8.00979   8.00979   8.05297   8.05297
 Alpha virt. eigenvalues --    8.24848  13.09960  39.32477
          Condensed to atoms (all electrons):
               1          2
     1  Rb   8.301770   0.294513
     2  H    0.294513   1.109204
 Mulliken charges:
               1
     1  Rb   0.403717
     2  H   -0.403717
 Sum of Mulliken charges =   0.00000
 Mulliken charges with hydrogens summed into heavy atoms:
               1
     1  Rb   0.000000
 Electronic spatial extent (au):  <R**2>=             73.5313
 Charge=              0.0000 electrons
 Dipole moment (field-independent basis, Debye):
    X=              0.0000    Y=              0.0000    Z=              8.0838  Tot=              8.0838
 Quadrupole moment (field-independent basis, Debye-Ang):
   XX=            -17.9307   YY=            -17.9307   ZZ=            -36.5307
   XY=              0.0000   XZ=              0.0000   YZ=              0.0000
 Traceless Quadrupole moment (field-independent basis, Debye-Ang):
   XX=              6.2000   YY=              6.2000   ZZ=            -12.4000
   XY=              0.0000   XZ=              0.0000   YZ=              0.0000
 Octapole moment (field-independent basis, Debye-Ang**2):
  XXX=              0.0000  YYY=              0.0000  ZZZ=             65.0297  XYY=              0.0000
  XXY=              0.0000  XXZ=              9.9689  XZZ=              0.0000  YZZ=              0.0000
  YYZ=              9.9689  XYZ=              0.0000
 Hexadecapole moment (field-independent basis, Debye-Ang**3):
 XXXX=            -33.5542 YYYY=            -33.5542 ZZZZ=           -249.3278 XXXY=              0.0000
 XXXZ=              0.0000 YYYX=              0.0000 YYYZ=              0.0000 ZZZX=              0.0000
 ZZZY=              0.0000 XXYY=            -11.1847 XXZZ=            -35.4133 YYZZ=            -35.4133
 XXYZ=              0.0000 YYXZ=              0.0000 ZZXY=              0.0000
 N-N= 1.980366310139D+00 E-N=-5.251664830082D+01  KE= 8.196494704396D+00
 Symmetry A1   KE= 4.224365989175D+00
 Symmetry A2   KE=-4.911025541992D-51
 Symmetry B1   KE= 1.986064357610D+00
 Symmetry B2   KE= 1.986064357610D+00
 Unable to Open any file for archive entry.
 1\1\GINC-TCOPT10\FOpt\RPBE1PBE\def2QZVPP\H1Rb1\HUTTER\01-Aug-2021\0\\#
 N RPBE1PBE/Def2QZVPP scf=tight Int(Grid=ultrafine) OPT FREQ\\Mol job 1
 \\0,1\Rb,8.5,8.5,7.2975469806\H,8.5,8.5,9.7024530194\\Version=ES64L-G1
 6RevC.01\State=1-SG\HF=-24.6420185\RMSD=6.946e-09\RMSF=1.501e-07\Dipol
 e=0.,0.,-3.1804241\Quadrupole=4.6095505,4.6095505,-9.219101,0.,0.,0.\P
 G=C*V [C*(H1Rb1)]\\@
 The archive entry for this job was punched.


 CONFIDENCE: THAT QUIET ASSURED FEELING YOU HAVE
 JUST BEFORE YOU FALL FLAT ON YOUR FACE.
 Job cpu time:       0 days  0 hours  2 minutes 57.1 seconds.
 Elapsed time:       0 days  0 hours  0 minutes 42.9 seconds.
 File lengths (MBytes):  RWF=     10 Int=      0 D2E=      0 Chk=      2 Scr=      1
 Normal termination of Gaussian 16 at Sun Aug  1 14:05:39 2021.
 Link1:  Proceeding to internal job step number  2.
 ----------------------------------------------------------------------
 #N Geom=AllCheck Guess=TCheck SCRF=Check GenChk RPBE1PBE/def2QZVPP Fre
 q
 ----------------------------------------------------------------------
 1/10=4,29=7,30=1,38=1,40=1/1,3;
 2/12=2,40=1/2;
 3/5=45,7=202,11=2,14=-4,25=1,30=1,70=2,71=2,74=-13,75=-5,116=1,140=1/1,2,3;
 4/5=101/1;
 5/5=2,32=2,38=6,98=1/2;
 8/6=4,10=90,11=11/1;
 11/6=1,8=1,9=11,15=111,16=1/1,2,10;
 10/6=1/2;
 6/7=2,8=2,9=2,10=2,28=1/1;
 7/8=1,10=1,25=1/1,2,3,16;
 1/10=4,30=1/3;
 99//99;
 Structure from the checkpoint file:  "/data/hutter/SMG16/PBE0/Gau-19422.chk"
 ---------
 Mol job 1
 ---------
 Charge =  0 Multiplicity = 1
 Redundant internal coordinates found in file.  (old form).
 Rb,0,8.5,8.5,7.2975469806
 H,0,8.5,8.5,9.7024530194
 Recover connectivity data from disk.

 GradGradGradGradGradGradGradGradGradGradGradGradGradGradGradGradGradGrad
 Berny optimization.
 Initialization pass.
                           ----------------------------
                           !    Initial Parameters    !
                           ! (Angstroms and Degrees)  !
 --------------------------                            --------------------------
 ! Name  Definition              Value          Derivative Info.                !
 --------------------------------------------------------------------------------
 ! R1    R(1,2)                  2.4049         calculate D2E/DX2 analytically  !
 --------------------------------------------------------------------------------
 Trust Radius=3.00D-01 FncErr=1.00D-07 GrdErr=1.00D-07 EigMax=2.50D+02 EigMin=1.00D-04
 Number of steps in this run=      2 maximum allowed number of steps=      2.
 GradGradGradGradGradGradGradGradGradGradGradGradGradGradGradGradGradGrad

                          Input orientation:                          
 ---------------------------------------------------------------------
 Center     Atomic      Atomic             Coordinates (Angstroms)
 Number     Number       Type             X           Y           Z
 ---------------------------------------------------------------------
      1         37           0        8.500000    8.500000    7.297547
      2          1           0        8.500000    8.500000    9.702453
 ---------------------------------------------------------------------
 Stoichiometry    HRb
 Framework group  C*V[C*(HRb)]
 Deg. of freedom     1
 Full point group                 C*V     NOp   4
 Largest Abelian subgroup         C2V     NOp   4
 Largest concise Abelian subgroup C1      NOp   1
                         Standard orientation:                         
 ---------------------------------------------------------------------
 Center     Atomic      Atomic             Coordinates (Angstroms)
 Number     Number       Type             X           Y           Z
 ---------------------------------------------------------------------
      1         37           0        0.000000    0.000000    0.063287
      2          1           0        0.000000    0.000000   -2.341619
 ---------------------------------------------------------------------
 Rotational constants (GHZ):           0.0000000          87.7324308          87.7324308
 Standard basis: def2QZVPP (5D, 7F)
 There are    49 symmetry adapted cartesian basis functions of A1  symmetry.
 There are    10 symmetry adapted cartesian basis functions of A2  symmetry.
 There are    26 symmetry adapted cartesian basis functions of B1  symmetry.
 There are    26 symmetry adapted cartesian basis functions of B2  symmetry.
 There are    39 symmetry adapted basis functions of A1  symmetry.
 There are    10 symmetry adapted basis functions of A2  symmetry.
 There are    22 symmetry adapted basis functions of B1  symmetry.
 There are    22 symmetry adapted basis functions of B2  symmetry.
    93 basis functions,   130 primitive gaussians,   111 cartesian basis functions
     5 alpha electrons        5 beta electrons
       nuclear repulsion energy         1.9803663101 Hartrees.
 NAtoms=    2 NActive=    2 NUniq=    2 SFac= 1.00D+00 NAtFMM=   60 NAOKFM=F Big=F
 Integral buffers will be    131072 words long.
 Raffenetti 2 integral format.
 Two-electron integral symmetry is turned on.
 One-electron integrals computed using PRISM.
   4 Symmetry operations used in ECPInt.
 ECPInt:  NShTT=     435 NPrTT=     717 LenC2=     436 LenP2D=     702.
 LDataN:  DoStor=T MaxTD1= 7 Len=  274
 NBasis=    93 RedAO= T EigKep=  5.44D-03  NBF=    39    10    22    22
 NBsUse=    93 1.00D-06 EigRej= -1.00D+00 NBFU=    39    10    22    22
 Defaulting to unpruned grid for atomic number  37.
 Initial guess from the checkpoint file:  "/data/hutter/SMG16/PBE0/Gau-19422.chk"
 B after Tr=     0.000000    0.000000    0.000000
         Rot=    1.000000    0.000000    0.000000    0.000000 Ang=   0.00 deg.
 Initial guess orbital symmetries:
       Occupied  (SG) (PI) (PI) (SG) (SG)
       Virtual   (SG) (PI) (PI) (SG) (DLTA) (DLTA) (SG) (PI) (PI)
                 (SG) (PI) (PI) (SG) (DLTA) (DLTA) (PI) (PI) (SG)
                 (SG) (DLTA) (DLTA) (PI) (PI) (SG) (PI) (PI) (PHI)
                 (PHI) (DLTA) (DLTA) (SG) (PI) (PI) (SG) (SG) (PI)
                 (PI) (DLTA) (DLTA) (SG) (PI) (PI) (SG) (SG) (SG)
                 (PI) (PI) (PHI) (PHI) (DLTA) (DLTA) (SG) (PI)
                 (PI) (SG) (DLTA) (DLTA) (PI) (PI) (SG) (PI) (PI)
                 (SG) (PHI) (PHI) (DLTA) (DLTA) (PI) (PI) (SG)
                 (SG) (DLTA) (DLTA) (PHI) (PHI) (PI) (PI) (SG)
                 (PI) (PI) (SG) (DLTA) (DLTA) (PI) (PI) (SG) (SG)
                 (SG)
 Keep R1 ints in memory in symmetry-blocked form, NReq=17046956.
 Requested convergence on RMS density matrix=1.00D-08 within 128 cycles.
 Requested convergence on MAX density matrix=1.00D-06.
 Requested convergence on             energy=1.00D-06.
 No special actions if energy rises.
 Defaulting to unpruned grid for atomic number  37.
 Defaulting to unpruned grid for atomic number  37.
 Defaulting to unpruned grid for atomic number  37.
 Defaulting to unpruned grid for atomic number  37.
 Defaulting to unpruned grid for atomic number  37.
 Defaulting to unpruned grid for atomic number  37.
 Defaulting to unpruned grid for atomic number  37.
 Defaulting to unpruned grid for atomic number  37.
 SCF Done:  E(RPBE1PBE) =  -24.6420184586     A.U. after    1 cycles
            NFock=  1  Conv=0.10D-08     -V/T= 4.0064
 DoSCS=F DFT=T ScalE2(SS,OS)=  1.000000  1.000000
 Range of M.O.s used for correlation:     1    93
 NBasis=    93 NAE=     5 NBE=     5 NFC=     0 NFV=     0
 NROrb=     93 NOA=     5 NOB=     5 NVA=    88 NVB=    88
   4 Symmetry operations used in ECPInt.
 ECPInt:  NShTT=     435 NPrTT=     717 LenC2=     436 LenP2D=     702.
 LDataN:  DoStor=T MaxTD1= 8 Len=  415
 Symmetrizing basis deriv contribution to polar:
 IMax=3 JMax=2 DiffMx= 0.00D+00
 G2DrvN: will do     3 centers at a time, making    1 passes.
 Calling FoFCou, ICntrl=  3107 FMM=F I1Cent=   0 AccDes= 0.00D+00.
 Defaulting to unpruned grid for atomic number  37.
 Defaulting to unpruned grid for atomic number  37.
 Defaulting to unpruned grid for atomic number  37.
 Defaulting to unpruned grid for atomic number  37.
 Defaulting to unpruned grid for atomic number  37.
 Defaulting to unpruned grid for atomic number  37.
 Defaulting to unpruned grid for atomic number  37.
 Defaulting to unpruned grid for atomic number  37.
 End of G2Drv F.D. properties file   721 does not exist.
 End of G2Drv F.D. properties file   722 does not exist.
 End of G2Drv F.D. properties file   788 does not exist.
          IDoAtm=11
          Differentiating once with respect to electric field.
                with respect to dipole field.
          Differentiating once with respect to nuclear coordinates.
 Defaulting to unpruned grid for atomic number  37.
 Keep R1 ints in memory in symmetry-blocked form, NReq=17021176.
 Defaulting to unpruned grid for atomic number  37.
 Defaulting to unpruned grid for atomic number  37.
 Defaulting to unpruned grid for atomic number  37.
 Defaulting to unpruned grid for atomic number  37.
 Defaulting to unpruned grid for atomic number  37.
 Defaulting to unpruned grid for atomic number  37.
 Defaulting to unpruned grid for atomic number  37.
 Defaulting to unpruned grid for atomic number  37.
          There are     9 degrees of freedom in the 1st order CPHF.  IDoFFX=6 NUNeed=     3.
      6 vectors produced by pass  0 Test12= 4.89D-15 1.11D-08 XBig12= 2.07D+02 1.34D+01.
 AX will form     6 AO Fock derivatives at one time.
      6 vectors produced by pass  1 Test12= 4.89D-15 1.11D-08 XBig12= 1.13D+01 1.65D+00.
      6 vectors produced by pass  2 Test12= 4.89D-15 1.11D-08 XBig12= 2.99D-01 2.16D-01.
      6 vectors produced by pass  3 Test12= 4.89D-15 1.11D-08 XBig12= 4.53D-03 2.12D-02.
      6 vectors produced by pass  4 Test12= 4.89D-15 1.11D-08 XBig12= 6.92D-05 3.17D-03.
      6 vectors produced by pass  5 Test12= 4.89D-15 1.11D-08 XBig12= 3.87D-07 2.25D-04.
      4 vectors produced by pass  6 Test12= 4.89D-15 1.11D-08 XBig12= 1.38D-09 1.58D-05.
      1 vectors produced by pass  7 Test12= 4.89D-15 1.11D-08 XBig12= 3.73D-12 1.37D-06.
      1 vectors produced by pass  8 Test12= 4.89D-15 1.11D-08 XBig12= 5.15D-15 2.16D-08.
 InvSVY:  IOpt=1 It=  1 EMax= 2.22D-16
 Solved reduced A of dimension    42 with     6 vectors.
 Isotropic polarizability for W=    0.000000       67.01 Bohr**3.
 End of Minotr F.D. properties file   721 does not exist.
 End of Minotr F.D. properties file   722 does not exist.
 End of Minotr F.D. properties file   788 does not exist.

 **********************************************************************

            Population analysis using the SCF Density.

 **********************************************************************

 Orbital symmetries:
       Occupied  (SG) (PI) (PI) (SG) (SG)
       Virtual   (SG) (PI) (PI) (SG) (DLTA) (DLTA) (SG) (PI) (PI)
                 (SG) (PI) (PI) (SG) (DLTA) (DLTA) (PI) (PI) (SG)
                 (SG) (DLTA) (DLTA) (PI) (PI) (SG) (PI) (PI) (PHI)
                 (PHI) (DLTA) (DLTA) (SG) (PI) (PI) (SG) (SG) (PI)
                 (PI) (DLTA) (DLTA) (SG) (PI) (PI) (SG) (SG) (SG)
                 (PI) (PI) (PHI) (PHI) (DLTA) (DLTA) (SG) (PI)
                 (PI) (SG) (DLTA) (DLTA) (PI) (PI) (SG) (PI) (PI)
                 (SG) (PHI) (PHI) (DLTA) (DLTA) (PI) (PI) (SG)
                 (SG) (DLTA) (DLTA) (PHI) (PHI) (PI) (PI) (SG)
                 (PI) (PI) (SG) (DLTA) (DLTA) (PI) (PI) (SG) (SG)
                 (SG)
 The electronic state is 1-SG.
 Alpha  occ. eigenvalues --   -1.28097  -0.64338  -0.64338  -0.63630  -0.15158
 Alpha virt. eigenvalues --   -0.04172  -0.00383  -0.00383   0.00702   0.02063
 Alpha virt. eigenvalues --    0.02063   0.02329   0.02411   0.02411   0.03513
 Alpha virt. eigenvalues --    0.04918   0.04918   0.05302   0.05777   0.05777
 Alpha virt. eigenvalues --    0.06735   0.06735   0.11619   0.15070   0.17129
 Alpha virt. eigenvalues --    0.17129   0.17455   0.17455   0.18645   0.23100
 Alpha virt. eigenvalues --    0.23100   0.23525   0.23525   0.23924   0.23924
 Alpha virt. eigenvalues --    0.26573   0.29374   0.29374   0.32090   0.41421
 Alpha virt. eigenvalues --    0.66572   0.66572   0.73428   0.73428   0.75435
 Alpha virt. eigenvalues --    0.76983   0.76983   0.83022   0.94349   1.22523
 Alpha virt. eigenvalues --    1.23003   1.23003   1.23271   1.23271   1.23983
 Alpha virt. eigenvalues --    1.23983   1.40993   1.42015   1.42015   1.45992
 Alpha virt. eigenvalues --    2.03138   2.03138   2.05805   2.05805   2.25974
 Alpha virt. eigenvalues --    2.44656   2.44656   2.74525   3.46859   3.46859
 Alpha virt. eigenvalues --    3.47208   3.47208   3.49640   3.49640   3.65569
 Alpha virt. eigenvalues --    5.40755   5.95471   5.95471   5.96022   5.96022
 Alpha virt. eigenvalues --    5.96104   5.96104   6.00537   7.73146   7.73146
 Alpha virt. eigenvalues --    7.87526   8.00979   8.00979   8.05297   8.05297
 Alpha virt. eigenvalues --    8.24848  13.09960  39.32477
          Condensed to atoms (all electrons):
               1          2
     1  Rb   8.301770   0.294513
     2  H    0.294513   1.109204
 Mulliken charges:
               1
     1  Rb   0.403717
     2  H   -0.403717
 Sum of Mulliken charges =   0.00000
 Mulliken charges with hydrogens summed into heavy atoms:
               1
     1  Rb   0.000000
 APT charges:
               1
     1  Rb   0.708581
     2  H   -0.708581
 Sum of APT charges =   0.00000
 APT charges with hydrogens summed into heavy atoms:
               1
     1  Rb   0.000000
 Electronic spatial extent (au):  <R**2>=             73.5313
 Charge=              0.0000 electrons
 Dipole moment (field-independent basis, Debye):
    X=              0.0000    Y=              0.0000    Z=              8.0838  Tot=              8.0838
 Quadrupole moment (field-independent basis, Debye-Ang):
   XX=            -17.9307   YY=            -17.9307   ZZ=            -36.5307
   XY=              0.0000   XZ=              0.0000   YZ=              0.0000
 Traceless Quadrupole moment (field-independent basis, Debye-Ang):
   XX=              6.2000   YY=              6.2000   ZZ=            -12.4000
   XY=              0.0000   XZ=              0.0000   YZ=              0.0000
 Octapole moment (field-independent basis, Debye-Ang**2):
  XXX=              0.0000  YYY=              0.0000  ZZZ=             65.0297  XYY=              0.0000
  XXY=              0.0000  XXZ=              9.9689  XZZ=              0.0000  YZZ=              0.0000
  YYZ=              9.9689  XYZ=              0.0000
 Hexadecapole moment (field-independent basis, Debye-Ang**3):
 XXXX=            -33.5542 YYYY=            -33.5542 ZZZZ=           -249.3278 XXXY=              0.0000
 XXXZ=              0.0000 YYYX=              0.0000 YYYZ=              0.0000 ZZZX=              0.0000
 ZZZY=              0.0000 XXYY=            -11.1847 XXZZ=            -35.4133 YYZZ=            -35.4133
 XXYZ=              0.0000 YYXZ=              0.0000 ZZXY=              0.0000
 N-N= 1.980366310139D+00 E-N=-5.251664855965D+01  KE= 8.196494833124D+00
 Symmetry A1   KE= 4.224366056722D+00
 Symmetry A2   KE= 2.623305647556D-51
 Symmetry B1   KE= 1.986064388201D+00
 Symmetry B2   KE= 1.986064388201D+00
  Exact polarizability:      51.890       0.000      51.890       0.000       0.000      97.248
 Approx polarizability:      53.728      -0.000      53.728      -0.000      -0.000     113.361
   4 Symmetry operations used in ECPInt.
 ECPInt:  NShTT=     435 NPrTT=     717 LenC2=     436 LenP2D=     702.
 LDataN:  DoStor=T MaxTD1= 9 Len=  602
 Calling FoFJK, ICntrl=    100127 FMM=F ISym2X=1 I1Cent= 0 IOpClX= 0 NMat=1 NMatS=1 NMatT=0.
 Defaulting to unpruned grid for atomic number  37.
 Defaulting to unpruned grid for atomic number  37.
 Defaulting to unpruned grid for atomic number  37.
 Defaulting to unpruned grid for atomic number  37.
 Defaulting to unpruned grid for atomic number  37.
 Defaulting to unpruned grid for atomic number  37.
 Defaulting to unpruned grid for atomic number  37.
 Defaulting to unpruned grid for atomic number  37.
 Full mass-weighted force constant matrix:
 Low frequencies ---   -0.0001   -0.0001    0.0001   17.2772   17.2772  928.0019
 Diagonal vibrational polarizability:
        0.0000000       0.0000000      16.1305990
 Harmonic frequencies (cm**-1), IR intensities (KM/Mole), Raman scattering
 activities (A**4/AMU), depolarization ratios for plane and unpolarized
 incident light, reduced masses (AMU), force constants (mDyne/A),
 and normal coordinates:
                      1
                     SG
 Frequencies --    928.0019
 Red. masses --      1.0196
 Frc consts  --      0.5174
 IR Inten    --    516.1965
  Atom  AN      X      Y      Z
     1  37    -0.00  -0.00  -0.01
     2   1    -0.00  -0.00   1.00

 -------------------
 - Thermochemistry -
 -------------------
 Temperature   298.150 Kelvin.  Pressure   1.00000 Atm.
 Atom     1 has atomic number 37 and mass  84.91170
 Atom     2 has atomic number  1 and mass   1.00783
 Molecular mass:    85.91953 amu.
 Principal axes and moments of inertia in atomic units:
                           1         2         3
     Eigenvalues --     0.00000  20.57097  20.57097
           X            0.00000  -0.00000   1.00000
           Y            0.00000   1.00000   0.00000
           Z            1.00000   0.00000   0.00000
 This molecule is a prolate symmetric top.
 Rotational symmetry number  1.
 Rotational temperature (Kelvin)      4.21049
 Rotational constant (GHZ):          87.732431
 Zero-point vibrational energy       5550.7 (Joules/Mol)
                                    1.32665 (Kcal/Mol)
 Vibrational temperatures:   1335.19
          (Kelvin)
 
 Zero-point correction=                           0.002114 (Hartree/Particle)
 Thermal correction to Energy=                    0.004523
 Thermal correction to Enthalpy=                  0.005467
 Thermal correction to Gibbs Free Energy=        -0.018215
 Sum of electronic and zero-point Energies=            -24.639904
 Sum of electronic and thermal Energies=               -24.637495
 Sum of electronic and thermal Enthalpies=             -24.636551
 Sum of electronic and thermal Free Energies=          -24.660233
 
                     E (Thermal)             CV                S
                      KCal/Mol        Cal/Mol-Kelvin    Cal/Mol-Kelvin
 Total                    2.838              5.431             49.843
 Electronic               0.000              0.000              0.000
 Translational            0.889              2.981             39.266
 Rotational               0.592              1.987             10.453
 Vibrational              1.357              0.463              0.125
                       Q            Log10(Q)             Ln(Q)
 Total Bot       0.238899D+09          8.378215         19.291552
 Total V=0       0.224209D+10          9.350652         21.530673
 Vib (Bot)       0.107776D+00         -0.967479         -2.227702
 Vib (V=0)       0.101148D+01          0.004959          0.011418
 Electronic      0.100000D+01          0.000000          0.000000
 Translational   0.313034D+08          7.495592         17.259238
 Rotational      0.708112D+02          1.850102          4.260017
 ***** Axes restored to original set *****
 -------------------------------------------------------------------
 Center     Atomic                   Forces (Hartrees/Bohr)
 Number     Number              X              Y              Z
 -------------------------------------------------------------------
      1       37          -0.000000000   -0.000000000   -0.000000259
      2        1          -0.000000000   -0.000000000    0.000000259
 -------------------------------------------------------------------
 Cartesian Forces:  Max     0.000000259 RMS     0.000000149
 FormGI is forming the generalized inverse of G from B-inverse, IUseBI=4.

 GradGradGradGradGradGradGradGradGradGradGradGradGradGradGradGradGradGrad
 Berny optimization.
 Internal  Forces:  Max     0.000000259 RMS     0.000000259
 Search for a local minimum.
 Step number   1 out of a maximum of    2
 All quantities printed in internal units (Hartrees-Bohrs-Radians)
 Second derivative matrix not updated -- analytic derivatives used.
 The second derivative matrix:
                          R1
           R1           0.03246
 ITU=  0
     Eigenvalues ---    0.03246
 Angle between quadratic step and forces=   0.00 degrees.
 Linear search not attempted -- first point.
 Iteration  1 RMS(Cart)=  0.00000564 RMS(Int)=  0.00000000
 Iteration  2 RMS(Cart)=  0.00000000 RMS(Int)=  0.00000000
 ClnCor:  largest displacement from symmetrization is 0.00D+00 for atom     0.
 Variable       Old X    -DE/DX   Delta X   Delta X   Delta X     New X
                                 (Linear)    (Quad)   (Total)
    R1        4.54461   0.00000   0.00000   0.00001   0.00001   4.54462
         Item               Value     Threshold  Converged?
 Maximum Force            0.000000     0.000450     YES
 RMS     Force            0.000000     0.000300     YES
 Maximum Displacement     0.000004     0.001800     YES
 RMS     Displacement     0.000006     0.001200     YES
 Predicted change in Energy=-1.031837D-12
 Optimization completed.
    -- Stationary point found.
                           ----------------------------
                           !   Optimized Parameters   !
                           ! (Angstroms and Degrees)  !
 --------------------------                            --------------------------
 ! Name  Definition              Value          Derivative Info.                !
 --------------------------------------------------------------------------------
 ! R1    R(1,2)                  2.4049         -DE/DX =    0.0                 !
 --------------------------------------------------------------------------------
 GradGradGradGradGradGradGradGradGradGradGradGradGradGradGradGradGradGrad


 ----------------------------------------------------------------------

 Electric dipole moment (input orientation):
 (Debye = 10**-18 statcoulomb cm , SI units = C m)
                  (au)            (Debye)         (10**-30 SI)
   Tot        0.318042D+01      0.808383D+01      0.269648D+02
   x          0.000000D+00      0.000000D+00      0.000000D+00
   y          0.000000D+00      0.000000D+00      0.000000D+00
   z         -0.318042D+01     -0.808383D+01     -0.269648D+02

 Dipole polarizability, Alpha (input orientation).
 (esu units = cm**3 , SI units = C**2 m**2 J**-1)
 Alpha(0;0):
               (au)            (10**-24 esu)      (10**-40 SI)
   iso        0.670096D+02      0.992980D+01      0.110484D+02
   aniso      0.453576D+02      0.672131D+01      0.747846D+01
   xx         0.518904D+02      0.768936D+01      0.855557D+01
   yx         0.000000D+00      0.000000D+00      0.000000D+00
   yy         0.518904D+02      0.768936D+01      0.855557D+01
   zx         0.000000D+00      0.000000D+00      0.000000D+00
   zy         0.000000D+00      0.000000D+00      0.000000D+00
   zz         0.972480D+02      0.144107D+02      0.160340D+02

 ----------------------------------------------------------------------

 Dipole orientation:
    37         16.06267206        -16.06267206        -13.79036517
     1         16.06267206        -16.06267206        -18.33497894

 Electric dipole moment (dipole orientation):
 (Debye = 10**-18 statcoulomb cm , SI units = C m)
                  (au)            (Debye)         (10**-30 SI)
   Tot        0.318042D+01      0.808383D+01      0.269648D+02
   x          0.000000D+00      0.000000D+00      0.000000D+00
   y          0.000000D+00      0.000000D+00      0.000000D+00
   z          0.318042D+01      0.808383D+01      0.269648D+02

 Dipole polarizability, Alpha (dipole orientation).
 (esu units = cm**3 , SI units = C**2 m**2 J**-1)
 Alpha(0;0):
               (au)            (10**-24 esu)      (10**-40 SI)
   iso        0.670096D+02      0.992980D+01      0.110484D+02
   aniso      0.453576D+02      0.672131D+01      0.747846D+01
   xx         0.518904D+02      0.768936D+01      0.855557D+01
   yx         0.000000D+00      0.000000D+00      0.000000D+00
   yy         0.518904D+02      0.768936D+01      0.855557D+01
   zx         0.000000D+00      0.000000D+00      0.000000D+00
   zy         0.000000D+00      0.000000D+00      0.000000D+00
   zz         0.972480D+02      0.144107D+02      0.160340D+02

 ----------------------------------------------------------------------
 Unable to Open any file for archive entry.
 1\1\GINC-TCOPT10\Freq\RPBE1PBE\def2QZVPP\H1Rb1\HUTTER\01-Aug-2021\0\\#
 N Geom=AllCheck Guess=TCheck SCRF=Check GenChk RPBE1PBE/def2QZVPP Freq
 \\Mol job 1\\0,1\Rb,8.5,8.5,7.2975469806\H,8.5,8.5,9.7024530194\\Versi
 on=ES64L-G16RevC.01\State=1-SG\HF=-24.6420185\RMSD=1.036e-09\RMSF=1.49
 4e-07\ZeroPoint=0.0021141\Thermal=0.0045232\ETot=-24.6374953\HTot=-24.
 6365511\GTot=-24.6602332\Dipole=0.,0.,-3.1804241\DipoleDeriv=0.6997666
 ,0.,0.,0.,0.6997666,0.,0.,0.,0.7262102,-0.6997666,0.,0.,0.,-0.6997666,
 0.,0.,0.,-0.7262102\Polar=51.8903722,0.,51.8903722,0.,0.,97.2480048\Qu
 adrupole=4.6095509,4.6095509,-9.2191017,0.,0.,0.\PG=C*V [C*(H1Rb1)]\NI
 mag=0\\0.00001125,0.,0.00001125,0.,0.,0.03246011,-0.00001125,0.,0.,0.0
 0001125,0.,-0.00001125,0.,0.,0.00001125,0.,0.,-0.03246011,0.,0.,0.0324
 6011\\0.,0.,0.00000026,0.,0.,-0.00000026\\\@
 The archive entry for this job was punched.


 MATERIAL COPIED FROM ONE SCHOLARLY BOOK WITHOUT CREDIT COMPRISES PLAGIARISM.
 MATERIAL COPIED FROM TWO SCHOLARLY BOOKS COMPRISES AN ESSAY.
 MATERIAL COPIED FROM THREE SCHOLARLY BOOKS COMPRISES A DISSERTATION.
 MATERIAL COPIED FROM FOUR SCHOLARLY BOOKS COMPRISES A FIFTH SCHOLARLY BOOK.

                               -- C&EN, 25 FEB 1980
 Job cpu time:       0 days  0 hours  2 minutes 31.1 seconds.
 Elapsed time:       0 days  0 hours  0 minutes 34.7 seconds.
 File lengths (MBytes):  RWF=     10 Int=      0 D2E=      0 Chk=      2 Scr=      1
 Normal termination of Gaussian 16 at Sun Aug  1 14:06:14 2021.
