 Entering Gaussian System, Link 0=g16
 Initial command:
 /sw-ng/spack/opt/spack/linux-opensuse_leap15-sandybridge/pgi-18.10/gaussian-src-16-C.01-zldqaomctopxhethwccpmxmwefdscg3m/g16/l1.exe "/data/hutter/SMG16/PBE0/Gau-55107.inp" -scrdir="/data/hutter/SMG16/PBE0/"
 Entering Link 1 = /sw-ng/spack/opt/spack/linux-opensuse_leap15-sandybridge/pgi-18.10/gaussian-src-16-C.01-zldqaomctopxhethwccpmxmwefdscg3m/g16/l1.exe PID=     55114.
  
 Copyright (c) 1988-2019, Gaussian, Inc.  All Rights Reserved.
  
 This is part of the Gaussian(R) 16 program.  It is based on
 the Gaussian(R) 09 system (copyright 2009, Gaussian, Inc.),
 the Gaussian(R) 03 system (copyright 2003, Gaussian, Inc.),
 the Gaussian(R) 98 system (copyright 1998, Gaussian, Inc.),
 the Gaussian(R) 94 system (copyright 1995, Gaussian, Inc.),
 the Gaussian 92(TM) system (copyright 1992, Gaussian, Inc.),
 the Gaussian 90(TM) system (copyright 1990, Gaussian, Inc.),
 the Gaussian 88(TM) system (copyright 1988, Gaussian, Inc.),
 the Gaussian 86(TM) system (copyright 1986, Carnegie Mellon
 University), and the Gaussian 82(TM) system (copyright 1983,
 Carnegie Mellon University). Gaussian is a federally registered
 trademark of Gaussian, Inc.
  
 This software contains proprietary and confidential information,
 including trade secrets, belonging to Gaussian, Inc.
  
 This software is provided under written license and may be
 used, copied, transmitted, or stored only in accord with that
 written license.
  
 The following legend is applicable only to US Government
 contracts under FAR:
  
                    RESTRICTED RIGHTS LEGEND
  
 Use, reproduction and disclosure by the US Government is
 subject to restrictions as set forth in subparagraphs (a)
 and (c) of the Commercial Computer Software - Restricted
 Rights clause in FAR 52.227-19.
  
 Gaussian, Inc.
 340 Quinnipiac St., Bldg. 40, Wallingford CT 06492
  
  
 ---------------------------------------------------------------
 Warning -- This program may not be used in any manner that
 competes with the business of Gaussian, Inc. or will provide
 assistance to any competitor of Gaussian, Inc.  The licensee
 of this program is prohibited from giving any competitor of
 Gaussian, Inc. access to this program.  By using this program,
 the user acknowledges that Gaussian, Inc. is engaged in the
 business of creating and licensing software in the field of
 computational chemistry and represents and warrants to the
 licensee that it is not a competitor of Gaussian, Inc. and that
 it will not use this program in any manner prohibited above.
 ---------------------------------------------------------------
  

 Cite this work as:
 Gaussian 16, Revision C.01,
 M. J. Frisch, G. W. Trucks, H. B. Schlegel, G. E. Scuseria, 
 M. A. Robb, J. R. Cheeseman, G. Scalmani, V. Barone, 
 G. A. Petersson, H. Nakatsuji, X. Li, M. Caricato, A. V. Marenich, 
 J. Bloino, B. G. Janesko, R. Gomperts, B. Mennucci, H. P. Hratchian, 
 J. V. Ortiz, A. F. Izmaylov, J. L. Sonnenberg, D. Williams-Young, 
 F. Ding, F. Lipparini, F. Egidi, J. Goings, B. Peng, A. Petrone, 
 T. Henderson, D. Ranasinghe, V. G. Zakrzewski, J. Gao, N. Rega, 
 G. Zheng, W. Liang, M. Hada, M. Ehara, K. Toyota, R. Fukuda, 
 J. Hasegawa, M. Ishida, T. Nakajima, Y. Honda, O. Kitao, H. Nakai, 
 T. Vreven, K. Throssell, J. A. Montgomery, Jr., J. E. Peralta, 
 F. Ogliaro, M. J. Bearpark, J. J. Heyd, E. N. Brothers, K. N. Kudin, 
 V. N. Staroverov, T. A. Keith, R. Kobayashi, J. Normand, 
 K. Raghavachari, A. P. Rendell, J. C. Burant, S. S. Iyengar, 
 J. Tomasi, M. Cossi, J. M. Millam, M. Klene, C. Adamo, R. Cammi, 
 J. W. Ochterski, R. L. Martin, K. Morokuma, O. Farkas, 
 J. B. Foresman, and D. J. Fox, Gaussian, Inc., Wallingford CT, 2019.
 
 ******************************************
 Gaussian 16:  ES64L-G16RevC.01  3-Jul-2019
                 1-Aug-2021 
 ******************************************
 %mem=8GB
 %NProcShare=8
 Will use up to    8 processors via shared memory.
 ------------------------------------------------------------
 #N RPBE1PBE/Def2QZVPP scf=tight Int(Grid=ultrafine) OPT FREQ
 ------------------------------------------------------------
 1/18=20,19=15,26=4,38=1/1,3;
 2/9=110,12=2,17=6,18=5,40=1/2;
 3/5=45,7=202,11=2,25=1,30=1,71=1,74=-13,75=-5,116=1/1,2,3;
 4//1;
 5/5=2,32=2,38=5/2;
 6/7=2,8=2,9=2,10=2,28=1/1;
 7//1,2,3,16;
 1/18=20,19=15,26=4/3(2);
 2/9=110/2;
 99//99;
 2/9=110/2;
 3/5=45,7=202,11=2,25=1,30=1,71=1,74=-13,75=-5,116=1/1,2,3;
 4/5=5,16=3,69=1/1;
 5/5=2,32=2,38=5/2;
 7//1,2,3,16;
 1/18=20,19=15,26=4/3(-5);
 2/9=110/2;
 6/7=2,8=2,9=2,10=2,19=2,28=1/1;
 99/9=1/99;
 ---------
 Mol job 1
 ---------
 Symbolic Z-matrix:
 Charge =  0 Multiplicity = 1
 Cl                    7.5       7.5       6.8516 
 H                     7.5       7.5       8.1484 
 

 GradGradGradGradGradGradGradGradGradGradGradGradGradGradGradGradGradGrad
 Berny optimization.
 Initialization pass.
                           ----------------------------
                           !    Initial Parameters    !
                           ! (Angstroms and Degrees)  !
 --------------------------                            --------------------------
 ! Name  Definition              Value          Derivative Info.                !
 --------------------------------------------------------------------------------
 ! R1    R(1,2)                  1.2968         estimate D2E/DX2                !
 --------------------------------------------------------------------------------
 Trust Radius=3.00D-01 FncErr=1.00D-07 GrdErr=1.00D-06 EigMax=2.50D+02 EigMin=1.00D-04
 Number of steps in this run=     20 maximum allowed number of steps=    100.
 GradGradGradGradGradGradGradGradGradGradGradGradGradGradGradGradGradGrad

                          Input orientation:                          
 ---------------------------------------------------------------------
 Center     Atomic      Atomic             Coordinates (Angstroms)
 Number     Number       Type             X           Y           Z
 ---------------------------------------------------------------------
      1         17           0        7.500000    7.500000    6.851596
      2          1           0        7.500000    7.500000    8.148404
 ---------------------------------------------------------------------
 Stoichiometry    ClH
 Framework group  C*V[C*(HCl)]
 Deg. of freedom     1
 Full point group                 C*V     NOp   4
 Largest Abelian subgroup         C2V     NOp   4
 Largest concise Abelian subgroup C1      NOp   1
                         Standard orientation:                         
 ---------------------------------------------------------------------
 Center     Atomic      Atomic             Coordinates (Angstroms)
 Number     Number       Type             X           Y           Z
 ---------------------------------------------------------------------
      1         17           0        0.000000    0.000000    0.072045
      2          1           0        0.000000    0.000000   -1.224764
 ---------------------------------------------------------------------
 Rotational constants (GHZ):           0.0000000         306.7748581         306.7748581
 Standard basis: def2QZVPP (5D, 7F)
 There are    55 symmetry adapted cartesian basis functions of A1  symmetry.
 There are    12 symmetry adapted cartesian basis functions of A2  symmetry.
 There are    27 symmetry adapted cartesian basis functions of B1  symmetry.
 There are    27 symmetry adapted cartesian basis functions of B2  symmetry.
 There are    43 symmetry adapted basis functions of A1  symmetry.
 There are    11 symmetry adapted basis functions of A2  symmetry.
 There are    23 symmetry adapted basis functions of B1  symmetry.
 There are    23 symmetry adapted basis functions of B2  symmetry.
   100 basis functions,   159 primitive gaussians,   121 cartesian basis functions
     9 alpha electrons        9 beta electrons
       nuclear repulsion energy         6.9370379750 Hartrees.
 NAtoms=    2 NActive=    2 NUniq=    2 SFac= 1.00D+00 NAtFMM=   60 NAOKFM=F Big=F
 Integral buffers will be    131072 words long.
 Raffenetti 2 integral format.
 Two-electron integral symmetry is turned on.
 One-electron integrals computed using PRISM.
   4 Symmetry operations used in ECPInt.
 ECPInt:  NShTT=     528 NPrTT=    1568 LenC2=     529 LenP2D=    1527.
 LDataN:  DoStor=T MaxTD1= 8 Len=  415
 NBasis=   100 RedAO= T EigKep=  6.06D-04  NBF=    43    11    23    23
 NBsUse=   100 1.00D-06 EigRej= -1.00D+00 NBFU=    43    11    23    23
 ExpMin= 8.03D-02 ExpMax= 1.47D+06 ExpMxC= 1.67D+03 IAcc=3 IRadAn=         5 AccDes= 0.00D+00
 Harris functional with IExCor= 1009 and IRadAn=       5 diagonalized for initial guess.
 HarFok:  IExCor= 1009 AccDes= 0.00D+00 IRadAn=         5 IDoV= 1 UseB2=F ITyADJ=14
 ICtDFT=  3500011 ScaDFX=  1.000000  1.000000  1.000000  1.000000
 FoFCou: FMM=F IPFlag=           0 FMFlag=      100000 FMFlg1=           0
         NFxFlg=           0 DoJE=T BraDBF=F KetDBF=T FulRan=T
         wScrn=  0.000000 ICntrl=       500 IOpCl=  0 I1Cent=   200000004 NGrid=           0
         NMat0=    1 NMatS0=      1 NMatT0=    0 NMatD0=    1 NMtDS0=    0 NMtDT0=    0
 Petite list used in FoFCou.
 Initial guess orbital symmetries:
       Occupied  (SG) (SG) (SG) (PI) (PI) (SG) (SG) (PI) (PI)
       Virtual   (SG) (SG) (SG) (PI) (PI) (PI) (PI) (DLTA) (DLTA)
                 (SG) (SG) (PI) (PI) (SG) (SG) (PI) (PI) (SG) (PI)
                 (PI) (DLTA) (DLTA) (SG) (DLTA) (DLTA) (PHI) (PHI)
                 (PI) (PI) (SG) (DLTA) (DLTA) (PI) (PI) (SG) (SG)
                 (PI) (PI) (SG) (DLTA) (DLTA) (PI) (PI) (SG) (PHI)
                 (PHI) (?A) (?A) (DLTA) (DLTA) (SG) (PI) (PI) (PHI)
                 (PHI) (DLTA) (DLTA) (PI) (PI) (SG) (PI) (PI) (SG)
                 (PHI) (PHI) (DLTA) (DLTA) (SG) (PI) (PI) (SG)
                 (DLTA) (DLTA) (PI) (PI) (SG) (PI) (PI) (SG) (SG)
                 (DLTA) (DLTA) (PI) (PI) (SG) (SG) (PI) (PI) (SG)
                 (SG) (SG)
 The electronic state of the initial guess is 1-SG.
 Keep R1 ints in memory in symmetry-blocked form, NReq=21838920.
 Requested convergence on RMS density matrix=1.00D-08 within 128 cycles.
 Requested convergence on MAX density matrix=1.00D-06.
 Requested convergence on             energy=1.00D-06.
 No special actions if energy rises.
 Integral accuracy reduced to 1.0D-05 until final iterations.
 Initial convergence to 1.0D-05 achieved.  Increase integral accuracy.
 SCF Done:  E(RPBE1PBE) =  -460.679427419     A.U. after    9 cycles
            NFock=  9  Conv=0.27D-08     -V/T= 2.0015

 **********************************************************************

            Population analysis using the SCF Density.

 **********************************************************************

 Orbital symmetries:
       Occupied  (SG) (SG) (SG) (PI) (PI) (SG) (SG) (PI) (PI)
       Virtual   (SG) (SG) (SG) (PI) (PI) (PI) (PI) (DLTA) (DLTA)
                 (SG) (SG) (PI) (PI) (SG) (SG) (PI) (PI) (SG) (PI)
                 (PI) (DLTA) (DLTA) (SG) (DLTA) (DLTA) (PHI) (PHI)
                 (PI) (PI) (SG) (DLTA) (DLTA) (PI) (PI) (SG) (SG)
                 (PI) (PI) (SG) (DLTA) (DLTA) (PI) (PI) (SG) (PHI)
                 (PHI) (?A) (?A) (DLTA) (DLTA) (SG) (PI) (PI) (PHI)
                 (PHI) (DLTA) (DLTA) (PI) (PI) (SG) (PI) (PI) (SG)
                 (PHI) (PHI) (DLTA) (DLTA) (SG) (PI) (PI) (SG)
                 (DLTA) (DLTA) (PI) (PI) (SG) (PI) (PI) (SG) (SG)
                 (DLTA) (DLTA) (PI) (PI) (SG) (SG) (PI) (PI) (SG)
                 (SG) (SG)
 The electronic state is 1-SG.
 Alpha  occ. eigenvalues -- -101.72157  -9.54368  -7.27820  -7.27007  -7.27007
 Alpha  occ. eigenvalues --   -0.86640  -0.48598  -0.34816  -0.34816
 Alpha virt. eigenvalues --   -0.00347   0.12036   0.18999   0.19548   0.19548
 Alpha virt. eigenvalues --    0.27464   0.27464   0.32986   0.32986   0.37886
 Alpha virt. eigenvalues --    0.51692   0.66818   0.66818   0.86738   1.00898
 Alpha virt. eigenvalues --    1.07872   1.07872   1.10079   1.12987   1.12987
 Alpha virt. eigenvalues --    1.15093   1.15093   1.26240   1.27514   1.27514
 Alpha virt. eigenvalues --    1.32233   1.32233   1.52503   1.52503   1.75728
 Alpha virt. eigenvalues --    2.10348   2.10348   2.21459   2.21459   2.35875
 Alpha virt. eigenvalues --    2.59815   2.71325   2.71325   2.88814   3.20777
 Alpha virt. eigenvalues --    3.20777   3.29176   3.29176   3.40377   3.56046
 Alpha virt. eigenvalues --    3.56046   3.59335   3.59335   3.71132   3.71132
 Alpha virt. eigenvalues --    3.78961   3.86111   3.86111   3.91628   3.91628
 Alpha virt. eigenvalues --    3.96714   3.96715   3.97226   3.97226   4.38018
 Alpha virt. eigenvalues --    4.56880   4.56880   4.68180   5.80229   5.80229
 Alpha virt. eigenvalues --    6.40458   6.40458   6.59244   6.95858   6.95858
 Alpha virt. eigenvalues --    7.05458   7.88579   7.88579   8.14561   8.14561
 Alpha virt. eigenvalues --    8.42337   8.43911   8.43911   8.79701  10.07278
 Alpha virt. eigenvalues --   10.62925  10.62925  10.71601  10.71601  11.56185
 Alpha virt. eigenvalues --   28.78626  41.81314  41.81314  41.96955  98.35249
 Alpha virt. eigenvalues --  525.70908
          Condensed to atoms (all electrons):
               1          2
     1  Cl  16.831588   0.324748
     2  H    0.324748   0.518916
 Mulliken charges:
               1
     1  Cl  -0.156336
     2  H    0.156336
 Sum of Mulliken charges =   0.00000
 Mulliken charges with hydrogens summed into heavy atoms:
               1
     1  Cl   0.000000
 Electronic spatial extent (au):  <R**2>=             34.1574
 Charge=             -0.0000 electrons
 Dipole moment (field-independent basis, Debye):
    X=              0.0000    Y=              0.0000    Z=             -1.1772  Tot=              1.1772
 Quadrupole moment (field-independent basis, Debye-Ang):
   XX=            -13.9916   YY=            -13.9916   ZZ=            -10.3308
   XY=              0.0000   XZ=              0.0000   YZ=              0.0000
 Traceless Quadrupole moment (field-independent basis, Debye-Ang):
   XX=             -1.2203   YY=             -1.2203   ZZ=              2.4405
   XY=              0.0000   XZ=              0.0000   YZ=              0.0000
 Octapole moment (field-independent basis, Debye-Ang**2):
  XXX=              0.0000  YYY=              0.0000  ZZZ=             -2.7438  XYY=              0.0000
  XXY=              0.0000  XXZ=             -0.0695  XZZ=              0.0000  YZZ=              0.0000
  YYZ=             -0.0695  XYZ=              0.0000
 Hexadecapole moment (field-independent basis, Debye-Ang**3):
 XXXX=            -16.4063 YYYY=            -16.4063 ZZZZ=            -13.8021 XXXY=              0.0000
 XXXZ=              0.0000 YYYX=              0.0000 YYYZ=              0.0000 ZZZX=              0.0000
 ZZZY=              0.0000 XXYY=             -5.4688 XXZZ=             -5.8640 YYZZ=             -5.8640
 XXYZ=              0.0000 YYXZ=              0.0000 ZZXY=              0.0000
 N-N= 6.937037975017D+00 E-N=-1.109775522112D+03  KE= 4.599808269238D+02
 Symmetry A1   KE= 3.682736205072D+02
 Symmetry A2   KE= 3.279089697842D-45
 Symmetry B1   KE= 4.585360320827D+01
 Symmetry B2   KE= 4.585360320827D+01
   4 Symmetry operations used in ECPInt.
 ECPInt:  NShTT=     528 NPrTT=    1568 LenC2=     529 LenP2D=    1527.
 LDataN:  DoStor=T MaxTD1= 9 Len=  602
 Calling FoFJK, ICntrl=      2127 FMM=F ISym2X=1 I1Cent= 0 IOpClX= 0 NMat=1 NMatS=1 NMatT=0.
 ***** Axes restored to original set *****
 -------------------------------------------------------------------
 Center     Atomic                   Forces (Hartrees/Bohr)
 Number     Number              X              Y              Z
 -------------------------------------------------------------------
      1       17          -0.000000000   -0.000000000    0.011386882
      2        1          -0.000000000   -0.000000000   -0.011386882
 -------------------------------------------------------------------
 Cartesian Forces:  Max     0.011386882 RMS     0.006574219

 GradGradGradGradGradGradGradGradGradGradGradGradGradGradGradGradGradGrad
 Berny optimization.
 FormGI is forming the generalized inverse of G from B-inverse, IUseBI=4.
 Internal  Forces:  Max     0.011386882 RMS     0.011386882
 Search for a local minimum.
 Step number   1 out of a maximum of   20
 All quantities printed in internal units (Hartrees-Bohrs-Radians)
 Mixed Optimization -- RFO/linear search
 Second derivative matrix not updated -- first step.
 The second derivative matrix:
                          R1
           R1           0.30203
 ITU=  0
     Eigenvalues ---    0.30203
 RFO step:  Lambda=-4.28696776D-04 EMin= 3.02025363D-01
 Linear search not attempted -- first point.
 Iteration  1 RMS(Cart)=  0.02662137 RMS(Int)=  0.00000000
 Iteration  2 RMS(Cart)=  0.00000000 RMS(Int)=  0.00000000
 ClnCor:  largest displacement from symmetrization is 0.00D+00 for atom     0.
 Variable       Old X    -DE/DX   Delta X   Delta X   Delta X     New X
                                 (Linear)    (Quad)   (Total)
    R1        2.45061  -0.01139   0.00000  -0.03765  -0.03765   2.41297
         Item               Value     Threshold  Converged?
 Maximum Force            0.011387     0.000450     NO 
 RMS     Force            0.011387     0.000300     NO 
 Maximum Displacement     0.018824     0.001800     NO 
 RMS     Displacement     0.026621     0.001200     NO 
 Predicted change in Energy=-2.146522D-04
 GradGradGradGradGradGradGradGradGradGradGradGradGradGradGradGradGradGrad

                          Input orientation:                          
 ---------------------------------------------------------------------
 Center     Atomic      Atomic             Coordinates (Angstroms)
 Number     Number       Type             X           Y           Z
 ---------------------------------------------------------------------
      1         17           0        7.500000    7.500000    6.861557
      2          1           0        7.500000    7.500000    8.138443
 ---------------------------------------------------------------------
 Stoichiometry    ClH
 Framework group  C*V[C*(HCl)]
 Deg. of freedom     1
 Full point group                 C*V     NOp   4
 Largest Abelian subgroup         C2V     NOp   4
 Largest concise Abelian subgroup C1      NOp   1
                         Standard orientation:                         
 ---------------------------------------------------------------------
 Center     Atomic      Atomic             Coordinates (Angstroms)
 Number     Number       Type             X           Y           Z
 ---------------------------------------------------------------------
      1         17           0        0.000000    0.000000    0.070938
      2          1           0        0.000000    0.000000   -1.205948
 ---------------------------------------------------------------------
 Rotational constants (GHZ):           0.0000000         316.4224510         316.4224510
 Standard basis: def2QZVPP (5D, 7F)
 There are    55 symmetry adapted cartesian basis functions of A1  symmetry.
 There are    12 symmetry adapted cartesian basis functions of A2  symmetry.
 There are    27 symmetry adapted cartesian basis functions of B1  symmetry.
 There are    27 symmetry adapted cartesian basis functions of B2  symmetry.
 There are    43 symmetry adapted basis functions of A1  symmetry.
 There are    11 symmetry adapted basis functions of A2  symmetry.
 There are    23 symmetry adapted basis functions of B1  symmetry.
 There are    23 symmetry adapted basis functions of B2  symmetry.
   100 basis functions,   159 primitive gaussians,   121 cartesian basis functions
     9 alpha electrons        9 beta electrons
       nuclear repulsion energy         7.0452731403 Hartrees.
 NAtoms=    2 NActive=    2 NUniq=    2 SFac= 1.00D+00 NAtFMM=   60 NAOKFM=F Big=F
 Integral buffers will be    131072 words long.
 Raffenetti 2 integral format.
 Two-electron integral symmetry is turned on.
 One-electron integrals computed using PRISM.
   4 Symmetry operations used in ECPInt.
 ECPInt:  NShTT=     528 NPrTT=    1568 LenC2=     529 LenP2D=    1527.
 LDataN:  DoStor=T MaxTD1= 8 Len=  415
 NBasis=   100 RedAO= T EigKep=  5.66D-04  NBF=    43    11    23    23
 NBsUse=   100 1.00D-06 EigRej= -1.00D+00 NBFU=    43    11    23    23
 Initial guess from the checkpoint file:  "/data/hutter/SMG16/PBE0/Gau-55114.chk"
 B after Tr=     0.000000    0.000000    0.000000
         Rot=    1.000000    0.000000    0.000000    0.000000 Ang=   0.00 deg.
 Initial guess orbital symmetries:
       Occupied  (SG) (SG) (SG) (PI) (PI) (SG) (SG) (PI) (PI)
       Virtual   (SG) (SG) (SG) (PI) (PI) (PI) (PI) (DLTA) (DLTA)
                 (SG) (SG) (PI) (PI) (SG) (SG) (PI) (PI) (SG) (PI)
                 (PI) (DLTA) (DLTA) (SG) (DLTA) (DLTA) (PHI) (PHI)
                 (PI) (PI) (SG) (DLTA) (DLTA) (PI) (PI) (SG) (SG)
                 (PI) (PI) (SG) (DLTA) (DLTA) (PI) (PI) (SG) (PHI)
                 (PHI) (?A) (?A) (DLTA) (DLTA) (SG) (PI) (PI) (PHI)
                 (PHI) (DLTA) (DLTA) (PI) (PI) (SG) (PI) (PI) (SG)
                 (PHI) (PHI) (DLTA) (DLTA) (SG) (PI) (PI) (SG)
                 (DLTA) (DLTA) (PI) (PI) (SG) (PI) (PI) (SG) (SG)
                 (DLTA) (DLTA) (PI) (PI) (SG) (SG) (PI) (PI) (SG)
                 (SG) (SG)
 Keep R1 ints in memory in symmetry-blocked form, NReq=21838977.
 Requested convergence on RMS density matrix=1.00D-08 within 128 cycles.
 Requested convergence on MAX density matrix=1.00D-06.
 Requested convergence on             energy=1.00D-06.
 No special actions if energy rises.
 SCF Done:  E(RPBE1PBE) =  -460.679635340     A.U. after    7 cycles
            NFock=  7  Conv=0.84D-08     -V/T= 2.0015
   4 Symmetry operations used in ECPInt.
 ECPInt:  NShTT=     528 NPrTT=    1568 LenC2=     529 LenP2D=    1527.
 LDataN:  DoStor=T MaxTD1= 9 Len=  602
 Calling FoFJK, ICntrl=      2127 FMM=F ISym2X=1 I1Cent= 0 IOpClX= 0 NMat=1 NMatS=1 NMatT=0.
 ***** Axes restored to original set *****
 -------------------------------------------------------------------
 Center     Atomic                   Forces (Hartrees/Bohr)
 Number     Number              X              Y              Z
 -------------------------------------------------------------------
      1       17          -0.000000000   -0.000000000   -0.000556184
      2        1          -0.000000000   -0.000000000    0.000556184
 -------------------------------------------------------------------
 Cartesian Forces:  Max     0.000556184 RMS     0.000321113

 GradGradGradGradGradGradGradGradGradGradGradGradGradGradGradGradGradGrad
 Berny optimization.
 Using GEDIIS/GDIIS optimizer.
 Internal  Forces:  Max     0.000556184 RMS     0.000556184
 Search for a local minimum.
 Step number   2 out of a maximum of   20
 All quantities printed in internal units (Hartrees-Bohrs-Radians)
 Mixed Optimization -- En-DIIS/RFO-DIIS
 Update second derivatives using D2CorX and points    1    2
 DE= -2.08D-04 DEPred=-2.15D-04 R= 9.69D-01
 TightC=F SS=  1.41D+00  RLast= 3.76D-02 DXNew= 5.0454D-01 1.1294D-01
 Trust test= 9.69D-01 RLast= 3.76D-02 DXMaxT set to 3.00D-01
 The second derivative matrix:
                          R1
           R1           0.31723
 ITU=  1  0
 Use linear search instead of GDIIS.
     Eigenvalues ---    0.31723
 RFO step:  Lambda= 0.00000000D+00 EMin= 3.17227222D-01
 Quartic linear search produced a step of -0.04427.
 Iteration  1 RMS(Cart)=  0.00117849 RMS(Int)=  0.00000000
 Iteration  2 RMS(Cart)=  0.00000000 RMS(Int)=  0.00000000
 ClnCor:  largest displacement from symmetrization is 0.00D+00 for atom     0.
 Variable       Old X    -DE/DX   Delta X   Delta X   Delta X     New X
                                 (Linear)    (Quad)   (Total)
    R1        2.41297   0.00056   0.00167  -0.00000   0.00167   2.41463
         Item               Value     Threshold  Converged?
 Maximum Force            0.000556     0.000450     NO 
 RMS     Force            0.000556     0.000300     NO 
 Maximum Displacement     0.000833     0.001800     YES
 RMS     Displacement     0.001178     0.001200     YES
 Predicted change in Energy=-4.863801D-07
 GradGradGradGradGradGradGradGradGradGradGradGradGradGradGradGradGradGrad

                          Input orientation:                          
 ---------------------------------------------------------------------
 Center     Atomic      Atomic             Coordinates (Angstroms)
 Number     Number       Type             X           Y           Z
 ---------------------------------------------------------------------
      1         17           0        7.500000    7.500000    6.861116
      2          1           0        7.500000    7.500000    8.138884
 ---------------------------------------------------------------------
 Stoichiometry    ClH
 Framework group  C*V[C*(HCl)]
 Deg. of freedom     1
 Full point group                 C*V     NOp   4
 Largest Abelian subgroup         C2V     NOp   4
 Largest concise Abelian subgroup C1      NOp   1
                         Standard orientation:                         
 ---------------------------------------------------------------------
 Center     Atomic      Atomic             Coordinates (Angstroms)
 Number     Number       Type             X           Y           Z
 ---------------------------------------------------------------------
      1         17           0        0.000000    0.000000    0.070987
      2          1           0        0.000000    0.000000   -1.206781
 ---------------------------------------------------------------------
 Rotational constants (GHZ):           0.0000000         315.9857956         315.9857956
 Standard basis: def2QZVPP (5D, 7F)
 There are    55 symmetry adapted cartesian basis functions of A1  symmetry.
 There are    12 symmetry adapted cartesian basis functions of A2  symmetry.
 There are    27 symmetry adapted cartesian basis functions of B1  symmetry.
 There are    27 symmetry adapted cartesian basis functions of B2  symmetry.
 There are    43 symmetry adapted basis functions of A1  symmetry.
 There are    11 symmetry adapted basis functions of A2  symmetry.
 There are    23 symmetry adapted basis functions of B1  symmetry.
 There are    23 symmetry adapted basis functions of B2  symmetry.
   100 basis functions,   159 primitive gaussians,   121 cartesian basis functions
     9 alpha electrons        9 beta electrons
       nuclear repulsion energy         7.0404103080 Hartrees.
 NAtoms=    2 NActive=    2 NUniq=    2 SFac= 1.00D+00 NAtFMM=   60 NAOKFM=F Big=F
 Integral buffers will be    131072 words long.
 Raffenetti 2 integral format.
 Two-electron integral symmetry is turned on.
 One-electron integrals computed using PRISM.
   4 Symmetry operations used in ECPInt.
 ECPInt:  NShTT=     528 NPrTT=    1568 LenC2=     529 LenP2D=    1527.
 LDataN:  DoStor=T MaxTD1= 8 Len=  415
 NBasis=   100 RedAO= T EigKep=  5.68D-04  NBF=    43    11    23    23
 NBsUse=   100 1.00D-06 EigRej= -1.00D+00 NBFU=    43    11    23    23
 Initial guess from the checkpoint file:  "/data/hutter/SMG16/PBE0/Gau-55114.chk"
 B after Tr=     0.000000    0.000000   -0.000000
         Rot=    1.000000    0.000000    0.000000    0.000000 Ang=   0.00 deg.
 Initial guess orbital symmetries:
       Occupied  (SG) (SG) (SG) (PI) (PI) (SG) (SG) (PI) (PI)
       Virtual   (SG) (SG) (SG) (PI) (PI) (PI) (PI) (DLTA) (DLTA)
                 (SG) (SG) (PI) (PI) (SG) (SG) (PI) (PI) (SG) (PI)
                 (PI) (DLTA) (DLTA) (SG) (DLTA) (DLTA) (PHI) (PHI)
                 (PI) (PI) (SG) (DLTA) (DLTA) (PI) (PI) (SG) (SG)
                 (PI) (PI) (SG) (DLTA) (DLTA) (PI) (PI) (SG) (PHI)
                 (PHI) (?A) (?A) (DLTA) (DLTA) (SG) (PI) (PI) (PHI)
                 (PHI) (DLTA) (DLTA) (PI) (PI) (SG) (PI) (PI) (SG)
                 (PHI) (PHI) (DLTA) (DLTA) (SG) (PI) (PI) (SG)
                 (DLTA) (DLTA) (PI) (PI) (SG) (PI) (PI) (SG) (SG)
                 (DLTA) (DLTA) (PI) (PI) (SG) (SG) (PI) (PI) (SG)
                 (SG) (SG)
 Keep R1 ints in memory in symmetry-blocked form, NReq=21838977.
 Requested convergence on RMS density matrix=1.00D-08 within 128 cycles.
 Requested convergence on MAX density matrix=1.00D-06.
 Requested convergence on             energy=1.00D-06.
 No special actions if energy rises.
 SCF Done:  E(RPBE1PBE) =  -460.679635803     A.U. after    6 cycles
            NFock=  6  Conv=0.25D-08     -V/T= 2.0015
   4 Symmetry operations used in ECPInt.
 ECPInt:  NShTT=     528 NPrTT=    1568 LenC2=     529 LenP2D=    1527.
 LDataN:  DoStor=T MaxTD1= 9 Len=  602
 Calling FoFJK, ICntrl=      2127 FMM=F ISym2X=1 I1Cent= 0 IOpClX= 0 NMat=1 NMatS=1 NMatT=0.
 ***** Axes restored to original set *****
 -------------------------------------------------------------------
 Center     Atomic                   Forces (Hartrees/Bohr)
 Number     Number              X              Y              Z
 -------------------------------------------------------------------
      1       17          -0.000000000   -0.000000000    0.000000225
      2        1          -0.000000000   -0.000000000   -0.000000225
 -------------------------------------------------------------------
 Cartesian Forces:  Max     0.000000225 RMS     0.000000130

 GradGradGradGradGradGradGradGradGradGradGradGradGradGradGradGradGradGrad
 Berny optimization.
 Using GEDIIS/GDIIS optimizer.
 Internal  Forces:  Max     0.000000225 RMS     0.000000225
 Search for a local minimum.
 Step number   3 out of a maximum of   20
 All quantities printed in internal units (Hartrees-Bohrs-Radians)
 Mixed Optimization -- En-DIIS/RFO-DIIS
 Swapping is turned off.
 Update second derivatives using D2CorX and points    2    3
 DE= -4.63D-07 DEPred=-4.86D-07 R= 9.52D-01
 Trust test= 9.52D-01 RLast= 1.67D-03 DXMaxT set to 3.00D-01
 The second derivative matrix:
                          R1
           R1           0.33385
 ITU=  0  1
     Eigenvalues ---    0.33385
 En-DIIS/RFO-DIIS/Sim-DIIS IScMMF=       -3 using points:     3    2
 RFO step:  Lambda=-1.51351154D-13.
 DidBck=F Rises=F RFO-DIIS coefs:    0.99960    0.00040
 Iteration  1 RMS(Cart)=  0.00000048 RMS(Int)=  0.00000000
 ClnCor:  largest displacement from symmetrization is 0.00D+00 for atom     0.
 Variable       Old X    -DE/DX   Delta X   Delta X   Delta X     New X
                                 (Linear)    (Quad)   (Total)
    R1        2.41463  -0.00000  -0.00000  -0.00000  -0.00000   2.41463
         Item               Value     Threshold  Converged?
 Maximum Force            0.000000     0.000450     YES
 RMS     Force            0.000000     0.000300     YES
 Maximum Displacement     0.000000     0.001800     YES
 RMS     Displacement     0.000000     0.001200     YES
 Predicted change in Energy=-7.568208D-14
 Optimization completed.
    -- Stationary point found.
                           ----------------------------
                           !   Optimized Parameters   !
                           ! (Angstroms and Degrees)  !
 --------------------------                            --------------------------
 ! Name  Definition              Value          Derivative Info.                !
 --------------------------------------------------------------------------------
 ! R1    R(1,2)                  1.2778         -DE/DX =    0.0                 !
 --------------------------------------------------------------------------------
 GradGradGradGradGradGradGradGradGradGradGradGradGradGradGradGradGradGrad

                          Input orientation:                          
 ---------------------------------------------------------------------
 Center     Atomic      Atomic             Coordinates (Angstroms)
 Number     Number       Type             X           Y           Z
 ---------------------------------------------------------------------
      1         17           0        7.500000    7.500000    6.861116
      2          1           0        7.500000    7.500000    8.138884
 ---------------------------------------------------------------------
 Stoichiometry    ClH
 Framework group  C*V[C*(HCl)]
 Deg. of freedom     1
 Full point group                 C*V     NOp   4
 Largest Abelian subgroup         C2V     NOp   4
 Largest concise Abelian subgroup C1      NOp   1
                         Standard orientation:                         
 ---------------------------------------------------------------------
 Center     Atomic      Atomic             Coordinates (Angstroms)
 Number     Number       Type             X           Y           Z
 ---------------------------------------------------------------------
      1         17           0        0.000000    0.000000    0.070987
      2          1           0        0.000000    0.000000   -1.206781
 ---------------------------------------------------------------------
 Rotational constants (GHZ):           0.0000000         315.9857956         315.9857956

 **********************************************************************

            Population analysis using the SCF Density.

 **********************************************************************

 Orbital symmetries:
       Occupied  (SG) (SG) (SG) (PI) (PI) (SG) (SG) (PI) (PI)
       Virtual   (SG) (SG) (SG) (PI) (PI) (PI) (PI) (DLTA) (DLTA)
                 (SG) (SG) (PI) (PI) (SG) (SG) (PI) (PI) (SG) (PI)
                 (PI) (DLTA) (DLTA) (SG) (DLTA) (DLTA) (PHI) (PHI)
                 (PI) (PI) (SG) (DLTA) (DLTA) (PI) (PI) (SG) (SG)
                 (PI) (PI) (SG) (DLTA) (DLTA) (PI) (PI) (SG) (PHI)
                 (PHI) (?A) (?A) (DLTA) (DLTA) (SG) (PI) (PI) (PHI)
                 (PHI) (DLTA) (DLTA) (PI) (PI) (SG) (PI) (PI) (SG)
                 (PHI) (PHI) (DLTA) (DLTA) (SG) (PI) (PI) (SG)
                 (DLTA) (DLTA) (PI) (PI) (SG) (PI) (PI) (SG) (SG)
                 (DLTA) (DLTA) (PI) (PI) (SG) (SG) (PI) (PI) (SG)
                 (SG) (SG)
 The electronic state is 1-SG.
 Alpha  occ. eigenvalues -- -101.72067  -9.54324  -7.27768  -7.26961  -7.26961
 Alpha  occ. eigenvalues --   -0.86937  -0.48861  -0.34868  -0.34868
 Alpha virt. eigenvalues --    0.00096   0.12040   0.19004   0.19545   0.19545
 Alpha virt. eigenvalues --    0.27478   0.27478   0.32951   0.32951   0.38092
 Alpha virt. eigenvalues --    0.51845   0.67276   0.67276   0.86281   1.02052
 Alpha virt. eigenvalues --    1.07831   1.07831   1.09647   1.12848   1.12848
 Alpha virt. eigenvalues --    1.15063   1.15063   1.26895   1.27557   1.27557
 Alpha virt. eigenvalues --    1.32192   1.32192   1.52885   1.52885   1.75497
 Alpha virt. eigenvalues --    2.11338   2.11338   2.21903   2.21903   2.38346
 Alpha virt. eigenvalues --    2.60415   2.72981   2.72981   2.88457   3.20793
 Alpha virt. eigenvalues --    3.20793   3.29066   3.29066   3.41586   3.55888
 Alpha virt. eigenvalues --    3.55888   3.59292   3.59292   3.72158   3.72158
 Alpha virt. eigenvalues --    3.78497   3.86079   3.86079   3.91603   3.91603
 Alpha virt. eigenvalues --    3.96926   3.96926   3.98215   3.98215   4.37380
 Alpha virt. eigenvalues --    4.59965   4.59965   4.73323   5.80944   5.80944
 Alpha virt. eigenvalues --    6.44554   6.44554   6.67127   6.97039   6.97039
 Alpha virt. eigenvalues --    7.08430   7.88858   7.88858   8.20763   8.20763
 Alpha virt. eigenvalues --    8.41843   8.45102   8.45102   8.81949  10.09203
 Alpha virt. eigenvalues --   10.62921  10.62922  10.71970  10.71970  11.67979
 Alpha virt. eigenvalues --   28.80869  41.81461  41.81461  41.97803  98.37357
 Alpha virt. eigenvalues --  525.74501
          Condensed to atoms (all electrons):
               1          2
     1  Cl  16.825869   0.325875
     2  H    0.325875   0.522382
 Mulliken charges:
               1
     1  Cl  -0.151743
     2  H    0.151743
 Sum of Mulliken charges =   0.00000
 Mulliken charges with hydrogens summed into heavy atoms:
               1
     1  Cl   0.000000
 Electronic spatial extent (au):  <R**2>=             33.9955
 Charge=             -0.0000 electrons
 Dipole moment (field-independent basis, Debye):
    X=              0.0000    Y=              0.0000    Z=             -1.1570  Tot=              1.1570
 Quadrupole moment (field-independent basis, Debye-Ang):
   XX=            -13.9684   YY=            -13.9684   ZZ=            -10.3819
   XY=              0.0000   XZ=              0.0000   YZ=              0.0000
 Traceless Quadrupole moment (field-independent basis, Debye-Ang):
   XX=             -1.1955   YY=             -1.1955   ZZ=              2.3910
   XY=              0.0000   XZ=              0.0000   YZ=              0.0000
 Octapole moment (field-independent basis, Debye-Ang**2):
  XXX=              0.0000  YYY=              0.0000  ZZZ=             -2.6416  XYY=              0.0000
  XXY=              0.0000  XXZ=             -0.0849  XZZ=              0.0000  YZZ=              0.0000
  YYZ=             -0.0849  XYZ=              0.0000
 Hexadecapole moment (field-independent basis, Debye-Ang**3):
 XXXX=            -16.3633 YYYY=            -16.3633 ZZZZ=            -13.7874 XXXY=              0.0000
 XXXZ=              0.0000 YYYX=              0.0000 YYYZ=              0.0000 ZZZX=              0.0000
 ZZZY=              0.0000 XXYY=             -5.4544 XXZZ=             -5.8065 YYZZ=             -5.8065
 XXYZ=              0.0000 YYXZ=              0.0000 ZZXY=              0.0000
 N-N= 7.040410308008D+00 E-N=-1.109999705538D+03  KE= 4.600089959452D+02
 Symmetry A1   KE= 3.683035297143D+02
 Symmetry A2   KE= 5.374859591239D-45
 Symmetry B1   KE= 4.585273311542D+01
 Symmetry B2   KE= 4.585273311542D+01
 Unable to Open any file for archive entry.
 1\1\GINC-TCOPT10\FOpt\RPBE1PBE\def2QZVPP\Cl1H1\HUTTER\01-Aug-2021\0\\#
 N RPBE1PBE/Def2QZVPP scf=tight Int(Grid=ultrafine) OPT FREQ\\Mol job 1
 \\0,1\Cl,7.5,7.5,6.8611158873\H,7.5,7.5,8.1388841127\\Version=ES64L-G1
 6RevC.01\State=1-SG\HF=-460.6796358\RMSD=2.460e-09\RMSF=1.298e-07\Dipo
 le=0.,0.,0.4552153\Quadrupole=-0.8888178,-0.8888178,1.7776356,0.,0.,0.
 \PG=C*V [C*(H1Cl1)]\\@
 The archive entry for this job was punched.


          EVOLUTION
 IN THE BEGINNING GOD MADE MAN.
 HE WORKED THE DIRT WITH HIS HANDS.
 THEN GOD DECIDED TO GIVE MAN SCIENCE,
 MAN SHOULD BE USEFUL (LIKE AN APPLIANCE.)
 BUT SOON MAN'S KNOWLEDGE GREW TOO GREAT,
 TO THE HEADING SCIENCE HE COULDN'T RELATE
 SO GOD SAID "LETS HAVE DIFFERENT FIELDS,
 WE'LL DIVIDE THEM UP, SEE WHAT IT YIELDS."
 ENTER PHYSICS, CHEMISTRY, BIO
 THEY SPRANG UP AROUND THE NILE.
 BUT CHEMISTRY SURPASSED THE REST
 FAR AND AWAY IT WAS THE BEST.
 EXPERIMENT WAS GOD'S DECREE
 EXPERIMENT DID CHEMISTS WITH LOTS OF GLEE
 BUT SOON THEIR TESTS BEGAN TO BOG,
 THEY FOUND THEMSELVES DEEP IN A FOG.
 "GIVE US SOME HELP" THEY CRIED TO GOD.
 GOD LOOKED AROUND, THEN GAVE THE NOD.
 ENTER EINSTEIN, HEISENBERG, BOHR,
 REACTION PATHS WERE CLEAR ONCE MORE.
 WITH THEORISTS GOD SEND DIRECTION
 AND THEN HE STOPPED, HE'D MADE PERFECTION.
          -- THOMAS A. HOLME, 1981
 Job cpu time:       0 days  0 hours  3 minutes 34.6 seconds.
 Elapsed time:       0 days  0 hours  0 minutes 43.4 seconds.
 File lengths (MBytes):  RWF=     10 Int=      0 D2E=      0 Chk=      2 Scr=      1
 Normal termination of Gaussian 16 at Sun Aug  1 11:32:11 2021.
 Link1:  Proceeding to internal job step number  2.
 ----------------------------------------------------------------------
 #N Geom=AllCheck Guess=TCheck SCRF=Check GenChk RPBE1PBE/def2QZVPP Fre
 q
 ----------------------------------------------------------------------
 1/10=4,29=7,30=1,38=1,40=1/1,3;
 2/12=2,40=1/2;
 3/5=45,7=202,11=2,14=-4,25=1,30=1,70=2,71=2,74=-13,75=-5,116=1,140=1/1,2,3;
 4/5=101/1;
 5/5=2,32=2,38=6,98=1/2;
 8/6=4,10=90,11=11/1;
 11/6=1,8=1,9=11,15=111,16=1/1,2,10;
 10/6=1/2;
 6/7=2,8=2,9=2,10=2,28=1/1;
 7/8=1,10=1,25=1/1,2,3,16;
 1/10=4,30=1/3;
 99//99;
 Structure from the checkpoint file:  "/data/hutter/SMG16/PBE0/Gau-55114.chk"
 ---------
 Mol job 1
 ---------
 Charge =  0 Multiplicity = 1
 Redundant internal coordinates found in file.  (old form).
 Cl,0,7.5,7.5,6.8611158873
 H,0,7.5,7.5,8.1388841127
 Recover connectivity data from disk.

 GradGradGradGradGradGradGradGradGradGradGradGradGradGradGradGradGradGrad
 Berny optimization.
 Initialization pass.
                           ----------------------------
                           !    Initial Parameters    !
                           ! (Angstroms and Degrees)  !
 --------------------------                            --------------------------
 ! Name  Definition              Value          Derivative Info.                !
 --------------------------------------------------------------------------------
 ! R1    R(1,2)                  1.2778         calculate D2E/DX2 analytically  !
 --------------------------------------------------------------------------------
 Trust Radius=3.00D-01 FncErr=1.00D-07 GrdErr=1.00D-07 EigMax=2.50D+02 EigMin=1.00D-04
 Number of steps in this run=      2 maximum allowed number of steps=      2.
 GradGradGradGradGradGradGradGradGradGradGradGradGradGradGradGradGradGrad

                          Input orientation:                          
 ---------------------------------------------------------------------
 Center     Atomic      Atomic             Coordinates (Angstroms)
 Number     Number       Type             X           Y           Z
 ---------------------------------------------------------------------
      1         17           0        7.500000    7.500000    6.861116
      2          1           0        7.500000    7.500000    8.138884
 ---------------------------------------------------------------------
 Stoichiometry    ClH
 Framework group  C*V[C*(HCl)]
 Deg. of freedom     1
 Full point group                 C*V     NOp   4
 Largest Abelian subgroup         C2V     NOp   4
 Largest concise Abelian subgroup C1      NOp   1
                         Standard orientation:                         
 ---------------------------------------------------------------------
 Center     Atomic      Atomic             Coordinates (Angstroms)
 Number     Number       Type             X           Y           Z
 ---------------------------------------------------------------------
      1         17           0        0.000000    0.000000    0.070987
      2          1           0        0.000000    0.000000   -1.206781
 ---------------------------------------------------------------------
 Rotational constants (GHZ):           0.0000000         315.9857956         315.9857956
 Standard basis: def2QZVPP (5D, 7F)
 There are    55 symmetry adapted cartesian basis functions of A1  symmetry.
 There are    12 symmetry adapted cartesian basis functions of A2  symmetry.
 There are    27 symmetry adapted cartesian basis functions of B1  symmetry.
 There are    27 symmetry adapted cartesian basis functions of B2  symmetry.
 There are    43 symmetry adapted basis functions of A1  symmetry.
 There are    11 symmetry adapted basis functions of A2  symmetry.
 There are    23 symmetry adapted basis functions of B1  symmetry.
 There are    23 symmetry adapted basis functions of B2  symmetry.
   100 basis functions,   159 primitive gaussians,   121 cartesian basis functions
     9 alpha electrons        9 beta electrons
       nuclear repulsion energy         7.0404103080 Hartrees.
 NAtoms=    2 NActive=    2 NUniq=    2 SFac= 1.00D+00 NAtFMM=   60 NAOKFM=F Big=F
 Integral buffers will be    131072 words long.
 Raffenetti 2 integral format.
 Two-electron integral symmetry is turned on.
 One-electron integrals computed using PRISM.
   4 Symmetry operations used in ECPInt.
 ECPInt:  NShTT=     528 NPrTT=    1568 LenC2=     529 LenP2D=    1527.
 LDataN:  DoStor=T MaxTD1= 8 Len=  415
 NBasis=   100 RedAO= T EigKep=  5.68D-04  NBF=    43    11    23    23
 NBsUse=   100 1.00D-06 EigRej= -1.00D+00 NBFU=    43    11    23    23
 Initial guess from the checkpoint file:  "/data/hutter/SMG16/PBE0/Gau-55114.chk"
 B after Tr=     0.000000    0.000000    0.000000
         Rot=    1.000000    0.000000    0.000000    0.000000 Ang=   0.00 deg.
 Initial guess orbital symmetries:
       Occupied  (SG) (SG) (SG) (PI) (PI) (SG) (SG) (PI) (PI)
       Virtual   (SG) (SG) (SG) (PI) (PI) (PI) (PI) (DLTA) (DLTA)
                 (SG) (SG) (PI) (PI) (SG) (SG) (PI) (PI) (SG) (PI)
                 (PI) (DLTA) (DLTA) (SG) (DLTA) (DLTA) (PHI) (PHI)
                 (PI) (PI) (SG) (DLTA) (DLTA) (PI) (PI) (SG) (SG)
                 (PI) (PI) (SG) (DLTA) (DLTA) (PI) (PI) (SG) (PHI)
                 (PHI) (?A) (?A) (DLTA) (DLTA) (SG) (PI) (PI) (PHI)
                 (PHI) (DLTA) (DLTA) (PI) (PI) (SG) (PI) (PI) (SG)
                 (PHI) (PHI) (DLTA) (DLTA) (SG) (PI) (PI) (SG)
                 (DLTA) (DLTA) (PI) (PI) (SG) (PI) (PI) (SG) (SG)
                 (DLTA) (DLTA) (PI) (PI) (SG) (SG) (PI) (PI) (SG)
                 (SG) (SG)
 Keep R1 ints in memory in symmetry-blocked form, NReq=21838977.
 Requested convergence on RMS density matrix=1.00D-08 within 128 cycles.
 Requested convergence on MAX density matrix=1.00D-06.
 Requested convergence on             energy=1.00D-06.
 No special actions if energy rises.
 SCF Done:  E(RPBE1PBE) =  -460.679635803     A.U. after    1 cycles
            NFock=  1  Conv=0.63D-09     -V/T= 2.0015
 DoSCS=F DFT=T ScalE2(SS,OS)=  1.000000  1.000000
 Range of M.O.s used for correlation:     1   100
 NBasis=   100 NAE=     9 NBE=     9 NFC=     0 NFV=     0
 NROrb=    100 NOA=     9 NOB=     9 NVA=    91 NVB=    91

 **** Warning!!: The largest alpha MO coefficient is  0.11357798D+02

   4 Symmetry operations used in ECPInt.
 ECPInt:  NShTT=     528 NPrTT=    1568 LenC2=     529 LenP2D=    1527.
 LDataN:  DoStor=T MaxTD1= 9 Len=  602
 Symmetrizing basis deriv contribution to polar:
 IMax=3 JMax=2 DiffMx= 0.00D+00
 G2DrvN: will do     3 centers at a time, making    1 passes.
 Calling FoFCou, ICntrl=  3107 FMM=F I1Cent=   0 AccDes= 0.00D+00.
 End of G2Drv F.D. properties file   721 does not exist.
 End of G2Drv F.D. properties file   722 does not exist.
 End of G2Drv F.D. properties file   788 does not exist.
          IDoAtm=11
          Differentiating once with respect to electric field.
                with respect to dipole field.
          Differentiating once with respect to nuclear coordinates.
 Keep R1 ints in memory in symmetry-blocked form, NReq=21840048.
          There are     9 degrees of freedom in the 1st order CPHF.  IDoFFX=6 NUNeed=     3.
      6 vectors produced by pass  0 Test12= 9.10D-15 1.11D-08 XBig12= 1.13D+01 2.42D+00.
 AX will form     6 AO Fock derivatives at one time.
      6 vectors produced by pass  1 Test12= 9.10D-15 1.11D-08 XBig12= 1.08D+00 5.28D-01.
      6 vectors produced by pass  2 Test12= 9.10D-15 1.11D-08 XBig12= 1.28D-02 4.34D-02.
      6 vectors produced by pass  3 Test12= 9.10D-15 1.11D-08 XBig12= 5.53D-05 2.39D-03.
      6 vectors produced by pass  4 Test12= 9.10D-15 1.11D-08 XBig12= 4.77D-07 1.82D-04.
      6 vectors produced by pass  5 Test12= 9.10D-15 1.11D-08 XBig12= 3.11D-09 1.51D-05.
      4 vectors produced by pass  6 Test12= 9.10D-15 1.11D-08 XBig12= 3.62D-12 5.29D-07.
      1 vectors produced by pass  7 Test12= 9.10D-15 1.11D-08 XBig12= 3.97D-15 2.03D-08.
 InvSVY:  IOpt=1 It=  1 EMax= 4.44D-16
 Solved reduced A of dimension    41 with     6 vectors.
 Isotropic polarizability for W=    0.000000       14.76 Bohr**3.
 End of Minotr F.D. properties file   721 does not exist.
 End of Minotr F.D. properties file   722 does not exist.
 End of Minotr F.D. properties file   788 does not exist.

 **********************************************************************

            Population analysis using the SCF Density.

 **********************************************************************

 Orbital symmetries:
       Occupied  (SG) (SG) (SG) (PI) (PI) (SG) (SG) (PI) (PI)
       Virtual   (SG) (SG) (SG) (PI) (PI) (PI) (PI) (DLTA) (DLTA)
                 (SG) (SG) (PI) (PI) (SG) (SG) (PI) (PI) (SG) (PI)
                 (PI) (DLTA) (DLTA) (SG) (DLTA) (DLTA) (PHI) (PHI)
                 (PI) (PI) (SG) (DLTA) (DLTA) (PI) (PI) (SG) (SG)
                 (PI) (PI) (SG) (DLTA) (DLTA) (PI) (PI) (SG) (PHI)
                 (PHI) (?A) (?A) (DLTA) (DLTA) (SG) (PI) (PI) (PHI)
                 (PHI) (DLTA) (DLTA) (PI) (PI) (SG) (PI) (PI) (SG)
                 (PHI) (PHI) (DLTA) (DLTA) (SG) (PI) (PI) (SG)
                 (DLTA) (DLTA) (PI) (PI) (SG) (PI) (PI) (SG) (SG)
                 (DLTA) (DLTA) (PI) (PI) (SG) (SG) (PI) (PI) (SG)
                 (SG) (SG)
 The electronic state is 1-SG.
 Alpha  occ. eigenvalues -- -101.72067  -9.54324  -7.27768  -7.26961  -7.26961
 Alpha  occ. eigenvalues --   -0.86937  -0.48861  -0.34868  -0.34868
 Alpha virt. eigenvalues --    0.00096   0.12040   0.19004   0.19545   0.19545
 Alpha virt. eigenvalues --    0.27478   0.27478   0.32951   0.32951   0.38092
 Alpha virt. eigenvalues --    0.51845   0.67276   0.67276   0.86281   1.02052
 Alpha virt. eigenvalues --    1.07831   1.07831   1.09647   1.12848   1.12848
 Alpha virt. eigenvalues --    1.15063   1.15063   1.26895   1.27557   1.27557
 Alpha virt. eigenvalues --    1.32192   1.32192   1.52885   1.52885   1.75497
 Alpha virt. eigenvalues --    2.11338   2.11338   2.21903   2.21903   2.38346
 Alpha virt. eigenvalues --    2.60415   2.72981   2.72981   2.88457   3.20793
 Alpha virt. eigenvalues --    3.20793   3.29066   3.29066   3.41586   3.55888
 Alpha virt. eigenvalues --    3.55888   3.59292   3.59292   3.72158   3.72158
 Alpha virt. eigenvalues --    3.78497   3.86079   3.86079   3.91603   3.91603
 Alpha virt. eigenvalues --    3.96926   3.96926   3.98215   3.98215   4.37380
 Alpha virt. eigenvalues --    4.59965   4.59965   4.73323   5.80944   5.80944
 Alpha virt. eigenvalues --    6.44554   6.44554   6.67127   6.97039   6.97039
 Alpha virt. eigenvalues --    7.08430   7.88858   7.88858   8.20763   8.20763
 Alpha virt. eigenvalues --    8.41843   8.45102   8.45102   8.81949  10.09203
 Alpha virt. eigenvalues --   10.62921  10.62922  10.71970  10.71970  11.67979
 Alpha virt. eigenvalues --   28.80869  41.81461  41.81461  41.97803  98.37357
 Alpha virt. eigenvalues --  525.74501
          Condensed to atoms (all electrons):
               1          2
     1  Cl  16.825869   0.325875
     2  H    0.325875   0.522382
 Mulliken charges:
               1
     1  Cl  -0.151743
     2  H    0.151743
 Sum of Mulliken charges =   0.00000
 Mulliken charges with hydrogens summed into heavy atoms:
               1
     1  Cl   0.000000
 APT charges:
               1
     1  Cl  -0.199056
     2  H    0.199056
 Sum of APT charges =  -0.00000
 APT charges with hydrogens summed into heavy atoms:
               1
     1  Cl  -0.000000
 Electronic spatial extent (au):  <R**2>=             33.9955
 Charge=             -0.0000 electrons
 Dipole moment (field-independent basis, Debye):
    X=              0.0000    Y=              0.0000    Z=             -1.1570  Tot=              1.1570
 Quadrupole moment (field-independent basis, Debye-Ang):
   XX=            -13.9684   YY=            -13.9684   ZZ=            -10.3819
   XY=              0.0000   XZ=              0.0000   YZ=              0.0000
 Traceless Quadrupole moment (field-independent basis, Debye-Ang):
   XX=             -1.1955   YY=             -1.1955   ZZ=              2.3910
   XY=              0.0000   XZ=              0.0000   YZ=              0.0000
 Octapole moment (field-independent basis, Debye-Ang**2):
  XXX=              0.0000  YYY=              0.0000  ZZZ=             -2.6416  XYY=              0.0000
  XXY=              0.0000  XXZ=             -0.0849  XZZ=              0.0000  YZZ=              0.0000
  YYZ=             -0.0849  XYZ=              0.0000
 Hexadecapole moment (field-independent basis, Debye-Ang**3):
 XXXX=            -16.3633 YYYY=            -16.3633 ZZZZ=            -13.7874 XXXY=              0.0000
 XXXZ=              0.0000 YYYX=              0.0000 YYYZ=              0.0000 ZZZX=              0.0000
 ZZZY=              0.0000 XXYY=             -5.4544 XXZZ=             -5.8065 YYZZ=             -5.8065
 XXYZ=              0.0000 YYXZ=              0.0000 ZZXY=              0.0000
 N-N= 7.040410308008D+00 E-N=-1.109999706650D+03  KE= 4.600089963986D+02
 Symmetry A1   KE= 3.683035298960D+02
 Symmetry A2   KE= 5.374859474086D-45
 Symmetry B1   KE= 4.585273325128D+01
 Symmetry B2   KE= 4.585273325128D+01
  Exact polarizability:      13.831      -0.000      13.831      -0.000      -0.000      16.633
 Approx polarizability:      18.384      -0.000      18.384      -0.000      -0.000      25.327
   4 Symmetry operations used in ECPInt.
 ECPInt:  NShTT=     528 NPrTT=    1568 LenC2=     529 LenP2D=    1527.
 LDataN:  DoStor=T MaxTD1=10 Len=  848
 Calling FoFJK, ICntrl=    100127 FMM=F ISym2X=1 I1Cent= 0 IOpClX= 0 NMat=1 NMatS=1 NMatT=0.
 Full mass-weighted force constant matrix:
 Low frequencies ---   -0.0058   -0.0058    0.0054   48.1668   48.1668 2997.3629
 Diagonal vibrational polarizability:
        0.0000000       0.0000000       0.1444509
 Harmonic frequencies (cm**-1), IR intensities (KM/Mole), Raman scattering
 activities (A**4/AMU), depolarization ratios for plane and unpolarized
 incident light, reduced masses (AMU), force constants (mDyne/A),
 and normal coordinates:
                      1
                     SG
 Frequencies --   2997.3629
 Red. masses --      1.0360
 Frc consts  --      5.4839
 IR Inten    --     48.2243
  Atom  AN      X      Y      Z
     1  17    -0.00  -0.00  -0.03
     2   1    -0.00  -0.00   1.00

 -------------------
 - Thermochemistry -
 -------------------
 Temperature   298.150 Kelvin.  Pressure   1.00000 Atm.
 Atom     1 has atomic number 17 and mass  34.96885
 Atom     2 has atomic number  1 and mass   1.00783
 Molecular mass:    35.97668 amu.
 Principal axes and moments of inertia in atomic units:
                           1         2         3
     Eigenvalues --     0.00000   5.71146   5.71146
           X            0.00000  -0.00000   1.00000
           Y            0.00000   1.00000   0.00000
           Z            1.00000   0.00000   0.00000
 This molecule is a prolate symmetric top.
 Rotational symmetry number  1.
 Rotational temperature (Kelvin)     15.16493
 Rotational constant (GHZ):         315.985796
 Zero-point vibrational energy      17928.2 (Joules/Mol)
                                    4.28495 (Kcal/Mol)
 Vibrational temperatures:   4312.54
          (Kelvin)
 
 Zero-point correction=                           0.006828 (Hartree/Particle)
 Thermal correction to Energy=                    0.009189
 Thermal correction to Enthalpy=                  0.010133
 Thermal correction to Gibbs Free Energy=        -0.011047
 Sum of electronic and zero-point Energies=           -460.672807
 Sum of electronic and thermal Energies=              -460.670447
 Sum of electronic and thermal Enthalpies=            -460.669503
 Sum of electronic and thermal Free Energies=         -460.690683
 
                     E (Thermal)             CV                S
                      KCal/Mol        Cal/Mol-Kelvin    Cal/Mol-Kelvin
 Total                    5.766              4.968             44.577
 Electronic               0.000              0.000              0.000
 Translational            0.889              2.981             36.671
 Rotational               0.592              1.987              7.906
 Vibrational              4.285              0.000              0.000
                       Q            Log10(Q)             Ln(Q)
 Total Bot       0.120557D+06          5.081193         11.699880
 Total V=0       0.166756D+09          8.222080         18.932039
 Vib (Bot)       0.722958D-03         -3.140887         -7.232159
 Vib (V=0)       0.100000D+01          0.000000          0.000001
 Electronic      0.100000D+01          0.000000          0.000000
 Translational   0.848175D+07          6.928485         15.953427
 Rotational      0.196605D+02          1.293594          2.978611
 ***** Axes restored to original set *****
 -------------------------------------------------------------------
 Center     Atomic                   Forces (Hartrees/Bohr)
 Number     Number              X              Y              Z
 -------------------------------------------------------------------
      1       17          -0.000000000   -0.000000000    0.000000233
      2        1          -0.000000000   -0.000000000   -0.000000233
 -------------------------------------------------------------------
 Cartesian Forces:  Max     0.000000233 RMS     0.000000135
 FormGI is forming the generalized inverse of G from B-inverse, IUseBI=4.

 GradGradGradGradGradGradGradGradGradGradGradGradGradGradGradGradGradGrad
 Berny optimization.
 Internal  Forces:  Max     0.000000233 RMS     0.000000233
 Search for a local minimum.
 Step number   1 out of a maximum of    2
 All quantities printed in internal units (Hartrees-Bohrs-Radians)
 Second derivative matrix not updated -- analytic derivatives used.
 The second derivative matrix:
                          R1
           R1           0.33305
 ITU=  0
     Eigenvalues ---    0.33305
 Angle between quadratic step and forces=  90.00 degrees.
 Linear search not attempted -- first point.
 Iteration  1 RMS(Cart)=  0.00000050 RMS(Int)=  0.00000000
 ClnCor:  largest displacement from symmetrization is 0.00D+00 for atom     0.
 Variable       Old X    -DE/DX   Delta X   Delta X   Delta X     New X
                                 (Linear)    (Quad)   (Total)
    R1        2.41463  -0.00000   0.00000  -0.00000  -0.00000   2.41463
         Item               Value     Threshold  Converged?
 Maximum Force            0.000000     0.000450     YES
 RMS     Force            0.000000     0.000300     YES
 Maximum Displacement     0.000000     0.001800     YES
 RMS     Displacement     0.000000     0.001200     YES
 Predicted change in Energy=-8.176498D-14
 Optimization completed.
    -- Stationary point found.
                           ----------------------------
                           !   Optimized Parameters   !
                           ! (Angstroms and Degrees)  !
 --------------------------                            --------------------------
 ! Name  Definition              Value          Derivative Info.                !
 --------------------------------------------------------------------------------
 ! R1    R(1,2)                  1.2778         -DE/DX =    0.0                 !
 --------------------------------------------------------------------------------
 GradGradGradGradGradGradGradGradGradGradGradGradGradGradGradGradGradGrad


 ----------------------------------------------------------------------

 Electric dipole moment (input orientation):
 (Debye = 10**-18 statcoulomb cm , SI units = C m)
                  (au)            (Debye)         (10**-30 SI)
   Tot        0.455216D+00      0.115704D+01      0.385948D+01
   x          0.000000D+00      0.000000D+00      0.000000D+00
   y          0.000000D+00      0.000000D+00      0.000000D+00
   z          0.455216D+00      0.115704D+01      0.385948D+01

 Dipole polarizability, Alpha (input orientation).
 (esu units = cm**3 , SI units = C**2 m**2 J**-1)
 Alpha(0;0):
               (au)            (10**-24 esu)      (10**-40 SI)
   iso        0.147649D+02      0.218793D+01      0.243440D+01
   aniso      0.280244D+01      0.415279D+00      0.462060D+00
   xx         0.138308D+02      0.204951D+01      0.228038D+01
   yx         0.000000D+00      0.000000D+00      0.000000D+00
   yy         0.138308D+02      0.204951D+01      0.228038D+01
   zx         0.000000D+00      0.000000D+00      0.000000D+00
   zy         0.000000D+00      0.000000D+00      0.000000D+00
   zz         0.166332D+02      0.246479D+01      0.274244D+01

 ----------------------------------------------------------------------

 Dipole orientation:
    17         14.17294593         14.17294593         12.96562994
     1         14.17294593         14.17294593         15.38026193

 Electric dipole moment (dipole orientation):
 (Debye = 10**-18 statcoulomb cm , SI units = C m)
                  (au)            (Debye)         (10**-30 SI)
   Tot        0.455216D+00      0.115704D+01      0.385948D+01
   x          0.000000D+00      0.000000D+00      0.000000D+00
   y          0.000000D+00      0.000000D+00      0.000000D+00
   z          0.455216D+00      0.115704D+01      0.385948D+01

 Dipole polarizability, Alpha (dipole orientation).
 (esu units = cm**3 , SI units = C**2 m**2 J**-1)
 Alpha(0;0):
               (au)            (10**-24 esu)      (10**-40 SI)
   iso        0.147649D+02      0.218793D+01      0.243440D+01
   aniso      0.280244D+01      0.415279D+00      0.462060D+00
   xx         0.138308D+02      0.204951D+01      0.228038D+01
   yx         0.000000D+00      0.000000D+00      0.000000D+00
   yy         0.138308D+02      0.204951D+01      0.228038D+01
   zx         0.000000D+00      0.000000D+00      0.000000D+00
   zy         0.000000D+00      0.000000D+00      0.000000D+00
   zz         0.166332D+02      0.246479D+01      0.274244D+01

 ----------------------------------------------------------------------
 Unable to Open any file for archive entry.
 1\1\GINC-TCOPT10\Freq\RPBE1PBE\def2QZVPP\Cl1H1\HUTTER\01-Aug-2021\0\\#
 N Geom=AllCheck Guess=TCheck SCRF=Check GenChk RPBE1PBE/def2QZVPP Freq
 \\Mol job 1\\0,1\Cl,7.5,7.5,6.8611158873\H,7.5,7.5,8.1388841127\\Versi
 on=ES64L-G16RevC.01\State=1-SG\HF=-460.6796358\RMSD=6.331e-10\RMSF=1.3
 47e-07\ZeroPoint=0.0068285\Thermal=0.009189\ETot=-460.6704468\HTot=-46
 0.6695027\GTot=-460.6906827\Dipole=0.,0.,0.4552157\DipoleDeriv=-0.1885
 182,0.,0.,0.,-0.1885182,0.,0.,0.,-0.2201304,0.1885182,0.,0.,0.,0.18851
 82,0.,0.,0.,0.2201304\Polar=13.8307593,0.,13.8307593,0.,0.,16.6332006\
 Quadrupole=-0.8888178,-0.8888178,1.7776356,0.,0.,0.\PG=C*V [C*(H1Cl1)]
 \NImag=0\\0.00008601,0.,0.00008601,0.,0.,0.33305471,-0.00008601,0.,0.,
 0.00008601,0.,-0.00008601,0.,0.,0.00008601,0.,0.,-0.33305471,0.,0.,0.3
 3305471\\0.,0.,-0.00000023,0.,0.,0.00000023\\\@
 The archive entry for this job was punched.


 THE MOST INCOMPREHENSIBLE THING ABOUT THE WORLD
 IS THAT IT IS COMPREHENSIBLE. -- A. EINSTEIN
 Job cpu time:       0 days  0 hours  2 minutes 44.8 seconds.
 Elapsed time:       0 days  0 hours  0 minutes 31.2 seconds.
 File lengths (MBytes):  RWF=     10 Int=      0 D2E=      0 Chk=      2 Scr=      1
 Normal termination of Gaussian 16 at Sun Aug  1 11:32:42 2021.
