 Entering Gaussian System, Link 0=g16
 Initial command:
 /sw-ng/spack/opt/spack/linux-opensuse_leap15-sandybridge/pgi-18.10/gaussian-src-16-C.01-zldqaomctopxhethwccpmxmwefdscg3m/g16/l1.exe "/data/hutter/SMG16/PBE0/Gau-98280.inp" -scrdir="/data/hutter/SMG16/PBE0/"
 Entering Link 1 = /sw-ng/spack/opt/spack/linux-opensuse_leap15-sandybridge/pgi-18.10/gaussian-src-16-C.01-zldqaomctopxhethwccpmxmwefdscg3m/g16/l1.exe PID=     98292.
  
 Copyright (c) 1988-2019, Gaussian, Inc.  All Rights Reserved.
  
 This is part of the Gaussian(R) 16 program.  It is based on
 the Gaussian(R) 09 system (copyright 2009, Gaussian, Inc.),
 the Gaussian(R) 03 system (copyright 2003, Gaussian, Inc.),
 the Gaussian(R) 98 system (copyright 1998, Gaussian, Inc.),
 the Gaussian(R) 94 system (copyright 1995, Gaussian, Inc.),
 the Gaussian 92(TM) system (copyright 1992, Gaussian, Inc.),
 the Gaussian 90(TM) system (copyright 1990, Gaussian, Inc.),
 the Gaussian 88(TM) system (copyright 1988, Gaussian, Inc.),
 the Gaussian 86(TM) system (copyright 1986, Carnegie Mellon
 University), and the Gaussian 82(TM) system (copyright 1983,
 Carnegie Mellon University). Gaussian is a federally registered
 trademark of Gaussian, Inc.
  
 This software contains proprietary and confidential information,
 including trade secrets, belonging to Gaussian, Inc.
  
 This software is provided under written license and may be
 used, copied, transmitted, or stored only in accord with that
 written license.
  
 The following legend is applicable only to US Government
 contracts under FAR:
  
                    RESTRICTED RIGHTS LEGEND
  
 Use, reproduction and disclosure by the US Government is
 subject to restrictions as set forth in subparagraphs (a)
 and (c) of the Commercial Computer Software - Restricted
 Rights clause in FAR 52.227-19.
  
 Gaussian, Inc.
 340 Quinnipiac St., Bldg. 40, Wallingford CT 06492
  
  
 ---------------------------------------------------------------
 Warning -- This program may not be used in any manner that
 competes with the business of Gaussian, Inc. or will provide
 assistance to any competitor of Gaussian, Inc.  The licensee
 of this program is prohibited from giving any competitor of
 Gaussian, Inc. access to this program.  By using this program,
 the user acknowledges that Gaussian, Inc. is engaged in the
 business of creating and licensing software in the field of
 computational chemistry and represents and warrants to the
 licensee that it is not a competitor of Gaussian, Inc. and that
 it will not use this program in any manner prohibited above.
 ---------------------------------------------------------------
  

 Cite this work as:
 Gaussian 16, Revision C.01,
 M. J. Frisch, G. W. Trucks, H. B. Schlegel, G. E. Scuseria, 
 M. A. Robb, J. R. Cheeseman, G. Scalmani, V. Barone, 
 G. A. Petersson, H. Nakatsuji, X. Li, M. Caricato, A. V. Marenich, 
 J. Bloino, B. G. Janesko, R. Gomperts, B. Mennucci, H. P. Hratchian, 
 J. V. Ortiz, A. F. Izmaylov, J. L. Sonnenberg, D. Williams-Young, 
 F. Ding, F. Lipparini, F. Egidi, J. Goings, B. Peng, A. Petrone, 
 T. Henderson, D. Ranasinghe, V. G. Zakrzewski, J. Gao, N. Rega, 
 G. Zheng, W. Liang, M. Hada, M. Ehara, K. Toyota, R. Fukuda, 
 J. Hasegawa, M. Ishida, T. Nakajima, Y. Honda, O. Kitao, H. Nakai, 
 T. Vreven, K. Throssell, J. A. Montgomery, Jr., J. E. Peralta, 
 F. Ogliaro, M. J. Bearpark, J. J. Heyd, E. N. Brothers, K. N. Kudin, 
 V. N. Staroverov, T. A. Keith, R. Kobayashi, J. Normand, 
 K. Raghavachari, A. P. Rendell, J. C. Burant, S. S. Iyengar, 
 J. Tomasi, M. Cossi, J. M. Millam, M. Klene, C. Adamo, R. Cammi, 
 J. W. Ochterski, R. L. Martin, K. Morokuma, O. Farkas, 
 J. B. Foresman, and D. J. Fox, Gaussian, Inc., Wallingford CT, 2019.
 
 ******************************************
 Gaussian 16:  ES64L-G16RevC.01  3-Jul-2019
                 1-Aug-2021 
 ******************************************
 %mem=8GB
 %NProcShare=8
 Will use up to    8 processors via shared memory.
 ------------------------------------------------------------
 #N RPBE1PBE/Def2QZVPP scf=tight Int(Grid=ultrafine) OPT FREQ
 ------------------------------------------------------------
 1/18=20,19=15,26=4,38=1/1,3;
 2/9=110,12=2,17=6,18=5,40=1/2;
 3/5=45,7=202,11=2,25=1,30=1,71=1,74=-13,75=-5,116=1/1,2,3;
 4//1;
 5/5=2,32=2,38=5/2;
 6/7=2,8=2,9=2,10=2,28=1/1;
 7//1,2,3,16;
 1/18=20,19=15,26=4/3(2);
 2/9=110/2;
 99//99;
 2/9=110/2;
 3/5=45,7=202,11=2,25=1,30=1,71=1,74=-13,75=-5,116=1/1,2,3;
 4/5=5,16=3,69=1/1;
 5/5=2,32=2,38=5/2;
 7//1,2,3,16;
 1/18=20,19=15,26=4/3(-5);
 2/9=110/2;
 6/7=2,8=2,9=2,10=2,19=2,28=1/1;
 99/9=1/99;
 ---------
 Mol job 1
 ---------
 Symbolic Z-matrix:
 Charge =  0 Multiplicity = 1
 N                     7.68743   8.30624   8. 
 F                     8.93722   7.69376   8. 
 F                     7.06278   7.69464   9.08165 
 F                     7.06278   7.69464   6.91835 
 

 GradGradGradGradGradGradGradGradGradGradGradGradGradGradGradGradGradGrad
 Berny optimization.
 Initialization pass.
                           ----------------------------
                           !    Initial Parameters    !
                           ! (Angstroms and Degrees)  !
 --------------------------                            --------------------------
 ! Name  Definition              Value          Derivative Info.                !
 --------------------------------------------------------------------------------
 ! R1    R(1,2)                  1.3918         estimate D2E/DX2                !
 ! R2    R(1,3)                  1.3908         estimate D2E/DX2                !
 ! R3    R(1,4)                  1.3908         estimate D2E/DX2                !
 ! A1    A(2,1,3)              102.1101         estimate D2E/DX2                !
 ! A2    A(2,1,4)              102.1101         estimate D2E/DX2                !
 ! A3    A(3,1,4)              102.1087         estimate D2E/DX2                !
 ! D1    D(2,1,4,3)            105.3955         estimate D2E/DX2                !
 --------------------------------------------------------------------------------
 Trust Radius=3.00D-01 FncErr=1.00D-07 GrdErr=1.00D-06 EigMax=2.50D+02 EigMin=1.00D-04
 Number of steps in this run=     20 maximum allowed number of steps=    100.
 GradGradGradGradGradGradGradGradGradGradGradGradGradGradGradGradGradGrad

                          Input orientation:                          
 ---------------------------------------------------------------------
 Center     Atomic      Atomic             Coordinates (Angstroms)
 Number     Number       Type             X           Y           Z
 ---------------------------------------------------------------------
      1          7           0        7.687425    8.306241    8.000000
      2          9           0        8.937218    7.693759    8.000000
      3          9           0        7.062782    7.694645    9.081647
      4          9           0        7.062782    7.694645    6.918353
 ---------------------------------------------------------------------
                    Distance matrix (angstroms):
                    1          2          3          4
     1  N    0.000000
     2  F    1.391803   0.000000
     3  F    1.390751   2.164132   0.000000
     4  F    1.390751   2.164132   2.163293   0.000000
 Stoichiometry    F3N
 Framework group  CS[SG(FN),X(F2)]
 Deg. of freedom     4
 Full point group                 CS      NOp   2
 Largest Abelian subgroup         CS      NOp   2
 Largest concise Abelian subgroup CS      NOp   2
                         Standard orientation:                         
 ---------------------------------------------------------------------
 Center     Atomic      Atomic             Coordinates (Angstroms)
 Number     Number       Type             X           Y           Z
 ---------------------------------------------------------------------
      1          7           0       -0.347294    0.339853    0.000000
      2          9           0        0.964705    0.804369   -0.000000
      3          9           0       -0.347294   -0.534350    1.081647
      4          9           0       -0.347294   -0.534350   -1.081647
 ---------------------------------------------------------------------
 Rotational constants (GHZ):          10.3851606          10.3753604           5.6812620
 Standard basis: def2QZVPP (5D, 7F)
 There are   168 symmetry adapted cartesian basis functions of A'  symmetry.
 There are   120 symmetry adapted cartesian basis functions of A"  symmetry.
 There are   131 symmetry adapted basis functions of A'  symmetry.
 There are    97 symmetry adapted basis functions of A"  symmetry.
   228 basis functions,   368 primitive gaussians,   288 cartesian basis functions
    17 alpha electrons       17 beta electrons
       nuclear repulsion energy       131.3223467469 Hartrees.
 NAtoms=    4 NActive=    4 NUniq=    3 SFac= 1.78D+00 NAtFMM=   60 NAOKFM=F Big=F
 Integral buffers will be    131072 words long.
 Raffenetti 2 integral format.
 Two-electron integral symmetry is turned on.
 One-electron integrals computed using PRISM.
   2 Symmetry operations used in ECPInt.
 ECPInt:  NShTT=    2346 NPrTT=    6942 LenC2=    2284 LenP2D=    5571.
 LDataN:  DoStor=T MaxTD1= 8 Len=  415
 NBasis=   228 RedAO= T EigKep=  7.20D-04  NBF=   131    97
 NBsUse=   228 1.00D-06 EigRej= -1.00D+00 NBFU=   131    97
 ExpMin= 1.07D-01 ExpMax= 1.33D+05 ExpMxC= 1.27D+03 IAcc=3 IRadAn=         5 AccDes= 0.00D+00
 Harris functional with IExCor= 1009 and IRadAn=       5 diagonalized for initial guess.
 HarFok:  IExCor= 1009 AccDes= 0.00D+00 IRadAn=         5 IDoV= 1 UseB2=F ITyADJ=14
 ICtDFT=  3500011 ScaDFX=  1.000000  1.000000  1.000000  1.000000
 FoFCou: FMM=F IPFlag=           0 FMFlag=      100000 FMFlg1=           0
         NFxFlg=           0 DoJE=T BraDBF=F KetDBF=T FulRan=T
         wScrn=  0.000000 ICntrl=       500 IOpCl=  0 I1Cent=   200000004 NGrid=           0
         NMat0=    1 NMatS0=      1 NMatT0=    0 NMatD0=    1 NMtDS0=    0 NMtDT0=    0
 Petite list used in FoFCou.
 Initial guess orbital symmetries:
       Occupied  (A') (A") (A') (A') (A') (A") (A') (A') (A") (A')
                 (A') (A') (A") (A") (A') (A") (A')
       Virtual   (A') (A") (A') (A') (A') (A") (A') (A") (A') (A")
                 (A') (A') (A") (A') (A') (A") (A') (A") (A') (A")
                 (A') (A') (A') (A") (A') (A") (A') (A') (A") (A')
                 (A") (A') (A") (A') (A") (A') (A") (A') (A') (A")
                 (A") (A') (A") (A') (A") (A') (A') (A") (A') (A")
                 (A') (A') (A') (A") (A') (A') (A') (A") (A") (A")
                 (A') (A') (A") (A') (A') (A') (A") (A') (A") (A")
                 (A') (A") (A') (A") (A') (A") (A') (A") (A') (A')
                 (A") (A') (A') (A") (A') (A") (A") (A') (A') (A")
                 (A') (A") (A') (A") (A') (A') (A") (A') (A") (A")
                 (A') (A") (A') (A") (A') (A') (A') (A') (A") (A")
                 (A') (A') (A") (A') (A") (A') (A") (A') (A') (A")
                 (A") (A') (A") (A') (A') (A") (A') (A') (A") (A')
                 (A") (A") (A') (A') (A') (A") (A') (A") (A") (A')
                 (A") (A") (A') (A') (A") (A') (A") (A') (A') (A")
                 (A') (A") (A') (A") (A') (A") (A') (A') (A') (A")
                 (A") (A') (A') (A") (A') (A") (A') (A") (A") (A')
                 (A') (A") (A") (A") (A') (A') (A') (A') (A") (A')
                 (A") (A') (A') (A") (A") (A') (A') (A") (A') (A")
                 (A") (A') (A") (A') (A") (A') (A") (A') (A') (A")
                 (A') (A") (A') (A') (A') (A') (A") (A') (A') (A')
                 (A")
 The electronic state of the initial guess is 1-A'.
 Keep R1 ints in memory in symmetry-blocked form, NReq=511344724.
 Requested convergence on RMS density matrix=1.00D-08 within 128 cycles.
 Requested convergence on MAX density matrix=1.00D-06.
 Requested convergence on             energy=1.00D-06.
 No special actions if energy rises.
 Integral accuracy reduced to 1.0D-05 until final iterations.
 Initial convergence to 1.0D-05 achieved.  Increase integral accuracy.
 SCF Done:  E(RPBE1PBE) =  -353.921624277     A.U. after   12 cycles
            NFock= 12  Conv=0.36D-08     -V/T= 2.0036

 **********************************************************************

            Population analysis using the SCF Density.

 **********************************************************************

 Orbital symmetries:
       Occupied  (A") (A') (A') (A') (A') (A") (A') (A') (A") (A')
                 (A') (A') (A") (A") (A') (A") (A')
       Virtual   (A') (A') (A") (A') (A') (A") (A') (A") (A') (A')
                 (A") (A') (A") (A') (A') (A") (A') (A") (A') (A")
                 (A') (A') (A") (A') (A') (A") (A') (A') (A") (A')
                 (A") (A') (A") (A") (A') (A') (A') (A") (A') (A")
                 (A") (A') (A") (A') (A") (A') (A') (A") (A') (A")
                 (A') (A') (A') (A") (A') (A') (A') (A") (A") (A")
                 (A') (A') (A") (A') (A') (A') (A") (A') (A") (A')
                 (A") (A") (A") (A') (A') (A") (A') (A") (A') (A')
                 (A") (A') (A') (A") (A') (A") (A") (A') (A') (A")
                 (A') (A") (A') (A") (A') (A') (A") (A') (A") (A")
                 (A') (A") (A') (A") (A') (A') (A') (A') (A") (A")
                 (A') (A') (A") (A') (A") (A') (A") (A') (A') (A")
                 (A") (A') (A") (A') (A') (A') (A") (A') (A") (A')
                 (A") (A') (A") (A') (A') (A") (A') (A") (A") (A')
                 (A') (A") (A") (A") (A') (A') (A") (A') (A') (A")
                 (A') (A") (A') (A") (A') (A") (A') (A') (A') (A")
                 (A") (A') (A') (A") (A') (A") (A") (A') (A") (A')
                 (A') (A") (A") (A") (A') (A') (A') (A') (A") (A')
                 (A") (A') (A') (A") (A") (A') (A') (A") (A') (A")
                 (A") (A') (A") (A') (A") (A') (A") (A') (A') (A")
                 (A') (A") (A') (A') (A') (A') (A") (A') (A') (A')
                 (A")
 The electronic state is 1-A'.
 Alpha  occ. eigenvalues --  -24.85287 -24.85286 -24.85253 -14.69423  -1.40337
 Alpha  occ. eigenvalues --   -1.28230  -1.28195  -0.86283  -0.65459  -0.65446
 Alpha  occ. eigenvalues --   -0.60606  -0.51779  -0.51775  -0.47517  -0.47505
 Alpha  occ. eigenvalues --   -0.46156  -0.38607
 Alpha virt. eigenvalues --   -0.00164   0.00217   0.00251   0.19467   0.20479
 Alpha virt. eigenvalues --    0.20487   0.20546   0.32133   0.32140   0.34911
 Alpha virt. eigenvalues --    0.35107   0.35108   0.45815   0.47116   0.47560
 Alpha virt. eigenvalues --    0.47560   0.80217   0.81401   0.81413   0.84531
 Alpha virt. eigenvalues --    0.84531   0.95680   0.95694   0.96733   1.12655
 Alpha virt. eigenvalues --    1.23227   1.23235   1.26593   1.39710   1.43017
 Alpha virt. eigenvalues --    1.43035   1.53049   1.53055   1.58368   1.58368
 Alpha virt. eigenvalues --    1.63882   1.64862   1.64866   1.67682   1.70084
 Alpha virt. eigenvalues --    1.71074   1.71079   1.85449   1.85868   1.85898
 Alpha virt. eigenvalues --    1.89370   2.15794   2.15891   2.28058   2.34165
 Alpha virt. eigenvalues --    2.34193   2.49574   2.63496   2.63516   2.68453
 Alpha virt. eigenvalues --    2.88503   2.97366   2.97403   3.00362   3.12479
 Alpha virt. eigenvalues --    3.12480   3.25949   3.25963   3.30059   3.74203
 Alpha virt. eigenvalues --    3.75824   3.75874   4.07444   4.07467   4.10135
 Alpha virt. eigenvalues --    4.10144   4.10190   4.13800   4.13810   4.15182
 Alpha virt. eigenvalues --    4.16792   4.21402   4.21438   4.22387   4.37514
 Alpha virt. eigenvalues --    4.37585   4.64468   4.77829   4.81528   4.81584
 Alpha virt. eigenvalues --    4.81927   4.87713   4.87794   5.01453   5.01466
 Alpha virt. eigenvalues --    5.02407   5.14216   5.14230   5.15161   5.25984
 Alpha virt. eigenvalues --    5.32461   5.32517   5.53544   5.53594   5.56284
 Alpha virt. eigenvalues --    5.60608   5.74871   5.74878   6.13318   6.13324
 Alpha virt. eigenvalues --    6.15636   6.25081   6.33564   6.33594   6.34907
 Alpha virt. eigenvalues --    6.40803   6.52668   6.52844   6.65528   6.65556
 Alpha virt. eigenvalues --    7.07148   7.07185   7.33728   7.45572   7.45654
 Alpha virt. eigenvalues --    7.67966   7.99022   7.99057   8.45983   8.60106
 Alpha virt. eigenvalues --    8.83594   8.85226   8.85275   9.10054   9.13241
 Alpha virt. eigenvalues --    9.13259   9.16091   9.16111   9.30995  10.15581
 Alpha virt. eigenvalues --   10.15882  10.62984  11.32492  11.33212  11.33219
 Alpha virt. eigenvalues --   11.35124  11.35126  11.35751  11.35802  11.35821
 Alpha virt. eigenvalues --   11.35843  11.35860  11.36089  11.38916  11.43039
 Alpha virt. eigenvalues --   11.52912  11.52985  11.57658  11.63936  11.64032
 Alpha virt. eigenvalues --   11.93577  11.93673  11.99578  12.22153  12.22267
 Alpha virt. eigenvalues --   12.30082  12.31039  12.37002  12.37157  14.50999
 Alpha virt. eigenvalues --   14.51019  14.52255  14.52265  14.52286  14.53969
 Alpha virt. eigenvalues --   14.61186  14.61201  14.63937  14.65721  14.65733
 Alpha virt. eigenvalues --   14.82227  14.93126  14.97176  14.97178  15.21597
 Alpha virt. eigenvalues --   15.28299  15.28444  15.37988  15.38099  15.42580
 Alpha virt. eigenvalues --   15.69574  15.72234  15.72252  15.76574  15.76575
 Alpha virt. eigenvalues --   15.76756  16.01969  16.01985  16.12356  16.16810
 Alpha virt. eigenvalues --   16.19605  16.19701  16.25735  16.38295  16.38568
 Alpha virt. eigenvalues --   16.59793  16.59856  16.65581  36.74964  54.31044
 Alpha virt. eigenvalues --   54.38779  54.38862 196.09044 285.36861 285.45663
 Alpha virt. eigenvalues --  285.45771
          Condensed to atoms (all electrons):
               1          2          3          4
     1  N    6.221624   0.123299   0.123263   0.123263
     2  F    0.123299   9.087276  -0.036914  -0.036914
     3  F    0.123263  -0.036914   9.086526  -0.036973
     4  F    0.123263  -0.036914  -0.036973   9.086526
 Mulliken charges:
               1
     1  N    0.408551
     2  F   -0.136746
     3  F   -0.135902
     4  F   -0.135902
 Sum of Mulliken charges =  -0.00000
 Mulliken charges with hydrogens summed into heavy atoms:
               1
     1  N    0.408551
     2  F   -0.136746
     3  F   -0.135902
     4  F   -0.135902
 Electronic spatial extent (au):  <R**2>=            203.1219
 Charge=             -0.0000 electrons
 Dipole moment (field-independent basis, Debye):
    X=             -0.1750    Y=              0.1645    Z=              0.0000  Tot=              0.2402
 Quadrupole moment (field-independent basis, Debye-Ang):
   XX=            -20.2313   YY=            -20.2359   ZZ=            -20.3332
   XY=             -0.1054   XZ=              0.0000   YZ=             -0.0000
 Traceless Quadrupole moment (field-independent basis, Debye-Ang):
   XX=              0.0355   YY=              0.0309   ZZ=             -0.0664
   XY=             -0.1054   XZ=              0.0000   YZ=             -0.0000
 Octapole moment (field-independent basis, Debye-Ang**2):
  XXX=              1.8456  YYY=             -1.9948  ZZZ=             -0.0000  XYY=              0.7115
  XXY=             -0.8979  XXZ=              0.0000  XZZ=              0.7447  YZZ=             -0.3631
  YYZ=             -0.0000  XYZ=             -0.0000
 Hexadecapole moment (field-independent basis, Debye-Ang**3):
 XXXX=            -50.0227 YYYY=            -52.4343 ZZZZ=            -79.7320 XXXY=            -13.6352
 XXXZ=              0.0000 YYYX=            -14.3106 YYYZ=              0.0000 ZZZX=             -0.0000
 ZZZY=              0.0000 XXYY=            -17.4856 XXZZ=            -22.2692 YYZZ=            -21.1664
 XXYZ=              0.0000 YYXZ=             -0.0000 ZZXY=             -4.8865
 N-N= 1.313223467469D+02 E-N=-1.105093566415D+03  KE= 3.526578713004D+02
 Symmetry A'   KE= 2.442215577338D+02
 Symmetry A"   KE= 1.084363135666D+02
   2 Symmetry operations used in ECPInt.
 ECPInt:  NShTT=    2346 NPrTT=    6942 LenC2=    2284 LenP2D=    5571.
 LDataN:  DoStor=T MaxTD1= 9 Len=  602
 Calling FoFJK, ICntrl=      2127 FMM=F ISym2X=1 I1Cent= 0 IOpClX= 0 NMat=1 NMatS=1 NMatT=0.
 ***** Axes restored to original set *****
 -------------------------------------------------------------------
 Center     Atomic                   Forces (Hartrees/Bohr)
 Number     Number              X              Y              Z
 -------------------------------------------------------------------
      1        7           0.000277075   -0.023238602   -0.000000000
      2        9          -0.022013759    0.007846722    0.000000000
      3        9           0.010868342    0.007695940   -0.018761802
      4        9           0.010868342    0.007695940    0.018761802
 -------------------------------------------------------------------
 Cartesian Forces:  Max     0.023238602 RMS     0.013369721

 GradGradGradGradGradGradGradGradGradGradGradGradGradGradGradGradGradGrad
 Berny optimization.
 FormGI is forming the generalized inverse of G from B-inverse, IUseBI=4.
 Internal  Forces:  Max     0.023220144 RMS     0.015324807
 Search for a local minimum.
 Step number   1 out of a maximum of   20
 All quantities printed in internal units (Hartrees-Bohrs-Radians)
 Mixed Optimization -- RFO/linear search
 Second derivative matrix not updated -- first step.
 The second derivative matrix:
                          R1        R2        R3        A1        A2
           R1           0.47006
           R2           0.00000   0.47188
           R3           0.00000   0.00000   0.47188
           A1           0.00000   0.00000   0.00000   0.25000
           A2           0.00000   0.00000   0.00000   0.00000   0.25000
           A3           0.00000   0.00000   0.00000   0.00000   0.00000
           D1           0.00000   0.00000   0.00000   0.00000   0.00000
                          A3        D1
           A3           0.25000
           D1           0.00000   0.01152
 ITU=  0
     Eigenvalues ---    0.11594   0.25000   0.25000   0.47006   0.47188
     Eigenvalues ---    0.47188
 RFO step:  Lambda=-3.70092437D-03 EMin= 1.15937945D-01
 Linear search not attempted -- first point.
 Iteration  1 RMS(Cart)=  0.04232484 RMS(Int)=  0.00050378
 Iteration  2 RMS(Cart)=  0.00035806 RMS(Int)=  0.00025253
 Iteration  3 RMS(Cart)=  0.00000036 RMS(Int)=  0.00025253
 ClnCor:  largest displacement from symmetrization is 1.25D-03 for atom     4.
 Variable       Old X    -DE/DX   Delta X   Delta X   Delta X     New X
                                 (Linear)    (Quad)   (Total)
    R1        2.63013  -0.02322   0.00000  -0.04901  -0.04901   2.58111
    R2        2.62814  -0.02286   0.00000  -0.04806  -0.04772   2.58042
    R3        2.62814  -0.02286   0.00000  -0.04806  -0.04772   2.58042
    A1        1.78216  -0.00142   0.00000  -0.02044  -0.02132   1.76083
    A2        1.78216  -0.00459   0.00000  -0.02203  -0.02132   1.76083
    A3        1.78213  -0.00449   0.00000  -0.02165  -0.02185   1.76028
    D1        1.83950  -0.00407   0.00000  -0.03399  -0.03379   1.80571
         Item               Value     Threshold  Converged?
 Maximum Force            0.023220     0.000450     NO 
 RMS     Force            0.015325     0.000300     NO 
 Maximum Displacement     0.064080     0.001800     NO 
 RMS     Displacement     0.042057     0.001200     NO 
 Predicted change in Energy=-1.864284D-03
 GradGradGradGradGradGradGradGradGradGradGradGradGradGradGradGradGradGrad

                          Input orientation:                          
 ---------------------------------------------------------------------
 Center     Atomic      Atomic             Coordinates (Angstroms)
 Number     Number       Type             X           Y           Z
 ---------------------------------------------------------------------
      1          7           0        7.687625    8.313936    8.000000
      2          9           0        8.903308    7.691275    8.000000
      3          9           0        7.079329    7.692106    9.052566
      4          9           0        7.079329    7.692106    6.947434
 ---------------------------------------------------------------------
                    Distance matrix (angstroms):
                    1          2          3          4
     1  N    0.000000
     2  F    1.365867   0.000000
     3  F    1.365501   2.105895   0.000000
     4  F    1.365501   2.105895   2.105132   0.000000
 Stoichiometry    F3N
 Framework group  CS[SG(FN),X(F2)]
 Deg. of freedom     4
 Full point group                 CS      NOp   2
 Largest Abelian subgroup         CS      NOp   2
 Largest concise Abelian subgroup CS      NOp   2
                         Standard orientation:                         
 ---------------------------------------------------------------------
 Center     Atomic      Atomic             Coordinates (Angstroms)
 Number     Number       Type             X           Y           Z
 ---------------------------------------------------------------------
      1          7           0       -0.345293    0.353320   -0.000000
      2          9           0        0.959147    0.758323   -0.000000
      3          9           0       -0.345293   -0.516564    1.052566
      4          9           0       -0.345293   -0.516564   -1.052566
 ---------------------------------------------------------------------
 Rotational constants (GHZ):          10.8807606          10.8712306           5.9997267
 Standard basis: def2QZVPP (5D, 7F)
 There are   168 symmetry adapted cartesian basis functions of A'  symmetry.
 There are   120 symmetry adapted cartesian basis functions of A"  symmetry.
 There are   131 symmetry adapted basis functions of A'  symmetry.
 There are    97 symmetry adapted basis functions of A"  symmetry.
   228 basis functions,   368 primitive gaussians,   288 cartesian basis functions
    17 alpha electrons       17 beta electrons
       nuclear repulsion energy       134.3066071193 Hartrees.
 NAtoms=    4 NActive=    4 NUniq=    3 SFac= 1.78D+00 NAtFMM=   60 NAOKFM=F Big=F
 Integral buffers will be    131072 words long.
 Raffenetti 2 integral format.
 Two-electron integral symmetry is turned on.
 One-electron integrals computed using PRISM.
   2 Symmetry operations used in ECPInt.
 ECPInt:  NShTT=    2346 NPrTT=    6942 LenC2=    2284 LenP2D=    5595.
 LDataN:  DoStor=T MaxTD1= 8 Len=  415
 NBasis=   228 RedAO= T EigKep=  6.39D-04  NBF=   131    97
 NBsUse=   228 1.00D-06 EigRej= -1.00D+00 NBFU=   131    97
 Initial guess from the checkpoint file:  "/data/hutter/SMG16/PBE0/Gau-98292.chk"
 B after Tr=    -0.000000   -0.000000   -0.000000
         Rot=    0.999942    0.000000    0.000000    0.010805 Ang=   1.24 deg.
 Initial guess orbital symmetries:
       Occupied  (A") (A') (A') (A') (A') (A") (A') (A') (A") (A')
                 (A') (A') (A") (A") (A') (A") (A')
       Virtual   (A') (A') (A") (A') (A') (A") (A') (A") (A') (A')
                 (A") (A') (A") (A') (A') (A") (A') (A") (A') (A")
                 (A') (A') (A") (A') (A') (A") (A') (A') (A") (A')
                 (A") (A') (A") (A") (A') (A') (A') (A") (A') (A")
                 (A") (A') (A") (A') (A") (A') (A') (A") (A') (A")
                 (A') (A') (A') (A") (A') (A') (A') (A") (A") (A")
                 (A') (A') (A") (A') (A') (A') (A") (A') (A") (A')
                 (A") (A") (A") (A') (A') (A") (A') (A") (A') (A')
                 (A") (A') (A') (A") (A') (A") (A") (A') (A') (A")
                 (A') (A") (A') (A") (A') (A') (A") (A') (A") (A")
                 (A') (A") (A') (A") (A') (A') (A') (A') (A") (A")
                 (A') (A') (A") (A') (A") (A') (A") (A') (A') (A")
                 (A") (A') (A") (A') (A') (A') (A") (A') (A") (A')
                 (A") (A') (A") (A') (A') (A") (A') (A") (A") (A')
                 (A') (A") (A") (A") (A') (A') (A") (A') (A') (A")
                 (A') (A") (A') (A") (A') (A") (A') (A') (A') (A")
                 (A") (A') (A') (A") (A') (A") (A") (A') (A") (A')
                 (A') (A") (A") (A") (A') (A') (A') (A') (A") (A')
                 (A") (A') (A') (A") (A") (A') (A') (A") (A') (A")
                 (A") (A') (A") (A') (A") (A') (A") (A') (A') (A")
                 (A') (A") (A') (A') (A') (A') (A") (A') (A') (A')
                 (A")
 ExpMin= 1.07D-01 ExpMax= 1.33D+05 ExpMxC= 1.27D+03 IAcc=3 IRadAn=         5 AccDes= 0.00D+00
 Harris functional with IExCor= 1009 and IRadAn=       5 diagonalized for initial guess.
 HarFok:  IExCor= 1009 AccDes= 0.00D+00 IRadAn=         5 IDoV= 1 UseB2=F ITyADJ=14
 ICtDFT=  3500011 ScaDFX=  1.000000  1.000000  1.000000  1.000000
 FoFCou: FMM=F IPFlag=           0 FMFlag=      100000 FMFlg1=           0
         NFxFlg=           0 DoJE=T BraDBF=F KetDBF=T FulRan=T
         wScrn=  0.000000 ICntrl=       500 IOpCl=  0 I1Cent=   200000004 NGrid=           0
         NMat0=    1 NMatS0=      1 NMatT0=    0 NMatD0=    1 NMtDS0=    0 NMtDT0=    0
 Petite list used in FoFCou.
 Keep R1 ints in memory in symmetry-blocked form, NReq=511344724.
 Requested convergence on RMS density matrix=1.00D-08 within 128 cycles.
 Requested convergence on MAX density matrix=1.00D-06.
 Requested convergence on             energy=1.00D-06.
 No special actions if energy rises.
 Integral accuracy reduced to 1.0D-05 until final iterations.
 Initial convergence to 1.0D-05 achieved.  Increase integral accuracy.
 SCF Done:  E(RPBE1PBE) =  -353.923310977     A.U. after   10 cycles
            NFock= 10  Conv=0.16D-08     -V/T= 2.0031
   2 Symmetry operations used in ECPInt.
 ECPInt:  NShTT=    2346 NPrTT=    6942 LenC2=    2284 LenP2D=    5595.
 LDataN:  DoStor=T MaxTD1= 9 Len=  602
 Calling FoFJK, ICntrl=      2127 FMM=F ISym2X=1 I1Cent= 0 IOpClX= 0 NMat=1 NMatS=1 NMatT=0.
 ***** Axes restored to original set *****
 -------------------------------------------------------------------
 Center     Atomic                   Forces (Hartrees/Bohr)
 Number     Number              X              Y              Z
 -------------------------------------------------------------------
      1        7           0.000045818   -0.018200962    0.000000000
      2        9           0.000519168    0.006085894   -0.000000000
      3        9          -0.000282493    0.006057534    0.000668332
      4        9          -0.000282493    0.006057534   -0.000668332
 -------------------------------------------------------------------
 Cartesian Forces:  Max     0.018200962 RMS     0.006076081

 GradGradGradGradGradGradGradGradGradGradGradGradGradGradGradGradGradGrad
 Berny optimization.
 Using GEDIIS/GDIIS optimizer.
 FormGI is forming the generalized inverse of G from B-inverse, IUseBI=4.
 Internal  Forces:  Max     0.010064682 RMS     0.006421317
 Search for a local minimum.
 Step number   2 out of a maximum of   20
 All quantities printed in internal units (Hartrees-Bohrs-Radians)
 Mixed Optimization -- RFO/linear search
 Update second derivatives using D2CorX and points    1    2
 DE= -1.69D-03 DEPred=-1.86D-03 R= 9.05D-01
 TightC=F SS=  1.41D+00  RLast= 9.74D-02 DXNew= 5.0454D-01 2.9217D-01
 Trust test= 9.05D-01 RLast= 9.74D-02 DXMaxT set to 3.00D-01
 The second derivative matrix:
                          R1        R2        R3        A1        A2
           R1           0.42971
           R2          -0.03789   0.43639
           R3          -0.03789  -0.03550   0.43639
           A1          -0.01041  -0.00983  -0.00983   0.24735
           A2           0.03881   0.03899   0.03899   0.00824   0.29208
           A3           0.03889   0.03909   0.03909   0.00825   0.04252
           D1           0.05939   0.05895   0.05895   0.01311   0.04196
                          A3        D1
           A3           0.29296
           D1           0.04248   0.04774
 ITU=  1  0
 Use linear search instead of GDIIS.
     Eigenvalues ---    0.13853   0.24170   0.25001   0.46898   0.47188
     Eigenvalues ---    0.47678
 RFO step:  Lambda=-1.27048463D-03 EMin= 1.38527944D-01
 Quartic linear search produced a step of -0.10076.
 Iteration  1 RMS(Cart)=  0.02462929 RMS(Int)=  0.00092594
 Iteration  2 RMS(Cart)=  0.00077101 RMS(Int)=  0.00056190
 Iteration  3 RMS(Cart)=  0.00000019 RMS(Int)=  0.00056190
 ClnCor:  largest displacement from symmetrization is 3.51D-03 for atom     4.
 Variable       Old X    -DE/DX   Delta X   Delta X   Delta X     New X
                                 (Linear)    (Quad)   (Total)
    R1        2.58111  -0.00231   0.00494  -0.02660  -0.02166   2.55945
    R2        2.58042  -0.00212   0.00481  -0.02566  -0.02184   2.55859
    R3        2.58042  -0.00212   0.00481  -0.02566  -0.02184   2.55859
    A1        1.76083   0.00320   0.00215   0.02869   0.03100   1.79183
    A2        1.76083   0.00978   0.00215   0.03149   0.03100   1.79183
    A3        1.76028   0.01006   0.00220   0.03235   0.03457   1.79485
    D1        1.80571   0.00819   0.00341   0.04558   0.05063   1.85634
         Item               Value     Threshold  Converged?
 Maximum Force            0.010065     0.000450     NO 
 RMS     Force            0.006421     0.000300     NO 
 Maximum Displacement     0.053054     0.001800     NO 
 RMS     Displacement     0.024157     0.001200     NO 
 Predicted change in Energy=-6.751189D-04
 GradGradGradGradGradGradGradGradGradGradGradGradGradGradGradGradGradGrad

                          Input orientation:                          
 ---------------------------------------------------------------------
 Center     Atomic      Atomic             Coordinates (Angstroms)
 Number     Number       Type             X           Y           Z
 ---------------------------------------------------------------------
      1          7           0        7.687152    8.285861    8.000000
      2          9           0        8.908518    7.700476    8.000000
      3          9           0        7.077826    7.701347    9.058411
      4          9           0        7.077826    7.701347    6.941589
 ---------------------------------------------------------------------
                    Distance matrix (angstroms):
                    1          2          3          4
     1  N    0.000000
     2  F    1.354404   0.000000
     3  F    1.353945   2.114631   0.000000
     4  F    1.353945   2.114631   2.116822   0.000000
 Stoichiometry    F3N
 Framework group  CS[SG(FN),X(F2)]
 Deg. of freedom     4
 Full point group                 CS      NOp   2
 Largest Abelian subgroup         CS      NOp   2
 Largest concise Abelian subgroup CS      NOp   2
                         Standard orientation:                         
 ---------------------------------------------------------------------
 Center     Atomic      Atomic             Coordinates (Angstroms)
 Number     Number       Type             X           Y           Z
 ---------------------------------------------------------------------
      1          7           0       -0.335633    0.320970   -0.000000
      2          9           0        0.932313    0.797125    0.000000
      3          9           0       -0.335633   -0.523384    1.058411
      4          9           0       -0.335633   -0.523384   -1.058411
 ---------------------------------------------------------------------
 Rotational constants (GHZ):          10.9171166          10.8894987           5.9447111
 Standard basis: def2QZVPP (5D, 7F)
 There are   168 symmetry adapted cartesian basis functions of A'  symmetry.
 There are   120 symmetry adapted cartesian basis functions of A"  symmetry.
 There are   131 symmetry adapted basis functions of A'  symmetry.
 There are    97 symmetry adapted basis functions of A"  symmetry.
   228 basis functions,   368 primitive gaussians,   288 cartesian basis functions
    17 alpha electrons       17 beta electrons
       nuclear repulsion energy       134.6493081271 Hartrees.
 NAtoms=    4 NActive=    4 NUniq=    3 SFac= 1.78D+00 NAtFMM=   60 NAOKFM=F Big=F
 Integral buffers will be    131072 words long.
 Raffenetti 2 integral format.
 Two-electron integral symmetry is turned on.
 One-electron integrals computed using PRISM.
   2 Symmetry operations used in ECPInt.
 ECPInt:  NShTT=    2346 NPrTT=    6942 LenC2=    2284 LenP2D=    5595.
 LDataN:  DoStor=T MaxTD1= 8 Len=  415
 NBasis=   228 RedAO= T EigKep=  6.16D-04  NBF=   131    97
 NBsUse=   228 1.00D-06 EigRej= -1.00D+00 NBFU=   131    97
 Initial guess from the checkpoint file:  "/data/hutter/SMG16/PBE0/Gau-98292.chk"
 B after Tr=     0.000000    0.000000   -0.000000
         Rot=    0.999872    0.000000   -0.000000   -0.015974 Ang=  -1.83 deg.
 Initial guess orbital symmetries:
       Occupied  (A") (A') (A') (A') (A') (A") (A') (A') (A") (A')
                 (A') (A') (A") (A') (A") (A") (A')
       Virtual   (A') (A") (A') (A') (A') (A') (A") (A") (A') (A')
                 (A") (A') (A") (A') (A") (A') (A') (A') (A") (A")
                 (A') (A') (A") (A') (A') (A') (A") (A') (A") (A')
                 (A") (A") (A') (A') (A") (A') (A') (A") (A') (A")
                 (A') (A") (A') (A") (A') (A") (A') (A") (A') (A")
                 (A') (A') (A') (A") (A') (A') (A') (A") (A") (A")
                 (A') (A') (A") (A') (A') (A") (A') (A') (A") (A')
                 (A") (A") (A') (A") (A') (A") (A') (A") (A') (A')
                 (A") (A') (A") (A') (A") (A') (A") (A') (A') (A')
                 (A") (A") (A') (A") (A') (A') (A") (A') (A") (A")
                 (A') (A') (A") (A") (A') (A') (A') (A') (A") (A")
                 (A') (A') (A") (A') (A") (A') (A") (A') (A') (A")
                 (A") (A") (A') (A') (A') (A') (A") (A') (A") (A')
                 (A") (A") (A') (A') (A') (A") (A') (A") (A') (A")
                 (A") (A') (A") (A') (A") (A") (A') (A') (A') (A")
                 (A") (A') (A') (A") (A') (A") (A') (A') (A') (A")
                 (A") (A') (A') (A") (A') (A") (A') (A") (A") (A')
                 (A') (A") (A") (A') (A") (A') (A') (A") (A') (A')
                 (A") (A') (A') (A") (A") (A') (A') (A") (A') (A")
                 (A") (A') (A") (A') (A") (A') (A") (A') (A') (A")
                 (A') (A") (A') (A') (A') (A") (A') (A') (A') (A")
                 (A')
 ExpMin= 1.07D-01 ExpMax= 1.33D+05 ExpMxC= 1.27D+03 IAcc=3 IRadAn=         5 AccDes= 0.00D+00
 Harris functional with IExCor= 1009 and IRadAn=       5 diagonalized for initial guess.
 HarFok:  IExCor= 1009 AccDes= 0.00D+00 IRadAn=         5 IDoV= 1 UseB2=F ITyADJ=14
 ICtDFT=  3500011 ScaDFX=  1.000000  1.000000  1.000000  1.000000
 FoFCou: FMM=F IPFlag=           0 FMFlag=      100000 FMFlg1=           0
         NFxFlg=           0 DoJE=T BraDBF=F KetDBF=T FulRan=T
         wScrn=  0.000000 ICntrl=       500 IOpCl=  0 I1Cent=   200000004 NGrid=           0
         NMat0=    1 NMatS0=      1 NMatT0=    0 NMatD0=    1 NMtDS0=    0 NMtDT0=    0
 Petite list used in FoFCou.
 Keep R1 ints in memory in symmetry-blocked form, NReq=511344724.
 Requested convergence on RMS density matrix=1.00D-08 within 128 cycles.
 Requested convergence on MAX density matrix=1.00D-06.
 Requested convergence on             energy=1.00D-06.
 No special actions if energy rises.
 Integral accuracy reduced to 1.0D-05 until final iterations.
 Initial convergence to 1.0D-05 achieved.  Increase integral accuracy.
 SCF Done:  E(RPBE1PBE) =  -353.923588573     A.U. after    9 cycles
            NFock=  9  Conv=0.40D-08     -V/T= 2.0030
   2 Symmetry operations used in ECPInt.
 ECPInt:  NShTT=    2346 NPrTT=    6942 LenC2=    2284 LenP2D=    5595.
 LDataN:  DoStor=T MaxTD1= 9 Len=  602
 Calling FoFJK, ICntrl=      2127 FMM=F ISym2X=1 I1Cent= 0 IOpClX= 0 NMat=1 NMatS=1 NMatT=0.
 ***** Axes restored to original set *****
 -------------------------------------------------------------------
 Center     Atomic                   Forces (Hartrees/Bohr)
 Number     Number              X              Y              Z
 -------------------------------------------------------------------
      1        7           0.000554248    0.011533158   -0.000000000
      2        9           0.002157498   -0.003660806   -0.000000000
      3        9          -0.001355873   -0.003936176    0.001619066
      4        9          -0.001355873   -0.003936176   -0.001619066
 -------------------------------------------------------------------
 Cartesian Forces:  Max     0.011533158 RMS     0.003992532

 GradGradGradGradGradGradGradGradGradGradGradGradGradGradGradGradGradGrad
 Berny optimization.
 Using GEDIIS/GDIIS optimizer.
 FormGI is forming the generalized inverse of G from B-inverse, IUseBI=4.
 Internal  Forces:  Max     0.005106188 RMS     0.003681592
 Search for a local minimum.
 Step number   3 out of a maximum of   20
 All quantities printed in internal units (Hartrees-Bohrs-Radians)
 Mixed Optimization -- RFO/linear search
 Update second derivatives using D2CorX and points    1    2    3
 DE= -2.78D-04 DEPred=-6.75D-04 R= 4.11D-01
 Trust test= 4.11D-01 RLast= 8.43D-02 DXMaxT set to 3.00D-01
 The second derivative matrix:
                          R1        R2        R3        A1        A2
           R1           0.43593
           R2          -0.03471   0.43653
           R3          -0.03471  -0.03535   0.43653
           A1           0.03603   0.03781   0.03781   0.20660
           A2           0.02475   0.02684   0.02684  -0.01681   0.30567
           A3           0.02276   0.02517   0.02517  -0.02093   0.05831
           D1          -0.01154  -0.01102  -0.01102   0.02926   0.08765
                          A3        D1
           A3           0.31129
           D1           0.09564   0.08545
 ITU=  0  1  0
 Use linear search instead of GDIIS.
     Eigenvalues ---    0.15659   0.24995   0.33958   0.44710   0.47085
     Eigenvalues ---    0.47188
 RFO step:  Lambda=-2.11665001D-05 EMin= 1.56586573D-01
 Quartic linear search produced a step of -0.36521.
 Iteration  1 RMS(Cart)=  0.00833138 RMS(Int)=  0.00017103
 Iteration  2 RMS(Cart)=  0.00009577 RMS(Int)=  0.00014728
 Iteration  3 RMS(Cart)=  0.00000001 RMS(Int)=  0.00014728
 ClnCor:  largest displacement from symmetrization is 3.42D-04 for atom     4.
 Variable       Old X    -DE/DX   Delta X   Delta X   Delta X     New X
                                 (Linear)    (Quad)   (Total)
    R1        2.55945   0.00353   0.00791   0.00360   0.01151   2.57096
    R2        2.55859   0.00357   0.00797   0.00380   0.01168   2.57026
    R3        2.55859   0.00357   0.00797   0.00380   0.01168   2.57026
    A1        1.79183  -0.00101  -0.01132   0.00177  -0.00916   1.78267
    A2        1.79183  -0.00392  -0.01132   0.00232  -0.00916   1.78267
    A3        1.79485  -0.00511  -0.01263  -0.00029  -0.01281   1.78204
    D1        1.85634  -0.00380  -0.01849   0.00251  -0.01617   1.84017
         Item               Value     Threshold  Converged?
 Maximum Force            0.005106     0.000450     NO 
 RMS     Force            0.003682     0.000300     NO 
 Maximum Displacement     0.018693     0.001800     NO 
 RMS     Displacement     0.008341     0.001200     NO 
 Predicted change in Energy=-1.483212D-04
 GradGradGradGradGradGradGradGradGradGradGradGradGradGradGradGradGradGrad

                          Input orientation:                          
 ---------------------------------------------------------------------
 Center     Atomic      Atomic             Coordinates (Angstroms)
 Number     Number       Type             X           Y           Z
 ---------------------------------------------------------------------
      1          7           0        7.688013    8.295753    8.000000
      2          9           0        8.909893    7.697458    8.000000
      3          9           0        7.076793    7.697892    9.057785
      4          9           0        7.076793    7.697892    6.942215
 ---------------------------------------------------------------------
                    Distance matrix (angstroms):
                    1          2          3          4
     1  N    0.000000
     2  F    1.360496   0.000000
     3  F    1.360124   2.116404   0.000000
     4  F    1.360124   2.116404   2.115570   0.000000
 Stoichiometry    F3N
 Framework group  CS[SG(FN),X(F2)]
 Deg. of freedom     4
 Full point group                 CS      NOp   2
 Largest Abelian subgroup         CS      NOp   2
 Largest concise Abelian subgroup CS      NOp   2
                         Standard orientation:                         
 ---------------------------------------------------------------------
 Center     Atomic      Atomic             Coordinates (Angstroms)
 Number     Number       Type             X           Y           Z
 ---------------------------------------------------------------------
      1          7           0       -0.339382    0.332171   -0.000000
      2          9           0        0.942726    0.787305    0.000000
      3          9           0       -0.339382   -0.522830    1.057785
      4          9           0       -0.339382   -0.522830   -1.057785
 ---------------------------------------------------------------------
 Rotational constants (GHZ):          10.8602016          10.8497803           5.9404184
 Standard basis: def2QZVPP (5D, 7F)
 There are   168 symmetry adapted cartesian basis functions of A'  symmetry.
 There are   120 symmetry adapted cartesian basis functions of A"  symmetry.
 There are   131 symmetry adapted basis functions of A'  symmetry.
 There are    97 symmetry adapted basis functions of A"  symmetry.
   228 basis functions,   368 primitive gaussians,   288 cartesian basis functions
    17 alpha electrons       17 beta electrons
       nuclear repulsion energy       134.2934186926 Hartrees.
 NAtoms=    4 NActive=    4 NUniq=    3 SFac= 1.78D+00 NAtFMM=   60 NAOKFM=F Big=F
 Integral buffers will be    131072 words long.
 Raffenetti 2 integral format.
 Two-electron integral symmetry is turned on.
 One-electron integrals computed using PRISM.
   2 Symmetry operations used in ECPInt.
 ECPInt:  NShTT=    2346 NPrTT=    6942 LenC2=    2284 LenP2D=    5595.
 LDataN:  DoStor=T MaxTD1= 8 Len=  415
 NBasis=   228 RedAO= T EigKep=  6.30D-04  NBF=   131    97
 NBsUse=   228 1.00D-06 EigRej= -1.00D+00 NBFU=   131    97
 Initial guess from the checkpoint file:  "/data/hutter/SMG16/PBE0/Gau-98292.chk"
 B after Tr=     0.000000    0.000000   -0.000000
         Rot=    0.999988   -0.000000   -0.000000    0.004839 Ang=   0.55 deg.
 Initial guess orbital symmetries:
       Occupied  (A") (A') (A') (A') (A') (A") (A') (A') (A") (A')
                 (A') (A") (A') (A") (A') (A") (A')
       Virtual   (A') (A") (A') (A') (A') (A') (A") (A") (A') (A')
                 (A") (A') (A") (A') (A") (A') (A') (A") (A') (A")
                 (A') (A") (A') (A') (A') (A") (A') (A') (A") (A")
                 (A') (A') (A") (A") (A') (A') (A") (A') (A') (A")
                 (A") (A') (A") (A') (A") (A') (A") (A') (A') (A")
                 (A') (A') (A") (A') (A') (A') (A") (A') (A") (A')
                 (A") (A") (A') (A') (A') (A") (A') (A") (A') (A")
                 (A') (A") (A") (A') (A') (A") (A") (A') (A') (A')
                 (A") (A') (A') (A') (A") (A") (A') (A") (A") (A')
                 (A') (A') (A") (A") (A') (A') (A") (A") (A') (A")
                 (A') (A") (A') (A') (A") (A') (A') (A") (A') (A")
                 (A') (A") (A') (A') (A") (A") (A') (A') (A") (A')
                 (A") (A') (A") (A') (A') (A') (A') (A") (A") (A")
                 (A') (A') (A") (A') (A") (A') (A') (A") (A") (A')
                 (A") (A') (A") (A') (A") (A') (A") (A') (A') (A")
                 (A') (A") (A') (A') (A") (A") (A') (A') (A") (A')
                 (A") (A') (A") (A') (A") (A') (A") (A') (A") (A')
                 (A") (A') (A") (A") (A') (A') (A') (A') (A") (A')
                 (A") (A') (A') (A") (A") (A') (A") (A') (A") (A')
                 (A") (A") (A') (A') (A") (A") (A') (A') (A') (A")
                 (A') (A") (A') (A') (A') (A') (A") (A') (A') (A')
                 (A")
 Keep R1 ints in memory in symmetry-blocked form, NReq=511344724.
 Requested convergence on RMS density matrix=1.00D-08 within 128 cycles.
 Requested convergence on MAX density matrix=1.00D-06.
 Requested convergence on             energy=1.00D-06.
 No special actions if energy rises.
 SCF Done:  E(RPBE1PBE) =  -353.923733059     A.U. after    8 cycles
            NFock=  8  Conv=0.43D-08     -V/T= 2.0031
   2 Symmetry operations used in ECPInt.
 ECPInt:  NShTT=    2346 NPrTT=    6942 LenC2=    2284 LenP2D=    5595.
 LDataN:  DoStor=T MaxTD1= 9 Len=  602
 Calling FoFJK, ICntrl=      2127 FMM=F ISym2X=1 I1Cent= 0 IOpClX= 0 NMat=1 NMatS=1 NMatT=0.
 ***** Axes restored to original set *****
 -------------------------------------------------------------------
 Center     Atomic                   Forces (Hartrees/Bohr)
 Number     Number              X              Y              Z
 -------------------------------------------------------------------
      1        7           0.000050367   -0.000177607    0.000000000
      2        9          -0.000541019    0.000077284    0.000000000
      3        9           0.000245326    0.000050162   -0.000236075
      4        9           0.000245326    0.000050162    0.000236075
 -------------------------------------------------------------------
 Cartesian Forces:  Max     0.000541019 RMS     0.000217872

 GradGradGradGradGradGradGradGradGradGradGradGradGradGradGradGradGradGrad
 Berny optimization.
 Using GEDIIS/GDIIS optimizer.
 FormGI is forming the generalized inverse of G from B-inverse, IUseBI=4.
 Internal  Forces:  Max     0.000519439 RMS     0.000298354
 Search for a local minimum.
 Step number   4 out of a maximum of   20
 All quantities printed in internal units (Hartrees-Bohrs-Radians)
 Mixed Optimization -- En-DIIS/RFO-DIIS
 Update second derivatives using D2CorX and points    1    2    3    4
 DE= -1.44D-04 DEPred=-1.48D-04 R= 9.74D-01
 TightC=F SS=  1.41D+00  RLast= 3.16D-02 DXNew= 5.0454D-01 9.4803D-02
 Trust test= 9.74D-01 RLast= 3.16D-02 DXMaxT set to 3.00D-01
 The second derivative matrix:
                          R1        R2        R3        A1        A2
           R1           0.45395
           R2          -0.01750   0.45286
           R3          -0.01750  -0.01903   0.45286
           A1           0.00958   0.01279   0.01279   0.18721
           A2           0.02404   0.02916   0.02916  -0.03697   0.29433
           A3           0.01533   0.02190   0.02190  -0.04135   0.04892
           D1           0.01639   0.01903   0.01903   0.02723   0.09838
                          A3        D1
           A3           0.30838
           D1           0.11002   0.10238
 ITU=  1  0  1  0
 Use linear search instead of GDIIS.
     Eigenvalues ---    0.15489   0.25085   0.35650   0.46958   0.47188
     Eigenvalues ---    0.48408
 RFO step:  Lambda=-1.39424472D-06 EMin= 1.54891488D-01
 Quartic linear search produced a step of -0.02005.
 Iteration  1 RMS(Cart)=  0.00090886 RMS(Int)=  0.00000134
 Iteration  2 RMS(Cart)=  0.00000019 RMS(Int)=  0.00000131
 ClnCor:  largest displacement from symmetrization is 8.46D-07 for atom     4.
 Variable       Old X    -DE/DX   Delta X   Delta X   Delta X     New X
                                 (Linear)    (Quad)   (Total)
    R1        2.57096  -0.00052  -0.00023  -0.00090  -0.00113   2.56983
    R2        2.57026  -0.00032  -0.00023  -0.00046  -0.00069   2.56957
    R3        2.57026  -0.00032  -0.00023  -0.00046  -0.00069   2.56957
    A1        1.78267  -0.00013   0.00018  -0.00090  -0.00071   1.78196
    A2        1.78267  -0.00030   0.00018  -0.00090  -0.00071   1.78196
    A3        1.78204   0.00001   0.00026   0.00019   0.00045   1.78248
    D1        1.84017  -0.00022   0.00032  -0.00115  -0.00083   1.83933
         Item               Value     Threshold  Converged?
 Maximum Force            0.000519     0.000450     NO 
 RMS     Force            0.000298     0.000300     YES
 Maximum Displacement     0.001794     0.001800     YES
 RMS     Displacement     0.000909     0.001200     YES
 Predicted change in Energy=-7.575285D-07
 GradGradGradGradGradGradGradGradGradGradGradGradGradGradGradGradGradGrad

                          Input orientation:                          
 ---------------------------------------------------------------------
 Center     Atomic      Atomic             Coordinates (Angstroms)
 Number     Number       Type             X           Y           Z
 ---------------------------------------------------------------------
      1          7           0        7.687825    8.295854    8.000000
      2          9           0        8.908944    7.697364    8.000000
      3          9           0        7.077361    7.697889    9.057691
      4          9           0        7.077361    7.697889    6.942309
 ---------------------------------------------------------------------
                    Distance matrix (angstroms):
                    1          2          3          4
     1  N    0.000000
     2  F    1.359897   0.000000
     3  F    1.359757   2.115042   0.000000
     4  F    1.359757   2.115042   2.115382   0.000000
 Stoichiometry    F3N
 Framework group  CS[SG(FN),X(F2)]
 Deg. of freedom     4
 Full point group                 CS      NOp   2
 Largest Abelian subgroup         CS      NOp   2
 Largest concise Abelian subgroup CS      NOp   2
                         Standard orientation:                         
 ---------------------------------------------------------------------
 Center     Atomic      Atomic             Coordinates (Angstroms)
 Number     Number       Type             X           Y           Z
 ---------------------------------------------------------------------
      1          7           0       -0.339362    0.332343    0.000000
      2          9           0        0.942672    0.785892   -0.000000
      3          9           0       -0.339362   -0.522191    1.057691
      4          9           0       -0.339362   -0.522191   -1.057691
 ---------------------------------------------------------------------
 Rotational constants (GHZ):          10.8657940          10.8615450           5.9458708
 Standard basis: def2QZVPP (5D, 7F)
 There are   168 symmetry adapted cartesian basis functions of A'  symmetry.
 There are   120 symmetry adapted cartesian basis functions of A"  symmetry.
 There are   131 symmetry adapted basis functions of A'  symmetry.
 There are    97 symmetry adapted basis functions of A"  symmetry.
   228 basis functions,   368 primitive gaussians,   288 cartesian basis functions
    17 alpha electrons       17 beta electrons
       nuclear repulsion energy       134.3453124945 Hartrees.
 NAtoms=    4 NActive=    4 NUniq=    3 SFac= 1.78D+00 NAtFMM=   60 NAOKFM=F Big=F
 Integral buffers will be    131072 words long.
 Raffenetti 2 integral format.
 Two-electron integral symmetry is turned on.
 One-electron integrals computed using PRISM.
   2 Symmetry operations used in ECPInt.
 ECPInt:  NShTT=    2346 NPrTT=    6942 LenC2=    2284 LenP2D=    5595.
 LDataN:  DoStor=T MaxTD1= 8 Len=  415
 NBasis=   228 RedAO= T EigKep=  6.29D-04  NBF=   131    97
 NBsUse=   228 1.00D-06 EigRej= -1.00D+00 NBFU=   131    97
 Initial guess from the checkpoint file:  "/data/hutter/SMG16/PBE0/Gau-98292.chk"
 B after Tr=    -0.000000   -0.000000    0.000000
         Rot=    1.000000   -0.000000   -0.000000    0.000357 Ang=   0.04 deg.
 Initial guess orbital symmetries:
       Occupied  (A") (A') (A') (A') (A') (A") (A') (A') (A") (A')
                 (A') (A') (A") (A') (A") (A") (A')
       Virtual   (A') (A") (A') (A') (A') (A') (A") (A") (A') (A')
                 (A") (A') (A") (A') (A') (A") (A') (A') (A") (A')
                 (A") (A') (A") (A') (A') (A') (A") (A') (A") (A')
                 (A") (A") (A') (A') (A") (A') (A') (A") (A') (A")
                 (A') (A") (A') (A") (A") (A') (A') (A") (A') (A')
                 (A") (A') (A') (A") (A') (A') (A') (A") (A") (A")
                 (A') (A') (A") (A') (A") (A') (A') (A') (A") (A')
                 (A") (A") (A') (A") (A') (A") (A') (A") (A') (A')
                 (A") (A') (A') (A") (A') (A") (A") (A') (A') (A")
                 (A') (A") (A') (A") (A') (A') (A") (A') (A") (A")
                 (A') (A') (A") (A") (A') (A') (A') (A') (A") (A")
                 (A') (A') (A") (A') (A") (A') (A") (A') (A') (A")
                 (A") (A") (A') (A') (A') (A') (A") (A') (A") (A')
                 (A") (A") (A') (A') (A') (A") (A') (A") (A') (A")
                 (A") (A') (A") (A') (A") (A") (A') (A') (A') (A")
                 (A") (A') (A') (A") (A') (A") (A') (A') (A') (A")
                 (A") (A') (A") (A') (A') (A") (A') (A") (A") (A')
                 (A') (A") (A") (A') (A") (A') (A') (A") (A') (A')
                 (A") (A') (A') (A") (A") (A') (A') (A") (A') (A")
                 (A") (A') (A") (A') (A") (A') (A") (A') (A') (A")
                 (A') (A") (A') (A') (A') (A") (A') (A') (A') (A")
                 (A')
 Keep R1 ints in memory in symmetry-blocked form, NReq=511344724.
 Requested convergence on RMS density matrix=1.00D-08 within 128 cycles.
 Requested convergence on MAX density matrix=1.00D-06.
 Requested convergence on             energy=1.00D-06.
 No special actions if energy rises.
 SCF Done:  E(RPBE1PBE) =  -353.923733707     A.U. after    6 cycles
            NFock=  6  Conv=0.57D-08     -V/T= 2.0031
   2 Symmetry operations used in ECPInt.
 ECPInt:  NShTT=    2346 NPrTT=    6942 LenC2=    2284 LenP2D=    5595.
 LDataN:  DoStor=T MaxTD1= 9 Len=  602
 Calling FoFJK, ICntrl=      2127 FMM=F ISym2X=1 I1Cent= 0 IOpClX= 0 NMat=1 NMatS=1 NMatT=0.
 ***** Axes restored to original set *****
 -------------------------------------------------------------------
 Center     Atomic                   Forces (Hartrees/Bohr)
 Number     Number              X              Y              Z
 -------------------------------------------------------------------
      1        7           0.000115823   -0.000027421    0.000000000
      2        9           0.000013886    0.000048423    0.000000000
      3        9          -0.000064855   -0.000010501   -0.000012012
      4        9          -0.000064855   -0.000010501    0.000012012
 -------------------------------------------------------------------
 Cartesian Forces:  Max     0.000115823 RMS     0.000046211

 GradGradGradGradGradGradGradGradGradGradGradGradGradGradGradGradGradGrad
 Berny optimization.
 Using GEDIIS/GDIIS optimizer.
 FormGI is forming the generalized inverse of G from B-inverse, IUseBI=4.
 Internal  Forces:  Max     0.000112336 RMS     0.000061801
 Search for a local minimum.
 Step number   5 out of a maximum of   20
 All quantities printed in internal units (Hartrees-Bohrs-Radians)
 Mixed Optimization -- En-DIIS/RFO-DIIS
 Swapping is turned off.
 Update second derivatives using D2CorX and points    1    2    3    4    5
 DE= -6.47D-07 DEPred=-7.58D-07 R= 8.55D-01
 Trust test= 8.55D-01 RLast= 2.04D-03 DXMaxT set to 3.00D-01
 The second derivative matrix:
                          R1        R2        R3        A1        A2
           R1           0.42738
           R2          -0.02477   0.45410
           R3          -0.02477  -0.01779   0.45410
           A1           0.00191   0.01054   0.01054   0.18564
           A2           0.03006   0.03945   0.03945  -0.03322   0.31807
           A3          -0.02236  -0.00120  -0.00120  -0.05741   0.01836
           D1           0.03477   0.03553   0.03553   0.03413   0.12441
                          A3        D1
           A3           0.31260
           D1           0.09198   0.12730
 ITU=  0  1  0  1  0
     Eigenvalues ---    0.16420   0.27202   0.36915   0.44933   0.47188
     Eigenvalues ---    0.49101
 En-DIIS/RFO-DIIS/Sim-DIIS IScMMF=       -3 using points:     5    4
 RFO step:  Lambda=-9.14838178D-08.
 DidBck=F Rises=F RFO-DIIS coefs:    0.84451    0.15549
 Iteration  1 RMS(Cart)=  0.00028246 RMS(Int)=  0.00000006
 Iteration  2 RMS(Cart)=  0.00000004 RMS(Int)=  0.00000001
 ClnCor:  largest displacement from symmetrization is 5.82D-06 for atom     4.
 Variable       Old X    -DE/DX   Delta X   Delta X   Delta X     New X
                                 (Linear)    (Quad)   (Total)
    R1        2.56983  -0.00001   0.00018  -0.00025  -0.00008   2.56975
    R2        2.56957   0.00002   0.00011  -0.00011  -0.00000   2.56957
    R3        2.56957   0.00002   0.00011  -0.00011  -0.00000   2.56957
    A1        1.78196   0.00005   0.00011   0.00014   0.00025   1.78221
    A2        1.78196   0.00009   0.00011   0.00015   0.00025   1.78221
    A3        1.78248  -0.00011  -0.00007  -0.00032  -0.00039   1.78210
    D1        1.83933   0.00005   0.00013   0.00010   0.00023   1.83957
         Item               Value     Threshold  Converged?
 Maximum Force            0.000112     0.000450     YES
 RMS     Force            0.000062     0.000300     YES
 Maximum Displacement     0.000313     0.001800     YES
 RMS     Displacement     0.000282     0.001200     YES
 Predicted change in Energy=-4.573653D-08
 Optimization completed.
    -- Stationary point found.
                           ----------------------------
                           !   Optimized Parameters   !
                           ! (Angstroms and Degrees)  !
 --------------------------                            --------------------------
 ! Name  Definition              Value          Derivative Info.                !
 --------------------------------------------------------------------------------
 ! R1    R(1,2)                  1.3599         -DE/DX =    0.0                 !
 ! R2    R(1,3)                  1.3598         -DE/DX =    0.0                 !
 ! R3    R(1,4)                  1.3598         -DE/DX =    0.0                 !
 ! A1    A(2,1,3)              102.0988         -DE/DX =    0.0001              !
 ! A2    A(2,1,4)              102.0988         -DE/DX =    0.0001              !
 ! A3    A(3,1,4)              102.1289         -DE/DX =   -0.0001              !
 ! D1    D(2,1,4,3)            105.386          -DE/DX =    0.0                 !
 --------------------------------------------------------------------------------
 GradGradGradGradGradGradGradGradGradGradGradGradGradGradGradGradGradGrad

                          Input orientation:                          
 ---------------------------------------------------------------------
 Center     Atomic      Atomic             Coordinates (Angstroms)
 Number     Number       Type             X           Y           Z
 ---------------------------------------------------------------------
      1          7           0        7.687825    8.295854    8.000000
      2          9           0        8.908944    7.697364    8.000000
      3          9           0        7.077361    7.697889    9.057691
      4          9           0        7.077361    7.697889    6.942309
 ---------------------------------------------------------------------
                    Distance matrix (angstroms):
                    1          2          3          4
     1  N    0.000000
     2  F    1.359897   0.000000
     3  F    1.359757   2.115042   0.000000
     4  F    1.359757   2.115042   2.115382   0.000000
 Stoichiometry    F3N
 Framework group  CS[SG(FN),X(F2)]
 Deg. of freedom     4
 Full point group                 CS      NOp   2
 Largest Abelian subgroup         CS      NOp   2
 Largest concise Abelian subgroup CS      NOp   2
                         Standard orientation:                         
 ---------------------------------------------------------------------
 Center     Atomic      Atomic             Coordinates (Angstroms)
 Number     Number       Type             X           Y           Z
 ---------------------------------------------------------------------
      1          7           0       -0.339362    0.332343    0.000000
      2          9           0        0.942672    0.785892    0.000000
      3          9           0       -0.339362   -0.522191    1.057691
      4          9           0       -0.339362   -0.522191   -1.057691
 ---------------------------------------------------------------------
 Rotational constants (GHZ):          10.8657940          10.8615450           5.9458708

 **********************************************************************

            Population analysis using the SCF Density.

 **********************************************************************

 Orbital symmetries:
       Occupied  (A") (A') (A') (A') (A') (A") (A') (A') (A") (A')
                 (A') (A") (A') (A") (A') (A") (A')
       Virtual   (A') (A") (A') (A') (A') (A') (A") (A") (A') (A')
                 (A') (A") (A") (A') (A") (A') (A') (A") (A') (A")
                 (A') (A') (A") (A') (A') (A") (A') (A') (A") (A")
                 (A') (A') (A") (A") (A') (A') (A") (A') (A') (A")
                 (A") (A') (A") (A') (A") (A') (A") (A') (A') (A")
                 (A') (A') (A") (A') (A') (A') (A") (A') (A") (A')
                 (A") (A") (A') (A') (A') (A") (A') (A") (A') (A")
                 (A') (A") (A") (A') (A') (A") (A") (A') (A') (A')
                 (A") (A') (A') (A') (A") (A") (A') (A") (A") (A')
                 (A') (A') (A") (A") (A') (A') (A") (A") (A') (A")
                 (A') (A") (A') (A') (A") (A') (A') (A") (A') (A")
                 (A') (A") (A') (A') (A") (A") (A') (A') (A") (A')
                 (A") (A') (A") (A') (A') (A') (A') (A") (A") (A")
                 (A') (A') (A") (A') (A') (A") (A') (A") (A") (A')
                 (A") (A') (A") (A') (A") (A") (A') (A') (A') (A")
                 (A') (A") (A') (A') (A") (A") (A') (A') (A') (A")
                 (A") (A') (A") (A') (A") (A') (A") (A') (A") (A')
                 (A") (A') (A") (A") (A') (A') (A') (A') (A") (A')
                 (A") (A') (A') (A") (A") (A') (A") (A') (A") (A')
                 (A") (A") (A') (A') (A") (A") (A') (A') (A') (A")
                 (A') (A") (A') (A') (A') (A') (A") (A') (A') (A')
                 (A")
 The electronic state is 1-A'.
 Alpha  occ. eigenvalues --  -24.85209 -24.85209 -24.85202 -14.68633  -1.42612
 Alpha  occ. eigenvalues --   -1.29073  -1.29063  -0.85938  -0.66450  -0.66445
 Alpha  occ. eigenvalues --   -0.61697  -0.52286  -0.52282  -0.47599  -0.47593
 Alpha  occ. eigenvalues --   -0.46064  -0.37669
 Alpha virt. eigenvalues --    0.02740   0.02754   0.03393   0.19394   0.20234
 Alpha virt. eigenvalues --    0.20747   0.20749   0.32048   0.32049   0.35227
 Alpha virt. eigenvalues --    0.35288   0.35290   0.45974   0.47512   0.47819
 Alpha virt. eigenvalues --    0.47822   0.80948   0.81743   0.81749   0.85045
 Alpha virt. eigenvalues --    0.85051   0.95806   0.95807   0.96449   1.11430
 Alpha virt. eigenvalues --    1.23237   1.23243   1.26872   1.40793   1.44354
 Alpha virt. eigenvalues --    1.44372   1.54387   1.54397   1.58851   1.58852
 Alpha virt. eigenvalues --    1.64027   1.64890   1.64890   1.67451   1.70166
 Alpha virt. eigenvalues --    1.71360   1.71365   1.88705   1.88718   1.90532
 Alpha virt. eigenvalues --    1.91727   2.20311   2.20338   2.31968   2.34523
 Alpha virt. eigenvalues --    2.34525   2.49167   2.63500   2.63501   2.71431
 Alpha virt. eigenvalues --    2.85943   2.98456   2.98467   3.03730   3.14309
 Alpha virt. eigenvalues --    3.14325   3.28058   3.28066   3.31035   3.78044
 Alpha virt. eigenvalues --    3.78070   3.78397   4.07120   4.07129   4.10503
 Alpha virt. eigenvalues --    4.10526   4.11272   4.14477   4.14486   4.16694
 Alpha virt. eigenvalues --    4.19326   4.26308   4.26314   4.27421   4.41926
 Alpha virt. eigenvalues --    4.41957   4.69941   4.82720   4.84106   4.84124
 Alpha virt. eigenvalues --    4.85525   4.93254   4.93270   5.03551   5.03571
 Alpha virt. eigenvalues --    5.05996   5.17113   5.17117   5.18711   5.28643
 Alpha virt. eigenvalues --    5.35947   5.35952   5.58299   5.58302   5.61745
 Alpha virt. eigenvalues --    5.64665   5.77268   5.77297   6.13799   6.13800
 Alpha virt. eigenvalues --    6.17494   6.24581   6.31812   6.31848   6.37829
 Alpha virt. eigenvalues --    6.48065   6.59773   6.59802   6.73491   6.73564
 Alpha virt. eigenvalues --    7.11932   7.11950   7.36683   7.52564   7.52586
 Alpha virt. eigenvalues --    7.78899   8.06476   8.06499   8.52893   8.68962
 Alpha virt. eigenvalues --    8.83424   8.85202   8.85206   9.14969   9.18033
 Alpha virt. eigenvalues --    9.18041   9.22592   9.22614   9.44735  10.32716
 Alpha virt. eigenvalues --   10.32732  10.57806  11.32071  11.33012  11.33014
 Alpha virt. eigenvalues --   11.35350  11.35358  11.35437  11.35525  11.35526
 Alpha virt. eigenvalues --   11.35763  11.35765  11.35809  11.40141  11.44456
 Alpha virt. eigenvalues --   11.58881  11.58922  11.61887  11.70032  11.70037
 Alpha virt. eigenvalues --   12.04131  12.04173  12.10025  12.34186  12.34187
 Alpha virt. eigenvalues --   12.42378  12.46468  12.46492  12.47611  14.50978
 Alpha virt. eigenvalues --   14.50980  14.52520  14.52530  14.52747  14.54515
 Alpha virt. eigenvalues --   14.62979  14.62983  14.67252  14.68679  14.68686
 Alpha virt. eigenvalues --   14.86612  14.97380  15.01155  15.01183  15.29305
 Alpha virt. eigenvalues --   15.36442  15.36452  15.45299  15.45322  15.49188
 Alpha virt. eigenvalues --   15.69672  15.72027  15.72030  15.77916  15.77932
 Alpha virt. eigenvalues --   15.78951  16.01926  16.01938  16.12894  16.23345
 Alpha virt. eigenvalues --   16.25099  16.25126  16.35896  16.49882  16.49904
 Alpha virt. eigenvalues --   16.67563  16.67588  16.73683  36.81552  54.35182
 Alpha virt. eigenvalues --   54.46271  54.46321 196.14777 285.42249 285.55070
 Alpha virt. eigenvalues --  285.55136
          Condensed to atoms (all electrons):
               1          2          3          4
     1  N    6.280387   0.113813   0.113764   0.113764
     2  F    0.113813   9.093746  -0.040687  -0.040687
     3  F    0.113764  -0.040687   9.093572  -0.040605
     4  F    0.113764  -0.040687  -0.040605   9.093572
 Mulliken charges:
               1
     1  N    0.378272
     2  F   -0.126184
     3  F   -0.126044
     4  F   -0.126044
 Sum of Mulliken charges =  -0.00000
 Mulliken charges with hydrogens summed into heavy atoms:
               1
     1  N    0.378272
     2  F   -0.126184
     3  F   -0.126044
     4  F   -0.126044
 Electronic spatial extent (au):  <R**2>=            195.9654
 Charge=             -0.0000 electrons
 Dipole moment (field-independent basis, Debye):
    X=             -0.1150    Y=              0.1113    Z=             -0.0000  Tot=              0.1601
 Quadrupole moment (field-independent basis, Debye-Ang):
   XX=            -20.1984   YY=            -20.1996   ZZ=            -20.2289
   XY=             -0.0308   XZ=              0.0000   YZ=              0.0000
 Traceless Quadrupole moment (field-independent basis, Debye-Ang):
   XX=              0.0106   YY=              0.0093   ZZ=             -0.0199
   XY=             -0.0308   XZ=              0.0000   YZ=              0.0000
 Octapole moment (field-independent basis, Debye-Ang**2):
  XXX=              1.8376  YYY=             -1.9913  ZZZ=             -0.0000  XYY=              0.7515
  XXY=             -0.9530  XXZ=              0.0000  XZZ=              0.7372  YZZ=             -0.3169
  YYZ=              0.0000  XYZ=              0.0000
 Hexadecapole moment (field-independent basis, Debye-Ang**3):
 XXXX=            -48.3358 YYYY=            -50.5998 ZZZZ=            -76.6157 XXXY=            -12.9023
 XXXZ=              0.0000 YYYX=            -13.5335 YYYZ=              0.0000 ZZZX=              0.0000
 ZZZY=              0.0000 XXYY=            -16.9298 XXZZ=            -21.4085 YYZZ=            -20.3878
 XXYZ=              0.0000 YYXZ=              0.0000 ZZXY=             -4.6489
 N-N= 1.343453124945D+02 E-N=-1.111178102068D+03  KE= 3.528370704145D+02
 Symmetry A'   KE= 2.442707386620D+02
 Symmetry A"   KE= 1.085663317525D+02
 Unable to Open any file for archive entry.
 1\1\GINC-TCOPT10\FOpt\RPBE1PBE\def2QZVPP\F3N1\HUTTER\01-Aug-2021\0\\#N
  RPBE1PBE/Def2QZVPP scf=tight Int(Grid=ultrafine) OPT FREQ\\Mol job 1\
 \0,1\N,7.68782548,8.2958535156,8.\F,8.9089435574,7.697363632,8.\F,7.07
 73612589,7.6978890596,9.0576909784\F,7.0773612589,7.6978890596,6.94230
 90216\\Version=ES64L-G16RevC.01\State=1-A'\HF=-353.9237337\RMSD=5.749e
 -09\RMSF=4.621e-05\Dipole=-0.0003892,0.0629774,0.\Quadrupole=-0.015464
 5,0.0302862,-0.0148217,0.0000137,0.,0.\PG=CS [SG(F1N1),X(F2)]\\@
 The archive entry for this job was punched.


 IF YOU BELIEVE CERTAIN WORDS, YOU BELIEVE THEIR HIDDEN ARGUMENTS.
 WHEN YOU BELIEVE SOMETHING IS RIGHT OR WRONG, TRUE OR FALSE, 
 YOU BELIEVE THE ASSUMPTIONS IN THE WORDS WHICH EXPRESS THE ARGUMENTS.
 SUCH ASSUMPTIONS ARE OFTEN FULL OF HOLES, BUT REMAIN MOST PRECIOUS 
 TO THE CONVINCED.

                 -- THE OPEN-ENDED PROOF FROM THE PANOPLIA PROPHETICA
                    CHILDREN OF DUNE BY FRANK HERBERT
 Job cpu time:       0 days  0 hours 23 minutes 24.9 seconds.
 Elapsed time:       0 days  0 hours  3 minutes 46.2 seconds.
 File lengths (MBytes):  RWF=     27 Int=      0 D2E=      0 Chk=      5 Scr=      1
 Normal termination of Gaussian 16 at Sun Aug  1 13:09:45 2021.
 Link1:  Proceeding to internal job step number  2.
 ----------------------------------------------------------------------
 #N Geom=AllCheck Guess=TCheck SCRF=Check GenChk RPBE1PBE/def2QZVPP Fre
 q
 ----------------------------------------------------------------------
 1/10=4,29=7,30=1,38=1,40=1/1,3;
 2/12=2,40=1/2;
 3/5=45,7=202,11=2,14=-4,25=1,30=1,70=2,71=2,74=-13,75=-5,116=1,140=1/1,2,3;
 4/5=101/1;
 5/5=2,32=2,38=6,98=1/2;
 8/6=4,10=90,11=11/1;
 11/6=1,8=1,9=11,15=111,16=1/1,2,10;
 10/6=1/2;
 6/7=2,8=2,9=2,10=2,28=1/1;
 7/8=1,10=1,25=1/1,2,3,16;
 1/10=4,30=1/3;
 99//99;
 Structure from the checkpoint file:  "/data/hutter/SMG16/PBE0/Gau-98292.chk"
 ---------
 Mol job 1
 ---------
 Charge =  0 Multiplicity = 1
 Redundant internal coordinates found in file.  (old form).
 N,0,7.68782548,8.2958535156,8.
 F,0,8.9089435574,7.697363632,8.
 F,0,7.0773612589,7.6978890596,9.0576909784
 F,0,7.0773612589,7.6978890596,6.9423090216
 Recover connectivity data from disk.

 GradGradGradGradGradGradGradGradGradGradGradGradGradGradGradGradGradGrad
 Berny optimization.
 Initialization pass.
                           ----------------------------
                           !    Initial Parameters    !
                           ! (Angstroms and Degrees)  !
 --------------------------                            --------------------------
 ! Name  Definition              Value          Derivative Info.                !
 --------------------------------------------------------------------------------
 ! R1    R(1,2)                  1.3599         calculate D2E/DX2 analytically  !
 ! R2    R(1,3)                  1.3598         calculate D2E/DX2 analytically  !
 ! R3    R(1,4)                  1.3598         calculate D2E/DX2 analytically  !
 ! A1    A(2,1,3)              102.0988         calculate D2E/DX2 analytically  !
 ! A2    A(2,1,4)              102.0988         calculate D2E/DX2 analytically  !
 ! A3    A(3,1,4)              102.1289         calculate D2E/DX2 analytically  !
 ! D1    D(2,1,4,3)            105.386          calculate D2E/DX2 analytically  !
 --------------------------------------------------------------------------------
 Trust Radius=3.00D-01 FncErr=1.00D-07 GrdErr=1.00D-07 EigMax=2.50D+02 EigMin=1.00D-04
 Number of steps in this run=      2 maximum allowed number of steps=      2.
 GradGradGradGradGradGradGradGradGradGradGradGradGradGradGradGradGradGrad

                          Input orientation:                          
 ---------------------------------------------------------------------
 Center     Atomic      Atomic             Coordinates (Angstroms)
 Number     Number       Type             X           Y           Z
 ---------------------------------------------------------------------
      1          7           0        7.687825    8.295854    8.000000
      2          9           0        8.908944    7.697364    8.000000
      3          9           0        7.077361    7.697889    9.057691
      4          9           0        7.077361    7.697889    6.942309
 ---------------------------------------------------------------------
                    Distance matrix (angstroms):
                    1          2          3          4
     1  N    0.000000
     2  F    1.359897   0.000000
     3  F    1.359757   2.115042   0.000000
     4  F    1.359757   2.115042   2.115382   0.000000
 Stoichiometry    F3N
 Framework group  CS[SG(FN),X(F2)]
 Deg. of freedom     4
 Full point group                 CS      NOp   2
 Largest Abelian subgroup         CS      NOp   2
 Largest concise Abelian subgroup CS      NOp   2
                         Standard orientation:                         
 ---------------------------------------------------------------------
 Center     Atomic      Atomic             Coordinates (Angstroms)
 Number     Number       Type             X           Y           Z
 ---------------------------------------------------------------------
      1          7           0       -0.339362    0.332343    0.000000
      2          9           0        0.942672    0.785892    0.000000
      3          9           0       -0.339362   -0.522191    1.057691
      4          9           0       -0.339362   -0.522191   -1.057691
 ---------------------------------------------------------------------
 Rotational constants (GHZ):          10.8657940          10.8615450           5.9458708
 Standard basis: def2QZVPP (5D, 7F)
 There are   168 symmetry adapted cartesian basis functions of A'  symmetry.
 There are   120 symmetry adapted cartesian basis functions of A"  symmetry.
 There are   131 symmetry adapted basis functions of A'  symmetry.
 There are    97 symmetry adapted basis functions of A"  symmetry.
   228 basis functions,   368 primitive gaussians,   288 cartesian basis functions
    17 alpha electrons       17 beta electrons
       nuclear repulsion energy       134.3453124945 Hartrees.
 NAtoms=    4 NActive=    4 NUniq=    3 SFac= 1.78D+00 NAtFMM=   60 NAOKFM=F Big=F
 Integral buffers will be    131072 words long.
 Raffenetti 2 integral format.
 Two-electron integral symmetry is turned on.
 One-electron integrals computed using PRISM.
   2 Symmetry operations used in ECPInt.
 ECPInt:  NShTT=    2346 NPrTT=    6942 LenC2=    2284 LenP2D=    5595.
 LDataN:  DoStor=T MaxTD1= 8 Len=  415
 NBasis=   228 RedAO= T EigKep=  6.29D-04  NBF=   131    97
 NBsUse=   228 1.00D-06 EigRej= -1.00D+00 NBFU=   131    97
 Initial guess from the checkpoint file:  "/data/hutter/SMG16/PBE0/Gau-98292.chk"
 B after Tr=    -0.000000   -0.000000   -0.000000
         Rot=    1.000000    0.000000   -0.000000   -0.000000 Ang=   0.00 deg.
 Initial guess orbital symmetries:
       Occupied  (A") (A') (A') (A') (A') (A") (A') (A') (A") (A')
                 (A') (A") (A') (A") (A') (A") (A')
       Virtual   (A') (A") (A') (A') (A') (A') (A") (A") (A') (A')
                 (A') (A") (A") (A') (A") (A') (A') (A") (A') (A")
                 (A') (A') (A") (A') (A') (A") (A') (A') (A") (A")
                 (A') (A') (A") (A") (A') (A') (A") (A') (A') (A")
                 (A") (A') (A") (A') (A") (A') (A") (A') (A') (A")
                 (A') (A') (A") (A') (A') (A') (A") (A') (A") (A')
                 (A") (A") (A') (A') (A') (A") (A') (A") (A') (A")
                 (A') (A") (A") (A') (A') (A") (A") (A') (A') (A')
                 (A") (A') (A') (A') (A") (A") (A') (A") (A") (A')
                 (A') (A') (A") (A") (A') (A') (A") (A") (A') (A")
                 (A') (A") (A') (A') (A") (A') (A') (A") (A') (A")
                 (A') (A") (A') (A') (A") (A") (A') (A') (A") (A')
                 (A") (A') (A") (A') (A') (A') (A') (A") (A") (A")
                 (A') (A') (A") (A') (A') (A") (A') (A") (A") (A')
                 (A") (A') (A") (A') (A") (A") (A') (A') (A') (A")
                 (A') (A") (A') (A') (A") (A") (A') (A') (A') (A")
                 (A") (A') (A") (A') (A") (A') (A") (A') (A") (A')
                 (A") (A') (A") (A") (A') (A') (A') (A') (A") (A')
                 (A") (A') (A') (A") (A") (A') (A") (A') (A") (A')
                 (A") (A") (A') (A') (A") (A") (A') (A') (A') (A")
                 (A') (A") (A') (A') (A') (A') (A") (A') (A') (A')
                 (A")
 Keep R1 ints in memory in symmetry-blocked form, NReq=511344724.
 Requested convergence on RMS density matrix=1.00D-08 within 128 cycles.
 Requested convergence on MAX density matrix=1.00D-06.
 Requested convergence on             energy=1.00D-06.
 No special actions if energy rises.
 SCF Done:  E(RPBE1PBE) =  -353.923733707     A.U. after    1 cycles
            NFock=  1  Conv=0.67D-08     -V/T= 2.0031
 DoSCS=F DFT=T ScalE2(SS,OS)=  1.000000  1.000000
 Range of M.O.s used for correlation:     1   228
 NBasis=   228 NAE=    17 NBE=    17 NFC=     0 NFV=     0
 NROrb=    228 NOA=    17 NOB=    17 NVA=   211 NVB=   211

 **** Warning!!: The largest alpha MO coefficient is  0.10443489D+02

   2 Symmetry operations used in ECPInt.
 ECPInt:  NShTT=    2346 NPrTT=    6942 LenC2=    2284 LenP2D=    5595.
 LDataN:  DoStor=T MaxTD1= 9 Len=  602
 Symmetrizing basis deriv contribution to polar:
 IMax=3 JMax=2 DiffMx= 0.00D+00
 G2DrvN: will do     5 centers at a time, making    1 passes.
 Calling FoFCou, ICntrl=  3107 FMM=F I1Cent=   0 AccDes= 0.00D+00.
 End of G2Drv F.D. properties file   721 does not exist.
 End of G2Drv F.D. properties file   722 does not exist.
 End of G2Drv F.D. properties file   788 does not exist.
          IDoAtm=1111
          Differentiating once with respect to electric field.
                with respect to dipole field.
          Differentiating once with respect to nuclear coordinates.
 Keep R1 ints in memory in symmetry-blocked form, NReq=511347159.
          There are    12 degrees of freedom in the 1st order CPHF.  IDoFFX=4 NUNeed=    12.
     12 vectors produced by pass  0 Test12= 2.99D-14 8.33D-09 XBig12= 1.00D+01 1.80D+00.
 AX will form    12 AO Fock derivatives at one time.
     12 vectors produced by pass  1 Test12= 2.99D-14 8.33D-09 XBig12= 3.28D+00 5.14D-01.
     12 vectors produced by pass  2 Test12= 2.99D-14 8.33D-09 XBig12= 7.40D-02 7.94D-02.
     12 vectors produced by pass  3 Test12= 2.99D-14 8.33D-09 XBig12= 1.57D-03 9.79D-03.
     12 vectors produced by pass  4 Test12= 2.99D-14 8.33D-09 XBig12= 3.07D-05 1.31D-03.
     12 vectors produced by pass  5 Test12= 2.99D-14 8.33D-09 XBig12= 1.09D-07 6.35D-05.
      9 vectors produced by pass  6 Test12= 2.99D-14 8.33D-09 XBig12= 2.58D-10 4.52D-06.
      3 vectors produced by pass  7 Test12= 2.99D-14 8.33D-09 XBig12= 4.90D-13 2.17D-07.
 InvSVY:  IOpt=1 It=  1 EMax= 8.88D-16
 Solved reduced A of dimension    84 with    12 vectors.
 Isotropic polarizability for W=    0.000000       16.59 Bohr**3.
 End of Minotr F.D. properties file   721 does not exist.
 End of Minotr F.D. properties file   722 does not exist.
 End of Minotr F.D. properties file   788 does not exist.

 **********************************************************************

            Population analysis using the SCF Density.

 **********************************************************************

 Orbital symmetries:
       Occupied  (A") (A') (A') (A') (A') (A") (A') (A') (A") (A')
                 (A') (A") (A') (A") (A') (A") (A')
       Virtual   (A') (A") (A') (A') (A') (A') (A") (A") (A') (A')
                 (A') (A") (A") (A') (A") (A') (A') (A") (A') (A")
                 (A') (A') (A") (A') (A') (A") (A') (A') (A") (A")
                 (A') (A') (A") (A") (A') (A') (A") (A') (A') (A")
                 (A") (A') (A") (A') (A") (A') (A") (A') (A') (A")
                 (A') (A') (A") (A') (A') (A') (A") (A') (A") (A')
                 (A") (A") (A') (A') (A') (A") (A') (A") (A') (A")
                 (A') (A") (A") (A') (A') (A") (A") (A') (A') (A')
                 (A") (A') (A') (A') (A") (A") (A') (A") (A") (A')
                 (A') (A') (A") (A") (A') (A') (A") (A") (A') (A")
                 (A') (A") (A') (A') (A") (A') (A') (A") (A') (A")
                 (A') (A") (A') (A') (A") (A") (A') (A') (A") (A')
                 (A") (A') (A") (A') (A') (A') (A') (A") (A") (A")
                 (A') (A') (A") (A') (A') (A") (A') (A") (A") (A')
                 (A") (A') (A") (A') (A") (A") (A') (A') (A') (A")
                 (A') (A") (A') (A') (A") (A") (A') (A') (A') (A")
                 (A") (A') (A") (A') (A") (A') (A") (A') (A") (A')
                 (A") (A') (A") (A") (A') (A') (A') (A') (A") (A')
                 (A") (A') (A') (A") (A") (A') (A") (A') (A") (A')
                 (A") (A") (A') (A') (A") (A") (A') (A') (A') (A")
                 (A') (A") (A') (A') (A') (A') (A") (A') (A') (A')
                 (A")
 The electronic state is 1-A'.
 Alpha  occ. eigenvalues --  -24.85209 -24.85209 -24.85202 -14.68633  -1.42612
 Alpha  occ. eigenvalues --   -1.29073  -1.29063  -0.85938  -0.66450  -0.66445
 Alpha  occ. eigenvalues --   -0.61697  -0.52286  -0.52282  -0.47598  -0.47593
 Alpha  occ. eigenvalues --   -0.46064  -0.37669
 Alpha virt. eigenvalues --    0.02740   0.02754   0.03393   0.19394   0.20234
 Alpha virt. eigenvalues --    0.20747   0.20749   0.32048   0.32049   0.35227
 Alpha virt. eigenvalues --    0.35288   0.35290   0.45974   0.47512   0.47819
 Alpha virt. eigenvalues --    0.47822   0.80948   0.81743   0.81749   0.85045
 Alpha virt. eigenvalues --    0.85051   0.95806   0.95806   0.96449   1.11430
 Alpha virt. eigenvalues --    1.23237   1.23243   1.26872   1.40793   1.44354
 Alpha virt. eigenvalues --    1.44372   1.54386   1.54397   1.58851   1.58852
 Alpha virt. eigenvalues --    1.64027   1.64890   1.64890   1.67451   1.70166
 Alpha virt. eigenvalues --    1.71360   1.71365   1.88705   1.88718   1.90532
 Alpha virt. eigenvalues --    1.91727   2.20311   2.20338   2.31968   2.34523
 Alpha virt. eigenvalues --    2.34525   2.49167   2.63500   2.63501   2.71431
 Alpha virt. eigenvalues --    2.85943   2.98456   2.98467   3.03730   3.14309
 Alpha virt. eigenvalues --    3.14325   3.28058   3.28066   3.31035   3.78044
 Alpha virt. eigenvalues --    3.78070   3.78397   4.07120   4.07129   4.10503
 Alpha virt. eigenvalues --    4.10526   4.11271   4.14477   4.14486   4.16694
 Alpha virt. eigenvalues --    4.19326   4.26308   4.26314   4.27421   4.41926
 Alpha virt. eigenvalues --    4.41957   4.69941   4.82720   4.84106   4.84124
 Alpha virt. eigenvalues --    4.85525   4.93254   4.93270   5.03551   5.03570
 Alpha virt. eigenvalues --    5.05996   5.17113   5.17117   5.18711   5.28643
 Alpha virt. eigenvalues --    5.35947   5.35952   5.58299   5.58302   5.61745
 Alpha virt. eigenvalues --    5.64665   5.77268   5.77297   6.13799   6.13800
 Alpha virt. eigenvalues --    6.17494   6.24581   6.31812   6.31848   6.37829
 Alpha virt. eigenvalues --    6.48065   6.59773   6.59802   6.73491   6.73564
 Alpha virt. eigenvalues --    7.11932   7.11950   7.36683   7.52564   7.52586
 Alpha virt. eigenvalues --    7.78898   8.06476   8.06499   8.52893   8.68962
 Alpha virt. eigenvalues --    8.83424   8.85202   8.85206   9.14969   9.18033
 Alpha virt. eigenvalues --    9.18041   9.22592   9.22614   9.44735  10.32716
 Alpha virt. eigenvalues --   10.32732  10.57806  11.32071  11.33012  11.33014
 Alpha virt. eigenvalues --   11.35350  11.35358  11.35437  11.35525  11.35526
 Alpha virt. eigenvalues --   11.35763  11.35765  11.35809  11.40141  11.44456
 Alpha virt. eigenvalues --   11.58881  11.58922  11.61887  11.70032  11.70037
 Alpha virt. eigenvalues --   12.04131  12.04173  12.10025  12.34186  12.34187
 Alpha virt. eigenvalues --   12.42378  12.46468  12.46492  12.47611  14.50978
 Alpha virt. eigenvalues --   14.50980  14.52520  14.52530  14.52747  14.54515
 Alpha virt. eigenvalues --   14.62979  14.62983  14.67252  14.68679  14.68686
 Alpha virt. eigenvalues --   14.86612  14.97380  15.01155  15.01183  15.29305
 Alpha virt. eigenvalues --   15.36442  15.36452  15.45299  15.45322  15.49188
 Alpha virt. eigenvalues --   15.69672  15.72027  15.72030  15.77916  15.77931
 Alpha virt. eigenvalues --   15.78951  16.01926  16.01938  16.12894  16.23345
 Alpha virt. eigenvalues --   16.25099  16.25126  16.35896  16.49882  16.49904
 Alpha virt. eigenvalues --   16.67563  16.67588  16.73683  36.81552  54.35182
 Alpha virt. eigenvalues --   54.46271  54.46321 196.14777 285.42249 285.55070
 Alpha virt. eigenvalues --  285.55136
          Condensed to atoms (all electrons):
               1          2          3          4
     1  N    6.280388   0.113812   0.113765   0.113765
     2  F    0.113812   9.093748  -0.040687  -0.040687
     3  F    0.113765  -0.040687   9.093570  -0.040605
     4  F    0.113765  -0.040687  -0.040605   9.093570
 Mulliken charges:
               1
     1  N    0.378270
     2  F   -0.126185
     3  F   -0.126042
     4  F   -0.126042
 Sum of Mulliken charges =   0.00000
 Mulliken charges with hydrogens summed into heavy atoms:
               1
     1  N    0.378270
     2  F   -0.126185
     3  F   -0.126042
     4  F   -0.126042
 APT charges:
               1
     1  N    1.242884
     2  F   -0.414305
     3  F   -0.414290
     4  F   -0.414290
 Sum of APT charges =  -0.00000
 APT charges with hydrogens summed into heavy atoms:
               1
     1  N    1.242884
     2  F   -0.414305
     3  F   -0.414290
     4  F   -0.414290
 Electronic spatial extent (au):  <R**2>=            195.9654
 Charge=             -0.0000 electrons
 Dipole moment (field-independent basis, Debye):
    X=             -0.1151    Y=              0.1113    Z=              0.0000  Tot=              0.1601
 Quadrupole moment (field-independent basis, Debye-Ang):
   XX=            -20.1984   YY=            -20.1996   ZZ=            -20.2289
   XY=             -0.0308   XZ=              0.0000   YZ=              0.0000
 Traceless Quadrupole moment (field-independent basis, Debye-Ang):
   XX=              0.0106   YY=              0.0093   ZZ=             -0.0199
   XY=             -0.0308   XZ=              0.0000   YZ=              0.0000
 Octapole moment (field-independent basis, Debye-Ang**2):
  XXX=              1.8376  YYY=             -1.9913  ZZZ=              0.0000  XYY=              0.7515
  XXY=             -0.9530  XXZ=              0.0000  XZZ=              0.7372  YZZ=             -0.3169
  YYZ=              0.0000  XYZ=              0.0000
 Hexadecapole moment (field-independent basis, Debye-Ang**3):
 XXXX=            -48.3358 YYYY=            -50.5998 ZZZZ=            -76.6157 XXXY=            -12.9024
 XXXZ=              0.0000 YYYX=            -13.5335 YYYZ=             -0.0000 ZZZX=              0.0000
 ZZZY=              0.0000 XXYY=            -16.9298 XXZZ=            -21.4085 YYZZ=            -20.3878
 XXYZ=             -0.0000 YYXZ=              0.0000 ZZXY=             -4.6489
 N-N= 1.343453124945D+02 E-N=-1.111178099304D+03  KE= 3.528370671408D+02
 Symmetry A'   KE= 2.442707400124D+02
 Symmetry A"   KE= 1.085663271285D+02
  Exact polarizability:      15.559       2.910      15.675      -0.000      -0.000      18.530
 Approx polarizability:      20.979       4.690      21.164       0.000       0.000      25.768
   2 Symmetry operations used in ECPInt.
 ECPInt:  NShTT=    2346 NPrTT=    6942 LenC2=    2284 LenP2D=    5595.
 LDataN:  DoStor=T MaxTD1=10 Len=  848
 Calling FoFJK, ICntrl=    100127 FMM=F ISym2X=1 I1Cent= 0 IOpClX= 0 NMat=1 NMatS=1 NMatT=0.
 Full mass-weighted force constant matrix:
 Low frequencies ---   -7.0895   -5.0110   -0.0012   -0.0003    0.0011    3.8162
 Low frequencies ---  512.7847  513.0444  681.8598
 Diagonal vibrational polarizability:
        4.0547206       4.1806598       7.2633120
 Harmonic frequencies (cm**-1), IR intensities (KM/Mole), Raman scattering
 activities (A**4/AMU), depolarization ratios for plane and unpolarized
 incident light, reduced masses (AMU), force constants (mDyne/A),
 and normal coordinates:
                      1                      2                      3
                     A'                     A"                     A'
 Frequencies --    512.7847               513.0444               681.8598
 Red. masses --     18.7300                18.7299                18.1886
 Frc consts  --      2.9017                 2.9047                 4.9824
 IR Inten    --      0.8545                 0.8480                 2.3009
  Atom  AN      X      Y      Z        X      Y      Z        X      Y      Z
     1   7    -0.16  -0.17  -0.00     0.00   0.00  -0.23     0.29  -0.28  -0.00
     2   9    -0.31  -0.40   0.00     0.00   0.00   0.61     0.29   0.44   0.00
     3   9     0.21   0.26   0.48     0.37   0.31  -0.22    -0.25  -0.12   0.45
     4   9     0.21   0.26  -0.48    -0.37  -0.31  -0.22    -0.25  -0.12  -0.45
                      4                      5                      6
                     A'                     A"                     A'
 Frequencies --    950.2683               950.5362              1091.6135
 Red. masses --     15.2319                15.2318                15.2985
 Frc consts  --      8.1039                 8.1085                10.7408
 IR Inten    --    240.7345               240.9483                37.2151
  Atom  AN      X      Y      Z        X      Y      Z        X      Y      Z
     1   7     0.61   0.62  -0.00     0.00   0.00   0.87     0.61  -0.60  -0.00
     2   9    -0.38  -0.09   0.00    -0.00  -0.00  -0.09    -0.29   0.00   0.00
     3   9    -0.03  -0.18   0.10    -0.06   0.20  -0.27    -0.08   0.22  -0.18
     4   9    -0.03  -0.18  -0.10     0.06  -0.20  -0.27    -0.08   0.22   0.18

 -------------------
 - Thermochemistry -
 -------------------
 Temperature   298.150 Kelvin.  Pressure   1.00000 Atm.
 Atom     1 has atomic number  7 and mass  14.00307
 Atom     2 has atomic number  9 and mass  18.99840
 Atom     3 has atomic number  9 and mass  18.99840
 Atom     4 has atomic number  9 and mass  18.99840
 Molecular mass:    70.99828 amu.
 Principal axes and moments of inertia in atomic units:
                           1         2         3
     Eigenvalues --   166.09382 166.15879 303.52849
           X            0.00000   0.69999   0.71415
           Y            0.00000   0.71415  -0.69999
           Z            1.00000  -0.00000   0.00000
 This molecule is an asymmetric top.
 Rotational symmetry number  1.
 Rotational temperatures (Kelvin)      0.52148     0.52127     0.28536
 Rotational constants (GHZ):          10.86579    10.86154     5.94587
 Zero-point vibrational energy      28112.9 (Joules/Mol)
                                    6.71914 (Kcal/Mol)
 Warning -- explicit consideration of   2 degrees of freedom as
           vibrations may cause significant error
 Vibrational temperatures:    737.78   738.16   981.04  1367.22  1367.61
          (Kelvin)           1570.59
 
 Zero-point correction=                           0.010708 (Hartree/Particle)
 Thermal correction to Energy=                    0.014205
 Thermal correction to Enthalpy=                  0.015149
 Thermal correction to Gibbs Free Energy=        -0.015361
 Sum of electronic and zero-point Energies=           -353.913026
 Sum of electronic and thermal Energies=              -353.909529
 Sum of electronic and thermal Enthalpies=            -353.908585
 Sum of electronic and thermal Free Energies=         -353.939095
 
                     E (Thermal)             CV                S
                      KCal/Mol        Cal/Mol-Kelvin    Cal/Mol-Kelvin
 Total                    8.914             10.425             64.213
 Electronic               0.000              0.000              0.000
 Translational            0.889              2.981             38.697
 Rotational               0.889              2.981             23.642
 Vibrational              7.136              4.464              1.874
 Vibration     1          0.868              1.222              0.627
 Vibration     2          0.868              1.221              0.626
                       Q            Log10(Q)             Ln(Q)
 Total Bot       0.116283D+08          7.065518         16.268956
 Total V=0       0.978773D+12         11.990682         27.609565
 Vib (Bot)       0.150941D-04         -4.821192        -11.101204
 Vib (Bot)    1  0.316856D+00         -0.499138         -1.149308
 Vib (Bot)    2  0.316621D+00         -0.499460         -1.150050
 Vib (V=0)       0.127049D+01          0.103973          0.239406
 Vib (V=0)    1  0.109194D+01          0.038200          0.087960
 Vib (V=0)    2  0.109182D+01          0.038150          0.087844
 Electronic      0.100000D+01          0.000000          0.000000
 Translational   0.235140D+08          7.371326         16.973105
 Rotational      0.327630D+05          4.515384         10.397055
 ***** Axes restored to original set *****
 -------------------------------------------------------------------
 Center     Atomic                   Forces (Hartrees/Bohr)
 Number     Number              X              Y              Z
 -------------------------------------------------------------------
      1        7           0.000114546   -0.000027480    0.000000000
      2        9           0.000014632    0.000048074   -0.000000000
      3        9          -0.000064589   -0.000010297   -0.000012159
      4        9          -0.000064589   -0.000010297    0.000012159
 -------------------------------------------------------------------
 Cartesian Forces:  Max     0.000114546 RMS     0.000045873
 FormGI is forming the generalized inverse of G from B-inverse, IUseBI=4.

 GradGradGradGradGradGradGradGradGradGradGradGradGradGradGradGradGradGrad
 Berny optimization.
 Internal  Forces:  Max     0.000111906 RMS     0.000061618
 Search for a local minimum.
 Step number   1 out of a maximum of    2
 All quantities printed in internal units (Hartrees-Bohrs-Radians)
 Second derivative matrix not updated -- analytic derivatives used.
 The second derivative matrix:
                          R1        R2        R3        A1        A2
           R1           0.30282
           R2           0.06412   0.30297
           R3           0.06412   0.06408   0.30297
           A1           0.02141   0.02144  -0.01562   0.12479
           A2           0.04700  -0.01106   0.05259  -0.06460   0.43664
           A3          -0.01104   0.04685   0.05242  -0.06444   0.02273
           D1           0.03285   0.03282   0.01301   0.09603   0.06095
                          A3        D1
           A3           0.43625
           D1           0.06084   0.13618
 ITU=  0
     Eigenvalues ---    0.19393   0.22131   0.25256   0.39512   0.43118
     Eigenvalues ---    0.54852
 Angle between quadratic step and forces=  20.33 degrees.
 Linear search not attempted -- first point.
 Iteration  1 RMS(Cart)=  0.00021772 RMS(Int)=  0.00000004
 Iteration  2 RMS(Cart)=  0.00000003 RMS(Int)=  0.00000001
 ClnCor:  largest displacement from symmetrization is 2.68D-09 for atom     1.
 Variable       Old X    -DE/DX   Delta X   Delta X   Delta X     New X
                                 (Linear)    (Quad)   (Total)
    R1        2.56983  -0.00001   0.00000  -0.00016  -0.00016   2.56968
    R2        2.56957   0.00002   0.00000   0.00010   0.00010   2.56967
    R3        2.56957   0.00002   0.00000   0.00010   0.00010   2.56967
    A1        1.78196   0.00005   0.00000   0.00023   0.00023   1.78219
    A2        1.78196   0.00009   0.00000   0.00023   0.00023   1.78219
    A3        1.78248  -0.00011   0.00000  -0.00029  -0.00029   1.78219
    D1        1.83933   0.00005   0.00000   0.00022   0.00022   1.83956
         Item               Value     Threshold  Converged?
 Maximum Force            0.000112     0.000450     YES
 RMS     Force            0.000062     0.000300     YES
 Maximum Displacement     0.000294     0.001800     YES
 RMS     Displacement     0.000218     0.001200     YES
 Predicted change in Energy=-4.085578D-08
 Optimization completed.
    -- Stationary point found.
                           ----------------------------
                           !   Optimized Parameters   !
                           ! (Angstroms and Degrees)  !
 --------------------------                            --------------------------
 ! Name  Definition              Value          Derivative Info.                !
 --------------------------------------------------------------------------------
 ! R1    R(1,2)                  1.3599         -DE/DX =    0.0                 !
 ! R2    R(1,3)                  1.3598         -DE/DX =    0.0                 !
 ! R3    R(1,4)                  1.3598         -DE/DX =    0.0                 !
 ! A1    A(2,1,3)              102.0988         -DE/DX =    0.0001              !
 ! A2    A(2,1,4)              102.0988         -DE/DX =    0.0001              !
 ! A3    A(3,1,4)              102.1289         -DE/DX =   -0.0001              !
 ! D1    D(2,1,4,3)            105.386          -DE/DX =    0.0                 !
 --------------------------------------------------------------------------------
 GradGradGradGradGradGradGradGradGradGradGradGradGradGradGradGradGradGrad


 ----------------------------------------------------------------------

 Electric dipole moment (input orientation):
 (Debye = 10**-18 statcoulomb cm , SI units = C m)
                  (au)            (Debye)         (10**-30 SI)
   Tot        0.629770D-01      0.160071D+00      0.533941D+00
   x         -0.395856D-03     -0.100617D-02     -0.335621D-02
   y          0.629757D-01      0.160068D+00      0.533930D+00
   z          0.000000D+00      0.000000D+00      0.000000D+00

 Dipole polarizability, Alpha (input orientation).
 (esu units = cm**3 , SI units = C**2 m**2 J**-1)
 Alpha(0;0):
               (au)            (10**-24 esu)      (10**-40 SI)
   iso        0.165880D+02      0.245808D+01      0.273499D+01
   aniso      0.582198D+01      0.862728D+00      0.959915D+00
   xx         0.185274D+02      0.274548D+01      0.305476D+01
   yx        -0.256750D-02     -0.380464D-03     -0.423324D-03
   yy         0.127067D+02      0.188293D+01      0.209504D+01
   zx         0.000000D+00      0.000000D+00      0.000000D+00
   zy         0.000000D+00      0.000000D+00      0.000000D+00
   zz         0.185298D+02      0.274584D+01      0.305515D+01

 ----------------------------------------------------------------------

 Dipole orientation:
     7         14.72087575        -15.02557444         15.58526311
     9         17.02125441        -15.01111460         14.43979868
     9         13.57277205        -17.03157701         14.46254766
     9         13.54764491        -13.03416343         14.46254766

 Electric dipole moment (dipole orientation):
 (Debye = 10**-18 statcoulomb cm , SI units = C m)
                  (au)            (Debye)         (10**-30 SI)
   Tot        0.629770D-01      0.160071D+00      0.533941D+00
   x          0.000000D+00      0.000000D+00      0.000000D+00
   y          0.000000D+00      0.000000D+00      0.000000D+00
   z          0.629770D-01      0.160071D+00      0.533941D+00

 Dipole polarizability, Alpha (dipole orientation).
 (esu units = cm**3 , SI units = C**2 m**2 J**-1)
 Alpha(0;0):
               (au)            (10**-24 esu)      (10**-40 SI)
   iso        0.165880D+02      0.245808D+01      0.273499D+01
   aniso      0.582198D+01      0.862728D+00      0.959915D+00
   xx         0.185272D+02      0.274544D+01      0.305472D+01
   yx        -0.166081D-04     -0.246107D-05     -0.273831D-05
   yy         0.185298D+02      0.274584D+01      0.305515D+01
   zx        -0.391537D-01     -0.580198D-02     -0.645557D-02
   zy        -0.246114D-03     -0.364703D-04     -0.405787D-04
   zz         0.127069D+02      0.188297D+01      0.209509D+01

 ----------------------------------------------------------------------
 Unable to Open any file for archive entry.
 1\1\GINC-TCOPT10\Freq\RPBE1PBE\def2QZVPP\F3N1\HUTTER\01-Aug-2021\0\\#N
  Geom=AllCheck Guess=TCheck SCRF=Check GenChk RPBE1PBE/def2QZVPP Freq\
 \Mol job 1\\0,1\N,7.68782548,8.2958535156,8.\F,8.9089435574,7.69736363
 2,8.\F,7.0773612589,7.6978890596,9.0576909784\F,7.0773612589,7.6978890
 596,6.9423090216\\Version=ES64L-G16RevC.01\State=1-A'\HF=-353.9237337\
 RMSD=6.741e-09\RMSF=4.587e-05\ZeroPoint=0.0107076\Thermal=0.0142047\ET
 ot=-353.909529\HTot=-353.9085848\GTot=-353.9390946\Dipole=-0.0003959,0
 .0629757,0.\DipoleDeriv=1.530823,-0.0001893,0.,-0.0001218,0.6662248,0.
 ,0.,0.,1.5316047,-0.8752145,0.0816568,0.,0.4818697,-0.2222457,0.,0.,0.
 ,-0.1454537,-0.3278042,-0.0407338,0.3161565,-0.240874,-0.2219896,0.417
 2244,0.3162199,0.0705345,-0.6930755,-0.3278042,-0.0407338,-0.3161565,-
 0.240874,-0.2219896,-0.4172244,-0.3162199,-0.0705345,-0.6930755\Polar=
 18.5274379,-0.0025675,12.7066514,0.,0.,18.5298179\Quadrupole=-0.015469
 7,0.0302826,-0.0148128,0.0000146,0.,0.\PG=CS [SG(F1N1),X(F2)]\NImag=0\
 \0.33730872,0.00012466,0.45886077,0.,0.,0.33751521,-0.15679278,0.08400
 238,0.,0.27699144,0.11012334,-0.15295510,0.,-0.07925119,0.08693899,0.,
 0.,-0.06802609,0.,0.,0.07934265,-0.09025797,-0.04206352,0.03853173,-0.
 06009933,-0.01543607,0.04907588,0.12878884,-0.05512400,-0.15295284,0.0
 9540877,-0.00237559,0.03300806,-0.01924077,0.03963042,0.08694814,0.038
 54703,0.07284262,-0.13474456,0.04524861,-0.01171059,-0.00565828,-0.085
 70162,-0.06865001,0.22761834,-0.09025797,-0.04206352,-0.03853173,-0.06
 009933,-0.01543607,-0.04907588,0.02156846,0.01786918,0.00190599,0.1287
 8884,-0.05512400,-0.15295284,-0.09540877,-0.00237559,0.03300806,0.0192
 4077,0.01786918,0.03299664,0.00751798,0.03963042,0.08694814,-0.0385470
 3,-0.07284262,-0.13474456,-0.04524861,0.01171059,-0.00565828,-0.001905
 99,-0.00751798,-0.08721550,0.08570162,0.06865001,0.22761834\\-0.000114
 55,0.00002748,0.,-0.00001463,-0.00004807,0.,0.00006459,0.00001030,0.00
 001216,0.00006459,0.00001030,-0.00001216\\\@
 The archive entry for this job was punched.


 IF IT'S NOT TRUE, IT'S WELL INVENTED -- DANTE
 Job cpu time:       0 days  0 hours 26 minutes  0.4 seconds.
 Elapsed time:       0 days  0 hours  3 minutes 23.6 seconds.
 File lengths (MBytes):  RWF=     27 Int=      0 D2E=      0 Chk=      5 Scr=      1
 Normal termination of Gaussian 16 at Sun Aug  1 13:13:09 2021.
