 Entering Gaussian System, Link 0=g16
 Initial command:
 /sw-ng/spack/opt/spack/linux-opensuse_leap15-sandybridge/pgi-18.10/gaussian-src-16-C.01-zldqaomctopxhethwccpmxmwefdscg3m/g16/l1.exe "/data/hutter/SMG16/PBE0/Gau-38051.inp" -scrdir="/data/hutter/SMG16/PBE0/"
 Entering Link 1 = /sw-ng/spack/opt/spack/linux-opensuse_leap15-sandybridge/pgi-18.10/gaussian-src-16-C.01-zldqaomctopxhethwccpmxmwefdscg3m/g16/l1.exe PID=     38055.
  
 Copyright (c) 1988-2019, Gaussian, Inc.  All Rights Reserved.
  
 This is part of the Gaussian(R) 16 program.  It is based on
 the Gaussian(R) 09 system (copyright 2009, Gaussian, Inc.),
 the Gaussian(R) 03 system (copyright 2003, Gaussian, Inc.),
 the Gaussian(R) 98 system (copyright 1998, Gaussian, Inc.),
 the Gaussian(R) 94 system (copyright 1995, Gaussian, Inc.),
 the Gaussian 92(TM) system (copyright 1992, Gaussian, Inc.),
 the Gaussian 90(TM) system (copyright 1990, Gaussian, Inc.),
 the Gaussian 88(TM) system (copyright 1988, Gaussian, Inc.),
 the Gaussian 86(TM) system (copyright 1986, Carnegie Mellon
 University), and the Gaussian 82(TM) system (copyright 1983,
 Carnegie Mellon University). Gaussian is a federally registered
 trademark of Gaussian, Inc.
  
 This software contains proprietary and confidential information,
 including trade secrets, belonging to Gaussian, Inc.
  
 This software is provided under written license and may be
 used, copied, transmitted, or stored only in accord with that
 written license.
  
 The following legend is applicable only to US Government
 contracts under FAR:
  
                    RESTRICTED RIGHTS LEGEND
  
 Use, reproduction and disclosure by the US Government is
 subject to restrictions as set forth in subparagraphs (a)
 and (c) of the Commercial Computer Software - Restricted
 Rights clause in FAR 52.227-19.
  
 Gaussian, Inc.
 340 Quinnipiac St., Bldg. 40, Wallingford CT 06492
  
  
 ---------------------------------------------------------------
 Warning -- This program may not be used in any manner that
 competes with the business of Gaussian, Inc. or will provide
 assistance to any competitor of Gaussian, Inc.  The licensee
 of this program is prohibited from giving any competitor of
 Gaussian, Inc. access to this program.  By using this program,
 the user acknowledges that Gaussian, Inc. is engaged in the
 business of creating and licensing software in the field of
 computational chemistry and represents and warrants to the
 licensee that it is not a competitor of Gaussian, Inc. and that
 it will not use this program in any manner prohibited above.
 ---------------------------------------------------------------
  

 Cite this work as:
 Gaussian 16, Revision C.01,
 M. J. Frisch, G. W. Trucks, H. B. Schlegel, G. E. Scuseria, 
 M. A. Robb, J. R. Cheeseman, G. Scalmani, V. Barone, 
 G. A. Petersson, H. Nakatsuji, X. Li, M. Caricato, A. V. Marenich, 
 J. Bloino, B. G. Janesko, R. Gomperts, B. Mennucci, H. P. Hratchian, 
 J. V. Ortiz, A. F. Izmaylov, J. L. Sonnenberg, D. Williams-Young, 
 F. Ding, F. Lipparini, F. Egidi, J. Goings, B. Peng, A. Petrone, 
 T. Henderson, D. Ranasinghe, V. G. Zakrzewski, J. Gao, N. Rega, 
 G. Zheng, W. Liang, M. Hada, M. Ehara, K. Toyota, R. Fukuda, 
 J. Hasegawa, M. Ishida, T. Nakajima, Y. Honda, O. Kitao, H. Nakai, 
 T. Vreven, K. Throssell, J. A. Montgomery, Jr., J. E. Peralta, 
 F. Ogliaro, M. J. Bearpark, J. J. Heyd, E. N. Brothers, K. N. Kudin, 
 V. N. Staroverov, T. A. Keith, R. Kobayashi, J. Normand, 
 K. Raghavachari, A. P. Rendell, J. C. Burant, S. S. Iyengar, 
 J. Tomasi, M. Cossi, J. M. Millam, M. Klene, C. Adamo, R. Cammi, 
 J. W. Ochterski, R. L. Martin, K. Morokuma, O. Farkas, 
 J. B. Foresman, and D. J. Fox, Gaussian, Inc., Wallingford CT, 2019.
 
 ******************************************
 Gaussian 16:  ES64L-G16RevC.01  3-Jul-2019
                 1-Aug-2021 
 ******************************************
 %mem=8GB
 %NProcShare=8
 Will use up to    8 processors via shared memory.
 ------------------------------------------------------------
 #N UPBE1PBE/Def2QZVPP scf=tight Int(Grid=ultrafine) OPT FREQ
 ------------------------------------------------------------
 1/18=20,19=15,26=4,38=1/1,3;
 2/9=110,12=2,17=6,18=5,40=1/2;
 3/5=45,7=202,11=2,25=1,30=1,71=1,74=-13,75=-5,116=2/1,2,3;
 4//1;
 5/5=2,32=2,38=5/2;
 6/7=2,8=2,9=2,10=2,28=1/1;
 7//1,2,3,16;
 1/18=20,19=15,26=4/3(2);
 2/9=110/2;
 99//99;
 2/9=110/2;
 3/5=45,7=202,11=2,25=1,30=1,71=1,74=-13,75=-5,116=2/1,2,3;
 4/5=5,16=3,69=1/1;
 5/5=2,32=2,38=5/2;
 7//1,2,3,16;
 1/18=20,19=15,26=4/3(-5);
 2/9=110/2;
 6/7=2,8=2,9=2,10=2,19=2,28=1/1;
 99/9=1/99;
 ---------
 Mol job 1
 ---------
 Symbolic Z-matrix:
 Charge =  0 Multiplicity = 2
 Fe                    8.94282   8.5       8.5 
 F                     9.82845   6.96604   8.5 
 F                     9.82845   10.03396   8.5 
 F                     7.17155   8.5       8.5 
 

 GradGradGradGradGradGradGradGradGradGradGradGradGradGradGradGradGradGrad
 Berny optimization.
 Initialization pass.
                           ----------------------------
                           !    Initial Parameters    !
                           ! (Angstroms and Degrees)  !
 --------------------------                            --------------------------
 ! Name  Definition              Value          Derivative Info.                !
 --------------------------------------------------------------------------------
 ! R1    R(1,2)                  1.7713         estimate D2E/DX2                !
 ! R2    R(1,3)                  1.7713         estimate D2E/DX2                !
 ! R3    R(1,4)                  1.7713         estimate D2E/DX2                !
 ! A1    A(2,1,3)              120.0            estimate D2E/DX2                !
 ! A2    A(2,1,4)              120.0            estimate D2E/DX2                !
 ! A3    A(3,1,4)              120.0            estimate D2E/DX2                !
 ! D1    D(2,1,4,3)            180.0            estimate D2E/DX2                !
 --------------------------------------------------------------------------------
 Trust Radius=3.00D-01 FncErr=1.00D-07 GrdErr=1.00D-06 EigMax=2.50D+02 EigMin=1.00D-04
 Number of steps in this run=     20 maximum allowed number of steps=    100.
 GradGradGradGradGradGradGradGradGradGradGradGradGradGradGradGradGradGrad

                          Input orientation:                          
 ---------------------------------------------------------------------
 Center     Atomic      Atomic             Coordinates (Angstroms)
 Number     Number       Type             X           Y           Z
 ---------------------------------------------------------------------
      1         26           0        8.942817    8.500000    8.500000
      2          9           0        9.828451    6.966037    8.500000
      3          9           0        9.828451   10.033963    8.500000
      4          9           0        7.171549    8.500000    8.500000
 ---------------------------------------------------------------------
                    Distance matrix (angstroms):
                    1          2          3          4
     1  Fe   0.000000
     2  F    1.771268   0.000000
     3  F    1.771268   3.067927   0.000000
     4  F    1.771268   3.067927   3.067927   0.000000
 Stoichiometry    F3Fe(2)
 Framework group  D3H[O(Fe),3C2(F)]
 Deg. of freedom     1
 Full point group                 D3H     NOp  12
 Largest Abelian subgroup         C2V     NOp   4
 Largest concise Abelian subgroup C2      NOp   2
                         Standard orientation:                         
 ---------------------------------------------------------------------
 Center     Atomic      Atomic             Coordinates (Angstroms)
 Number     Number       Type             X           Y           Z
 ---------------------------------------------------------------------
      1         26           0        0.000000    0.000000    0.000000
      2          9           0       -0.000000    1.771268    0.000000
      3          9           0        1.533963   -0.885634    0.000000
      4          9           0       -1.533963   -0.885634   -0.000000
 ---------------------------------------------------------------------
 Rotational constants (GHZ):           5.6524944           5.6524944           2.8262472
 Standard basis: def2QZVPP (5D, 7F)
 There are   136 symmetry adapted cartesian basis functions of A1  symmetry.
 There are    47 symmetry adapted cartesian basis functions of A2  symmetry.
 There are    93 symmetry adapted cartesian basis functions of B1  symmetry.
 There are    69 symmetry adapted cartesian basis functions of B2  symmetry.
 There are   102 symmetry adapted basis functions of A1  symmetry.
 There are    40 symmetry adapted basis functions of A2  symmetry.
 There are    73 symmetry adapted basis functions of B1  symmetry.
 There are    56 symmetry adapted basis functions of B2  symmetry.
   271 basis functions,   484 primitive gaussians,   345 cartesian basis functions
    27 alpha electrons       26 beta electrons
       nuclear repulsion energy       251.6411039281 Hartrees.
 NAtoms=    4 NActive=    4 NUniq=    2 SFac= 4.00D+00 NAtFMM=   60 NAOKFM=F Big=F
 Integral buffers will be    131072 words long.
 Raffenetti 2 integral format.
 Two-electron integral symmetry is turned on.
 One-electron integrals computed using PRISM.
  12 Symmetry operations used in ECPInt.
 ECPInt:  NShTT=    3160 NPrTT=   10824 LenC2=    2978 LenP2D=    8226.
 LDataN:  DoStor=T MaxTD1= 8 Len=  415
 NBasis=   271 RedAO= T EigKep=  9.78D-04  NBF=   102    40    73    56
 NBsUse=   271 1.00D-06 EigRej= -1.00D+00 NBFU=   102    40    73    56
 ExpMin= 2.80D-02 ExpMax= 4.31D+06 ExpMxC= 4.90D+03 IAcc=3 IRadAn=         5 AccDes= 0.00D+00
 Harris functional with IExCor= 1009 and IRadAn=       5 diagonalized for initial guess.
 HarFok:  IExCor= 1009 AccDes= 0.00D+00 IRadAn=         5 IDoV= 1 UseB2=F ITyADJ=14
 ICtDFT=  3500011 ScaDFX=  1.000000  1.000000  1.000000  1.000000
 FoFCou: FMM=F IPFlag=           0 FMFlag=      100000 FMFlg1=           0
         NFxFlg=           0 DoJE=T BraDBF=F KetDBF=T FulRan=T
         wScrn=  0.000000 ICntrl=       500 IOpCl=  0 I1Cent=   200000004 NGrid=           0
         NMat0=    1 NMatS0=      1 NMatT0=    0 NMatD0=    1 NMtDS0=    0 NMtDT0=    0
 Petite list used in FoFCou.
 Initial guess orbital symmetries:
 Alpha Orbitals:
       Occupied  (A1') (A1') (E') (E') (A2") (E') (E') (A1') (A1')
                 (E') (E') (A2") (A1') (E') (E') (A1') (E') (E')
                 (E') (E') (E") (E") (A2") (A2') (A1') (E") (E")
       Virtual   (E') (E') (A1') (A2") (E') (E') (A1') (A2") (E")
                 (E") (A1') (E') (E') (E') (E') (A1') (A2") (E')
                 (E') (A1') (A2') (E') (E') (E") (E") (A2") (E")
                 (E") (A1') (E') (E') (E') (E') (E") (E") (A2")
                 (E') (E') (A1') (A2') (A1') (E') (E') (A1") (E')
                 (E') (E') (E') (E") (E") (A2") (E') (E') (A2")
                 (E") (E") (A1') (A2') (A1') (E") (E") (A1') (A2")
                 (E") (E") (A2') (E') (E') (E') (E') (E') (E')
                 (A1') (E') (E') (A2") (E") (E") (A2') (A1') (E')
                 (E') (A1') (E') (E') (A1") (E') (E') (A1') (A2")
                 (A1') (E") (E") (E") (E") (A2') (E') (E') (A2")
                 (E') (E') (E") (E") (E') (E') (A1') (A2') (E")
                 (E") (A1') (E') (E') (A1") (A2") (E") (E") (E')
                 (E') (A1') (E") (E") (E') (E') (A1") (E') (E')
                 (A1') (A2") (E") (E") (A2') (E') (E') (A1') (E')
                 (E') (E") (E") (A2") (A2') (E') (E') (A2") (E")
                 (E") (E') (E') (A1') (A2') (A1') (E') (E') (A1')
                 (A1") (E') (E') (E") (E") (A2') (A2") (E') (E')
                 (E") (E") (A1') (E') (E') (A1") (E") (E") (A1')
                 (E') (E') (A2") (E") (E") (A2') (E') (E') (A1')
                 (A1") (E") (E") (A2') (E') (E') (A2") (E') (E')
                 (A1') (E") (E") (A2") (E') (E') (E") (E") (A2')
                 (E') (E') (A1') (E') (E') (A1') (A2") (E') (E')
                 (E") (E") (A1') (A2') (A1") (E') (E') (E") (E")
                 (A1') (A2") (E") (E") (E') (E') (A2') (E') (E')
                 (A1') (A1") (E") (E") (E') (E') (A2") (A1') (E')
                 (E') (A1') (E') (E') (A1') (A1') (E') (E') (A1')
                 (A1')
 Beta  Orbitals:
       Occupied  (A1') (A1') (E') (E') (A2") (E') (E') (A1') (A1')
                 (E') (E') (A2") (A1') (E') (E') (A1') (E') (E')
                 (E') (E') (E") (E") (A2") (A2') (A1') (E")
       Virtual   (E") (E') (E') (A1') (A2") (E') (E') (A1') (A2")
                 (E") (E") (A1') (E') (E') (E') (E') (A1') (A2")
                 (E') (E') (A1') (A2') (E') (E') (E") (E") (A2")
                 (E") (E") (A1') (E') (E') (E') (E') (E") (E")
                 (A2") (E') (E') (A1') (A2') (A1') (E') (E') (A1")
                 (E') (E') (E') (E') (E") (E") (A2") (E') (E')
                 (A2") (E") (E") (A1') (A2') (A1') (E") (E") (A1')
                 (A2") (E") (E") (A2') (E') (E') (E') (E') (E')
                 (E') (A1') (E') (E') (A2") (E") (E") (A2') (A1')
                 (E') (E') (A1') (E') (E') (A1") (E') (E') (A1')
                 (A2") (A1') (E") (E") (E") (E") (A2') (E') (E')
                 (A2") (E') (E') (E") (E") (E') (E') (A1') (A2')
                 (E") (E") (A1') (E') (E') (A1") (A2") (E") (E")
                 (E') (E') (A1') (E") (E") (E') (E') (A1") (E')
                 (E') (A1') (A2") (E") (E") (A2') (E') (E') (A1')
                 (E') (E') (E") (E") (A2") (A2') (E') (E') (A2")
                 (E") (E") (E') (E') (A1') (A2') (A1') (E') (E')
                 (A1') (A1") (E') (E') (E") (E") (A2') (A2") (E')
                 (E') (E") (E") (A1') (E') (E') (A1") (E") (E")
                 (A1') (E') (E') (A2") (E") (E") (A2') (E') (E')
                 (A1') (A1") (E") (E") (A2') (E') (E') (A2") (E')
                 (E') (A1') (E") (E") (A2") (E') (E') (E") (E")
                 (A2') (E') (E') (A1') (E') (E') (A1') (A2") (E')
                 (E') (E") (E") (A1') (A2') (A1") (E') (E') (E")
                 (E") (A1') (A2") (E") (E") (E') (E') (A2') (E')
                 (E') (A1') (A1") (E") (E") (E') (E') (A2") (A1')
                 (E') (E') (A1') (E') (E') (A1') (A1') (E') (E')
                 (A1') (A1')
 Initial guess <Sx>= 0.0000 <Sy>= 0.0000 <Sz>= 0.5000 <S**2>= 0.7500 S= 0.5000
 Keep R1 and R2 ints in memory in symmetry-blocked form, NReq=850596496.
 Requested convergence on RMS density matrix=1.00D-08 within 128 cycles.
 Requested convergence on MAX density matrix=1.00D-06.
 Requested convergence on             energy=1.00D-06.
 No special actions if energy rises.
 Density matrix breaks symmetry, PCut= 1.00D-04
 Density has only Abelian symmetry.
 Density matrix breaks symmetry, PCut= 1.00D-04
 Density has only Abelian symmetry.
 Density matrix breaks symmetry, PCut= 1.00D-04
 Density has only Abelian symmetry.
 EnCoef did   100 forward-backward iterations
 Density matrix breaks symmetry, PCut= 1.00D-04
 Density has only Abelian symmetry.
 EnCoef did   100 forward-backward iterations
 Density matrix breaks symmetry, PCut= 1.00D-04
 Density has only Abelian symmetry.
 Density matrix breaks symmetry, PCut= 1.00D-04
 Density has only Abelian symmetry.
 Density matrix breaks symmetry, PCut= 1.00D-04
 Density has only Abelian symmetry.
 Density matrix breaks symmetry, PCut= 1.00D-04
 Density has only Abelian symmetry.
 Density matrix breaks symmetry, PCut= 1.00D-04
 Density has only Abelian symmetry.
 Density matrix breaks symmetry, PCut= 1.00D-04
 Density has only Abelian symmetry.
 Rare condition: small coef for last iteration:  0.000D+00
 Density matrix breaks symmetry, PCut= 1.00D-04
 Density has only Abelian symmetry.
 Rare condition: small coef for last iteration:  0.000D+00
 Density matrix breaks symmetry, PCut= 1.00D-04
 Density has only Abelian symmetry.
 Density matrix breaks symmetry, PCut= 1.00D-04
 Density has only Abelian symmetry.
 Density matrix breaks symmetry, PCut= 1.00D-04
 Density has only Abelian symmetry.
 Rare condition: small coef for last iteration:  0.000D+00
 Density matrix breaks symmetry, PCut= 1.00D-04
 Density has only Abelian symmetry.
 Density matrix breaks symmetry, PCut= 1.00D-04
 Density has only Abelian symmetry.
 Density matrix breaks symmetry, PCut= 1.00D-04
 Density has only Abelian symmetry.
 Density matrix breaks symmetry, PCut= 1.00D-04
 Density has only Abelian symmetry.
 Density matrix breaks symmetry, PCut= 1.00D-04
 Density has only Abelian symmetry.
 Density matrix breaks symmetry, PCut= 1.00D-04
 Density has only Abelian symmetry.
 Density matrix breaks symmetry, PCut= 1.00D-04
 Density has only Abelian symmetry.
 Density matrix breaks symmetry, PCut= 1.00D-04
 Density has only Abelian symmetry.
 Density matrix breaks symmetry, PCut= 1.00D-04
 Density has only Abelian symmetry.
 Density matrix breaks symmetry, PCut= 1.00D-04
 Density has only Abelian symmetry.
 SCF Done:  E(UPBE1PBE) =  -1562.89934833     A.U. after   23 cycles
            NFock= 23  Conv=0.33D-08     -V/T= 2.0022
 <Sx>= 0.0000 <Sy>= 0.0000 <Sz>= 0.5000 <S**2>= 0.7706 S= 0.5103
 <L.S>=  0.00000000000    
 Annihilation of the first spin contaminant:
 S**2 before annihilation     0.7706,   after     0.7503
 SCF density gives NOpUse=  4 NOpAll= 12.

 **********************************************************************

            Population analysis using the SCF Density.

 **********************************************************************

 Orbital symmetries:
 Alpha Orbitals:
       Occupied  (A1') (A1') (E') (E') (A2") (?A) (?A) (?A) (A1')
                 (E') (E') (A2") (?A) (?A) (?A) (?B) (?B) (?B)
                 (?C) (?C) (?B) (A2") (?B) (?B) (?C) (?C) (?B)
       Virtual   (?B) (?B) (?B) (A2") (?B) (?B) (?B) (A2") (E")
                 (E") (?B) (?B) (?B) (?B) (?B) (?D) (A2") (?D)
                 (?D) (?D) (?D) (?D) (?D) (?E) (?E) (?E) (?E) (?E)
                 (?D) (?D) (?D) (?D) (?D) (?F) (?F) (?F) (?G) (?G)
                 (A1') (?G) (?A) (?A) (?A) (A1") (?H) (?H) (?I)
                 (?H) (?H) (?I) (?I) (?H) (?H) (?I) (?H) (?H) (?I)
                 (?I) (?I) (?I) (?H) (A1') (?F) (?J) (?F) (?F)
                 (?J) (?J) (?J) (?J) (?J) (?J) (?J) (?J) (?J) (?F)
                 (?F) (?F) (A1') (A2') (E') (E') (A1') (?J) (?J)
                 (?J) (?J) (?J) (?J) (?J) (?J) (?J) (?J) (?J) (?J)
                 (?F) (?F) (?J) (?F) (?J) (?J) (E") (E") (?J) (?J)
                 (?J) (?J) (?J) (?J) (?A) (?A) (?A) (?J) (?J) (?J)
                 (?J) (?J) (?J) (?J) (?J) (?J) (?J) (?J) (?J) (?J)
                 (?J) (?J) (?J) (?J) (A1') (?J) (?J) (?J) (?J)
                 (?J) (?J) (?F) (?F) (?F) (A2') (E') (E') (A1')
                 (?F) (?F) (?F) (?G) (?G) (?G) (?A) (?A) (?A) (A1')
                 (?J) (?J) (?J) (?J) (?J) (?J) (?J) (?J) (?J) (?J)
                 (?J) (?J) (?J) (?J) (?J) (?J) (?J) (?J) (?J) (?J)
                 (?J) (?J) (?J) (?J) (?J) (?J) (?J) (?J) (?J) (?J)
                 (?J) (?J) (?J) (?J) (?J) (?J) (?J) (?J) (?J) (?F)
                 (?J) (?J) (?F) (?F) (?J) (?J) (?J) (?J) (?J) (?J)
                 (?F) (?F) (?F) (?J) (?J) (?J) (?J) (?J) (?J) (E')
                 (E') (?J) (?J) (A1') (?F) (?F) (?F) (?G) (?G)
                 (?G) (?J) (?J) (?J) (?J) (?J) (?J) (?J) (?J) (?J)
                 (?J) (?J) (?J) (A1') (?A) (?A) (?A) (A1') (?A)
                 (?A) (?A) (A1')
 Beta  Orbitals:
       Occupied  (A1') (A1') (E') (E') (A2") (?A) (?A) (?A) (A1')
                 (E') (E') (A2") (?A) (?A) (?A) (?B) (?B) (?B)
                 (?C) (?B) (?B) (?C) (?C) (?B) (?C) (?B)
       Virtual   (?B) (?B) (?C) (?B) (A2") (?B) (?B) (?B) (A2")
                 (?C) (?C) (?B) (?B) (?B) (?B) (?B) (?B) (?C) (?B)
                 (?B) (?B) (?B) (?B) (?B) (?C) (?C) (?C) (?C) (?C)
                 (?B) (?B) (?B) (?B) (?B) (?C) (?C) (?C) (?D) (?D)
                 (?D) (?D) (?E) (?E) (?E) (?C) (?E) (?E) (?E) (?E)
                 (?C) (?C) (?C) (?E) (?E) (?C) (?E) (?E) (?C) (?C)
                 (?E) (?C) (?C) (?E) (?C) (?E) (?C) (?C) (?E) (?E)
                 (?E) (?E) (?E) (?E) (?E) (?E) (?E) (?C) (?C) (?C)
                 (?F) (A2') (?F) (?F) (?F) (?G) (?G) (?H) (?G)
                 (?G) (?G) (?H) (?G) (?H) (?H) (?G) (?G) (?H) (?H)
                 (?G) (?H) (?G) (?G) (?H) (?H) (?G) (?G) (?G) (?G)
                 (?H) (?H) (?G) (?G) (?G) (?H) (?H) (?H) (?H) (?I)
                 (?I) (?I) (?I) (?I) (?H) (?H) (?H) (?H) (?I) (?I)
                 (?H) (?I) (?H) (?I) (?I) (?I) (?I) (?I) (?I) (?J)
                 (?J) (?J) (?I) (?I) (?I) (?I) (?J) (?J) (?J) (?J)
                 (?J) (?J) (?A) (?A) (?A) (A1') (?J) (?J) (?J)
                 (?J) (?J) (?J) (?J) (?J) (?J) (?J) (?J) (?J) (?J)
                 (?J) (?J) (?J) (?J) (?J) (?J) (?J) (?J) (?J) (?J)
                 (?J) (?J) (?J) (?J) (?J) (?J) (?J) (?J) (?J) (?J)
                 (?J) (?J) (?J) (?J) (?J) (?J) (?J) (?J) (?J) (?J)
                 (?J) (?J) (?J) (?J) (?J) (?J) (?J) (?J) (?J) (?J)
                 (?J) (?J) (?J) (A1') (A2') (?J) (?J) (?J) (?J)
                 (?J) (?J) (?J) (?J) (?J) (?J) (?J) (?J) (?J) (?J)
                 (?J) (?J) (?J) (?J) (?J) (?J) (?J) (?J) (?J) (?J)
                 (A1') (?A) (?A) (?A) (A1') (?A) (?A) (?A) (A1')
 Unable to determine electronic state:  an orbital has unidentified symmetry.
 Alpha  occ. eigenvalues -- -256.54651 -30.31987 -26.16101 -26.15655 -26.11490
 Alpha  occ. eigenvalues --  -24.79719 -24.79719 -24.79085  -3.67839  -2.46124
 Alpha  occ. eigenvalues --   -2.44598  -2.39104  -1.21265  -1.20717  -1.20484
 Alpha  occ. eigenvalues --   -0.52924  -0.52262  -0.51531  -0.50335  -0.49376
 Alpha  occ. eigenvalues --   -0.46829  -0.46552  -0.46460  -0.44355  -0.39962
 Alpha  occ. eigenvalues --   -0.38341  -0.36123
 Alpha virt. eigenvalues --   -0.23016  -0.22795  -0.02662   0.00707   0.03209
 Alpha virt. eigenvalues --    0.03244   0.09540   0.09555   0.13282   0.13376
 Alpha virt. eigenvalues --    0.13840   0.14455   0.14554   0.17689   0.17693
 Alpha virt. eigenvalues --    0.34892   0.36112   0.37941   0.38716   0.38734
 Alpha virt. eigenvalues --    0.39074   0.42587   0.42704   0.43489   0.43548
 Alpha virt. eigenvalues --    0.45604   0.48550   0.48738   0.50005   0.54396
 Alpha virt. eigenvalues --    0.54535   0.56392   0.56500   0.61169   0.61192
 Alpha virt. eigenvalues --    0.61414   0.72568   0.72645   0.77424   0.80088
 Alpha virt. eigenvalues --    1.11991   1.14425   1.14515   1.33908   1.35789
 Alpha virt. eigenvalues --    1.36022   1.38049   1.38198   1.38347   1.38467
 Alpha virt. eigenvalues --    1.39558   1.49359   1.49360   1.49729   1.51403
 Alpha virt. eigenvalues --    1.52705   1.54227   1.54512   1.57239   1.57496
 Alpha virt. eigenvalues --    1.57661   1.61846   1.74309   1.75285   1.75782
 Alpha virt. eigenvalues --    1.75937   1.75996   1.76596   1.82301   1.82691
 Alpha virt. eigenvalues --    1.85628   1.85850   1.90083   1.92732   1.93035
 Alpha virt. eigenvalues --    2.02572   2.08297   2.08310   2.45449   2.47402
 Alpha virt. eigenvalues --    2.95679   2.95895   3.00665   3.88834   3.89006
 Alpha virt. eigenvalues --    3.96122   3.99251   3.99441   4.02320   4.04057
 Alpha virt. eigenvalues --    4.06135   4.07467   4.07890   4.12558   4.12671
 Alpha virt. eigenvalues --    4.13848   4.13980   4.14239   4.15224   4.16973
 Alpha virt. eigenvalues --    4.17103   4.20459   4.20586   4.27487   4.27525
 Alpha virt. eigenvalues --    4.30907   4.40234   4.40673   4.41674   4.62123
 Alpha virt. eigenvalues --    4.63044   4.63251   4.75199   4.82722   4.85152
 Alpha virt. eigenvalues --    4.85592   4.93188   4.93466   4.93479   4.97062
 Alpha virt. eigenvalues --    4.98362   5.03723   5.06599   5.06718   5.11767
 Alpha virt. eigenvalues --    5.12255   5.12487   5.12519   5.12593   5.14683
 Alpha virt. eigenvalues --    5.24869   5.45174   5.45186   5.62711   5.63602
 Alpha virt. eigenvalues --    5.64023   5.69928   5.70245   5.70324   5.88884
 Alpha virt. eigenvalues --    6.03864   6.04423   6.23958   6.26708   6.30113
 Alpha virt. eigenvalues --    6.30180   6.35898   6.36188   6.46330   6.95754
 Alpha virt. eigenvalues --    7.01098   7.01423   9.98146  11.37472  11.37625
 Alpha virt. eigenvalues --   11.37836  11.37851  11.37853  11.37957  11.38128
 Alpha virt. eigenvalues --   11.38222  11.38379  11.38422  11.38582  11.38937
 Alpha virt. eigenvalues --   11.39389  11.39389  11.39391  11.39398  11.39482
 Alpha virt. eigenvalues --   11.39484  11.41273  11.41724  11.43198  11.43300
 Alpha virt. eigenvalues --   11.43845  11.47003  11.47479  11.47896  11.58487
 Alpha virt. eigenvalues --   14.53879  14.54393  14.54401  14.54468  14.54608
 Alpha virt. eigenvalues --   14.54682  14.55139  14.55529  14.55541  14.56043
 Alpha virt. eigenvalues --   14.56151  14.56392  14.67840  14.68914  14.69406
 Alpha virt. eigenvalues --   14.71492  14.71751  14.73003  14.78966  14.79263
 Alpha virt. eigenvalues --   14.86561  15.08764  15.09692  15.15862  15.15910
 Alpha virt. eigenvalues --   15.17544  15.20330  15.21390  15.22640  15.40392
 Alpha virt. eigenvalues --   15.45414  15.72391  15.77060  15.77114  15.81324
 Alpha virt. eigenvalues --   15.81423  15.90409  15.94133  15.98438  15.98543
 Alpha virt. eigenvalues --   15.99380  15.99840  16.21771  16.34440  16.34834
 Alpha virt. eigenvalues --   16.38640  16.51810  16.68351  16.70548  16.70758
 Alpha virt. eigenvalues --   16.72384  16.72763  16.90410  16.92843  16.95473
 Alpha virt. eigenvalues --   34.45431  54.09133  54.09487  54.12053 116.44711
 Alpha virt. eigenvalues --  285.08621 285.09047 285.11739 740.21994
  Beta  occ. eigenvalues -- -256.54630 -30.29603 -26.15275 -26.12897 -26.09083
  Beta  occ. eigenvalues --  -24.79899 -24.79899 -24.79007  -3.62070  -2.42203
  Beta  occ. eigenvalues --   -2.37375  -2.31476  -1.21662  -1.21188  -1.20373
  Beta  occ. eigenvalues --   -0.52169  -0.51962  -0.51917  -0.48546  -0.47253
  Beta  occ. eigenvalues --   -0.47065  -0.46616  -0.45500  -0.44881  -0.36244
  Beta  occ. eigenvalues --   -0.34716
  Beta virt. eigenvalues --   -0.19720  -0.19505  -0.13792  -0.02424   0.00832
  Beta virt. eigenvalues --    0.03229   0.03234   0.09803   0.09818   0.13372
  Beta virt. eigenvalues --    0.13523   0.13845   0.14545   0.14567   0.17729
  Beta virt. eigenvalues --    0.17895   0.35241   0.36640   0.38131   0.38663
  Beta virt. eigenvalues --    0.38970   0.39005   0.43018   0.43277   0.43681
  Beta virt. eigenvalues --    0.44378   0.45687   0.48881   0.49919   0.50167
  Beta virt. eigenvalues --    0.54531   0.54552   0.56461   0.56544   0.61269
  Beta virt. eigenvalues --    0.61469   0.61671   0.72584   0.72869   0.77595
  Beta virt. eigenvalues --    0.80081   1.12040   1.14553   1.15239   1.33899
  Beta virt. eigenvalues --    1.36389   1.36546   1.38548   1.38966   1.39066
  Beta virt. eigenvalues --    1.40811   1.41776   1.49733   1.49776   1.50145
  Beta virt. eigenvalues --    1.52025   1.53016   1.54668   1.54753   1.57762
  Beta virt. eigenvalues --    1.58988   1.60414   1.62181   1.74397   1.75249
  Beta virt. eigenvalues --    1.75764   1.76358   1.76974   1.78400   1.82686
  Beta virt. eigenvalues --    1.83103   1.85397   1.85932   1.90527   1.93112
  Beta virt. eigenvalues --    1.93224   2.03459   2.09509   2.10126   2.47118
  Beta virt. eigenvalues --    2.47943   2.96276   2.96757   3.01171   3.89270
  Beta virt. eigenvalues --    3.89444   3.96662   3.99290   3.99653   4.02324
  Beta virt. eigenvalues --    4.05105   4.06662   4.07998   4.08768   4.12708
  Beta virt. eigenvalues --    4.13128   4.13816   4.14065   4.14244   4.15271
  Beta virt. eigenvalues --    4.16924   4.17142   4.21185   4.21440   4.28318
  Beta virt. eigenvalues --    4.28565   4.32336   4.41380   4.43462   4.48218
  Beta virt. eigenvalues --    4.62722   4.64588   4.64706   4.76990   4.84980
  Beta virt. eigenvalues --    4.87737   4.89002   4.93769   4.93951   4.94998
  Beta virt. eigenvalues --    4.99254   5.02045   5.05114   5.06918   5.07194
  Beta virt. eigenvalues --    5.12695   5.12716   5.12968   5.14782   5.14820
  Beta virt. eigenvalues --    5.15758   5.25292   5.46280   5.47078   5.62863
  Beta virt. eigenvalues --    5.64436   5.64556   5.70979   5.71552   5.72450
  Beta virt. eigenvalues --    5.89578   6.04730   6.05307   6.25296   6.26979
  Beta virt. eigenvalues --    6.30170   6.30737   6.35678   6.36017   6.46249
  Beta virt. eigenvalues --    6.95475   7.00726   7.01434  10.01390  11.37180
  Beta virt. eigenvalues --   11.37277  11.37588  11.37594  11.37643  11.37748
  Beta virt. eigenvalues --   11.37901  11.37991  11.38431  11.38503  11.38526
  Beta virt. eigenvalues --   11.38837  11.39345  11.39346  11.39350  11.39359
  Beta virt. eigenvalues --   11.39750  11.39754  11.40882  11.41425  11.42920
  Beta virt. eigenvalues --   11.43020  11.44022  11.46644  11.47178  11.47791
  Beta virt. eigenvalues --   11.58409  14.53659  14.54189  14.54336  14.54463
  Beta virt. eigenvalues --   14.54553  14.54693  14.55269  14.55483  14.55726
  Beta virt. eigenvalues --   14.56104  14.56164  14.56607  14.67895  14.68382
  Beta virt. eigenvalues --   14.69023  14.71713  14.72646  14.73404  14.78528
  Beta virt. eigenvalues --   14.79525  14.86170  15.10176  15.12010  15.19407
  Beta virt. eigenvalues --   15.22244  15.22722  15.22952  15.24889  15.25866
  Beta virt. eigenvalues --   15.42740  15.47412  15.72480  15.76917  15.77297
  Beta virt. eigenvalues --   15.81211  15.81646  15.90587  15.94202  15.98108
  Beta virt. eigenvalues --   15.98952  15.99041  15.99493  16.21332  16.33999
  Beta virt. eigenvalues --   16.34731  16.38594  16.57993  16.73596  16.73870
  Beta virt. eigenvalues --   16.74088  16.76496  16.78710  16.94443  16.94834
  Beta virt. eigenvalues --   16.99044  34.48711  54.08905  54.09430  54.11975
  Beta virt. eigenvalues --  116.46549 285.08542 285.09031 285.11714 740.22388
          Condensed to atoms (all electrons):
               1          2          3          4
     1  Fe  24.105098   0.233653   0.215799   0.215799
     2  F    0.233653   9.200835  -0.001019  -0.001019
     3  F    0.215799  -0.001019   9.184515  -0.000695
     4  F    0.215799  -0.001019  -0.000695   9.184515
          Atomic-Atomic Spin Densities.
               1          2          3          4
     1  Fe   1.121884  -0.016854   0.002084   0.002084
     2  F   -0.016854   0.021443   0.000121   0.000121
     3  F    0.002084   0.000121  -0.059817   0.000598
     4  F    0.002084   0.000121   0.000598  -0.059817
 Mulliken charges and spin densities:
               1          2
     1  Fe   1.229652   1.109197
     2  F   -0.432450   0.004831
     3  F   -0.398601  -0.057014
     4  F   -0.398601  -0.057014
 Sum of Mulliken charges =  -0.00000   1.00000
 Mulliken charges and spin densities with hydrogens summed into heavy atoms:
               1          2
     1  Fe   1.229652   1.109197
     2  F   -0.432450   0.004831
     3  F   -0.398601  -0.057014
     4  F   -0.398601  -0.057014
 Electronic spatial extent (au):  <R**2>=            372.1141
 Charge=             -0.0000 electrons
 Dipole moment (field-independent basis, Debye):
    X=              0.0000    Y=             -0.2100    Z=              0.0000  Tot=              0.2100
 Quadrupole moment (field-independent basis, Debye-Ang):
   XX=            -33.1788   YY=            -33.4058   ZZ=            -27.0442
   XY=              0.0000   XZ=              0.0000   YZ=              0.0000
 Traceless Quadrupole moment (field-independent basis, Debye-Ang):
   XX=             -1.9692   YY=             -2.1962   ZZ=              4.1654
   XY=              0.0000   XZ=              0.0000   YZ=              0.0000
 Octapole moment (field-independent basis, Debye-Ang**2):
  XXX=             -0.0000  YYY=             -6.3362  ZZZ=             -0.0000  XYY=              0.0000
  XXY=              5.3086  XXZ=             -0.0000  XZZ=              0.0000  YZZ=             -0.1507
  YYZ=             -0.0000  XYZ=             -0.0000
 Hexadecapole moment (field-independent basis, Debye-Ang**3):
 XXXX=           -176.2003 YYYY=           -178.9869 ZZZZ=            -20.7917 XXXY=              0.0000
 XXXZ=              0.0000 YYYX=              0.0000 YYYZ=             -0.0000 ZZZX=              0.0000
 ZZZY=             -0.0000 XXYY=            -58.7917 XXZZ=            -31.7258 YYZZ=            -31.5963
 XXYZ=             -0.0000 YYXZ=              0.0000 ZZXY=              0.0000
 N-N= 2.516411039281D+02 E-N=-4.223662157904D+03  KE= 1.559538525158D+03
 Symmetry A1   KE= 1.135374186118D+03
 Symmetry A2   KE= 2.112740146179D+01
 Symmetry B1   KE= 2.430461030673D+02
 Symmetry B2   KE= 1.599908345099D+02
 Symmetry A1   SP= 1.347150961933D-14
 Symmetry A2   SP= 2.734992730202D-15
 Symmetry B1   SP= 9.414960732353D-15
 Symmetry B2   SP= 1.000000000000D+00
                          Isotropic Fermi Contact Couplings
        Atom                 a.u.       MegaHertz       Gauss      10(-4) cm-1
     1  Fe(57)            -0.18402     -26.68979      -9.52358      -8.90276
     2  F(19)              0.01068      44.93168      16.03274      14.98759
     3  F(19)              0.00525      22.08412       7.88016       7.36647
     4  F(19)              0.00525      22.08412       7.88016       7.36647
 --------------------------------------------------------
       Center         ----  Spin Dipole Couplings  ----
                      3XX-RR        3YY-RR        3ZZ-RR
 --------------------------------------------------------
     1   Atom       -2.810666      1.801817      1.008848
     2   Atom       -0.313882     -0.218151      0.532032
     3   Atom       -0.181620     -0.109917      0.291537
     4   Atom       -0.181620     -0.109917      0.291537
 --------------------------------------------------------
                        XY            XZ            YZ
 --------------------------------------------------------
     1   Atom        0.000000     -0.000000     -0.000000
     2   Atom       -0.000000     -0.000000      0.000000
     3   Atom        0.120124     -0.000000      0.000000
     4   Atom       -0.120124     -0.000000     -0.000000
 --------------------------------------------------------


 ---------------------------------------------------------------------------------
              Anisotropic Spin Dipole Couplings in Principal Axis System
 ---------------------------------------------------------------------------------

       Atom             a.u.   MegaHertz   Gauss  10(-4) cm-1        Axes

              Baa    -2.8107   -48.661   -17.363   -16.231  1.0000 -0.0000 -0.0000
     1 Fe(57) Bbb     1.0088    17.466     6.232     5.826  0.0000  0.0000  1.0000
              Bcc     1.8018    31.195    11.131    10.405  0.0000  1.0000 -0.0000
 
              Baa    -0.3139  -157.640   -56.250   -52.583  1.0000  0.0000  0.0000
     2 F(19)  Bbb    -0.2182  -109.561   -39.094   -36.546 -0.0000  1.0000 -0.0000
              Bcc     0.5320   267.200    95.344    89.128  0.0000  0.0000  1.0000
 
              Baa    -0.2711  -136.167   -48.588   -45.421  0.8019 -0.5975  0.0000
     3 F(19)  Bbb    -0.0204   -10.250    -3.657    -3.419  0.5975  0.8019  0.0000
              Bcc     0.2915   146.417    52.245    48.840  0.0000  0.0000  1.0000
 
              Baa    -0.2711  -136.167   -48.588   -45.421  0.8019  0.5975 -0.0000
     4 F(19)  Bbb    -0.0204   -10.250    -3.657    -3.419 -0.5975  0.8019  0.0000
              Bcc     0.2915   146.417    52.245    48.840  0.0000  0.0000  1.0000
 

 ---------------------------------------------------------------------------------

 Density matrix has only Abelian symmetry.
   4 Symmetry operations used in ECPInt.
 ECPInt:  NShTT=    3160 NPrTT=   10824 LenC2=    2978 LenP2D=    8226.
 LDataN:  DoStor=T MaxTD1= 9 Len=  602
 Density matrix has only Abelian symmetry.
 Calling FoFJK, ICntrl=      2127 FMM=F ISym2X=1 I1Cent= 0 IOpClX= 1 NMat=1 NMatS=1 NMatT=0.
 ***** Axes restored to original set *****
 -------------------------------------------------------------------
 Center     Atomic                   Forces (Hartrees/Bohr)
 Number     Number              X              Y              Z
 -------------------------------------------------------------------
      1       26          -0.009482336    0.016423888    0.000000000
      2        9          -0.016538999    0.028646387    0.000000000
      3        9          -0.026842060   -0.045544121   -0.000000000
      4        9           0.052863396    0.000473846    0.000000000
 -------------------------------------------------------------------
 Cartesian Forces:  Max     0.052863396 RMS     0.024226946

 GradGradGradGradGradGradGradGradGradGradGradGradGradGradGradGradGradGrad
 Berny optimization.
 FormGI is forming the generalized inverse of G from B-inverse, IUseBI=4.
 Internal  Forces:  Max     0.052863396 RMS     0.030902862
 Search for a local minimum.
 Step number   1 out of a maximum of   20
 All quantities printed in internal units (Hartrees-Bohrs-Radians)
 Mixed Optimization -- RFO/linear search
 Second derivative matrix not updated -- first step.
 The second derivative matrix:
                          R1        R2        R3        A1        A2
           R1           0.26318
           R2           0.00000   0.26318
           R3           0.00000   0.00000   0.26318
           A1           0.00000   0.00000   0.00000   0.25000
           A2           0.00000   0.00000   0.00000   0.00000   0.25000
           A3           0.00000   0.00000   0.00000   0.00000   0.00000
           D1           0.00000   0.00000   0.00000   0.00000   0.00000
                          A3        D1
           A3           0.25000
           D1           0.00000   0.04852
 ITU=  0
     Eigenvalues ---    0.04852   0.25000   0.25000   0.26318   0.26318
     Eigenvalues ---    0.26318
 RFO step:  Lambda=-2.33326264D-02 EMin= 4.85244626D-02
 Linear search not attempted -- first point.
 Iteration  1 RMS(Cart)=  0.10734717 RMS(Int)=  0.00010453
 Iteration  2 RMS(Cart)=  0.00014998 RMS(Int)=  0.00000001
 Iteration  3 RMS(Cart)=  0.00000001 RMS(Int)=  0.00000000
 Variable       Old X    -DE/DX   Delta X   Delta X   Delta X     New X
                                 (Linear)    (Quad)   (Total)
    R1        3.34721  -0.03308   0.00000  -0.11545  -0.11545   3.23176
    R2        3.34721  -0.05286   0.00000  -0.18451  -0.18451   3.16270
    R3        3.34721  -0.05286   0.00000  -0.18451  -0.18451   3.16270
    A1        2.09440   0.00053   0.00000   0.00193   0.00193   2.09633
    A2        2.09440   0.00053   0.00000   0.00193   0.00193   2.09633
    A3        2.09440  -0.00106   0.00000  -0.00387  -0.00387   2.09053
    D1        3.14159   0.00000   0.00000   0.00000   0.00000   3.14159
         Item               Value     Threshold  Converged?
 Maximum Force            0.052863     0.000450     NO 
 RMS     Force            0.030903     0.000300     NO 
 Maximum Displacement     0.177207     0.001800     NO 
 RMS     Displacement     0.107332     0.001200     NO 
 Predicted change in Energy=-1.261641D-02
 GradGradGradGradGradGradGradGradGradGradGradGradGradGradGradGradGradGrad

                          Input orientation:                          
 ---------------------------------------------------------------------
 Center     Atomic      Atomic             Coordinates (Angstroms)
 Number     Number       Type             X           Y           Z
 ---------------------------------------------------------------------
      1         26           0        8.938950    8.506699    8.500000
      2          9           0        9.794036    7.025645    8.500000
      3          9           0        9.772960    9.957721    8.500000
      4          9           0        7.265323    8.509936    8.500000
 ---------------------------------------------------------------------
                    Distance matrix (angstroms):
                    1          2          3          4
     1  Fe   0.000000
     2  F    1.710174   0.000000
     3  F    1.673630   2.932152   0.000000
     4  F    1.673630   2.932152   2.895570   0.000000
 Stoichiometry    F3Fe(2)
 Framework group  C2V[C2(FFe),SGV(F2)]
 Deg. of freedom     3
 Full point group                 C2V     NOp   4
 Omega: Change in point group or standard orientation.

 Old FWG=D03H [O(Fe1),3C2(F1)]
 New FWG=C02V [C2(F1Fe1),SGV(F2)]
 Largest Abelian subgroup         C2V     NOp   4
 Largest concise Abelian subgroup C2      NOp   2
                         Standard orientation:                         
 ---------------------------------------------------------------------
 Center     Atomic      Atomic             Coordinates (Angstroms)
 Number     Number       Type             X           Y           Z
 ---------------------------------------------------------------------
      1         26           0       -0.000000   -0.000000    0.005254
      2          9           0        0.000000    0.000000   -1.704920
      3          9           0        0.000000    1.447785    0.844871
      4          9           0       -0.000000   -1.447785    0.844871
 ---------------------------------------------------------------------
 Rotational constants (GHZ):           6.3454434           6.1371463           3.1197785
 Standard basis: def2QZVPP (5D, 7F)
 There are   136 symmetry adapted cartesian basis functions of A1  symmetry.
 There are    47 symmetry adapted cartesian basis functions of A2  symmetry.
 There are    69 symmetry adapted cartesian basis functions of B1  symmetry.
 There are    93 symmetry adapted cartesian basis functions of B2  symmetry.
 There are   102 symmetry adapted basis functions of A1  symmetry.
 There are    40 symmetry adapted basis functions of A2  symmetry.
 There are    56 symmetry adapted basis functions of B1  symmetry.
 There are    73 symmetry adapted basis functions of B2  symmetry.
   271 basis functions,   484 primitive gaussians,   345 cartesian basis functions
    27 alpha electrons       26 beta electrons
       nuclear repulsion energy       264.4209482490 Hartrees.
 NAtoms=    4 NActive=    4 NUniq=    3 SFac= 1.78D+00 NAtFMM=   60 NAOKFM=F Big=F
 Integral buffers will be    131072 words long.
 Raffenetti 2 integral format.
 Two-electron integral symmetry is turned on.
 One-electron integrals computed using PRISM.
   4 Symmetry operations used in ECPInt.
 ECPInt:  NShTT=    3160 NPrTT=   10824 LenC2=    3004 LenP2D=    8321.
 LDataN:  DoStor=T MaxTD1= 8 Len=  415
 NBasis=   271 RedAO= T EigKep=  7.53D-04  NBF=   102    40    56    73
 NBsUse=   271 1.00D-06 EigRej= -1.00D+00 NBFU=   102    40    56    73
 Initial guess from the checkpoint file:  "/data/hutter/SMG16/PBE0/Gau-38055.chk"
 B after Tr=    -0.000000    0.000000    0.000000
         Rot=    0.500000    0.500000    0.500000   -0.500000 Ang= 120.00 deg.
 Initial guess orbital symmetries:
 Alpha Orbitals:
       Occupied  (A1) (A1) (B2) (A1) (B1) (A1) (B2) (A1) (A1) (A1)
                 (B2) (B1) (A1) (B2) (A1) (A1) (B2) (A1) (B1) (A2)
                 (A1) (B1) (B2) (B2) (B1) (A2) (A1)
       Virtual   (A1) (B2) (A1) (B1) (A1) (B2) (A1) (B1) (B1) (A2)
                 (A1) (A1) (B2) (B2) (A1) (A1) (B1) (A1) (B2) (A1)
                 (B2) (A1) (B2) (B1) (A2) (B1) (B1) (A2) (A1) (A1)
                 (B2) (A1) (B2) (A2) (B1) (B1) (B2) (A1) (A1) (B2)
                 (A1) (B2) (A1) (A2) (A1) (B2) (B1) (B2) (A1) (A2)
                 (B1) (A1) (B2) (B1) (A1) (B2) (B1) (A2) (B1) (A2)
                 (A1) (A1) (B1) (B2) (A2) (B1) (A1) (B2) (A1) (B2)
                 (B2) (A1) (A1) (A1) (B2) (B1) (B1) (A2) (A1) (B2)
                 (B2) (A1) (A1) (A1) (B2) (A2) (B2) (A1) (A1) (B1)
                 (A1) (B1) (A2) (B2) (A1) (A2) (B1) (B2) (B1) (A1)
                 (B2) (B1) (A2) (B2) (A1) (A1) (B1) (B2) (A2) (A1)
                 (A1) (B2) (A2) (B1) (B1) (A2) (A1) (A1) (B2) (A1)
                 (B2) (A2) (B1) (A2) (B1) (A1) (A2) (B2) (B1) (A1)
                 (B2) (B2) (A1) (A1) (A1) (B2) (B1) (A2) (B1) (B2)
                 (B2) (A1) (A1) (B1) (A2) (B1) (A1) (B2) (B2) (A1)
                 (B2) (A1) (A1) (A2) (B2) (A1) (A2) (B1) (B2) (B1)
                 (A1) (B1) (B2) (A2) (A1) (B2) (A2) (B1) (A1) (A2)
                 (A1) (A1) (B2) (B1) (A2) (B1) (B2) (B2) (A1) (A1)
                 (A2) (B1) (A2) (B2) (A1) (B2) (B1) (B2) (A1) (A1)
                 (B1) (A2) (B1) (A1) (B2) (A2) (B1) (B2) (B2) (A1)
                 (A1) (A1) (B2) (B1) (A2) (B1) (A1) (B2) (A1) (A1)
                 (B2) (A2) (B2) (A1) (B1) (A2) (A1) (B1) (A2) (B1)
                 (A1) (B2) (B2) (B2) (A1) (A1) (A2) (A1) (B1) (B2)
                 (B1) (A2) (B2) (A1) (A1) (A1) (B2) (A1) (A1) (A1)
                 (B2) (A1) (A1) (A1)
 Beta  Orbitals:
       Occupied  (A1) (A1) (B2) (A1) (B1) (B2) (A1) (A1) (A1) (B2)
                 (A1) (B1) (A1) (B2) (A1) (A1) (B2) (A1) (A2) (A1)
                 (B2) (B1) (B1) (B2) (A2) (A1)
       Virtual   (B2) (A1) (B1) (A1) (B1) (A1) (B2) (A1) (B1) (A2)
                 (B1) (A1) (A1) (B2) (B2) (A1) (A1) (B1) (A1) (B2)
                 (A1) (B2) (B2) (A1) (A2) (B1) (B1) (A2) (B1) (A1)
                 (B2) (A1) (B2) (A1) (A2) (B1) (B1) (B2) (A1) (A1)
                 (B2) (A1) (B2) (A1) (A2) (B2) (A1) (B2) (A1) (A2)
                 (B1) (B1) (B2) (A1) (B1) (A1) (B2) (A2) (B1) (A1)
                 (A2) (B1) (A1) (B1) (B2) (A2) (B1) (B2) (A1) (B2)
                 (A1) (B2) (A1) (A1) (A1) (B2) (B1) (A2) (B1) (A1)
                 (B2) (B2) (A1) (A1) (B2) (A1) (A2) (B2) (A1) (A1)
                 (B1) (A1) (A2) (B1) (B2) (A1) (A2) (B1) (B2) (B1)
                 (A1) (B2) (A2) (B1) (B2) (A1) (A1) (B2) (A2) (B1)
                 (A1) (A1) (B2) (A2) (B1) (A2) (B1) (B2) (A1) (A1)
                 (B2) (A1) (A2) (B1) (A2) (B1) (B2) (A1) (A2) (A1)
                 (B1) (B2) (B2) (A1) (A1) (B2) (A1) (A2) (B1) (B1)
                 (B2) (B2) (A1) (A1) (B1) (A2) (B1) (A1) (B2) (B2)
                 (A1) (B2) (A1) (A1) (A2) (B2) (A1) (B1) (A2) (B2)
                 (B1) (A1) (B1) (B2) (A2) (A1) (B2) (A2) (B1) (A1)
                 (A2) (A1) (A1) (B2) (B1) (A2) (B1) (B2) (B2) (A1)
                 (A1) (A2) (B2) (A2) (B1) (A1) (B2) (B1) (A1) (B2)
                 (B1) (A1) (A2) (B1) (A1) (B2) (A2) (B1) (B2) (B2)
                 (A1) (A1) (B2) (A1) (B1) (B2) (A2) (A1) (B1) (A1)
                 (A1) (B2) (A2) (B2) (A1) (B1) (A2) (A1) (B1) (A2)
                 (A1) (B1) (B2) (B2) (B2) (A1) (A1) (A2) (A1) (B2)
                 (A2) (B1) (B1) (B2) (A1) (A1) (A1) (B2) (A1) (A1)
                 (A1) (B2) (A1) (A1) (A1)
 Initial guess <Sx>= 0.0000 <Sy>= 0.0000 <Sz>= 0.5000 <S**2>= 0.7700 S= 0.5100
 ExpMin= 2.80D-02 ExpMax= 4.31D+06 ExpMxC= 4.90D+03 IAcc=3 IRadAn=         5 AccDes= 0.00D+00
 Harris functional with IExCor= 1009 and IRadAn=       5 diagonalized for initial guess.
 HarFok:  IExCor= 1009 AccDes= 0.00D+00 IRadAn=         5 IDoV= 1 UseB2=F ITyADJ=14
 ICtDFT=  3500011 ScaDFX=  1.000000  1.000000  1.000000  1.000000
 FoFCou: FMM=F IPFlag=           0 FMFlag=      100000 FMFlg1=           0
         NFxFlg=           0 DoJE=T BraDBF=F KetDBF=T FulRan=T
         wScrn=  0.000000 ICntrl=       500 IOpCl=  0 I1Cent=   200000004 NGrid=           0
         NMat0=    1 NMatS0=      1 NMatT0=    0 NMatD0=    1 NMtDS0=    0 NMtDT0=    0
 Petite list used in FoFCou.
 Keep R1 and R2 ints in memory in symmetry-blocked form, NReq=850595864.
 Requested convergence on RMS density matrix=1.00D-08 within 128 cycles.
 Requested convergence on MAX density matrix=1.00D-06.
 Requested convergence on             energy=1.00D-06.
 No special actions if energy rises.
 Rare condition: small coef for last iteration:  0.000D+00
 SCF Done:  E(UPBE1PBE) =  -1562.91337020     A.U. after   17 cycles
            NFock= 17  Conv=0.17D-08     -V/T= 2.0019
 <Sx>= 0.0000 <Sy>= 0.0000 <Sz>= 0.5000 <S**2>= 0.7625 S= 0.5062
 <L.S>=  0.00000000000    
 Annihilation of the first spin contaminant:
 S**2 before annihilation     0.7625,   after     0.7501
   4 Symmetry operations used in ECPInt.
 ECPInt:  NShTT=    3160 NPrTT=   10824 LenC2=    3004 LenP2D=    8321.
 LDataN:  DoStor=T MaxTD1= 9 Len=  602
 Calling FoFJK, ICntrl=      2127 FMM=F ISym2X=1 I1Cent= 0 IOpClX= 1 NMat=1 NMatS=1 NMatT=0.
 ***** Axes restored to original set *****
 -------------------------------------------------------------------
 Center     Atomic                   Forces (Hartrees/Bohr)
 Number     Number              X              Y              Z
 -------------------------------------------------------------------
      1       26           0.003607756   -0.006248816   -0.000000000
      2        9          -0.004560842    0.007899609    0.000000000
      3        9          -0.003444268   -0.003089078    0.000000000
      4        9           0.004397354    0.001438285   -0.000000000
 -------------------------------------------------------------------
 Cartesian Forces:  Max     0.007899609 RMS     0.003852266

 GradGradGradGradGradGradGradGradGradGradGradGradGradGradGradGradGradGrad
 Berny optimization.
 Using GEDIIS/GDIIS optimizer.
 FormGI is forming the generalized inverse of G from B-inverse, IUseBI=4.
 Internal  Forces:  Max     0.009121683 RMS     0.004404346
 Search for a local minimum.
 Step number   2 out of a maximum of   20
 All quantities printed in internal units (Hartrees-Bohrs-Radians)
 Mixed Optimization -- RFO/linear search
 Update second derivatives using D2CorX and points    1    2
 DE= -1.40D-02 DEPred=-1.26D-02 R= 1.11D+00
 TightC=F SS=  1.41D+00  RLast= 2.85D-01 DXNew= 5.0454D-01 8.5613D-01
 Trust test= 1.11D+00 RLast= 2.85D-01 DXMaxT set to 5.05D-01
 The second derivative matrix:
                          R1        R2        R3        A1        A2
           R1           0.24791
           R2          -0.01258   0.26698
           R3          -0.01258   0.00380   0.26698
           A1           0.00184   0.00344   0.00344   0.25004
           A2           0.00184   0.00344   0.00344   0.00004   0.25004
           A3          -0.00368  -0.00687  -0.00687  -0.00007  -0.00007
           D1          -0.00000  -0.00000  -0.00000  -0.00000  -0.00000
                          A3        D1
           A3           0.25015
           D1           0.00000   0.04852
 ITU=  1  0
 Use linear search instead of GDIIS.
     Eigenvalues ---    0.04852   0.23247   0.25000   0.25369   0.26318
     Eigenvalues ---    0.28275
 RFO step:  Lambda=-2.17070676D-04 EMin= 4.85244626D-02
 Quartic linear search produced a step of  0.09729.
 Iteration  1 RMS(Cart)=  0.01483223 RMS(Int)=  0.00004456
 Iteration  2 RMS(Cart)=  0.00004158 RMS(Int)=  0.00000000
 Iteration  3 RMS(Cart)=  0.00000000 RMS(Int)=  0.00000000
 ClnCor:  largest displacement from symmetrization is 9.28D-14 for atom     1.
 Variable       Old X    -DE/DX   Delta X   Delta X   Delta X     New X
                                 (Linear)    (Quad)   (Total)
    R1        3.23176  -0.00912  -0.01123  -0.02320  -0.03444   3.19732
    R2        3.16270  -0.00439  -0.01795   0.00534  -0.01261   3.15009
    R3        3.16270  -0.00439  -0.01795   0.00534  -0.01261   3.15009
    A1        2.09633   0.00153   0.00019   0.00644   0.00662   2.10295
    A2        2.09633   0.00153   0.00019   0.00644   0.00662   2.10295
    A3        2.09053  -0.00305  -0.00038  -0.01287  -0.01325   2.07728
    D1        3.14159  -0.00000   0.00000  -0.00000   0.00000   3.14159
         Item               Value     Threshold  Converged?
 Maximum Force            0.009122     0.000450     NO 
 RMS     Force            0.004404     0.000300     NO 
 Maximum Displacement     0.019948     0.001800     NO 
 RMS     Displacement     0.014845     0.001200     NO 
 Predicted change in Energy=-2.794787D-04
 GradGradGradGradGradGradGradGradGradGradGradGradGradGradGradGradGradGrad

                          Input orientation:                          
 ---------------------------------------------------------------------
 Center     Atomic      Atomic             Coordinates (Angstroms)
 Number     Number       Type             X           Y           Z
 ---------------------------------------------------------------------
      1         26           0        8.942774    8.500074    8.500000
      2          9           0        9.788750    7.034802    8.500000
      3          9           0        9.763866    9.950782    8.500000
      4          9           0        7.275878    8.514342    8.500000
 ---------------------------------------------------------------------
                    Distance matrix (angstroms):
                    1          2          3          4
     1  Fe   0.000000
     2  F    1.691951   0.000000
     3  F    1.666957   2.916086   0.000000
     4  F    1.666957   2.916086   2.872881   0.000000
 Stoichiometry    F3Fe(2)
 Framework group  C2V[C2(FFe),SGV(F2)]
 Deg. of freedom     3
 Full point group                 C2V     NOp   4
 Largest Abelian subgroup         C2V     NOp   4
 Largest concise Abelian subgroup C2      NOp   2
                         Standard orientation:                         
 ---------------------------------------------------------------------
 Center     Atomic      Atomic             Coordinates (Angstroms)
 Number     Number       Type             X           Y           Z
 ---------------------------------------------------------------------
      1         26           0        0.000000    0.000000    0.000058
      2          9           0       -0.000000   -0.000000   -1.691893
      3          9           0        0.000000    1.436440    0.845862
      4          9           0       -0.000000   -1.436440    0.845862
 ---------------------------------------------------------------------
 Rotational constants (GHZ):           6.4460689           6.1957240           3.1592088
 Standard basis: def2QZVPP (5D, 7F)
 There are   136 symmetry adapted cartesian basis functions of A1  symmetry.
 There are    47 symmetry adapted cartesian basis functions of A2  symmetry.
 There are    69 symmetry adapted cartesian basis functions of B1  symmetry.
 There are    93 symmetry adapted cartesian basis functions of B2  symmetry.
 There are   102 symmetry adapted basis functions of A1  symmetry.
 There are    40 symmetry adapted basis functions of A2  symmetry.
 There are    56 symmetry adapted basis functions of B1  symmetry.
 There are    73 symmetry adapted basis functions of B2  symmetry.
   271 basis functions,   484 primitive gaussians,   345 cartesian basis functions
    27 alpha electrons       26 beta electrons
       nuclear repulsion energy       266.0711619585 Hartrees.
 NAtoms=    4 NActive=    4 NUniq=    3 SFac= 1.78D+00 NAtFMM=   60 NAOKFM=F Big=F
 Integral buffers will be    131072 words long.
 Raffenetti 2 integral format.
 Two-electron integral symmetry is turned on.
 One-electron integrals computed using PRISM.
   4 Symmetry operations used in ECPInt.
 ECPInt:  NShTT=    3160 NPrTT=   10824 LenC2=    3008 LenP2D=    8332.
 LDataN:  DoStor=T MaxTD1= 8 Len=  415
 NBasis=   271 RedAO= T EigKep=  7.20D-04  NBF=   102    40    56    73
 NBsUse=   271 1.00D-06 EigRej= -1.00D+00 NBFU=   102    40    56    73
 Initial guess from the checkpoint file:  "/data/hutter/SMG16/PBE0/Gau-38055.chk"
 B after Tr=     0.000000    0.000000   -0.000000
         Rot=    1.000000    0.000000    0.000000    0.000000 Ang=   0.00 deg.
 Initial guess orbital symmetries:
 Alpha Orbitals:
       Occupied  (A1) (A1) (A1) (B2) (B1) (A1) (B2) (A1) (A1) (A1)
                 (B2) (B1) (A1) (B2) (A1) (A1) (B2) (A1) (B1) (A2)
                 (A1) (B1) (B2) (B2) (B1) (A2) (A1)
       Virtual   (A1) (B2) (A1) (B1) (A1) (B2) (B1) (A1) (B1) (A2)
                 (A1) (A1) (B2) (A1) (B2) (A1) (B1) (A1) (B2) (B2)
                 (A1) (B1) (A2) (A1) (B2) (B1) (B1) (A2) (A1) (A1)
                 (B2) (A1) (B2) (B1) (B1) (A2) (A1) (B2) (A1) (B2)
                 (A1) (A1) (B2) (A2) (A1) (B2) (B1) (B1) (A2) (A1)
                 (B2) (B2) (A1) (B2) (A1) (B1) (B1) (A2) (A1) (A2)
                 (B1) (A1) (B1) (A2) (B1) (B2) (A1) (B2) (A1) (B2)
                 (A1) (B2) (A1) (B2) (A1) (B1) (B1) (A2) (A1) (B2)
                 (A1) (A1) (B2) (B2) (A2) (A1) (B2) (A1) (A1) (A1)
                 (B1) (B1) (A2) (A2) (B1) (B2) (B2) (A1) (B1) (A1)
                 (B2) (A2) (B1) (A1) (B2) (A1) (B1) (A2) (B2) (A1)
                 (B2) (A1) (A2) (B1) (B1) (A2) (B2) (A1) (A1) (B2)
                 (A1) (A2) (B1) (A2) (B1) (A1) (A2) (B1) (B2) (A1)
                 (B2) (A1) (B2) (B2) (A1) (B1) (A1) (A2) (B1) (A1)
                 (B2) (A1) (B1) (B2) (A2) (B1) (B2) (A1) (B2) (A1)
                 (B2) (A1) (A1) (A2) (B2) (B1) (A1) (B2) (B1) (A2)
                 (A1) (B2) (B1) (A1) (A2) (B2) (B1) (A2) (A1) (A2)
                 (A1) (B2) (A1) (B1) (A2) (B1) (B2) (A1) (B2) (A1)
                 (A2) (B1) (B2) (A2) (A1) (B1) (B2) (A1) (B2) (A1)
                 (B1) (A2) (B2) (B1) (A1) (B1) (A1) (A2) (B2) (A1)
                 (B2) (A1) (B2) (A2) (B1) (B1) (A1) (A1) (B2) (B2)
                 (A1) (A2) (B2) (A1) (A2) (B1) (A1) (B1) (B1) (A2)
                 (B2) (A1) (B2) (A1) (B2) (A1) (A2) (B1) (A1) (B2)
                 (A2) (B1) (A1) (B2) (A1) (A1) (A1) (B2) (A1) (A1)
                 (A1) (B2) (A1) (A1)
 Beta  Orbitals:
       Occupied  (A1) (A1) (B2) (A1) (B1) (B2) (A1) (A1) (A1) (B2)
                 (A1) (B1) (A1) (B2) (A1) (B2) (A1) (A1) (A2) (A1)
                 (B1) (B2) (B1) (B2) (A2) (A1)
       Virtual   (B2) (A1) (B1) (A1) (B1) (A1) (B2) (B1) (A1) (A2)
                 (B1) (A1) (A1) (B2) (B2) (A1) (A1) (B1) (A1) (B2)
                 (B2) (A1) (A2) (B1) (B2) (A1) (B1) (A2) (B1) (A1)
                 (B2) (A1) (B2) (A1) (B1) (A2) (B1) (B2) (A1) (A1)
                 (B2) (A1) (A1) (B2) (A2) (B2) (A1) (A2) (A1) (B2)
                 (B1) (B1) (B2) (A1) (B2) (A1) (B1) (B1) (A2) (A1)
                 (A2) (B1) (A1) (B1) (A2) (B1) (B2) (B2) (A1) (B2)
                 (A1) (A1) (B2) (A1) (B2) (A1) (B1) (B1) (A2) (A1)
                 (B2) (A1) (A1) (B2) (B2) (A2) (A1) (B2) (A1) (A1)
                 (A1) (B1) (B1) (A2) (A2) (B1) (B2) (B2) (A1) (B1)
                 (A1) (B2) (A2) (B1) (A1) (B2) (A1) (A2) (B1) (B2)
                 (A1) (B2) (A1) (A2) (B1) (B1) (A2) (B2) (A1) (A1)
                 (B2) (A1) (A2) (B1) (A2) (B1) (A1) (B1) (A2) (B2)
                 (A1) (B2) (A1) (B2) (B2) (A1) (A1) (B1) (A2) (B1)
                 (A1) (B2) (A1) (B1) (B2) (A2) (B1) (B2) (A1) (B2)
                 (A1) (B2) (A1) (A1) (A2) (B2) (B1) (A1) (B2) (A2)
                 (B1) (A1) (B1) (B2) (A1) (A2) (B2) (B1) (A2) (A1)
                 (A2) (A1) (B2) (A1) (A2) (B1) (B1) (B2) (A1) (B2)
                 (A1) (A2) (B1) (A2) (B2) (A1) (B2) (B1) (A1) (B2)
                 (A1) (B1) (A2) (B2) (A1) (B1) (B1) (B2) (A2) (A1)
                 (A1) (B2) (B2) (A1) (B1) (A2) (B1) (A1) (A1) (B2)
                 (B2) (A1) (A2) (B2) (A1) (B1) (A2) (A1) (B1) (A2)
                 (B1) (B2) (A1) (B2) (A1) (B2) (A1) (A2) (B2) (A1)
                 (B1) (A2) (B1) (A1) (A1) (B2) (A1) (A1) (B2) (A1)
                 (A1) (A1) (B2) (A1) (A1)
 Initial guess <Sx>= 0.0000 <Sy>= 0.0000 <Sz>= 0.5000 <S**2>= 0.7625 S= 0.5062
 Keep R1 and R2 ints in memory in symmetry-blocked form, NReq=850595864.
 Requested convergence on RMS density matrix=1.00D-08 within 128 cycles.
 Requested convergence on MAX density matrix=1.00D-06.
 Requested convergence on             energy=1.00D-06.
 No special actions if energy rises.
 SCF Done:  E(UPBE1PBE) =  -1562.91364495     A.U. after   15 cycles
            NFock= 15  Conv=0.68D-08     -V/T= 2.0019
 <Sx>= 0.0000 <Sy>= 0.0000 <Sz>= 0.5000 <S**2>= 0.7622 S= 0.5061
 <L.S>=  0.00000000000    
 Annihilation of the first spin contaminant:
 S**2 before annihilation     0.7622,   after     0.7501
   4 Symmetry operations used in ECPInt.
 ECPInt:  NShTT=    3160 NPrTT=   10824 LenC2=    3008 LenP2D=    8332.
 LDataN:  DoStor=T MaxTD1= 9 Len=  602
 Calling FoFJK, ICntrl=      2127 FMM=F ISym2X=1 I1Cent= 0 IOpClX= 1 NMat=1 NMatS=1 NMatT=0.
 ***** Axes restored to original set *****
 -------------------------------------------------------------------
 Center     Atomic                   Forces (Hartrees/Bohr)
 Number     Number              X              Y              Z
 -------------------------------------------------------------------
      1       26           0.001232362   -0.002134514   -0.000000000
      2        9          -0.000226144    0.000391692    0.000000000
      3        9          -0.000882473    0.000652385    0.000000000
      4        9          -0.000123746    0.001090436   -0.000000000
 -------------------------------------------------------------------
 Cartesian Forces:  Max     0.002134514 RMS     0.000850890

 GradGradGradGradGradGradGradGradGradGradGradGradGradGradGradGradGradGrad
 Berny optimization.
 Using GEDIIS/GDIIS optimizer.
 FormGI is forming the generalized inverse of G from B-inverse, IUseBI=4.
 Internal  Forces:  Max     0.002287675 RMS     0.001075053
 Search for a local minimum.
 Step number   3 out of a maximum of   20
 All quantities printed in internal units (Hartrees-Bohrs-Radians)
 Mixed Optimization -- RFO/linear search
 Update second derivatives using D2CorX and points    1    2    3
 DE= -2.75D-04 DEPred=-2.79D-04 R= 9.83D-01
 TightC=F SS=  1.41D+00  RLast= 4.20D-02 DXNew= 8.4853D-01 1.2612D-01
 Trust test= 9.83D-01 RLast= 4.20D-02 DXMaxT set to 5.05D-01
 The second derivative matrix:
                          R1        R2        R3        A1        A2
           R1           0.26203
           R2           0.02283   0.29829
           R3           0.02283   0.03512   0.29829
           A1           0.02339   0.01165   0.01165   0.24559
           A2           0.02339   0.01165   0.01165  -0.00441   0.24559
           A3          -0.04678  -0.02331  -0.02331   0.00882   0.00882
           D1           0.00000  -0.00000  -0.00000  -0.00000  -0.00000
                          A3        D1
           A3           0.23235
           D1           0.00000   0.04852
 ITU=  1  1  0
 Use linear search instead of GDIIS.
     Eigenvalues ---    0.04852   0.18087   0.25000   0.26318   0.26710
     Eigenvalues ---    0.37100
 RFO step:  Lambda=-3.25316224D-05 EMin= 4.85244626D-02
 Quartic linear search produced a step of  0.12842.
 Iteration  1 RMS(Cart)=  0.00700243 RMS(Int)=  0.00002620
 Iteration  2 RMS(Cart)=  0.00002417 RMS(Int)=  0.00000000
 Iteration  3 RMS(Cart)=  0.00000000 RMS(Int)=  0.00000000
 ClnCor:  largest displacement from symmetrization is 2.79D-13 for atom     4.
 Variable       Old X    -DE/DX   Delta X   Delta X   Delta X     New X
                                 (Linear)    (Quad)   (Total)
    R1        3.19732  -0.00045  -0.00442  -0.00002  -0.00444   3.19288
    R2        3.15009   0.00013  -0.00162   0.00121  -0.00041   3.14968
    R3        3.15009   0.00013  -0.00162   0.00121  -0.00041   3.14968
    A1        2.10295   0.00114   0.00085   0.00473   0.00558   2.10853
    A2        2.10295   0.00114   0.00085   0.00473   0.00558   2.10853
    A3        2.07728  -0.00229  -0.00170  -0.00945  -0.01116   2.06612
    D1        3.14159  -0.00000   0.00000  -0.00000   0.00000   3.14159
         Item               Value     Threshold  Converged?
 Maximum Force            0.002288     0.000450     NO 
 RMS     Force            0.001075     0.000300     NO 
 Maximum Displacement     0.011232     0.001800     NO 
 RMS     Displacement     0.007011     0.001200     NO 
 Predicted change in Energy=-2.038990D-05
 GradGradGradGradGradGradGradGradGradGradGradGradGradGradGradGradGradGrad

                          Input orientation:                          
 ---------------------------------------------------------------------
 Center     Atomic      Atomic             Coordinates (Angstroms)
 Number     Number       Type             X           Y           Z
 ---------------------------------------------------------------------
      1         26           0        8.945040    8.496150    8.500000
      2          9           0        9.789841    7.032912    8.500000
      3          9           0        9.757922    9.951226    8.500000
      4          9           0        7.278466    8.519712    8.500000
 ---------------------------------------------------------------------
                    Distance matrix (angstroms):
                    1          2          3          4
     1  Fe   0.000000
     2  F    1.689602   0.000000
     3  F    1.666741   2.918489   0.000000
     4  F    1.666741   2.918489   2.863030   0.000000
 Stoichiometry    F3Fe(2)
 Framework group  C2V[C2(FeF),SGV(F2)]
 Deg. of freedom     3
 Full point group                 C2V     NOp   4
 Omega: Change in point group or standard orientation.

 Old FWG=C02V [C2(F1Fe1),SGV(F2)]
 New FWG=C02V [C2(Fe1F1),SGV(F2)]
 Largest Abelian subgroup         C2V     NOp   4
 Largest concise Abelian subgroup C2      NOp   2
                         Standard orientation:                         
 ---------------------------------------------------------------------
 Center     Atomic      Atomic             Coordinates (Angstroms)
 Number     Number       Type             X           Y           Z
 ---------------------------------------------------------------------
      1         26           0       -0.000000   -0.000000   -0.003020
      2          9           0       -0.000000   -0.000000   -1.692622
      3          9           0        0.000000    1.431515    0.850672
      4          9           0        0.000000   -1.431515    0.850672
 ---------------------------------------------------------------------
 Rotational constants (GHZ):           6.4905033           6.1686908           3.1627533
 Standard basis: def2QZVPP (5D, 7F)
 There are   136 symmetry adapted cartesian basis functions of A1  symmetry.
 There are    47 symmetry adapted cartesian basis functions of A2  symmetry.
 There are    69 symmetry adapted cartesian basis functions of B1  symmetry.
 There are    93 symmetry adapted cartesian basis functions of B2  symmetry.
 There are   102 symmetry adapted basis functions of A1  symmetry.
 There are    40 symmetry adapted basis functions of A2  symmetry.
 There are    56 symmetry adapted basis functions of B1  symmetry.
 There are    73 symmetry adapted basis functions of B2  symmetry.
   271 basis functions,   484 primitive gaussians,   345 cartesian basis functions
    27 alpha electrons       26 beta electrons
       nuclear repulsion energy       266.2192942815 Hartrees.
 NAtoms=    4 NActive=    4 NUniq=    3 SFac= 1.78D+00 NAtFMM=   60 NAOKFM=F Big=F
 Integral buffers will be    131072 words long.
 Raffenetti 2 integral format.
 Two-electron integral symmetry is turned on.
 One-electron integrals computed using PRISM.
   4 Symmetry operations used in ECPInt.
 ECPInt:  NShTT=    3160 NPrTT=   10824 LenC2=    3010 LenP2D=    8334.
 LDataN:  DoStor=T MaxTD1= 8 Len=  415
 NBasis=   271 RedAO= T EigKep=  7.17D-04  NBF=   102    40    56    73
 NBsUse=   271 1.00D-06 EigRej= -1.00D+00 NBFU=   102    40    56    73
 Initial guess from the checkpoint file:  "/data/hutter/SMG16/PBE0/Gau-38055.chk"
 B after Tr=     0.000000    0.000000   -0.000000
         Rot=    1.000000    0.000000   -0.000000   -0.000000 Ang=   0.00 deg.
 Initial guess orbital symmetries:
 Alpha Orbitals:
       Occupied  (A1) (A1) (A1) (B2) (B1) (A1) (B2) (A1) (A1) (A1)
                 (B2) (B1) (A1) (B2) (A1) (A1) (B2) (A1) (B1) (A2)
                 (A1) (B1) (B2) (B2) (B1) (A2) (A1)
       Virtual   (A1) (B2) (A1) (B1) (A1) (B2) (B1) (A1) (B1) (A2)
                 (A1) (A1) (B2) (B2) (A1) (A1) (B1) (A1) (B2) (A1)
                 (B2) (B1) (A2) (A1) (B2) (B1) (B1) (A2) (A1) (B2)
                 (A1) (A1) (B2) (B1) (B1) (A2) (A1) (B2) (A1) (B2)
                 (A1) (A1) (B2) (A2) (A1) (B2) (B1) (B1) (A2) (A1)
                 (B2) (B2) (A1) (B2) (A1) (B1) (B1) (A2) (A1) (A2)
                 (B1) (A1) (B1) (A2) (B1) (B2) (A1) (B2) (A1) (B2)
                 (A1) (B2) (A1) (B2) (A1) (B1) (B1) (A2) (A1) (B2)
                 (A1) (A1) (B2) (A2) (B2) (A1) (B2) (A1) (A1) (A1)
                 (B1) (B1) (A2) (A2) (B1) (B2) (B2) (A1) (B1) (A1)
                 (B2) (A2) (B1) (A1) (B2) (A1) (B1) (A2) (B2) (A1)
                 (B2) (A1) (A2) (B1) (A2) (B1) (A1) (B2) (A1) (B2)
                 (A1) (A2) (B1) (A2) (B1) (A2) (A1) (B1) (B2) (A1)
                 (B2) (A1) (B2) (A1) (B2) (A1) (B1) (A1) (A2) (B1)
                 (B2) (A1) (B1) (B2) (A2) (B1) (B2) (A1) (B2) (A1)
                 (B2) (A1) (A1) (A2) (B2) (B1) (A1) (B2) (B1) (B2)
                 (A2) (A1) (B1) (A1) (A2) (B2) (B1) (A2) (A1) (A2)
                 (A1) (A1) (B2) (B1) (A2) (B1) (B2) (A1) (B2) (A1)
                 (A2) (B1) (B2) (A2) (B1) (A1) (B2) (A1) (B2) (A1)
                 (A2) (B1) (B2) (A1) (B1) (B1) (A1) (B2) (A2) (A1)
                 (B2) (A1) (B2) (B1) (A2) (B1) (A1) (A1) (B2) (B2)
                 (A1) (A2) (B2) (A1) (A2) (B1) (A1) (B1) (B1) (A2)
                 (B2) (A1) (B2) (A1) (B2) (A1) (A2) (A1) (B2) (B1)
                 (A2) (B1) (A1) (B2) (A1) (A1) (A1) (A1) (B2) (A1)
                 (A1) (A1) (B2) (A1)
 Beta  Orbitals:
       Occupied  (A1) (A1) (B2) (A1) (B1) (B2) (A1) (A1) (A1) (B2)
                 (A1) (B1) (A1) (B2) (A1) (B2) (A1) (A1) (A2) (A1)
                 (B2) (B1) (B1) (B2) (A2) (A1)
       Virtual   (B2) (A1) (B1) (A1) (B1) (B2) (A1) (B1) (A1) (A2)
                 (B1) (A1) (A1) (B2) (B2) (A1) (A1) (B1) (B2) (A1)
                 (B2) (A1) (A2) (B1) (B2) (A1) (B1) (A2) (B1) (A1)
                 (B2) (A1) (B2) (A1) (B1) (B1) (A2) (B2) (A1) (A1)
                 (B2) (A1) (B2) (A1) (A2) (B2) (A1) (A2) (B1) (B2)
                 (A1) (B1) (B2) (A1) (B2) (A1) (B1) (A2) (B1) (A1)
                 (A2) (B1) (A1) (B1) (A2) (B1) (B2) (B2) (A1) (B2)
                 (A1) (A1) (B2) (A1) (B2) (A1) (B1) (B1) (A2) (A1)
                 (B2) (A1) (A1) (B2) (B2) (A2) (A1) (B2) (A1) (A1)
                 (A1) (B1) (A2) (B1) (A2) (B1) (B2) (B2) (A1) (B1)
                 (A1) (B2) (A2) (B1) (A1) (B2) (A1) (A2) (B1) (B2)
                 (A1) (B2) (A1) (A2) (B1) (A2) (B1) (B2) (A1) (B2)
                 (A1) (A1) (A2) (B1) (A2) (A1) (B1) (B1) (A2) (B2)
                 (A1) (B2) (A1) (B2) (A1) (B2) (A1) (B1) (A2) (A1)
                 (B1) (B2) (B1) (A1) (B2) (A2) (B1) (B2) (A1) (B2)
                 (B2) (A1) (A1) (A1) (A2) (B2) (B1) (A1) (B2) (B1)
                 (A2) (A1) (B2) (B1) (A1) (B2) (A2) (B1) (A2) (A1)
                 (A2) (A1) (A1) (B2) (B1) (A2) (B1) (B2) (A1) (B2)
                 (A1) (A2) (B1) (A2) (B2) (A1) (B1) (B2) (B2) (A1)
                 (A1) (B1) (A2) (B2) (A1) (B1) (B1) (B2) (A1) (A2)
                 (A1) (B2) (B2) (A1) (B1) (A2) (A1) (B1) (A1) (B2)
                 (B2) (A1) (A2) (B2) (A1) (A2) (B1) (A1) (B1) (A2)
                 (B1) (B2) (A1) (B2) (A1) (B2) (A1) (A2) (A1) (B2)
                 (A2) (B1) (B1) (A1) (B2) (A1) (A1) (A1) (A1) (B2)
                 (A1) (A1) (A1) (B2) (A1)
 Initial guess <Sx>= 0.0000 <Sy>= 0.0000 <Sz>= 0.5000 <S**2>= 0.7622 S= 0.5061
 Keep R1 and R2 ints in memory in symmetry-blocked form, NReq=850595864.
 Requested convergence on RMS density matrix=1.00D-08 within 128 cycles.
 Requested convergence on MAX density matrix=1.00D-06.
 Requested convergence on             energy=1.00D-06.
 No special actions if energy rises.
 SCF Done:  E(UPBE1PBE) =  -1562.91367530     A.U. after   13 cycles
            NFock= 13  Conv=0.41D-08     -V/T= 2.0019
 <Sx>= 0.0000 <Sy>= 0.0000 <Sz>= 0.5000 <S**2>= 0.7622 S= 0.5061
 <L.S>=  0.00000000000    
 Annihilation of the first spin contaminant:
 S**2 before annihilation     0.7622,   after     0.7501
   4 Symmetry operations used in ECPInt.
 ECPInt:  NShTT=    3160 NPrTT=   10824 LenC2=    3010 LenP2D=    8334.
 LDataN:  DoStor=T MaxTD1= 9 Len=  602
 Calling FoFJK, ICntrl=      2127 FMM=F ISym2X=1 I1Cent= 0 IOpClX= 1 NMat=1 NMatS=1 NMatT=0.
 ***** Axes restored to original set *****
 -------------------------------------------------------------------
 Center     Atomic                   Forces (Hartrees/Bohr)
 Number     Number              X              Y              Z
 -------------------------------------------------------------------
      1       26           0.000338261   -0.000585885    0.000000000
      2        9           0.000337559   -0.000584669    0.000000000
      3        9          -0.000494055    0.000495127    0.000000000
      4        9          -0.000181765    0.000675427   -0.000000000
 -------------------------------------------------------------------
 Cartesian Forces:  Max     0.000675427 RMS     0.000397067

 GradGradGradGradGradGradGradGradGradGradGradGradGradGradGradGradGradGrad
 Berny optimization.
 Using GEDIIS/GDIIS optimizer.
 FormGI is forming the generalized inverse of G from B-inverse, IUseBI=4.
 Internal  Forces:  Max     0.001412718 RMS     0.000709389
 Search for a local minimum.
 Step number   4 out of a maximum of   20
 All quantities printed in internal units (Hartrees-Bohrs-Radians)
 Mixed Optimization -- En-DIIS/RFO-DIIS
 Update second derivatives using D2CorX and points    1    2    3    4
 DE= -3.03D-05 DEPred=-2.04D-05 R= 1.49D+00
 TightC=F SS=  1.41D+00  RLast= 1.44D-02 DXNew= 8.4853D-01 4.3131D-02
 Trust test= 1.49D+00 RLast= 1.44D-02 DXMaxT set to 5.05D-01
 The second derivative matrix:
                          R1        R2        R3        A1        A2
           R1           0.35491
           R2           0.03102   0.28617
           R3           0.03102   0.02300   0.28617
           A1           0.01414   0.00614   0.00614   0.22343
           A2           0.01414   0.00614   0.00614  -0.02657   0.22343
           A3          -0.02829  -0.01229  -0.01229   0.05314   0.05314
           D1           0.00000   0.00000   0.00000  -0.00000  -0.00000
                          A3        D1
           A3           0.14373
           D1           0.00000   0.04852
 ITU=  1  1  1  0
 Use linear search instead of GDIIS.
     Eigenvalues ---    0.04852   0.08501   0.25000   0.26318   0.28257
     Eigenvalues ---    0.38709
 RFO step:  Lambda=-1.17070318D-05 EMin= 4.85244626D-02
 Quartic linear search produced a step of  1.03002.
 Iteration  1 RMS(Cart)=  0.01044643 RMS(Int)=  0.00005073
 Iteration  2 RMS(Cart)=  0.00004694 RMS(Int)=  0.00000000
 Iteration  3 RMS(Cart)=  0.00000000 RMS(Int)=  0.00000000
 ClnCor:  largest displacement from symmetrization is 1.88D-12 for atom     4.
 Variable       Old X    -DE/DX   Delta X   Delta X   Delta X     New X
                                 (Linear)    (Quad)   (Total)
    R1        3.19288   0.00068  -0.00457   0.00469   0.00011   3.19300
    R2        3.14968   0.00019  -0.00042   0.00010  -0.00032   3.14937
    R3        3.14968   0.00019  -0.00042   0.00010  -0.00032   3.14937
    A1        2.10853   0.00071   0.00575   0.00202   0.00776   2.11629
    A2        2.10853   0.00071   0.00575   0.00202   0.00776   2.11629
    A3        2.06612  -0.00141  -0.01149  -0.00403  -0.01552   2.05060
    D1        3.14159   0.00000   0.00000   0.00000   0.00000   3.14159
         Item               Value     Threshold  Converged?
 Maximum Force            0.001413     0.000450     NO 
 RMS     Force            0.000709     0.000300     NO 
 Maximum Displacement     0.016360     0.001800     NO 
 RMS     Displacement     0.010460     0.001200     NO 
 Predicted change in Energy=-1.655375D-05
 GradGradGradGradGradGradGradGradGradGradGradGradGradGradGradGradGradGrad

                          Input orientation:                          
 ---------------------------------------------------------------------
 Center     Atomic      Atomic             Coordinates (Angstroms)
 Number     Number       Type             X           Y           Z
 ---------------------------------------------------------------------
      1         26           0        8.947782    8.491401    8.500000
      2          9           0        9.792613    7.028110    8.500000
      3          9           0        9.749265    9.952596    8.500000
      4          9           0        7.281609    8.527894    8.500000
 ---------------------------------------------------------------------
                    Distance matrix (angstroms):
                    1          2          3          4
     1  Fe   0.000000
     2  F    1.689662   0.000000
     3  F    1.666573   2.924807   0.000000
     4  F    1.666573   2.924807   2.849404   0.000000
 Stoichiometry    F3Fe(2)
 Framework group  C2V[C2(FeF),SGV(F2)]
 Deg. of freedom     3
 Full point group                 C2V     NOp   4
 Largest Abelian subgroup         C2V     NOp   4
 Largest concise Abelian subgroup C2      NOp   2
                         Standard orientation:                         
 ---------------------------------------------------------------------
 Center     Atomic      Atomic             Coordinates (Angstroms)
 Number     Number       Type             X           Y           Z
 ---------------------------------------------------------------------
      1         26           0       -0.000000   -0.000000   -0.006745
      2          9           0       -0.000000   -0.000000   -1.696407
      3          9           0        0.000000    1.424702    0.857946
      4          9           0        0.000000   -1.424702    0.857946
 ---------------------------------------------------------------------
 Rotational constants (GHZ):           6.5527271           6.1151004           3.1631773
 Standard basis: def2QZVPP (5D, 7F)
 There are   136 symmetry adapted cartesian basis functions of A1  symmetry.
 There are    47 symmetry adapted cartesian basis functions of A2  symmetry.
 There are    69 symmetry adapted cartesian basis functions of B1  symmetry.
 There are    93 symmetry adapted cartesian basis functions of B2  symmetry.
 There are   102 symmetry adapted basis functions of A1  symmetry.
 There are    40 symmetry adapted basis functions of A2  symmetry.
 There are    56 symmetry adapted basis functions of B1  symmetry.
 There are    73 symmetry adapted basis functions of B2  symmetry.
   271 basis functions,   484 primitive gaussians,   345 cartesian basis functions
    27 alpha electrons       26 beta electrons
       nuclear repulsion energy       266.2397895317 Hartrees.
 NAtoms=    4 NActive=    4 NUniq=    3 SFac= 1.78D+00 NAtFMM=   60 NAOKFM=F Big=F
 Integral buffers will be    131072 words long.
 Raffenetti 2 integral format.
 Two-electron integral symmetry is turned on.
 One-electron integrals computed using PRISM.
   4 Symmetry operations used in ECPInt.
 ECPInt:  NShTT=    3160 NPrTT=   10824 LenC2=    3010 LenP2D=    8334.
 LDataN:  DoStor=T MaxTD1= 8 Len=  415
 NBasis=   271 RedAO= T EigKep=  7.17D-04  NBF=   102    40    56    73
 NBsUse=   271 1.00D-06 EigRej= -1.00D+00 NBFU=   102    40    56    73
 Initial guess from the checkpoint file:  "/data/hutter/SMG16/PBE0/Gau-38055.chk"
 B after Tr=     0.000000   -0.000000   -0.000000
         Rot=    1.000000   -0.000000   -0.000000    0.000000 Ang=   0.00 deg.
 Initial guess orbital symmetries:
 Alpha Orbitals:
       Occupied  (A1) (A1) (A1) (B2) (B1) (A1) (B2) (A1) (A1) (A1)
                 (B2) (B1) (A1) (B2) (A1) (A1) (B2) (A1) (B1) (A2)
                 (A1) (B1) (B2) (B2) (B1) (A2) (A1)
       Virtual   (A1) (B2) (A1) (B1) (B2) (A1) (B1) (A1) (B1) (A2)
                 (A1) (A1) (B2) (B2) (A1) (A1) (B1) (A1) (B2) (A1)
                 (B2) (B1) (A2) (B2) (A1) (B1) (B1) (A2) (A1) (B2)
                 (A1) (A1) (B2) (B1) (B1) (A2) (A1) (B2) (A1) (B2)
                 (A1) (A1) (B2) (A2) (A1) (B2) (B1) (B1) (A2) (A1)
                 (B2) (B2) (A1) (B2) (A1) (B1) (A2) (B1) (A1) (A2)
                 (B1) (A1) (B1) (A2) (B1) (B2) (A1) (B2) (A1) (B2)
                 (A1) (B2) (A1) (B2) (A1) (B1) (B1) (A2) (A1) (B2)
                 (A1) (A1) (B2) (A2) (B2) (A1) (B2) (A1) (A1) (A1)
                 (B1) (B1) (A2) (A2) (B1) (B2) (B2) (A1) (B1) (A1)
                 (B2) (B1) (A2) (A1) (B2) (A1) (B1) (A2) (B2) (A1)
                 (B2) (A1) (A2) (B1) (A2) (B1) (A1) (B2) (A1) (B2)
                 (A1) (A2) (B1) (A2) (B1) (A1) (A2) (B1) (B2) (A1)
                 (B2) (A1) (B2) (A1) (A1) (B2) (B1) (A1) (A2) (B1)
                 (B2) (B1) (A1) (B2) (A2) (B1) (B2) (A1) (B2) (B2)
                 (A1) (A1) (A1) (A2) (B2) (B1) (A1) (B2) (B1) (B2)
                 (A2) (A1) (B1) (A1) (A2) (B2) (B1) (A2) (A1) (A2)
                 (A1) (A1) (B2) (B1) (A2) (B1) (B2) (A1) (B2) (A1)
                 (A2) (B1) (B2) (A2) (B1) (A1) (B2) (B2) (A1) (A1)
                 (A2) (B1) (B2) (A1) (B1) (B1) (A1) (B2) (A2) (A1)
                 (B2) (A1) (B2) (B1) (A2) (B1) (A1) (A1) (B2) (B2)
                 (A1) (A2) (B2) (A1) (A2) (B1) (A1) (B1) (B1) (A2)
                 (B2) (A1) (B2) (A1) (B2) (A1) (A2) (A1) (B1) (B2)
                 (A2) (B1) (A1) (B2) (A1) (A1) (A1) (A1) (B2) (A1)
                 (A1) (A1) (B2) (A1)
 Beta  Orbitals:
       Occupied  (A1) (A1) (B2) (A1) (B1) (B2) (A1) (A1) (A1) (B2)
                 (A1) (B1) (A1) (B2) (A1) (B2) (A1) (A1) (A2) (A1)
                 (B2) (B1) (B1) (B2) (A2) (A1)
       Virtual   (A1) (B2) (B1) (A1) (B1) (B2) (A1) (B1) (A1) (A2)
                 (B1) (A1) (B2) (A1) (B2) (A1) (A1) (B1) (B2) (A1)
                 (B2) (A1) (A2) (B1) (B2) (A1) (B1) (A2) (B1) (A1)
                 (B2) (A1) (A1) (B2) (B1) (B1) (A2) (A1) (B2) (A1)
                 (B2) (A1) (B2) (A1) (A2) (B2) (A1) (A2) (B1) (B2)
                 (A1) (B1) (B2) (A1) (B2) (A1) (B1) (A2) (B1) (A1)
                 (A2) (B1) (A1) (B1) (A2) (B1) (B2) (B2) (A1) (B2)
                 (A1) (A1) (B2) (A1) (B2) (A1) (B1) (B1) (A2) (A1)
                 (B2) (A1) (B2) (A1) (B2) (A2) (A1) (B2) (A1) (A1)
                 (A1) (B1) (A2) (B1) (A2) (B1) (B2) (B2) (A1) (B1)
                 (A1) (B2) (A2) (B1) (B2) (A1) (A1) (A2) (B1) (B2)
                 (A1) (B2) (A1) (A2) (B1) (A2) (B1) (B2) (A1) (B2)
                 (A1) (A1) (A2) (B1) (A2) (A1) (B1) (B1) (A2) (B2)
                 (A1) (B2) (A1) (B2) (A1) (A1) (B2) (B1) (A1) (A2)
                 (B1) (B2) (B1) (A1) (B2) (A2) (B1) (B2) (A1) (B2)
                 (B2) (A1) (A1) (A1) (A2) (B2) (B1) (A1) (B2) (B1)
                 (A2) (A1) (B2) (B1) (A1) (B2) (A2) (B1) (A2) (A1)
                 (A2) (A1) (A1) (B2) (B1) (A2) (B1) (B2) (A1) (B2)
                 (A1) (A2) (B1) (A2) (B2) (A1) (B1) (B2) (B2) (A1)
                 (A1) (B1) (A2) (B2) (A1) (B1) (B1) (B2) (A1) (A2)
                 (A1) (B2) (B2) (A1) (B1) (A2) (A1) (B1) (A1) (B2)
                 (B2) (A1) (A2) (B2) (A1) (A2) (B1) (A1) (B1) (A2)
                 (B1) (B2) (A1) (B2) (A1) (B2) (A1) (A2) (A1) (B2)
                 (A2) (B1) (B1) (A1) (B2) (A1) (A1) (A1) (A1) (B2)
                 (A1) (A1) (A1) (B2) (A1)
 Initial guess <Sx>= 0.0000 <Sy>= 0.0000 <Sz>= 0.5000 <S**2>= 0.7622 S= 0.5061
 Keep R1 and R2 ints in memory in symmetry-blocked form, NReq=850595864.
 Requested convergence on RMS density matrix=1.00D-08 within 128 cycles.
 Requested convergence on MAX density matrix=1.00D-06.
 Requested convergence on             energy=1.00D-06.
 No special actions if energy rises.
 SCF Done:  E(UPBE1PBE) =  -1562.91369361     A.U. after   16 cycles
            NFock= 16  Conv=0.58D-08     -V/T= 2.0019
 <Sx>= 0.0000 <Sy>= 0.0000 <Sz>= 0.5000 <S**2>= 0.7621 S= 0.5060
 <L.S>=  0.00000000000    
 Annihilation of the first spin contaminant:
 S**2 before annihilation     0.7621,   after     0.7501
   4 Symmetry operations used in ECPInt.
 ECPInt:  NShTT=    3160 NPrTT=   10824 LenC2=    3010 LenP2D=    8334.
 LDataN:  DoStor=T MaxTD1= 9 Len=  602
 Calling FoFJK, ICntrl=      2127 FMM=F ISym2X=1 I1Cent= 0 IOpClX= 1 NMat=1 NMatS=1 NMatT=0.
 ***** Axes restored to original set *****
 -------------------------------------------------------------------
 Center     Atomic                   Forces (Hartrees/Bohr)
 Number     Number              X              Y              Z
 -------------------------------------------------------------------
      1       26          -0.000148600    0.000257383    0.000000000
      2        9           0.000290758   -0.000503608    0.000000000
      3        9           0.000003925    0.000166416   -0.000000000
      4        9          -0.000146084    0.000079809    0.000000000
 -------------------------------------------------------------------
 Cartesian Forces:  Max     0.000503608 RMS     0.000200397

 GradGradGradGradGradGradGradGradGradGradGradGradGradGradGradGradGradGrad
 Berny optimization.
 Using GEDIIS/GDIIS optimizer.
 FormGI is forming the generalized inverse of G from B-inverse, IUseBI=4.
 Internal  Forces:  Max     0.000581516 RMS     0.000245135
 Search for a local minimum.
 Step number   5 out of a maximum of   20
 All quantities printed in internal units (Hartrees-Bohrs-Radians)
 Mixed Optimization -- En-DIIS/RFO-DIIS
 Swapping is turned off.
 Update second derivatives using D2CorX and points    1    2    3    4    5
 DE= -1.83D-05 DEPred=-1.66D-05 R= 1.11D+00
 TightC=F SS=  1.41D+00  RLast= 1.90D-02 DXNew= 8.4853D-01 5.7057D-02
 Trust test= 1.11D+00 RLast= 1.90D-02 DXMaxT set to 5.05D-01
 The second derivative matrix:
                          R1        R2        R3        A1        A2
           R1           0.28883
           R2          -0.00125   0.28832
           R3          -0.00125   0.02515   0.28832
           A1           0.00129   0.00307   0.00307   0.22181
           A2           0.00129   0.00307   0.00307  -0.02819   0.22181
           A3          -0.00258  -0.00614  -0.00614   0.05638   0.05638
           D1           0.00000  -0.00000  -0.00000  -0.00000  -0.00000
                          A3        D1
           A3           0.13725
           D1           0.00000   0.04852
 ITU=  1  1  1  1  0
     Eigenvalues ---    0.04852   0.08034   0.25000   0.26318   0.28877
     Eigenvalues ---    0.31406
 En-DIIS/RFO-DIIS/Sim-DIIS IScMMF=       -3 using points:     5    4
 RFO step:  Lambda=-1.73277643D-06.
 DidBck=F Rises=F RFO-DIIS coefs:    1.11965   -0.11965
 Iteration  1 RMS(Cart)=  0.00162587 RMS(Int)=  0.00000074
 Iteration  2 RMS(Cart)=  0.00000077 RMS(Int)=  0.00000000
 ClnCor:  largest displacement from symmetrization is 1.80D-13 for atom     1.
 Variable       Old X    -DE/DX   Delta X   Delta X   Delta X     New X
                                 (Linear)    (Quad)   (Total)
    R1        3.19300   0.00058   0.00001   0.00198   0.00199   3.19499
    R2        3.14937   0.00015  -0.00004   0.00046   0.00042   3.14979
    R3        3.14937   0.00015  -0.00004   0.00046   0.00042   3.14979
    A1        2.11629   0.00008   0.00093   0.00000   0.00093   2.11722
    A2        2.11629   0.00008   0.00093   0.00000   0.00093   2.11722
    A3        2.05060  -0.00016  -0.00186  -0.00000  -0.00186   2.04874
    D1        3.14159   0.00000   0.00000   0.00000   0.00000   3.14159
         Item               Value     Threshold  Converged?
 Maximum Force            0.000582     0.000450     NO 
 RMS     Force            0.000245     0.000300     YES
 Maximum Displacement     0.002474     0.001800     NO 
 RMS     Displacement     0.001626     0.001200     NO 
 Predicted change in Energy=-8.663964D-07
 GradGradGradGradGradGradGradGradGradGradGradGradGradGradGradGradGradGrad

                          Input orientation:                          
 ---------------------------------------------------------------------
 Center     Atomic      Atomic             Coordinates (Angstroms)
 Number     Number       Type             X           Y           Z
 ---------------------------------------------------------------------
      1         26           0        8.948011    8.491004    8.500000
      2          9           0        9.793369    7.026801    8.500000
      3          9           0        9.748242    9.953142    8.500000
      4          9           0        7.281647    8.529053    8.500000
 ---------------------------------------------------------------------
                    Distance matrix (angstroms):
                    1          2          3          4
     1  Fe   0.000000
     2  F    1.690716   0.000000
     3  F    1.666798   2.926688   0.000000
     4  F    1.666798   2.926688   2.848178   0.000000
 Stoichiometry    F3Fe(2)
 Framework group  C2V[C2(FeF),SGV(F2)]
 Deg. of freedom     3
 Full point group                 C2V     NOp   4
 Largest Abelian subgroup         C2V     NOp   4
 Largest concise Abelian subgroup C2      NOp   2
                         Standard orientation:                         
 ---------------------------------------------------------------------
 Center     Atomic      Atomic             Coordinates (Angstroms)
 Number     Number       Type             X           Y           Z
 ---------------------------------------------------------------------
      1         26           0        0.000000   -0.000000   -0.007055
      2          9           0        0.000000   -0.000000   -1.697772
      3          9           0       -0.000000    1.424089    0.859077
      4          9           0        0.000000   -1.424089    0.859077
 ---------------------------------------------------------------------
 Rotational constants (GHZ):           6.5583688           6.1031339           3.1612838
 Standard basis: def2QZVPP (5D, 7F)
 There are   136 symmetry adapted cartesian basis functions of A1  symmetry.
 There are    47 symmetry adapted cartesian basis functions of A2  symmetry.
 There are    69 symmetry adapted cartesian basis functions of B1  symmetry.
 There are    93 symmetry adapted cartesian basis functions of B2  symmetry.
 There are   102 symmetry adapted basis functions of A1  symmetry.
 There are    40 symmetry adapted basis functions of A2  symmetry.
 There are    56 symmetry adapted basis functions of B1  symmetry.
 There are    73 symmetry adapted basis functions of B2  symmetry.
   271 basis functions,   484 primitive gaussians,   345 cartesian basis functions
    27 alpha electrons       26 beta electrons
       nuclear repulsion energy       266.1616842887 Hartrees.
 NAtoms=    4 NActive=    4 NUniq=    3 SFac= 1.78D+00 NAtFMM=   60 NAOKFM=F Big=F
 Integral buffers will be    131072 words long.
 Raffenetti 2 integral format.
 Two-electron integral symmetry is turned on.
 One-electron integrals computed using PRISM.
   4 Symmetry operations used in ECPInt.
 ECPInt:  NShTT=    3160 NPrTT=   10824 LenC2=    3010 LenP2D=    8334.
 LDataN:  DoStor=T MaxTD1= 8 Len=  415
 NBasis=   271 RedAO= T EigKep=  7.18D-04  NBF=   102    40    56    73
 NBsUse=   271 1.00D-06 EigRej= -1.00D+00 NBFU=   102    40    56    73
 Initial guess from the checkpoint file:  "/data/hutter/SMG16/PBE0/Gau-38055.chk"
 B after Tr=    -0.000000   -0.000000   -0.000000
         Rot=    1.000000    0.000000   -0.000000    0.000000 Ang=   0.00 deg.
 Initial guess orbital symmetries:
 Alpha Orbitals:
       Occupied  (A1) (A1) (A1) (B2) (B1) (A1) (B2) (A1) (A1) (A1)
                 (B2) (B1) (A1) (B2) (A1) (A1) (B2) (A1) (B1) (A2)
                 (A1) (B1) (B2) (B2) (B1) (A2) (A1)
       Virtual   (A1) (B2) (A1) (B1) (B2) (A1) (B1) (A1) (A2) (B1)
                 (A1) (B2) (A1) (B2) (A1) (A1) (B1) (A1) (B2) (A1)
                 (B2) (B1) (A2) (B2) (A1) (B1) (B1) (A2) (A1) (B2)
                 (A1) (A1) (B2) (B1) (B1) (A2) (A1) (B2) (A1) (B2)
                 (A1) (A1) (B2) (A2) (A1) (B2) (B1) (B1) (A2) (A1)
                 (B2) (B2) (A1) (B2) (A1) (B1) (A2) (B1) (A1) (A2)
                 (B1) (A1) (B1) (A2) (B1) (B2) (A1) (B2) (B2) (A1)
                 (A1) (B2) (A1) (B2) (A1) (B1) (B1) (A2) (A1) (B2)
                 (A1) (B2) (A1) (A2) (B2) (A1) (B2) (A1) (A1) (A1)
                 (B1) (B1) (A2) (A2) (B1) (B2) (B2) (A1) (B1) (A1)
                 (B2) (B1) (A2) (A1) (B2) (A1) (B1) (A2) (B2) (A1)
                 (B2) (A1) (A2) (B1) (A2) (B1) (A1) (B2) (A1) (B2)
                 (A1) (A2) (B1) (A2) (B1) (A1) (A2) (B1) (B2) (A1)
                 (B2) (A1) (B2) (A1) (A1) (B2) (B1) (A1) (A2) (B1)
                 (B2) (B1) (A1) (B2) (A2) (B1) (B2) (A1) (B2) (B2)
                 (A1) (A1) (A1) (A2) (B2) (B1) (A1) (B2) (B1) (B2)
                 (A2) (A1) (B1) (A1) (B2) (A2) (B1) (A2) (A1) (A2)
                 (A1) (A1) (B2) (B1) (A2) (B1) (B2) (A1) (B2) (A1)
                 (A2) (B1) (B2) (A2) (B1) (A1) (B2) (B2) (A1) (A1)
                 (A2) (B1) (B2) (A1) (B1) (B1) (A1) (B2) (A2) (A1)
                 (B2) (A1) (B2) (B1) (A2) (B1) (A1) (A1) (B2) (B2)
                 (A1) (A2) (B2) (A1) (A2) (B1) (A1) (B1) (B1) (A2)
                 (B2) (A1) (B2) (A1) (B2) (A1) (A2) (A1) (B1) (B2)
                 (A2) (B1) (A1) (B2) (A1) (A1) (A1) (A1) (B2) (A1)
                 (A1) (A1) (B2) (A1)
 Beta  Orbitals:
       Occupied  (A1) (A1) (B2) (A1) (B1) (B2) (A1) (A1) (A1) (B2)
                 (A1) (B1) (A1) (B2) (A1) (B2) (A1) (A1) (A2) (A1)
                 (B2) (B1) (B1) (B2) (A2) (A1)
       Virtual   (A1) (B2) (B1) (A1) (B1) (B2) (A1) (B1) (A1) (A2)
                 (B1) (A1) (B2) (A1) (B2) (A1) (A1) (B1) (B2) (A1)
                 (B2) (A1) (A2) (B1) (B2) (A1) (B1) (A2) (B1) (A1)
                 (B2) (A1) (A1) (B2) (B1) (B1) (A2) (A1) (B2) (A1)
                 (B2) (A1) (B2) (A1) (A2) (B2) (A1) (A2) (B1) (B2)
                 (A1) (B1) (B2) (A1) (B2) (A1) (B1) (A2) (B1) (A1)
                 (A2) (B1) (A1) (B1) (A2) (B1) (B2) (B2) (A1) (B2)
                 (A1) (A1) (B2) (A1) (B2) (A1) (B1) (B1) (A2) (A1)
                 (B2) (A1) (B2) (A1) (B2) (A2) (A1) (B2) (A1) (A1)
                 (A1) (B1) (A2) (B1) (A2) (B1) (B2) (B2) (A1) (B1)
                 (A1) (B2) (A2) (B1) (B2) (A1) (A1) (A2) (B1) (B2)
                 (A1) (B2) (A1) (A2) (B1) (A2) (B1) (A1) (B2) (B2)
                 (A1) (A1) (A2) (B1) (A2) (A1) (B1) (B1) (A2) (B2)
                 (A1) (B2) (B2) (A1) (A1) (A1) (B2) (B1) (A1) (A2)
                 (B1) (B2) (B1) (A1) (B2) (A2) (B1) (B2) (A1) (B2)
                 (B2) (A1) (A1) (A1) (A2) (B2) (B1) (A1) (B2) (B1)
                 (A2) (A1) (B2) (B1) (A1) (B2) (A2) (B1) (A2) (A1)
                 (A2) (A1) (A1) (B2) (B1) (A2) (B1) (B2) (B2) (A1)
                 (A1) (A2) (B1) (A2) (B2) (A1) (B1) (B2) (B2) (A1)
                 (A1) (A2) (B1) (B2) (A1) (B1) (B1) (B2) (A1) (A2)
                 (A1) (B2) (B2) (A1) (B1) (A2) (A1) (B1) (A1) (B2)
                 (B2) (A1) (A2) (B2) (A1) (A2) (B1) (A1) (B1) (A2)
                 (B1) (B2) (A1) (B2) (A1) (B2) (A1) (A2) (A1) (B2)
                 (A2) (B1) (B1) (A1) (B2) (A1) (A1) (A1) (A1) (B2)
                 (A1) (A1) (A1) (B2) (A1)
 Initial guess <Sx>= 0.0000 <Sy>= 0.0000 <Sz>= 0.5000 <S**2>= 0.7621 S= 0.5060
 Keep R1 and R2 ints in memory in symmetry-blocked form, NReq=850595864.
 Requested convergence on RMS density matrix=1.00D-08 within 128 cycles.
 Requested convergence on MAX density matrix=1.00D-06.
 Requested convergence on             energy=1.00D-06.
 No special actions if energy rises.
 SCF Done:  E(UPBE1PBE) =  -1562.91369450     A.U. after   12 cycles
            NFock= 12  Conv=0.68D-08     -V/T= 2.0019
 <Sx>= 0.0000 <Sy>= 0.0000 <Sz>= 0.5000 <S**2>= 0.7621 S= 0.5060
 <L.S>=  0.00000000000    
 Annihilation of the first spin contaminant:
 S**2 before annihilation     0.7621,   after     0.7501
   4 Symmetry operations used in ECPInt.
 ECPInt:  NShTT=    3160 NPrTT=   10824 LenC2=    3010 LenP2D=    8334.
 LDataN:  DoStor=T MaxTD1= 9 Len=  602
 Calling FoFJK, ICntrl=      2127 FMM=F ISym2X=1 I1Cent= 0 IOpClX= 1 NMat=1 NMatS=1 NMatT=0.
 ***** Axes restored to original set *****
 -------------------------------------------------------------------
 Center     Atomic                   Forces (Hartrees/Bohr)
 Number     Number              X              Y              Z
 -------------------------------------------------------------------
      1       26          -0.000040167    0.000069572    0.000000000
      2        9           0.000020190   -0.000034970    0.000000000
      3        9          -0.000016968   -0.000032865    0.000000000
      4        9           0.000036946   -0.000001737   -0.000000000
 -------------------------------------------------------------------
 Cartesian Forces:  Max     0.000069572 RMS     0.000030028

 GradGradGradGradGradGradGradGradGradGradGradGradGradGradGradGradGradGrad
 Berny optimization.
 Using GEDIIS/GDIIS optimizer.
 FormGI is forming the generalized inverse of G from B-inverse, IUseBI=4.
 Internal  Forces:  Max     0.000040379 RMS     0.000024986
 Search for a local minimum.
 Step number   6 out of a maximum of   20
 All quantities printed in internal units (Hartrees-Bohrs-Radians)
 Mixed Optimization -- En-DIIS/RFO-DIIS
 Swapping is turned off.
 Update second derivatives using D2CorX and points    1    2    3    4    5
                                                      6
 DE= -8.88D-07 DEPred=-8.66D-07 R= 1.02D+00
 Trust test= 1.02D+00 RLast= 3.09D-03 DXMaxT set to 5.05D-01
 The second derivative matrix:
                          R1        R2        R3        A1        A2
           R1           0.26367
           R2           0.00924   0.29738
           R3           0.00924   0.03421   0.29738
           A1           0.00144   0.00457   0.00457   0.22170
           A2           0.00144   0.00457   0.00457  -0.02830   0.22170
           A3          -0.00287  -0.00915  -0.00915   0.05660   0.05660
           D1           0.00000  -0.00000  -0.00000  -0.00000  -0.00000
                          A3        D1
           A3           0.13679
           D1           0.00000   0.04852
 ITU=  0  1  1  1  1  0
     Eigenvalues ---    0.04852   0.07916   0.25000   0.26124   0.26318
     Eigenvalues ---    0.33504
 En-DIIS/RFO-DIIS/Sim-DIIS IScMMF=       -3 using points:     6    5    4
 RFO step:  Lambda=-1.50140583D-08.
 DidBck=F Rises=F RFO-DIIS coefs:    1.04705   -0.05238    0.00532
 Iteration  1 RMS(Cart)=  0.00006843 RMS(Int)=  0.00000000
 Iteration  2 RMS(Cart)=  0.00000000 RMS(Int)=  0.00000000
 ClnCor:  largest displacement from symmetrization is 1.73D-13 for atom     4.
 Variable       Old X    -DE/DX   Delta X   Delta X   Delta X     New X
                                 (Linear)    (Quad)   (Total)
    R1        3.19499   0.00004   0.00009   0.00007   0.00016   3.19515
    R2        3.14979  -0.00004   0.00002  -0.00014  -0.00012   3.14967
    R3        3.14979  -0.00004   0.00002  -0.00014  -0.00012   3.14967
    A1        2.11722  -0.00000   0.00000  -0.00000  -0.00000   2.11722
    A2        2.11722  -0.00000   0.00000  -0.00000  -0.00000   2.11722
    A3        2.04874   0.00000  -0.00000   0.00001   0.00000   2.04874
    D1        3.14159   0.00000   0.00000   0.00000   0.00000   3.14159
         Item               Value     Threshold  Converged?
 Maximum Force            0.000040     0.000450     YES
 RMS     Force            0.000025     0.000300     YES
 Maximum Displacement     0.000090     0.001800     YES
 RMS     Displacement     0.000068     0.001200     YES
 Predicted change in Energy=-7.545412D-09
 Optimization completed.
    -- Stationary point found.
                           ----------------------------
                           !   Optimized Parameters   !
                           ! (Angstroms and Degrees)  !
 --------------------------                            --------------------------
 ! Name  Definition              Value          Derivative Info.                !
 --------------------------------------------------------------------------------
 ! R1    R(1,2)                  1.6907         -DE/DX =    0.0                 !
 ! R2    R(1,3)                  1.6668         -DE/DX =    0.0                 !
 ! R3    R(1,4)                  1.6668         -DE/DX =    0.0                 !
 ! A1    A(2,1,3)              121.308          -DE/DX =    0.0                 !
 ! A2    A(2,1,4)              121.308          -DE/DX =    0.0                 !
 ! A3    A(3,1,4)              117.384          -DE/DX =    0.0                 !
 ! D1    D(2,1,4,3)            180.0            -DE/DX =    0.0                 !
 --------------------------------------------------------------------------------
 GradGradGradGradGradGradGradGradGradGradGradGradGradGradGradGradGradGrad

                          Input orientation:                          
 ---------------------------------------------------------------------
 Center     Atomic      Atomic             Coordinates (Angstroms)
 Number     Number       Type             X           Y           Z
 ---------------------------------------------------------------------
      1         26           0        8.948011    8.491004    8.500000
      2          9           0        9.793369    7.026801    8.500000
      3          9           0        9.748242    9.953142    8.500000
      4          9           0        7.281647    8.529053    8.500000
 ---------------------------------------------------------------------
                    Distance matrix (angstroms):
                    1          2          3          4
     1  Fe   0.000000
     2  F    1.690716   0.000000
     3  F    1.666798   2.926688   0.000000
     4  F    1.666798   2.926688   2.848178   0.000000
 Stoichiometry    F3Fe(2)
 Framework group  C2V[C2(FeF),SGV(F2)]
 Deg. of freedom     3
 Full point group                 C2V     NOp   4
 Largest Abelian subgroup         C2V     NOp   4
 Largest concise Abelian subgroup C2      NOp   2
                         Standard orientation:                         
 ---------------------------------------------------------------------
 Center     Atomic      Atomic             Coordinates (Angstroms)
 Number     Number       Type             X           Y           Z
 ---------------------------------------------------------------------
      1         26           0        0.000000   -0.000000   -0.007055
      2          9           0        0.000000   -0.000000   -1.697772
      3          9           0       -0.000000    1.424089    0.859077
      4          9           0        0.000000   -1.424089    0.859077
 ---------------------------------------------------------------------
 Rotational constants (GHZ):           6.5583688           6.1031339           3.1612838

 **********************************************************************

            Population analysis using the SCF Density.

 **********************************************************************

 Orbital symmetries:
 Alpha Orbitals:
       Occupied  (A1) (A1) (A1) (B2) (B1) (A1) (B2) (A1) (A1) (A1)
                 (B2) (B1) (A1) (B2) (A1) (A1) (B2) (A1) (B1) (A2)
                 (A1) (B1) (B2) (B2) (B1) (A2) (A1)
       Virtual   (A1) (B2) (A1) (B1) (B2) (A1) (B1) (A1) (A2) (B1)
                 (A1) (B2) (A1) (B2) (A1) (A1) (B1) (A1) (B2) (A1)
                 (B2) (B1) (A2) (B2) (A1) (B1) (A2) (B1) (A1) (B2)
                 (A1) (A1) (B2) (B1) (B1) (A2) (A1) (B2) (A1) (B2)
                 (A1) (A1) (B2) (A2) (A1) (B2) (B1) (B1) (A2) (A1)
                 (B2) (B2) (A1) (B2) (A1) (B1) (A2) (B1) (A1) (A2)
                 (B1) (A1) (B1) (A2) (B1) (B2) (A1) (B2) (B2) (A1)
                 (A1) (B2) (A1) (B2) (A1) (B1) (B1) (A2) (A1) (B2)
                 (A1) (B2) (A1) (A2) (B2) (A1) (B2) (A1) (A1) (A1)
                 (B1) (B1) (A2) (A2) (B1) (B2) (B2) (A1) (B1) (A1)
                 (B2) (B1) (A2) (A1) (B2) (A1) (B1) (A2) (B2) (A1)
                 (B2) (A1) (A2) (B1) (A2) (B1) (A1) (B2) (A1) (B2)
                 (A1) (A2) (B1) (A2) (B1) (A1) (A2) (B1) (B2) (A1)
                 (B2) (A1) (B2) (A1) (A1) (B2) (B1) (A1) (A2) (B1)
                 (B2) (B1) (A1) (B2) (A2) (B1) (B2) (A1) (B2) (B2)
                 (A1) (A1) (A1) (A2) (B2) (B1) (A1) (B2) (B1) (B2)
                 (A2) (A1) (B1) (A1) (B2) (A2) (B1) (A2) (A1) (A2)
                 (A1) (A1) (B2) (B1) (A2) (B1) (B2) (A1) (B2) (A1)
                 (A2) (B1) (B2) (A2) (B1) (A1) (B2) (B2) (A1) (A1)
                 (A2) (B1) (B2) (A1) (B1) (B1) (A1) (B2) (A2) (A1)
                 (B2) (A1) (B2) (B1) (A2) (B1) (A1) (A1) (B2) (B2)
                 (A1) (A2) (B2) (A1) (A2) (B1) (A1) (B1) (B1) (A2)
                 (B2) (A1) (B2) (A1) (B2) (A1) (A2) (A1) (B1) (B2)
                 (A2) (B1) (A1) (B2) (A1) (A1) (A1) (A1) (B2) (A1)
                 (A1) (A1) (B2) (A1)
 Beta  Orbitals:
       Occupied  (A1) (A1) (B2) (A1) (B1) (B2) (A1) (A1) (A1) (B2)
                 (A1) (B1) (A1) (B2) (A1) (B2) (A1) (A1) (A2) (A1)
                 (B1) (B2) (B1) (B2) (A2) (A1)
       Virtual   (A1) (B2) (B1) (A1) (B1) (B2) (A1) (B1) (A1) (A2)
                 (B1) (A1) (B2) (A1) (B2) (A1) (A1) (B1) (B2) (A1)
                 (B2) (A1) (A2) (B1) (B2) (A1) (B1) (A2) (B1) (A1)
                 (B2) (A1) (A1) (B2) (B1) (B1) (A2) (A1) (B2) (A1)
                 (B2) (A1) (B2) (A1) (A2) (B2) (A1) (A2) (B1) (B2)
                 (A1) (B1) (B2) (A1) (B2) (A1) (B1) (A2) (B1) (A1)
                 (A2) (B1) (A1) (B1) (A2) (B1) (B2) (B2) (A1) (B2)
                 (A1) (A1) (B2) (A1) (B2) (A1) (B1) (B1) (A2) (A1)
                 (B2) (A1) (B2) (A1) (B2) (A2) (A1) (B2) (A1) (A1)
                 (A1) (B1) (A2) (B1) (A2) (B1) (B2) (B2) (A1) (B1)
                 (A1) (B2) (A2) (B1) (B2) (A1) (A1) (A2) (B1) (B2)
                 (A1) (B2) (A1) (A2) (B1) (A2) (B1) (A1) (B2) (B2)
                 (A1) (A1) (A2) (B1) (A2) (A1) (B1) (B1) (A2) (B2)
                 (A1) (B2) (B2) (A1) (A1) (A1) (B2) (B1) (A1) (A2)
                 (B1) (B2) (B1) (A1) (B2) (A2) (B1) (B2) (A1) (B2)
                 (B2) (A1) (A1) (A1) (A2) (B2) (B1) (A1) (B2) (B1)
                 (A2) (A1) (B2) (B1) (A1) (B2) (A2) (B1) (A2) (A1)
                 (A2) (A1) (A1) (B2) (B1) (A2) (B1) (B2) (B2) (A1)
                 (A1) (A2) (B1) (A2) (B2) (A1) (B1) (B2) (B2) (A1)
                 (A1) (A2) (B1) (B2) (A1) (B1) (B1) (B2) (A1) (A2)
                 (A1) (B2) (B2) (A1) (B1) (A2) (A1) (B1) (A1) (B2)
                 (B2) (A1) (A2) (B2) (A1) (A2) (B1) (A1) (B1) (A2)
                 (B1) (B2) (A1) (B2) (A1) (B2) (A1) (A2) (A1) (B2)
                 (A2) (B1) (B1) (A1) (B2) (A1) (A1) (A1) (A1) (B2)
                 (A1) (A1) (A1) (B2) (A1)
 The electronic state is 2-B1.
 Alpha  occ. eigenvalues -- -256.52023 -30.29745 -26.13858 -26.13541 -26.08993
 Alpha  occ. eigenvalues --  -24.80203 -24.80203 -24.79580  -3.65877  -2.45128
 Alpha  occ. eigenvalues --   -2.42520  -2.36594  -1.23011  -1.22205  -1.21745
 Alpha  occ. eigenvalues --   -0.54416  -0.54325  -0.53020  -0.51443  -0.50597
 Alpha  occ. eigenvalues --   -0.48225  -0.47805  -0.47637  -0.45370  -0.38025
 Alpha  occ. eigenvalues --   -0.35596  -0.33901
 Alpha virt. eigenvalues --   -0.19587  -0.19015  -0.01433   0.01411   0.03389
 Alpha virt. eigenvalues --    0.03436   0.10533   0.11074   0.13520   0.13532
 Alpha virt. eigenvalues --    0.14271   0.14677   0.14748   0.18284   0.18458
 Alpha virt. eigenvalues --    0.36718   0.36808   0.38908   0.39079   0.39266
 Alpha virt. eigenvalues --    0.39438   0.44014   0.44040   0.45125   0.45438
 Alpha virt. eigenvalues --    0.46377   0.49395   0.49404   0.50429   0.55181
 Alpha virt. eigenvalues --    0.55440   0.56368   0.56680   0.62548   0.62753
 Alpha virt. eigenvalues --    0.63695   0.74332   0.74767   0.78617   0.85011
 Alpha virt. eigenvalues --    1.14073   1.17317   1.17479   1.33018   1.36542
 Alpha virt. eigenvalues --    1.36720   1.38820   1.39121   1.39730   1.40544
 Alpha virt. eigenvalues --    1.40631   1.49808   1.51131   1.51547   1.53140
 Alpha virt. eigenvalues --    1.54803   1.55324   1.55574   1.57311   1.60359
 Alpha virt. eigenvalues --    1.61628   1.63893   1.74650   1.75970   1.76457
 Alpha virt. eigenvalues --    1.77499   1.80075   1.80519   1.83700   1.83810
 Alpha virt. eigenvalues --    1.89398   1.90114   2.00818   2.02006   2.08675
 Alpha virt. eigenvalues --    2.10508   2.17113   2.19811   2.42346   2.60217
 Alpha virt. eigenvalues --    3.00824   3.09976   3.10639   3.87093   3.87438
 Alpha virt. eigenvalues --    3.88669   3.93983   3.96283   3.98805   4.03335
 Alpha virt. eigenvalues --    4.04504   4.07507   4.08010   4.12680   4.12886
 Alpha virt. eigenvalues --    4.13572   4.13908   4.14494   4.15203   4.17419
 Alpha virt. eigenvalues --    4.17586   4.25516   4.25730   4.28622   4.29023
 Alpha virt. eigenvalues --    4.33575   4.42342   4.45050   4.58430   4.69953
 Alpha virt. eigenvalues --    4.72576   4.75170   4.81823   4.90826   4.93366
 Alpha virt. eigenvalues --    4.93926   4.96663   4.97322   5.03384   5.06073
 Alpha virt. eigenvalues --    5.06805   5.09592   5.11348   5.12750   5.18917
 Alpha virt. eigenvalues --    5.20881   5.21214   5.21348   5.23571   5.25637
 Alpha virt. eigenvalues --    5.29705   5.54483   5.54670   5.80623   5.81477
 Alpha virt. eigenvalues --    5.82945   5.84192   5.87997   5.88728   5.89351
 Alpha virt. eigenvalues --    6.04930   6.27453   6.27811   6.29513   6.30898
 Alpha virt. eigenvalues --    6.31333   6.37154   6.40093   6.48248   7.05738
 Alpha virt. eigenvalues --    7.06949   7.13833  10.24719  11.36358  11.36493
 Alpha virt. eigenvalues --   11.36502  11.36582  11.36855  11.37135  11.37558
 Alpha virt. eigenvalues --   11.37637  11.37764  11.38014  11.38144  11.38153
 Alpha virt. eigenvalues --   11.38156  11.38253  11.38310  11.38521  11.38530
 Alpha virt. eigenvalues --   11.39584  11.44138  11.44959  11.45617  11.46026
 Alpha virt. eigenvalues --   11.47500  11.49846  11.54950  11.55125  11.69128
 Alpha virt. eigenvalues --   14.53491  14.53586  14.53915  14.53995  14.54514
 Alpha virt. eigenvalues --   14.54539  14.54948  14.55373  14.55397  14.55973
 Alpha virt. eigenvalues --   14.56906  14.57270  14.74866  14.76227  14.76756
 Alpha virt. eigenvalues --   14.80722  14.81484  14.82019  14.82749  14.85440
 Alpha virt. eigenvalues --   14.89679  15.08145  15.09977  15.17114  15.17237
 Alpha virt. eigenvalues --   15.17729  15.25171  15.40641  15.45841  15.49919
 Alpha virt. eigenvalues --   15.59854  15.71857  15.77609  15.77777  15.82449
 Alpha virt. eigenvalues --   15.83352  15.92718  15.98713  16.01915  16.02475
 Alpha virt. eigenvalues --   16.04852  16.07792  16.22872  16.43698  16.44798
 Alpha virt. eigenvalues --   16.51319  16.58384  16.78856  16.81203  16.81886
 Alpha virt. eigenvalues --   16.85509  16.86276  16.94587  17.02548  17.04793
 Alpha virt. eigenvalues --   34.76039  54.15061  54.16158  54.16510 116.71254
 Alpha virt. eigenvalues --  285.15991 285.17242 285.17794 740.66006
  Beta  occ. eigenvalues -- -256.52003 -30.27465 -26.12872 -26.11175 -26.06615
  Beta  occ. eigenvalues --  -24.80300 -24.80300 -24.79413  -3.60404  -2.40669
  Beta  occ. eigenvalues --   -2.36673  -2.29125  -1.23175  -1.22449  -1.21396
  Beta  occ. eigenvalues --   -0.53894  -0.53537  -0.53264  -0.49837  -0.48432
  Beta  occ. eigenvalues --   -0.48015  -0.48013  -0.46464  -0.45654  -0.33397
  Beta  occ. eigenvalues --   -0.32453
  Beta virt. eigenvalues --   -0.16544  -0.16421  -0.11830  -0.01283   0.01468
  Beta virt. eigenvalues --    0.03374   0.03439   0.10761   0.11286   0.13502
  Beta virt. eigenvalues --    0.13704   0.14264   0.14680   0.14784   0.18328
  Beta virt. eigenvalues --    0.18633   0.36800   0.37280   0.39035   0.39214
  Beta virt. eigenvalues --    0.39402   0.39542   0.44159   0.44913   0.45422
  Beta virt. eigenvalues --    0.46203   0.46475   0.49527   0.50513   0.50561
  Beta virt. eigenvalues --    0.55159   0.55504   0.56560   0.56651   0.62805
  Beta virt. eigenvalues --    0.63106   0.63760   0.74482   0.74731   0.78805
  Beta virt. eigenvalues --    0.85002   1.14204   1.17580   1.18129   1.33063
  Beta virt. eigenvalues --    1.36987   1.37270   1.40290   1.40851   1.40913
  Beta virt. eigenvalues --    1.41175   1.42146   1.50042   1.51642   1.51909
  Beta virt. eigenvalues --    1.53751   1.55247   1.55733   1.56328   1.57430
  Beta virt. eigenvalues --    1.61599   1.64108   1.64130   1.74877   1.76026
  Beta virt. eigenvalues --    1.76921   1.77525   1.80676   1.81044   1.83780
  Beta virt. eigenvalues --    1.85250   1.89888   1.90041   2.01285   2.02319
  Beta virt. eigenvalues --    2.09227   2.11602   2.18759   2.20875   2.43634
  Beta virt. eigenvalues --    2.60794   3.01498   3.10443   3.11438   3.87627
  Beta virt. eigenvalues --    3.87794   3.89261   3.94355   3.96797   3.99650
  Beta virt. eigenvalues --    4.03412   4.05486   4.08175   4.08507   4.12689
  Beta virt. eigenvalues --    4.13020   4.13647   4.14171   4.15031   4.15364
  Beta virt. eigenvalues --    4.17487   4.17701   4.26472   4.27152   4.29474
  Beta virt. eigenvalues --    4.29711   4.34553   4.46602   4.50281   4.59124
  Beta virt. eigenvalues --    4.71657   4.74344   4.75845   4.82735   4.93352
  Beta virt. eigenvalues --    4.95792   4.96732   4.97225   4.97473   5.06751
  Beta virt. eigenvalues --    5.07650   5.08420   5.10355   5.12137   5.14840
  Beta virt. eigenvalues --    5.21457   5.21850   5.22010   5.23030   5.23912
  Beta virt. eigenvalues --    5.26432   5.30085   5.55887   5.56025   5.81141
  Beta virt. eigenvalues --    5.82183   5.83411   5.86470   5.89174   5.89391
  Beta virt. eigenvalues --    5.91023   6.05541   6.27881   6.28821   6.30121
  Beta virt. eigenvalues --    6.31048   6.31995   6.37102   6.39994   6.48337
  Beta virt. eigenvalues --    7.05558   7.07183   7.13825  10.27555  11.36244
  Beta virt. eigenvalues --   11.36374  11.36386  11.36462  11.36720  11.37263
  Beta virt. eigenvalues --   11.37464  11.37679  11.37693  11.37942  11.38164
  Beta virt. eigenvalues --   11.38176  11.38183  11.38262  11.38384  11.38895
  Beta virt. eigenvalues --   11.38949  11.39578  11.43974  11.44827  11.45793
  Beta virt. eigenvalues --   11.45882  11.47521  11.49608  11.54958  11.54985
  Beta virt. eigenvalues --   11.69380  14.53512  14.53797  14.54003  14.54078
  Beta virt. eigenvalues --   14.54575  14.54858  14.55106  14.55472  14.55882
  Beta virt. eigenvalues --   14.56133  14.57305  14.57420  14.74703  14.75949
  Beta virt. eigenvalues --   14.77237  14.81313  14.81913  14.82493  14.82863
  Beta virt. eigenvalues --   14.85433  14.90113  15.10771  15.12687  15.19597
  Beta virt. eigenvalues --   15.24098  15.26094  15.26128  15.43872  15.46435
  Beta virt. eigenvalues --   15.51581  15.61173  15.72091  15.77591  15.78160
  Beta virt. eigenvalues --   15.82902  15.83378  15.93015  15.98936  16.02333
  Beta virt. eigenvalues --   16.02469  16.04649  16.07496  16.22641  16.43859
  Beta virt. eigenvalues --   16.44391  16.51335  16.64203  16.83764  16.85911
  Beta virt. eigenvalues --   16.86781  16.87774  16.91630  16.98689  17.05333
  Beta virt. eigenvalues --   17.06252  34.79170  54.15225  54.16076  54.16386
  Beta virt. eigenvalues --  116.73007 285.16061 285.17207 285.17751 740.66380
          Condensed to atoms (all electrons):
               1          2          3          4
     1  Fe  24.087200   0.234922   0.211148   0.211148
     2  F    0.234922   9.206803  -0.000834  -0.000834
     3  F    0.211148  -0.000834   9.198187  -0.000737
     4  F    0.211148  -0.000834  -0.000737   9.198187
          Atomic-Atomic Spin Densities.
               1          2          3          4
     1  Fe   1.064388  -0.023657  -0.000803  -0.000803
     2  F   -0.023657   0.052421  -0.000216  -0.000216
     3  F   -0.000803  -0.000216  -0.033426   0.000717
     4  F   -0.000803  -0.000216   0.000717  -0.033426
 Mulliken charges and spin densities:
               1          2
     1  Fe   1.255583   1.039126
     2  F   -0.440057   0.028331
     3  F   -0.407763  -0.033728
     4  F   -0.407763  -0.033728
 Sum of Mulliken charges =  -0.00000   1.00000
 Mulliken charges and spin densities with hydrogens summed into heavy atoms:
               1          2
     1  Fe   1.255583   1.039126
     2  F   -0.440057   0.028331
     3  F   -0.407763  -0.033728
     4  F   -0.407763  -0.033728
 Electronic spatial extent (au):  <R**2>=            338.3334
 Charge=              0.0000 electrons
 Dipole moment (field-independent basis, Debye):
    X=              0.0000    Y=              0.0000    Z=              0.1456  Tot=              0.1456
 Quadrupole moment (field-independent basis, Debye-Ang):
   XX=            -27.2329   YY=            -31.7408   ZZ=            -32.3404
   XY=             -0.0000   XZ=             -0.0000   YZ=              0.0000
 Traceless Quadrupole moment (field-independent basis, Debye-Ang):
   XX=              3.2051   YY=             -1.3028   ZZ=             -1.9024
   XY=             -0.0000   XZ=             -0.0000   YZ=              0.0000
 Octapole moment (field-independent basis, Debye-Ang**2):
  XXX=              0.0000  YYY=              0.0000  ZZZ=              5.4099  XYY=             -0.0000
  XXY=              0.0000  XXZ=              0.1125  XZZ=              0.0000  YZZ=             -0.0000
  YYZ=             -4.3422  XYZ=             -0.0000
 Hexadecapole moment (field-independent basis, Debye-Ang**3):
 XXXX=            -21.4322 YYYY=           -150.9960 ZZZZ=           -163.6756 XXXY=             -0.0000
 XXXZ=             -0.0000 YYYX=             -0.0000 YYYZ=              0.0000 ZZZX=             -0.0000
 ZZZY=             -0.0000 XXYY=            -27.9788 XXZZ=            -29.4793 YYZZ=            -52.1876
 XXYZ=             -0.0000 YYXZ=             -0.0000 ZZXY=             -0.0000
 N-N= 2.661616842887D+02 E-N=-4.253312314061D+03  KE= 1.560016106763D+03
 Symmetry A1   KE= 1.135462342760D+03
 Symmetry A2   KE= 2.117079906457D+01
 Symmetry B1   KE= 1.600475046240D+02
 Symmetry B2   KE= 2.433354603138D+02
 Symmetry A1   SP= 2.487472508246D-14
 Symmetry A2   SP= 1.307215994860D-15
 Symmetry B1   SP= 1.000000000000D+00
 Symmetry B2   SP= 4.040860672127D-15
                          Isotropic Fermi Contact Couplings
        Atom                 a.u.       MegaHertz       Gauss      10(-4) cm-1
     1  Fe(57)            -0.18723     -27.15558      -9.68979      -9.05813
     2  F(19)              0.01232      51.82256      18.49158      17.28614
     3  F(19)              0.00369      15.50732       5.53340       5.17269
     4  F(19)              0.00369      15.50732       5.53340       5.17269
 --------------------------------------------------------
       Center         ----  Spin Dipole Couplings  ----
                      3XX-RR        3YY-RR        3ZZ-RR
 --------------------------------------------------------
     1   Atom        1.145822     -2.978780      1.832958
     2   Atom        0.551586     -0.314659     -0.236927
     3   Atom        0.253416     -0.131599     -0.121817
     4   Atom        0.253416     -0.131599     -0.121817
 --------------------------------------------------------
                        XY            XZ            YZ
 --------------------------------------------------------
     1   Atom        0.000000      0.000000     -0.000000
     2   Atom        0.000000      0.000000     -0.000000
     3   Atom        0.000000      0.000000     -0.070796
     4   Atom        0.000000      0.000000      0.070796
 --------------------------------------------------------


 ---------------------------------------------------------------------------------
              Anisotropic Spin Dipole Couplings in Principal Axis System
 ---------------------------------------------------------------------------------

       Atom             a.u.   MegaHertz   Gauss  10(-4) cm-1        Axes

              Baa    -2.9788   -51.571   -18.402   -17.202 -0.0000  1.0000  0.0000
     1 Fe(57) Bbb     1.1458    19.837     7.078     6.617  1.0000  0.0000 -0.0000
              Bcc     1.8330    31.734    11.323    10.585  0.0000 -0.0000  1.0000
 
              Baa    -0.3147  -158.030   -56.389   -52.713 -0.0000  1.0000  0.0000
     2 F(19)  Bbb    -0.2369  -118.991   -42.459   -39.691 -0.0000 -0.0000  1.0000
              Bcc     0.5516   277.021    98.848    92.404  1.0000  0.0000  0.0000
 
              Baa    -0.1977   -99.276   -35.424   -33.115 -0.0000  0.7311  0.6823
     3 F(19)  Bbb    -0.0557   -27.996    -9.990    -9.338  0.0000 -0.6823  0.7311
              Bcc     0.2534   127.272    45.414    42.453  1.0000  0.0000  0.0000
 
              Baa    -0.1977   -99.276   -35.424   -33.115  0.0000  0.7311 -0.6823
     4 F(19)  Bbb    -0.0557   -27.996    -9.990    -9.338  0.0000  0.6823  0.7311
              Bcc     0.2534   127.272    45.414    42.453  1.0000 -0.0000  0.0000
 

 ---------------------------------------------------------------------------------

 Unable to Open any file for archive entry.
 1\1\GINC-TCOPT10\FOpt\UPBE1PBE\def2QZVPP\F3Fe1(2)\HUTTER\01-Aug-2021\0
 \\#N UPBE1PBE/Def2QZVPP scf=tight Int(Grid=ultrafine) OPT FREQ\\Mol jo
 b 1\\0,2\Fe,8.9480106415,8.4910044732,8.4999999998\F,9.7933687796,7.02
 68012274,8.4999999998\F,9.7482416891,9.9531416526,8.4999999993\F,7.281
 6471765,8.5290526468,8.5000000003\\Version=ES64L-G16RevC.01\State=2-B1
 \HF=-1562.9136945\S2=0.762129\S2-1=0.\S2A=0.750091\RMSD=6.842e-09\RMSF
 =3.003e-05\Dipole=-0.0286332,0.0495942,0.\Quadrupole=-1.0800164,-1.302
 9077,2.3829242,0.1930295,0.,0.\PG=C02V [C2(Fe1F1),SGV(F2)]\\@
 The archive entry for this job was punched.


 HICKORY, DICKORY, DOCK
 TWO MICE RAN UP THE CLOCK
 THE CLOCK STRUCK ONE...
 THE OTHER ESCAPED WITH MINOR INJURIES.
 Job cpu time:       0 days  1 hours  6 minutes 58.1 seconds.
 Elapsed time:       0 days  0 hours 11 minutes 13.7 seconds.
 File lengths (MBytes):  RWF=     63 Int=      0 D2E=      0 Chk=      8 Scr=      1
 Normal termination of Gaussian 16 at Sun Aug  1 10:46:38 2021.
 Link1:  Proceeding to internal job step number  2.
 ----------------------------------------------------------------------
 #N Geom=AllCheck Guess=TCheck SCRF=Check GenChk UPBE1PBE/def2QZVPP Fre
 q
 ----------------------------------------------------------------------
 1/10=4,29=7,30=1,38=1,40=1/1,3;
 2/12=2,40=1/2;
 3/5=45,7=202,11=2,14=-4,25=1,30=1,70=2,71=2,74=-13,75=-5,116=2,140=1/1,2,3;
 4/5=101/1;
 5/5=2,32=2,38=6,98=1/2;
 8/6=4,10=90,11=11/1;
 11/6=1,8=1,9=11,15=111,16=1/1,2,10;
 10/6=1/2;
 6/7=2,8=2,9=2,10=2,28=1/1;
 7/8=1,10=1,25=1/1,2,3,16;
 1/10=4,30=1/3;
 99//99;
 Structure from the checkpoint file:  "/data/hutter/SMG16/PBE0/Gau-38055.chk"
 ---------
 Mol job 1
 ---------
 Charge =  0 Multiplicity = 2
 Redundant internal coordinates found in file.  (old form).
 Fe,0,8.9480106415,8.4910044732,8.4999999998
 F,0,9.7933687796,7.0268012274,8.4999999998
 F,0,9.7482416891,9.9531416526,8.4999999993
 F,0,7.2816471765,8.5290526468,8.5000000003
 Recover connectivity data from disk.

 GradGradGradGradGradGradGradGradGradGradGradGradGradGradGradGradGradGrad
 Berny optimization.
 Initialization pass.
                           ----------------------------
                           !    Initial Parameters    !
                           ! (Angstroms and Degrees)  !
 --------------------------                            --------------------------
 ! Name  Definition              Value          Derivative Info.                !
 --------------------------------------------------------------------------------
 ! R1    R(1,2)                  1.6907         calculate D2E/DX2 analytically  !
 ! R2    R(1,3)                  1.6668         calculate D2E/DX2 analytically  !
 ! R3    R(1,4)                  1.6668         calculate D2E/DX2 analytically  !
 ! A1    A(2,1,3)              121.308          calculate D2E/DX2 analytically  !
 ! A2    A(2,1,4)              121.308          calculate D2E/DX2 analytically  !
 ! A3    A(3,1,4)              117.384          calculate D2E/DX2 analytically  !
 ! D1    D(2,1,4,3)            180.0            calculate D2E/DX2 analytically  !
 --------------------------------------------------------------------------------
 Trust Radius=3.00D-01 FncErr=1.00D-07 GrdErr=1.00D-07 EigMax=2.50D+02 EigMin=1.00D-04
 Number of steps in this run=      2 maximum allowed number of steps=      2.
 GradGradGradGradGradGradGradGradGradGradGradGradGradGradGradGradGradGrad

                          Input orientation:                          
 ---------------------------------------------------------------------
 Center     Atomic      Atomic             Coordinates (Angstroms)
 Number     Number       Type             X           Y           Z
 ---------------------------------------------------------------------
      1         26           0        8.948011    8.491004    8.500000
      2          9           0        9.793369    7.026801    8.500000
      3          9           0        9.748242    9.953142    8.500000
      4          9           0        7.281647    8.529053    8.500000
 ---------------------------------------------------------------------
                    Distance matrix (angstroms):
                    1          2          3          4
     1  Fe   0.000000
     2  F    1.690716   0.000000
     3  F    1.666798   2.926688   0.000000
     4  F    1.666798   2.926688   2.848178   0.000000
 Stoichiometry    F3Fe(2)
 Framework group  C2V[C2(FeF),SGV(F2)]
 Deg. of freedom     3
 Full point group                 C2V     NOp   4
 Largest Abelian subgroup         C2V     NOp   4
 Largest concise Abelian subgroup C2      NOp   2
                         Standard orientation:                         
 ---------------------------------------------------------------------
 Center     Atomic      Atomic             Coordinates (Angstroms)
 Number     Number       Type             X           Y           Z
 ---------------------------------------------------------------------
      1         26           0        0.000000   -0.000000   -0.007055
      2          9           0        0.000000   -0.000000   -1.697772
      3          9           0       -0.000000    1.424089    0.859077
      4          9           0        0.000000   -1.424089    0.859077
 ---------------------------------------------------------------------
 Rotational constants (GHZ):           6.5583688           6.1031339           3.1612838
 Standard basis: def2QZVPP (5D, 7F)
 There are   136 symmetry adapted cartesian basis functions of A1  symmetry.
 There are    47 symmetry adapted cartesian basis functions of A2  symmetry.
 There are    69 symmetry adapted cartesian basis functions of B1  symmetry.
 There are    93 symmetry adapted cartesian basis functions of B2  symmetry.
 There are   102 symmetry adapted basis functions of A1  symmetry.
 There are    40 symmetry adapted basis functions of A2  symmetry.
 There are    56 symmetry adapted basis functions of B1  symmetry.
 There are    73 symmetry adapted basis functions of B2  symmetry.
   271 basis functions,   484 primitive gaussians,   345 cartesian basis functions
    27 alpha electrons       26 beta electrons
       nuclear repulsion energy       266.1616842887 Hartrees.
 NAtoms=    4 NActive=    4 NUniq=    3 SFac= 1.78D+00 NAtFMM=   60 NAOKFM=F Big=F
 Integral buffers will be    131072 words long.
 Raffenetti 2 integral format.
 Two-electron integral symmetry is turned on.
 One-electron integrals computed using PRISM.
   4 Symmetry operations used in ECPInt.
 ECPInt:  NShTT=    3160 NPrTT=   10824 LenC2=    3010 LenP2D=    8334.
 LDataN:  DoStor=T MaxTD1= 8 Len=  415
 NBasis=   271 RedAO= T EigKep=  7.18D-04  NBF=   102    40    56    73
 NBsUse=   271 1.00D-06 EigRej= -1.00D+00 NBFU=   102    40    56    73
 Initial guess from the checkpoint file:  "/data/hutter/SMG16/PBE0/Gau-38055.chk"
 B after Tr=     0.000000    0.000000    0.000000
         Rot=    1.000000    0.000000   -0.000000   -0.000000 Ang=   0.00 deg.
 Initial guess orbital symmetries:
 Alpha Orbitals:
       Occupied  (A1) (A1) (A1) (B2) (B1) (A1) (B2) (A1) (A1) (A1)
                 (B2) (B1) (A1) (B2) (A1) (A1) (B2) (A1) (B1) (A2)
                 (A1) (B1) (B2) (B2) (B1) (A2) (A1)
       Virtual   (A1) (B2) (A1) (B1) (B2) (A1) (B1) (A1) (A2) (B1)
                 (A1) (B2) (A1) (B2) (A1) (A1) (B1) (A1) (B2) (A1)
                 (B2) (B1) (A2) (B2) (A1) (B1) (A2) (B1) (A1) (B2)
                 (A1) (A1) (B2) (B1) (B1) (A2) (A1) (B2) (A1) (B2)
                 (A1) (A1) (B2) (A2) (A1) (B2) (B1) (B1) (A2) (A1)
                 (B2) (B2) (A1) (B2) (A1) (B1) (A2) (B1) (A1) (A2)
                 (B1) (A1) (B1) (A2) (B1) (B2) (A1) (B2) (B2) (A1)
                 (A1) (B2) (A1) (B2) (A1) (B1) (B1) (A2) (A1) (B2)
                 (A1) (B2) (A1) (A2) (B2) (A1) (B2) (A1) (A1) (A1)
                 (B1) (B1) (A2) (A2) (B1) (B2) (B2) (A1) (B1) (A1)
                 (B2) (B1) (A2) (A1) (B2) (A1) (B1) (A2) (B2) (A1)
                 (B2) (A1) (A2) (B1) (A2) (B1) (A1) (B2) (A1) (B2)
                 (A1) (A2) (B1) (A2) (B1) (A1) (A2) (B1) (B2) (A1)
                 (B2) (A1) (B2) (A1) (A1) (B2) (B1) (A1) (A2) (B1)
                 (B2) (B1) (A1) (B2) (A2) (B1) (B2) (A1) (B2) (B2)
                 (A1) (A1) (A1) (A2) (B2) (B1) (A1) (B2) (B1) (B2)
                 (A2) (A1) (B1) (A1) (B2) (A2) (B1) (A2) (A1) (A2)
                 (A1) (A1) (B2) (B1) (A2) (B1) (B2) (A1) (B2) (A1)
                 (A2) (B1) (B2) (A2) (B1) (A1) (B2) (B2) (A1) (A1)
                 (A2) (B1) (B2) (A1) (B1) (B1) (A1) (B2) (A2) (A1)
                 (B2) (A1) (B2) (B1) (A2) (B1) (A1) (A1) (B2) (B2)
                 (A1) (A2) (B2) (A1) (A2) (B1) (A1) (B1) (B1) (A2)
                 (B2) (A1) (B2) (A1) (B2) (A1) (A2) (A1) (B1) (B2)
                 (A2) (B1) (A1) (B2) (A1) (A1) (A1) (A1) (B2) (A1)
                 (A1) (A1) (B2) (A1)
 Beta  Orbitals:
       Occupied  (A1) (A1) (B2) (A1) (B1) (B2) (A1) (A1) (A1) (B2)
                 (A1) (B1) (A1) (B2) (A1) (B2) (A1) (A1) (A2) (A1)
                 (B1) (B2) (B1) (B2) (A2) (A1)
       Virtual   (A1) (B2) (B1) (A1) (B1) (B2) (A1) (B1) (A1) (A2)
                 (B1) (A1) (B2) (A1) (B2) (A1) (A1) (B1) (B2) (A1)
                 (B2) (A1) (A2) (B1) (B2) (A1) (B1) (A2) (B1) (A1)
                 (B2) (A1) (A1) (B2) (B1) (B1) (A2) (A1) (B2) (A1)
                 (B2) (A1) (B2) (A1) (A2) (B2) (A1) (A2) (B1) (B2)
                 (A1) (B1) (B2) (A1) (B2) (A1) (B1) (A2) (B1) (A1)
                 (A2) (B1) (A1) (B1) (A2) (B1) (B2) (B2) (A1) (B2)
                 (A1) (A1) (B2) (A1) (B2) (A1) (B1) (B1) (A2) (A1)
                 (B2) (A1) (B2) (A1) (B2) (A2) (A1) (B2) (A1) (A1)
                 (A1) (B1) (A2) (B1) (A2) (B1) (B2) (B2) (A1) (B1)
                 (A1) (B2) (A2) (B1) (B2) (A1) (A1) (A2) (B1) (B2)
                 (A1) (B2) (A1) (A2) (B1) (A2) (B1) (A1) (B2) (B2)
                 (A1) (A1) (A2) (B1) (A2) (A1) (B1) (B1) (A2) (B2)
                 (A1) (B2) (B2) (A1) (A1) (A1) (B2) (B1) (A1) (A2)
                 (B1) (B2) (B1) (A1) (B2) (A2) (B1) (B2) (A1) (B2)
                 (B2) (A1) (A1) (A1) (A2) (B2) (B1) (A1) (B2) (B1)
                 (A2) (A1) (B2) (B1) (A1) (B2) (A2) (B1) (A2) (A1)
                 (A2) (A1) (A1) (B2) (B1) (A2) (B1) (B2) (B2) (A1)
                 (A1) (A2) (B1) (A2) (B2) (A1) (B1) (B2) (B2) (A1)
                 (A1) (A2) (B1) (B2) (A1) (B1) (B1) (B2) (A1) (A2)
                 (A1) (B2) (B2) (A1) (B1) (A2) (A1) (B1) (A1) (B2)
                 (B2) (A1) (A2) (B2) (A1) (A2) (B1) (A1) (B1) (A2)
                 (B1) (B2) (A1) (B2) (A1) (B2) (A1) (A2) (A1) (B2)
                 (A2) (B1) (B1) (A1) (B2) (A1) (A1) (A1) (A1) (B2)
                 (A1) (A1) (A1) (B2) (A1)
 Initial guess <Sx>= 0.0000 <Sy>= 0.0000 <Sz>= 0.5000 <S**2>= 0.7621 S= 0.5060
 Keep R1 and R2 ints in memory in symmetry-blocked form, NReq=850595864.
 Requested convergence on RMS density matrix=1.00D-08 within 128 cycles.
 Requested convergence on MAX density matrix=1.00D-06.
 Requested convergence on             energy=1.00D-06.
 No special actions if energy rises.
 SCF Done:  E(UPBE1PBE) =  -1562.91369450     A.U. after    1 cycles
            NFock=  1  Conv=0.14D-08     -V/T= 2.0019
 <Sx>= 0.0000 <Sy>= 0.0000 <Sz>= 0.5000 <S**2>= 0.7621 S= 0.5060
 <L.S>=  0.00000000000    
 Annihilation of the first spin contaminant:
 S**2 before annihilation     0.7621,   after     0.7501
 DoSCS=F DFT=T ScalE2(SS,OS)=  1.000000  1.000000
 Range of M.O.s used for correlation:     1   271
 NBasis=   271 NAE=    27 NBE=    26 NFC=     0 NFV=     0
 NROrb=    271 NOA=    27 NOB=    26 NVA=   244 NVB=   245

 **** Warning!!: The largest alpha MO coefficient is  0.12552170D+02


 **** Warning!!: The largest beta MO coefficient is  0.12469455D+02

   4 Symmetry operations used in ECPInt.
 ECPInt:  NShTT=    3160 NPrTT=   10824 LenC2=    3010 LenP2D=    8334.
 LDataN:  DoStor=T MaxTD1= 9 Len=  602
 Symmetrizing basis deriv contribution to polar:
 IMax=3 JMax=2 DiffMx= 0.00D+00
 G2DrvN: will do     5 centers at a time, making    1 passes.
 Calling FoFCou, ICntrl=  3107 FMM=F I1Cent=   0 AccDes= 0.00D+00.
 End of G2Drv F.D. properties file   721 does not exist.
 End of G2Drv F.D. properties file   722 does not exist.
 End of G2Drv F.D. properties file   788 does not exist.
          IDoAtm=1111
          Differentiating once with respect to electric field.
                with respect to dipole field.
          Differentiating once with respect to nuclear coordinates.
 Keep R1 and R2 ints in memory in symmetry-blocked form, NReq=850598714.
          There are    12 degrees of freedom in the 1st order CPHF.  IDoFFX=4 NUNeed=    12.
     12 vectors produced by pass  0 Test12= 1.08D-13 8.33D-09 XBig12= 6.86D+01 3.20D+00.
 AX will form    12 AO Fock derivatives at one time.
     12 vectors produced by pass  1 Test12= 1.08D-13 8.33D-09 XBig12= 2.80D+01 9.30D-01.
     12 vectors produced by pass  2 Test12= 1.08D-13 8.33D-09 XBig12= 8.98D-01 3.54D-01.
     12 vectors produced by pass  3 Test12= 1.08D-13 8.33D-09 XBig12= 1.50D-01 1.37D-01.
     12 vectors produced by pass  4 Test12= 1.08D-13 8.33D-09 XBig12= 9.13D-03 2.57D-02.
     12 vectors produced by pass  5 Test12= 1.08D-13 8.33D-09 XBig12= 2.98D-04 5.93D-03.
     12 vectors produced by pass  6 Test12= 1.08D-13 8.33D-09 XBig12= 7.28D-06 9.15D-04.
     12 vectors produced by pass  7 Test12= 1.08D-13 8.33D-09 XBig12= 1.16D-07 9.98D-05.
     12 vectors produced by pass  8 Test12= 1.08D-13 8.33D-09 XBig12= 1.90D-09 1.26D-05.
      9 vectors produced by pass  9 Test12= 1.08D-13 8.33D-09 XBig12= 6.95D-11 2.72D-06.
      6 vectors produced by pass 10 Test12= 1.08D-13 8.33D-09 XBig12= 7.82D-13 2.15D-07.
      1 vectors produced by pass 11 Test12= 1.08D-13 8.33D-09 XBig12= 4.68D-15 1.69D-08.
 InvSVY:  IOpt=1 It=  1 EMax= 5.33D-15
 Solved reduced A of dimension   124 with    12 vectors.
 Isotropic polarizability for W=    0.000000       29.81 Bohr**3.
 End of Minotr F.D. properties file   721 does not exist.
 End of Minotr F.D. properties file   722 does not exist.
 End of Minotr F.D. properties file   788 does not exist.

 **********************************************************************

            Population analysis using the SCF Density.

 **********************************************************************

 Orbital symmetries:
 Alpha Orbitals:
       Occupied  (A1) (A1) (A1) (B2) (B1) (A1) (B2) (A1) (A1) (A1)
                 (B2) (B1) (A1) (B2) (A1) (A1) (B2) (A1) (B1) (A2)
                 (A1) (B1) (B2) (B2) (B1) (A2) (A1)
       Virtual   (A1) (B2) (A1) (B1) (B2) (A1) (B1) (A1) (A2) (B1)
                 (A1) (B2) (A1) (B2) (A1) (A1) (B1) (A1) (B2) (A1)
                 (B2) (B1) (A2) (B2) (A1) (B1) (A2) (B1) (A1) (B2)
                 (A1) (A1) (B2) (B1) (B1) (A2) (A1) (B2) (A1) (B2)
                 (A1) (A1) (B2) (A2) (A1) (B2) (B1) (B1) (A2) (A1)
                 (B2) (B2) (A1) (B2) (A1) (B1) (A2) (B1) (A1) (A2)
                 (B1) (A1) (B1) (A2) (B1) (B2) (A1) (B2) (B2) (A1)
                 (A1) (B2) (A1) (B2) (A1) (B1) (B1) (A2) (A1) (B2)
                 (A1) (B2) (A1) (A2) (B2) (A1) (B2) (A1) (A1) (A1)
                 (B1) (B1) (A2) (A2) (B1) (B2) (B2) (A1) (B1) (A1)
                 (B2) (B1) (A2) (A1) (B2) (A1) (B1) (A2) (B2) (A1)
                 (B2) (A1) (A2) (B1) (A2) (B1) (A1) (B2) (A1) (B2)
                 (A1) (A2) (B1) (A2) (B1) (A1) (A2) (B1) (B2) (A1)
                 (B2) (A1) (B2) (A1) (A1) (B2) (B1) (A1) (A2) (B1)
                 (B2) (B1) (A1) (B2) (A2) (B1) (B2) (A1) (B2) (B2)
                 (A1) (A1) (A1) (A2) (B2) (B1) (A1) (B2) (B1) (B2)
                 (A2) (A1) (B1) (A1) (B2) (A2) (B1) (A2) (A1) (A2)
                 (A1) (A1) (B2) (B1) (A2) (B1) (B2) (A1) (B2) (A1)
                 (A2) (B1) (B2) (A2) (B1) (A1) (B2) (B2) (A1) (A1)
                 (A2) (B1) (B2) (A1) (B1) (B1) (A1) (B2) (A2) (A1)
                 (B2) (A1) (B2) (B1) (A2) (B1) (A1) (A1) (B2) (B2)
                 (A1) (A2) (B2) (A1) (A2) (B1) (A1) (B1) (B1) (A2)
                 (B2) (A1) (B2) (A1) (B2) (A1) (A2) (A1) (B1) (B2)
                 (A2) (B1) (A1) (B2) (A1) (A1) (A1) (A1) (B2) (A1)
                 (A1) (A1) (B2) (A1)
 Beta  Orbitals:
       Occupied  (A1) (A1) (B2) (A1) (B1) (B2) (A1) (A1) (A1) (B2)
                 (A1) (B1) (A1) (B2) (A1) (B2) (A1) (A1) (A2) (A1)
                 (B1) (B2) (B1) (B2) (A2) (A1)
       Virtual   (A1) (B2) (B1) (A1) (B1) (B2) (A1) (B1) (A1) (A2)
                 (B1) (A1) (B2) (A1) (B2) (A1) (A1) (B1) (B2) (A1)
                 (B2) (A1) (A2) (B1) (B2) (A1) (B1) (A2) (B1) (A1)
                 (B2) (A1) (A1) (B2) (B1) (B1) (A2) (A1) (B2) (A1)
                 (B2) (A1) (B2) (A1) (A2) (B2) (A1) (A2) (B1) (B2)
                 (A1) (B1) (B2) (A1) (B2) (A1) (B1) (A2) (B1) (A1)
                 (A2) (B1) (A1) (B1) (A2) (B1) (B2) (B2) (A1) (B2)
                 (A1) (A1) (B2) (A1) (B2) (A1) (B1) (B1) (A2) (A1)
                 (B2) (A1) (B2) (A1) (B2) (A2) (A1) (B2) (A1) (A1)
                 (A1) (B1) (A2) (B1) (A2) (B1) (B2) (B2) (A1) (B1)
                 (A1) (B2) (A2) (B1) (B2) (A1) (A1) (A2) (B1) (B2)
                 (A1) (B2) (A1) (A2) (B1) (A2) (B1) (A1) (B2) (B2)
                 (A1) (A1) (A2) (B1) (A2) (A1) (B1) (B1) (A2) (B2)
                 (A1) (B2) (B2) (A1) (A1) (A1) (B2) (B1) (A1) (A2)
                 (B1) (B2) (B1) (A1) (B2) (A2) (B1) (B2) (A1) (B2)
                 (B2) (A1) (A1) (A1) (A2) (B2) (B1) (A1) (B2) (B1)
                 (A2) (A1) (B2) (B1) (A1) (B2) (A2) (B1) (A2) (A1)
                 (A2) (A1) (A1) (B2) (B1) (A2) (B1) (B2) (B2) (A1)
                 (A1) (A2) (B1) (A2) (B2) (A1) (B1) (B2) (B2) (A1)
                 (A1) (A2) (B1) (B2) (A1) (B1) (B1) (B2) (A1) (A2)
                 (A1) (B2) (B2) (A1) (B1) (A2) (A1) (B1) (A1) (B2)
                 (B2) (A1) (A2) (B2) (A1) (A2) (B1) (A1) (B1) (A2)
                 (B1) (B2) (A1) (B2) (A1) (B2) (A1) (A2) (A1) (B2)
                 (A2) (B1) (B1) (A1) (B2) (A1) (A1) (A1) (A1) (B2)
                 (A1) (A1) (A1) (B2) (A1)
 The electronic state is 2-B1.
 Alpha  occ. eigenvalues -- -256.52024 -30.29745 -26.13858 -26.13541 -26.08993
 Alpha  occ. eigenvalues --  -24.80203 -24.80203 -24.79580  -3.65877  -2.45128
 Alpha  occ. eigenvalues --   -2.42520  -2.36594  -1.23011  -1.22205  -1.21745
 Alpha  occ. eigenvalues --   -0.54416  -0.54325  -0.53020  -0.51443  -0.50597
 Alpha  occ. eigenvalues --   -0.48225  -0.47805  -0.47637  -0.45370  -0.38025
 Alpha  occ. eigenvalues --   -0.35596  -0.33901
 Alpha virt. eigenvalues --   -0.19587  -0.19015  -0.01433   0.01411   0.03389
 Alpha virt. eigenvalues --    0.03436   0.10533   0.11074   0.13520   0.13532
 Alpha virt. eigenvalues --    0.14271   0.14677   0.14748   0.18284   0.18458
 Alpha virt. eigenvalues --    0.36718   0.36808   0.38908   0.39079   0.39266
 Alpha virt. eigenvalues --    0.39438   0.44014   0.44040   0.45125   0.45438
 Alpha virt. eigenvalues --    0.46377   0.49395   0.49404   0.50429   0.55181
 Alpha virt. eigenvalues --    0.55440   0.56368   0.56680   0.62548   0.62753
 Alpha virt. eigenvalues --    0.63695   0.74332   0.74767   0.78617   0.85011
 Alpha virt. eigenvalues --    1.14073   1.17317   1.17479   1.33018   1.36542
 Alpha virt. eigenvalues --    1.36720   1.38820   1.39121   1.39730   1.40544
 Alpha virt. eigenvalues --    1.40631   1.49808   1.51131   1.51547   1.53140
 Alpha virt. eigenvalues --    1.54803   1.55324   1.55574   1.57311   1.60359
 Alpha virt. eigenvalues --    1.61628   1.63893   1.74650   1.75970   1.76457
 Alpha virt. eigenvalues --    1.77499   1.80075   1.80519   1.83700   1.83810
 Alpha virt. eigenvalues --    1.89398   1.90114   2.00818   2.02006   2.08675
 Alpha virt. eigenvalues --    2.10508   2.17113   2.19811   2.42346   2.60217
 Alpha virt. eigenvalues --    3.00824   3.09976   3.10639   3.87093   3.87438
 Alpha virt. eigenvalues --    3.88669   3.93983   3.96283   3.98805   4.03335
 Alpha virt. eigenvalues --    4.04504   4.07507   4.08010   4.12680   4.12886
 Alpha virt. eigenvalues --    4.13572   4.13908   4.14494   4.15203   4.17419
 Alpha virt. eigenvalues --    4.17586   4.25516   4.25730   4.28622   4.29023
 Alpha virt. eigenvalues --    4.33575   4.42342   4.45050   4.58430   4.69953
 Alpha virt. eigenvalues --    4.72576   4.75170   4.81823   4.90826   4.93366
 Alpha virt. eigenvalues --    4.93926   4.96663   4.97322   5.03384   5.06073
 Alpha virt. eigenvalues --    5.06805   5.09592   5.11348   5.12750   5.18917
 Alpha virt. eigenvalues --    5.20881   5.21214   5.21348   5.23571   5.25637
 Alpha virt. eigenvalues --    5.29705   5.54483   5.54670   5.80623   5.81477
 Alpha virt. eigenvalues --    5.82945   5.84192   5.87997   5.88728   5.89351
 Alpha virt. eigenvalues --    6.04930   6.27453   6.27811   6.29513   6.30898
 Alpha virt. eigenvalues --    6.31333   6.37154   6.40093   6.48248   7.05738
 Alpha virt. eigenvalues --    7.06949   7.13833  10.24719  11.36358  11.36493
 Alpha virt. eigenvalues --   11.36502  11.36582  11.36855  11.37135  11.37558
 Alpha virt. eigenvalues --   11.37637  11.37764  11.38014  11.38144  11.38153
 Alpha virt. eigenvalues --   11.38156  11.38253  11.38310  11.38521  11.38530
 Alpha virt. eigenvalues --   11.39584  11.44138  11.44959  11.45617  11.46026
 Alpha virt. eigenvalues --   11.47500  11.49846  11.54950  11.55125  11.69128
 Alpha virt. eigenvalues --   14.53491  14.53586  14.53915  14.53995  14.54514
 Alpha virt. eigenvalues --   14.54539  14.54948  14.55373  14.55397  14.55973
 Alpha virt. eigenvalues --   14.56906  14.57270  14.74866  14.76227  14.76756
 Alpha virt. eigenvalues --   14.80722  14.81484  14.82019  14.82749  14.85440
 Alpha virt. eigenvalues --   14.89679  15.08145  15.09977  15.17114  15.17237
 Alpha virt. eigenvalues --   15.17729  15.25170  15.40640  15.45841  15.49919
 Alpha virt. eigenvalues --   15.59854  15.71857  15.77609  15.77777  15.82449
 Alpha virt. eigenvalues --   15.83352  15.92718  15.98713  16.01915  16.02475
 Alpha virt. eigenvalues --   16.04852  16.07792  16.22872  16.43698  16.44798
 Alpha virt. eigenvalues --   16.51319  16.58384  16.78856  16.81203  16.81886
 Alpha virt. eigenvalues --   16.85509  16.86276  16.94587  17.02548  17.04793
 Alpha virt. eigenvalues --   34.76039  54.15061  54.16158  54.16510 116.71254
 Alpha virt. eigenvalues --  285.15991 285.17242 285.17794 740.66006
  Beta  occ. eigenvalues -- -256.52003 -30.27465 -26.12872 -26.11175 -26.06615
  Beta  occ. eigenvalues --  -24.80300 -24.80300 -24.79413  -3.60404  -2.40669
  Beta  occ. eigenvalues --   -2.36673  -2.29125  -1.23175  -1.22449  -1.21396
  Beta  occ. eigenvalues --   -0.53894  -0.53537  -0.53264  -0.49837  -0.48432
  Beta  occ. eigenvalues --   -0.48015  -0.48013  -0.46464  -0.45654  -0.33397
  Beta  occ. eigenvalues --   -0.32454
  Beta virt. eigenvalues --   -0.16544  -0.16421  -0.11830  -0.01283   0.01468
  Beta virt. eigenvalues --    0.03374   0.03439   0.10761   0.11286   0.13502
  Beta virt. eigenvalues --    0.13704   0.14264   0.14680   0.14784   0.18328
  Beta virt. eigenvalues --    0.18633   0.36800   0.37280   0.39035   0.39214
  Beta virt. eigenvalues --    0.39402   0.39542   0.44159   0.44913   0.45422
  Beta virt. eigenvalues --    0.46203   0.46475   0.49527   0.50513   0.50561
  Beta virt. eigenvalues --    0.55159   0.55504   0.56560   0.56651   0.62805
  Beta virt. eigenvalues --    0.63106   0.63760   0.74482   0.74731   0.78805
  Beta virt. eigenvalues --    0.85002   1.14204   1.17580   1.18129   1.33063
  Beta virt. eigenvalues --    1.36987   1.37270   1.40290   1.40851   1.40913
  Beta virt. eigenvalues --    1.41175   1.42146   1.50042   1.51642   1.51909
  Beta virt. eigenvalues --    1.53751   1.55247   1.55733   1.56328   1.57430
  Beta virt. eigenvalues --    1.61599   1.64108   1.64130   1.74877   1.76026
  Beta virt. eigenvalues --    1.76921   1.77525   1.80676   1.81044   1.83780
  Beta virt. eigenvalues --    1.85250   1.89888   1.90041   2.01285   2.02319
  Beta virt. eigenvalues --    2.09227   2.11602   2.18758   2.20875   2.43634
  Beta virt. eigenvalues --    2.60794   3.01498   3.10443   3.11438   3.87627
  Beta virt. eigenvalues --    3.87794   3.89261   3.94355   3.96797   3.99650
  Beta virt. eigenvalues --    4.03412   4.05486   4.08175   4.08507   4.12689
  Beta virt. eigenvalues --    4.13020   4.13647   4.14171   4.15031   4.15364
  Beta virt. eigenvalues --    4.17487   4.17701   4.26472   4.27152   4.29474
  Beta virt. eigenvalues --    4.29711   4.34553   4.46602   4.50281   4.59124
  Beta virt. eigenvalues --    4.71657   4.74344   4.75845   4.82735   4.93352
  Beta virt. eigenvalues --    4.95792   4.96732   4.97225   4.97473   5.06751
  Beta virt. eigenvalues --    5.07650   5.08420   5.10355   5.12137   5.14840
  Beta virt. eigenvalues --    5.21457   5.21850   5.22010   5.23030   5.23912
  Beta virt. eigenvalues --    5.26432   5.30085   5.55887   5.56025   5.81141
  Beta virt. eigenvalues --    5.82183   5.83411   5.86470   5.89174   5.89390
  Beta virt. eigenvalues --    5.91023   6.05541   6.27881   6.28821   6.30121
  Beta virt. eigenvalues --    6.31048   6.31995   6.37102   6.39994   6.48337
  Beta virt. eigenvalues --    7.05558   7.07183   7.13825  10.27555  11.36244
  Beta virt. eigenvalues --   11.36374  11.36386  11.36462  11.36720  11.37263
  Beta virt. eigenvalues --   11.37464  11.37679  11.37693  11.37942  11.38164
  Beta virt. eigenvalues --   11.38176  11.38183  11.38262  11.38384  11.38895
  Beta virt. eigenvalues --   11.38949  11.39578  11.43974  11.44827  11.45793
  Beta virt. eigenvalues --   11.45882  11.47521  11.49608  11.54958  11.54985
  Beta virt. eigenvalues --   11.69380  14.53512  14.53797  14.54003  14.54078
  Beta virt. eigenvalues --   14.54575  14.54858  14.55106  14.55472  14.55882
  Beta virt. eigenvalues --   14.56133  14.57305  14.57420  14.74703  14.75949
  Beta virt. eigenvalues --   14.77237  14.81313  14.81913  14.82493  14.82863
  Beta virt. eigenvalues --   14.85433  14.90113  15.10771  15.12687  15.19597
  Beta virt. eigenvalues --   15.24098  15.26094  15.26128  15.43872  15.46435
  Beta virt. eigenvalues --   15.51581  15.61173  15.72091  15.77591  15.78160
  Beta virt. eigenvalues --   15.82902  15.83378  15.93015  15.98936  16.02333
  Beta virt. eigenvalues --   16.02469  16.04649  16.07496  16.22641  16.43859
  Beta virt. eigenvalues --   16.44391  16.51335  16.64203  16.83764  16.85911
  Beta virt. eigenvalues --   16.86781  16.87774  16.91630  16.98689  17.05333
  Beta virt. eigenvalues --   17.06252  34.79170  54.15225  54.16076  54.16386
  Beta virt. eigenvalues --  116.73007 285.16061 285.17207 285.17751 740.66380
          Condensed to atoms (all electrons):
               1          2          3          4
     1  Fe  24.087200   0.234922   0.211148   0.211148
     2  F    0.234922   9.206803  -0.000834  -0.000834
     3  F    0.211148  -0.000834   9.198186  -0.000737
     4  F    0.211148  -0.000834  -0.000737   9.198186
          Atomic-Atomic Spin Densities.
               1          2          3          4
     1  Fe   1.064388  -0.023657  -0.000803  -0.000803
     2  F   -0.023657   0.052421  -0.000216  -0.000216
     3  F   -0.000803  -0.000216  -0.033425   0.000717
     4  F   -0.000803  -0.000216   0.000717  -0.033425
 Mulliken charges and spin densities:
               1          2
     1  Fe   1.255583   1.039125
     2  F   -0.440056   0.028331
     3  F   -0.407763  -0.033728
     4  F   -0.407763  -0.033728
 Sum of Mulliken charges =  -0.00000   1.00000
 Mulliken charges and spin densities with hydrogens summed into heavy atoms:
               1          2
     1  Fe   1.255583   1.039125
     2  F   -0.440056   0.028331
     3  F   -0.407763  -0.033728
     4  F   -0.407763  -0.033728
 APT charges:
               1
     1  Fe   1.947686
     2  F   -0.694795
     3  F   -0.626445
     4  F   -0.626445
 Sum of APT charges =  -0.00000
 APT charges with hydrogens summed into heavy atoms:
               1
     1  Fe   1.947686
     2  F   -0.694795
     3  F   -0.626445
     4  F   -0.626445
 Electronic spatial extent (au):  <R**2>=            338.3333
 Charge=             -0.0000 electrons
 Dipole moment (field-independent basis, Debye):
    X=              0.0000    Y=              0.0000    Z=              0.1456  Tot=              0.1456
 Quadrupole moment (field-independent basis, Debye-Ang):
   XX=            -27.2329   YY=            -31.7408   ZZ=            -32.3404
   XY=             -0.0000   XZ=             -0.0000   YZ=             -0.0000
 Traceless Quadrupole moment (field-independent basis, Debye-Ang):
   XX=              3.2051   YY=             -1.3028   ZZ=             -1.9024
   XY=             -0.0000   XZ=             -0.0000   YZ=             -0.0000
 Octapole moment (field-independent basis, Debye-Ang**2):
  XXX=              0.0000  YYY=             -0.0000  ZZZ=              5.4099  XYY=             -0.0000
  XXY=             -0.0000  XXZ=              0.1125  XZZ=              0.0000  YZZ=             -0.0000
  YYZ=             -4.3422  XYZ=             -0.0000
 Hexadecapole moment (field-independent basis, Debye-Ang**3):
 XXXX=            -21.4322 YYYY=           -150.9960 ZZZZ=           -163.6756 XXXY=             -0.0000
 XXXZ=             -0.0000 YYYX=             -0.0000 YYYZ=              0.0000 ZZZX=             -0.0000
 ZZZY=              0.0000 XXYY=            -27.9788 XXZZ=            -29.4793 YYZZ=            -52.1876
 XXYZ=             -0.0000 YYXZ=             -0.0000 ZZXY=             -0.0000
 N-N= 2.661616842887D+02 E-N=-4.253312334243D+03  KE= 1.560016112275D+03
 Symmetry A1   KE= 1.135462345486D+03
 Symmetry A2   KE= 2.117079983193D+01
 Symmetry B1   KE= 1.600475053768D+02
 Symmetry B2   KE= 2.433354615803D+02
 Symmetry A1   SP= 6.008170289816D-15
 Symmetry A2   SP=-2.234087514866D-15
 Symmetry B1   SP= 1.000000000000D+00
 Symmetry B2   SP=-1.242101607590D-15
  Exact polarizability:      21.325       0.000      34.911      -0.000       0.000      33.191
 Approx polarizability:      26.769       0.000      52.467       0.000      -0.000      50.738
                          Isotropic Fermi Contact Couplings
        Atom                 a.u.       MegaHertz       Gauss      10(-4) cm-1
     1  Fe(57)            -0.18723     -27.15561      -9.68980      -9.05814
     2  F(19)              0.01232      51.82371      18.49199      17.28653
     3  F(19)              0.00369      15.50757       5.53349       5.17277
     4  F(19)              0.00369      15.50757       5.53349       5.17277
 --------------------------------------------------------
       Center         ----  Spin Dipole Couplings  ----
                      3XX-RR        3YY-RR        3ZZ-RR
 --------------------------------------------------------
     1   Atom        1.145824     -2.978781      1.832957
     2   Atom        0.551585     -0.314658     -0.236927
     3   Atom        0.253415     -0.131599     -0.121816
     4   Atom        0.253415     -0.131599     -0.121816
 --------------------------------------------------------
                        XY            XZ            YZ
 --------------------------------------------------------
     1   Atom        0.000000      0.000000      0.000000
     2   Atom        0.000000      0.000000      0.000000
     3   Atom        0.000000      0.000000     -0.070795
     4   Atom        0.000000      0.000000      0.070795
 --------------------------------------------------------


 ---------------------------------------------------------------------------------
              Anisotropic Spin Dipole Couplings in Principal Axis System
 ---------------------------------------------------------------------------------

       Atom             a.u.   MegaHertz   Gauss  10(-4) cm-1        Axes

              Baa    -2.9788   -51.571   -18.402   -17.202 -0.0000  1.0000 -0.0000
     1 Fe(57) Bbb     1.1458    19.837     7.079     6.617  1.0000  0.0000 -0.0000
              Bcc     1.8330    31.734    11.323    10.585  0.0000  0.0000  1.0000
 
              Baa    -0.3147  -158.030   -56.389   -52.713 -0.0000  1.0000 -0.0000
     2 F(19)  Bbb    -0.2369  -118.991   -42.459   -39.691 -0.0000  0.0000  1.0000
              Bcc     0.5516   277.020    98.848    92.404  1.0000 -0.0000  0.0000
 
              Baa    -0.1977   -99.276   -35.424   -33.115 -0.0000  0.7311  0.6823
     3 F(19)  Bbb    -0.0557   -27.996    -9.990    -9.338  0.0000 -0.6823  0.7311
              Bcc     0.2534   127.272    45.414    42.453  1.0000  0.0000  0.0000
 
              Baa    -0.1977   -99.276   -35.424   -33.115  0.0000  0.7311 -0.6823
     4 F(19)  Bbb    -0.0557   -27.996    -9.990    -9.338  0.0000  0.6823  0.7311
              Bcc     0.2534   127.272    45.414    42.453  1.0000 -0.0000  0.0000
 

 ---------------------------------------------------------------------------------

   4 Symmetry operations used in ECPInt.
 ECPInt:  NShTT=    3160 NPrTT=   10824 LenC2=    3010 LenP2D=    8334.
 LDataN:  DoStor=T MaxTD1=10 Len=  848
 Calling FoFJK, ICntrl=    100127 FMM=F ISym2X=1 I1Cent= 0 IOpClX= 1 NMat=1 NMatS=1 NMatT=0.
 Full mass-weighted force constant matrix:
 Low frequencies --- -358.4762 -152.3344   -8.9405   -8.6735   -0.0055   -0.0024
 Low frequencies ---    0.0030    6.9263  211.1699
 ******    2 imaginary frequencies (negative Signs) ****** 
 Diagonal vibrational polarizability:
        8.6510870      50.1458984      11.9270245
 Harmonic frequencies (cm**-1), IR intensities (KM/Mole), Raman scattering
 activities (A**4/AMU), depolarization ratios for plane and unpolarized
 incident light, reduced masses (AMU), force constants (mDyne/A),
 and normal coordinates:
                      1                      2                      3
                     B1                     B2                     A1
 Frequencies --   -358.4762              -152.3338               211.1699
 Red. masses --     28.4941                21.9527                21.0240
 Frc consts  --      2.1574                 0.3001                 0.5524
 IR Inten    --     41.3103                34.7980                 5.9029
  Atom  AN      X      Y      Z        X      Y      Z        X      Y      Z
     1  26     0.51   0.00   0.00     0.00  -0.28   0.00    -0.00  -0.00  -0.23
     2   9    -0.51  -0.00  -0.00    -0.00   0.75   0.00     0.00   0.00  -0.26
     3   9    -0.49  -0.00  -0.00    -0.00   0.04  -0.42     0.00  -0.46   0.47
     4   9    -0.49  -0.00  -0.00    -0.00   0.04   0.42     0.00   0.46   0.47
                      4                      5                      6
                     A1                     B2                     A1
 Frequencies --    659.0108               777.8813               806.7562
 Red. masses --     19.6541                23.7090                23.8544
 Frc consts  --      5.0291                 8.4526                 9.1475
 IR Inten    --     36.8046               220.1531               147.1453
  Atom  AN      X      Y      Z        X      Y      Z        X      Y      Z
     1  26     0.00  -0.00  -0.13    -0.00   0.36  -0.00    -0.00   0.00   0.36
     2   9    -0.00   0.00   0.81     0.00   0.05   0.00     0.00   0.00  -0.41
     3   9    -0.00  -0.34  -0.21     0.00  -0.55  -0.36     0.00  -0.49  -0.33
     4   9    -0.00   0.34  -0.21     0.00  -0.55   0.36     0.00   0.49  -0.33

 -------------------
 - Thermochemistry -
 -------------------
 Temperature   298.150 Kelvin.  Pressure   1.00000 Atm.
 Atom     1 has atomic number 26 and mass  55.93494
 Atom     2 has atomic number  9 and mass  18.99840
 Atom     3 has atomic number  9 and mass  18.99840
 Atom     4 has atomic number  9 and mass  18.99840
 Molecular mass:   112.93015 amu.
 Principal axes and moments of inertia in atomic units:
                           1         2         3
     Eigenvalues --   275.18141 295.70729 570.88871
           X            0.00000  -0.00000   1.00000
           Y            0.00000   1.00000   0.00000
           Z            1.00000  -0.00000   0.00000
 This molecule is an asymmetric top.
 Rotational symmetry number  2.
 Rotational temperatures (Kelvin)      0.31475     0.29290     0.15172
 Rotational constants (GHZ):           6.55837     6.10313     3.16128
    2 imaginary frequencies ignored.
 Zero-point vibrational energy      14683.1 (Joules/Mol)
                                    3.50934 (Kcal/Mol)
 Warning -- explicit consideration of   1 degrees of freedom as
           vibrations may cause significant error
 Vibrational temperatures:    303.83   948.17  1119.20  1160.74
          (Kelvin)
 
 Zero-point correction=                           0.005592 (Hartree/Particle)
 Thermal correction to Energy=                    0.009260
 Thermal correction to Enthalpy=                  0.010204
 Thermal correction to Gibbs Free Energy=        -0.022221
 Sum of electronic and zero-point Energies=          -1562.908102
 Sum of electronic and thermal Energies=             -1562.904434
 Sum of electronic and thermal Enthalpies=           -1562.903490
 Sum of electronic and thermal Free Energies=        -1562.935915
 
                     E (Thermal)             CV                S
                      KCal/Mol        Cal/Mol-Kelvin    Cal/Mol-Kelvin
 Total                    5.811             10.023             68.244
 Electronic               0.000              0.000              1.377
 Translational            0.889              2.981             40.080
 Rotational               0.889              2.981             23.967
 Vibrational              4.033              4.061              2.820
 Vibration     1          0.643              1.824              2.034
                       Q            Log10(Q)             Ln(Q)
 Total Bot       0.166268D+11         10.220809         23.534283
 Total V=0       0.621115D+13         12.793172         29.457368
 Vib (Bot)       0.456855D-02         -2.340222         -5.388559
 Vib (Bot)    1  0.940109D+00         -0.026822         -0.061760
 Vib (V=0)       0.170664D+01          0.232142          0.534526
 Vib (V=0)    1  0.156480D+01          0.194460          0.447760
 Electronic      0.200000D+01          0.301030          0.693147
 Translational   0.471703D+08          7.673669         17.669275
 Rotational      0.385773D+05          4.586332         10.560419
 ***** Axes restored to original set *****
 -------------------------------------------------------------------
 Center     Atomic                   Forces (Hartrees/Bohr)
 Number     Number              X              Y              Z
 -------------------------------------------------------------------
      1       26          -0.000040176    0.000069588   -0.000000000
      2        9           0.000020213   -0.000035010   -0.000000000
      3        9          -0.000016967   -0.000032848    0.000000000
      4        9           0.000036931   -0.000001730   -0.000000000
 -------------------------------------------------------------------
 Cartesian Forces:  Max     0.000069588 RMS     0.000030034
 FormGI is forming the generalized inverse of G from B-inverse, IUseBI=4.

 GradGradGradGradGradGradGradGradGradGradGradGradGradGradGradGradGradGrad
 Berny optimization.
 Internal  Forces:  Max     0.000040426 RMS     0.000024990
 Search for a local minimum.
 Step number   1 out of a maximum of    2
 All quantities printed in internal units (Hartrees-Bohrs-Radians)
 Second derivative matrix not updated -- analytic derivatives used.
 The second derivative matrix:
                          R1        R2        R3        A1        A2
           R1           0.26363
           R2           0.00706   0.33059
           R3           0.00706   0.02868   0.33059
           A1           0.00147   0.01800  -0.01163  -0.00503
           A2           0.00147  -0.01163   0.01800   0.03218  -0.00503
           A3          -0.00295  -0.00638  -0.00638  -0.02715  -0.02715
           D1          -0.00000   0.00000   0.00000   0.00000  -0.00000
                          A3        D1
           A3           0.05429
           D1           0.00000  -0.11739
 ITU=  0
     Eigenvalues ---   -0.11739  -0.03978   0.08095   0.26263   0.30448
     Eigenvalues ---    0.36077
 Eigenvalue     1 is  -1.17D-01 should be greater than     0.000000 Eigenvector:
                          D1        R1        R2        A2        A1
   1                    1.00000   0.00000  -0.00000   0.00000  -0.00000
                          R3        A3
   1                   -0.00000  -0.00000
 Eigenvalue     2 is  -3.98D-02 should be greater than     0.000000 Eigenvector:
                          A1        A2        R3        R2        A3
   1                    0.70446  -0.70446   0.06108  -0.06108  -0.00000
                          R1        D1
   1                   -0.00000   0.00000
 Angle between quadratic step and forces=   9.27 degrees.
 Linear search not attempted -- first point.
 Iteration  1 RMS(Cart)=  0.00006057 RMS(Int)=  0.00000000
 Iteration  2 RMS(Cart)=  0.00000000 RMS(Int)=  0.00000000
 ClnCor:  largest displacement from symmetrization is 1.15D-12 for atom     4.
 Variable       Old X    -DE/DX   Delta X   Delta X   Delta X     New X
                                 (Linear)    (Quad)   (Total)
    R1        3.19499   0.00004   0.00000   0.00016   0.00016   3.19515
    R2        3.14979  -0.00004   0.00000  -0.00011  -0.00011   3.14969
    R3        3.14979  -0.00004   0.00000  -0.00011  -0.00011   3.14969
    A1        2.11722  -0.00000   0.00000  -0.00001  -0.00001   2.11722
    A2        2.11722  -0.00000   0.00000  -0.00001  -0.00001   2.11722
    A3        2.04874   0.00000   0.00000   0.00001   0.00001   2.04875
    D1        3.14159  -0.00000   0.00000  -0.00000   0.00000   3.14159
         Item               Value     Threshold  Converged?
 Maximum Force            0.000040     0.000450     YES
 RMS     Force            0.000025     0.000300     YES
 Maximum Displacement     0.000073     0.001800     YES
 RMS     Displacement     0.000061     0.001200     YES
 Predicted change in Energy=-7.141124D-09
 Optimization completed.
    -- Stationary point found.
                           ----------------------------
                           !   Optimized Parameters   !
                           ! (Angstroms and Degrees)  !
 --------------------------                            --------------------------
 ! Name  Definition              Value          Derivative Info.                !
 --------------------------------------------------------------------------------
 ! R1    R(1,2)                  1.6907         -DE/DX =    0.0                 !
 ! R2    R(1,3)                  1.6668         -DE/DX =    0.0                 !
 ! R3    R(1,4)                  1.6668         -DE/DX =    0.0                 !
 ! A1    A(2,1,3)              121.308          -DE/DX =    0.0                 !
 ! A2    A(2,1,4)              121.308          -DE/DX =    0.0                 !
 ! A3    A(3,1,4)              117.384          -DE/DX =    0.0                 !
 ! D1    D(2,1,4,3)            180.0            -DE/DX =    0.0                 !
 --------------------------------------------------------------------------------
 GradGradGradGradGradGradGradGradGradGradGradGradGradGradGradGradGradGrad


 ----------------------------------------------------------------------

 Electric dipole moment (input orientation):
 (Debye = 10**-18 statcoulomb cm , SI units = C m)
                  (au)            (Debye)         (10**-30 SI)
   Tot        0.572671D-01      0.145559D+00      0.485531D+00
   x         -0.286336D-01     -0.727793D-01     -0.242766D+00
   y          0.495948D-01      0.126057D+00      0.420482D+00
   z          0.000000D+00      0.000000D+00      0.000000D+00

 Dipole polarizability, Alpha (input orientation).
 (esu units = cm**3 , SI units = C**2 m**2 J**-1)
 Alpha(0;0):
               (au)            (10**-24 esu)      (10**-40 SI)
   iso        0.298088D+02      0.441721D+01      0.491481D+01
   aniso      0.128134D+02      0.189874D+01      0.211264D+01
   xx         0.344811D+02      0.510958D+01      0.568517D+01
   yx         0.745079D+00      0.110409D+00      0.122847D+00
   yy         0.336208D+02      0.498209D+01      0.554332D+01
   zx         0.000000D+00      0.000000D+00      0.000000D+00
   zy         0.000000D+00      0.000000D+00      0.000000D+00
   zz         0.213245D+02      0.315997D+01      0.351594D+01

 ----------------------------------------------------------------------

 Dipole orientation:
    26         27.66128334         -2.57732669          5.44131568
     9         27.66128334         -2.57732669          2.24632497
     9         29.99187739         -1.23175759          7.07806874
     9         25.33068930         -3.92289579          7.07806874

 Electric dipole moment (dipole orientation):
 (Debye = 10**-18 statcoulomb cm , SI units = C m)
                  (au)            (Debye)         (10**-30 SI)
   Tot        0.572671D-01      0.145559D+00      0.485531D+00
   x          0.000000D+00      0.000000D+00      0.000000D+00
   y          0.000000D+00      0.000000D+00      0.000000D+00
   z          0.572671D-01      0.145559D+00      0.485531D+00

 Dipole polarizability, Alpha (dipole orientation).
 (esu units = cm**3 , SI units = C**2 m**2 J**-1)
 Alpha(0;0):
               (au)            (10**-24 esu)      (10**-40 SI)
   iso        0.298088D+02      0.441721D+01      0.491481D+01
   aniso      0.128134D+02      0.189874D+01      0.211264D+01
   xx         0.315146D+02      0.466998D+01      0.519606D+01
   yx         0.588324D+01      0.871806D+00      0.970015D+00
   yy         0.247212D+02      0.366331D+01      0.407598D+01
   zx         0.000000D+00      0.000000D+00      0.000000D+00
   zy         0.000000D+00      0.000000D+00      0.000000D+00
   zz         0.331906D+02      0.491834D+01      0.547239D+01

 ----------------------------------------------------------------------
 Unable to Open any file for archive entry.
 1\1\GINC-TCOPT10\Freq\UPBE1PBE\def2QZVPP\F3Fe1(2)\HUTTER\01-Aug-2021\0
 \\#N Geom=AllCheck Guess=TCheck SCRF=Check GenChk UPBE1PBE/def2QZVPP F
 req\\Mol job 1\\0,2\Fe,8.9480106415,8.4910044732,8.4999999998\F,9.7933
 687796,7.0268012274,8.4999999998\F,9.7482416891,9.9531416526,8.4999999
 993\F,7.2816471765,8.5290526468,8.5000000003\\Version=ES64L-G16RevC.01
 \State=2-B1\HF=-1562.9136945\S2=0.762129\S2-1=0.\S2A=0.750091\RMSD=1.3
 91e-09\RMSF=3.003e-05\ZeroPoint=0.0055925\Thermal=0.0092602\ETot=-1562
 .9044343\HTot=-1562.9034901\GTot=-1562.9359152\Dipole=-0.0286336,0.049
 5948,0.\DipoleDeriv=2.4810374,0.1840869,0.,0.1840869,2.2684722,0.,0.,0
 .,1.0935471,-0.6704999,0.3125821,0.,0.3125821,-1.0314385,0.,0.,0.,-0.3
 824456,-0.6164604,-0.3911933,0.,-0.4389628,-0.9073252,0.,0.,0.,-0.3555
 507,-1.1940772,-0.1054756,0.,-0.0577061,-0.3297084,0.,0.,0.,-0.3555507
 \Polar=34.4811308,0.7450785,33.6207883,0.,0.,21.3245447\Quadrupole=-1.
 0800148,-1.3029071,2.3829218,0.1930304,0.,0.\PG=C02V [C2(Fe1F1),SGV(F2
 )]\NImag=2\\0.40276240,-0.04743901,0.45754025,0.,0.,-0.13727693,-0.043
 25386,0.12161033,0.,0.06047511,0.12161033,-0.18367737,0.,-0.11729030,0
 .19591028,0.,0.,0.04647183,0.,0.,-0.01577025,-0.05658342,-0.11202876,0
 .,-0.00560216,-0.00572917,0.,0.07771420,-0.10436801,-0.26010230,0.,-0.
 00206473,-0.00912492,0.,0.13066509,0.26331334,0.,0.,0.04540255,0.,0.,-
 0.01535079,0.,0.,-0.01505292,-0.30292513,0.03785744,0.,-0.01161909,0.0
 0140915,0.,-0.01552863,-0.02423236,0.,0.33007285,0.03019670,-0.0137605
 9,0.,-0.00225530,-0.00310799,0.,-0.01290716,0.00591388,0.,-0.01503424,
 0.01095470,0.,0.,0.04540255,0.,0.,-0.01535079,0.,0.,-0.01499883,0.,0.,
 -0.01505292\\0.00004018,-0.00006959,0.,-0.00002021,0.00003501,0.,0.000
 01697,0.00003285,0.,-0.00003693,0.00000173,0.\\\@
 The archive entry for this job was punched.


 UNLESS WE CHANGE DIRECTIONS, WE WILL WIND UP WHERE WE ARE HEADED.
     -- CONFUCIUS
 Job cpu time:       0 days  0 hours 58 minutes 23.9 seconds.
 Elapsed time:       0 days  0 hours  8 minutes  7.0 seconds.
 File lengths (MBytes):  RWF=     80 Int=      0 D2E=      0 Chk=      9 Scr=      1
 Normal termination of Gaussian 16 at Sun Aug  1 10:54:46 2021.
