 Entering Gaussian System, Link 0=g16
 Initial command:
 /sw-ng/spack/opt/spack/linux-opensuse_leap15-sandybridge/pgi-18.10/gaussian-src-16-C.01-zldqaomctopxhethwccpmxmwefdscg3m/g16/l1.exe "/data/hutter/SMG16/PBE0/Gau-6456.inp" -scrdir="/data/hutter/SMG16/PBE0/"
 Entering Link 1 = /sw-ng/spack/opt/spack/linux-opensuse_leap15-sandybridge/pgi-18.10/gaussian-src-16-C.01-zldqaomctopxhethwccpmxmwefdscg3m/g16/l1.exe PID=      6465.
  
 Copyright (c) 1988-2019, Gaussian, Inc.  All Rights Reserved.
  
 This is part of the Gaussian(R) 16 program.  It is based on
 the Gaussian(R) 09 system (copyright 2009, Gaussian, Inc.),
 the Gaussian(R) 03 system (copyright 2003, Gaussian, Inc.),
 the Gaussian(R) 98 system (copyright 1998, Gaussian, Inc.),
 the Gaussian(R) 94 system (copyright 1995, Gaussian, Inc.),
 the Gaussian 92(TM) system (copyright 1992, Gaussian, Inc.),
 the Gaussian 90(TM) system (copyright 1990, Gaussian, Inc.),
 the Gaussian 88(TM) system (copyright 1988, Gaussian, Inc.),
 the Gaussian 86(TM) system (copyright 1986, Carnegie Mellon
 University), and the Gaussian 82(TM) system (copyright 1983,
 Carnegie Mellon University). Gaussian is a federally registered
 trademark of Gaussian, Inc.
  
 This software contains proprietary and confidential information,
 including trade secrets, belonging to Gaussian, Inc.
  
 This software is provided under written license and may be
 used, copied, transmitted, or stored only in accord with that
 written license.
  
 The following legend is applicable only to US Government
 contracts under FAR:
  
                    RESTRICTED RIGHTS LEGEND
  
 Use, reproduction and disclosure by the US Government is
 subject to restrictions as set forth in subparagraphs (a)
 and (c) of the Commercial Computer Software - Restricted
 Rights clause in FAR 52.227-19.
  
 Gaussian, Inc.
 340 Quinnipiac St., Bldg. 40, Wallingford CT 06492
  
  
 ---------------------------------------------------------------
 Warning -- This program may not be used in any manner that
 competes with the business of Gaussian, Inc. or will provide
 assistance to any competitor of Gaussian, Inc.  The licensee
 of this program is prohibited from giving any competitor of
 Gaussian, Inc. access to this program.  By using this program,
 the user acknowledges that Gaussian, Inc. is engaged in the
 business of creating and licensing software in the field of
 computational chemistry and represents and warrants to the
 licensee that it is not a competitor of Gaussian, Inc. and that
 it will not use this program in any manner prohibited above.
 ---------------------------------------------------------------
  

 Cite this work as:
 Gaussian 16, Revision C.01,
 M. J. Frisch, G. W. Trucks, H. B. Schlegel, G. E. Scuseria, 
 M. A. Robb, J. R. Cheeseman, G. Scalmani, V. Barone, 
 G. A. Petersson, H. Nakatsuji, X. Li, M. Caricato, A. V. Marenich, 
 J. Bloino, B. G. Janesko, R. Gomperts, B. Mennucci, H. P. Hratchian, 
 J. V. Ortiz, A. F. Izmaylov, J. L. Sonnenberg, D. Williams-Young, 
 F. Ding, F. Lipparini, F. Egidi, J. Goings, B. Peng, A. Petrone, 
 T. Henderson, D. Ranasinghe, V. G. Zakrzewski, J. Gao, N. Rega, 
 G. Zheng, W. Liang, M. Hada, M. Ehara, K. Toyota, R. Fukuda, 
 J. Hasegawa, M. Ishida, T. Nakajima, Y. Honda, O. Kitao, H. Nakai, 
 T. Vreven, K. Throssell, J. A. Montgomery, Jr., J. E. Peralta, 
 F. Ogliaro, M. J. Bearpark, J. J. Heyd, E. N. Brothers, K. N. Kudin, 
 V. N. Staroverov, T. A. Keith, R. Kobayashi, J. Normand, 
 K. Raghavachari, A. P. Rendell, J. C. Burant, S. S. Iyengar, 
 J. Tomasi, M. Cossi, J. M. Millam, M. Klene, C. Adamo, R. Cammi, 
 J. W. Ochterski, R. L. Martin, K. Morokuma, O. Farkas, 
 J. B. Foresman, and D. J. Fox, Gaussian, Inc., Wallingford CT, 2019.
 
 ******************************************
 Gaussian 16:  ES64L-G16RevC.01  3-Jul-2019
                 1-Aug-2021 
 ******************************************
 %mem=8GB
 %NProcShare=8
 Will use up to    8 processors via shared memory.
 ------------------------------------------------------------
 #N RPBE1PBE/Def2QZVPP scf=tight Int(Grid=ultrafine) OPT FREQ
 ------------------------------------------------------------
 1/18=20,19=15,26=4,38=1/1,3;
 2/9=110,12=2,17=6,18=5,40=1/2;
 3/5=45,7=202,11=2,25=1,30=1,71=1,74=-13,75=-5,116=1/1,2,3;
 4//1;
 5/5=2,32=2,38=5/2;
 6/7=2,8=2,9=2,10=2,28=1/1;
 7//1,2,3,16;
 1/18=20,19=15,26=4/3(2);
 2/9=110/2;
 99//99;
 2/9=110/2;
 3/5=45,7=202,11=2,25=1,30=1,71=1,74=-13,75=-5,116=1/1,2,3;
 4/5=5,16=3,69=1/1;
 5/5=2,32=2,38=5/2;
 7//1,2,3,16;
 1/18=20,19=15,26=4/3(-5);
 2/9=110/2;
 6/7=2,8=2,9=2,10=2,19=2,28=1/1;
 99/9=1/99;
 ---------
 Mol job 1
 ---------
 Symbolic Z-matrix:
 Charge =  0 Multiplicity = 1
 Be                    8.37094   9.5       9.5 
 Be                    10.62906   9.5       9.5 
 F                     9.5       10.62827   9.5 
 F                     9.5       8.37173   9.5 
 F                     6.96556   9.5       9.5 
 F                     12.03444   9.5       9.5 
 

 GradGradGradGradGradGradGradGradGradGradGradGradGradGradGradGradGradGrad
 Berny optimization.
 Initialization pass.
                           ----------------------------
                           !    Initial Parameters    !
                           ! (Angstroms and Degrees)  !
 --------------------------                            --------------------------
 ! Name  Definition              Value          Derivative Info.                !
 --------------------------------------------------------------------------------
 ! R1    R(1,2)                  2.2581         estimate D2E/DX2                !
 ! R2    R(1,3)                  1.5962         estimate D2E/DX2                !
 ! R3    R(1,4)                  1.5962         estimate D2E/DX2                !
 ! R4    R(1,5)                  1.4054         estimate D2E/DX2                !
 ! R5    R(2,3)                  1.5962         estimate D2E/DX2                !
 ! R6    R(2,4)                  1.5962         estimate D2E/DX2                !
 ! R7    R(2,6)                  1.4054         estimate D2E/DX2                !
 ! A1    A(3,1,4)               89.9596         estimate D2E/DX2                !
 ! A2    A(3,1,5)              135.0202         estimate D2E/DX2                !
 ! A3    A(4,1,5)              135.0202         estimate D2E/DX2                !
 ! A4    A(3,2,4)               89.9596         estimate D2E/DX2                !
 ! A5    A(3,2,6)              135.0202         estimate D2E/DX2                !
 ! A6    A(4,2,6)              135.0202         estimate D2E/DX2                !
 ! A7    L(2,1,5,3,-1)         180.0            estimate D2E/DX2                !
 ! A8    L(1,2,6,3,-1)         180.0            estimate D2E/DX2                !
 ! A9    L(2,1,5,3,-2)         180.0            estimate D2E/DX2                !
 ! A10   L(1,2,6,3,-2)         180.0            estimate D2E/DX2                !
 ! D1    D(3,1,5,4)            180.0            estimate D2E/DX2                !
 ! D2    D(3,2,6,4)            180.0            estimate D2E/DX2                !
 --------------------------------------------------------------------------------
 Trust Radius=3.00D-01 FncErr=1.00D-07 GrdErr=1.00D-06 EigMax=2.50D+02 EigMin=1.00D-04
 Number of steps in this run=     29 maximum allowed number of steps=    100.
 GradGradGradGradGradGradGradGradGradGradGradGradGradGradGradGradGradGrad

                          Input orientation:                          
 ---------------------------------------------------------------------
 Center     Atomic      Atomic             Coordinates (Angstroms)
 Number     Number       Type             X           Y           Z
 ---------------------------------------------------------------------
      1          4           0        8.370939    9.500000    9.500000
      2          4           0       10.629061    9.500000    9.500000
      3          9           0        9.500000   10.628266    9.500000
      4          9           0        9.500000    8.371734    9.500000
      5          9           0        6.965564    9.500000    9.500000
      6          9           0       12.034436    9.500000    9.500000
 ---------------------------------------------------------------------
                    Distance matrix (angstroms):
                    1          2          3          4          5
     1  Be   0.000000
     2  Be   2.258122   0.000000
     3  F    1.596171   1.596171   0.000000
     4  F    1.596171   1.596171   2.256531   0.000000
     5  F    1.405375   3.663497   2.774230   2.774230   0.000000
     6  F    3.663497   1.405375   2.774230   2.774230   5.068872
                    6
     6  F    0.000000
 Stoichiometry    Be2F4
 Framework group  D2H[C2'(F.F),C2"(FBe.BeF)]
 Deg. of freedom     3
 Full point group                 D2H     NOp   8
 Largest Abelian subgroup         D2H     NOp   8
 Largest concise Abelian subgroup D2      NOp   4
                         Standard orientation:                         
 ---------------------------------------------------------------------
 Center     Atomic      Atomic             Coordinates (Angstroms)
 Number     Number       Type             X           Y           Z
 ---------------------------------------------------------------------
      1          4           0       -0.000000    0.000000    1.129061
      2          4           0        0.000000    0.000000   -1.129061
      3          9           0        0.000000    1.128266    0.000000
      4          9           0       -0.000000   -1.128266    0.000000
      5          9           0       -0.000000    0.000000    2.534436
      6          9           0        0.000000    0.000000   -2.534436
 ---------------------------------------------------------------------
 Rotational constants (GHZ):          10.4483421           1.8924898           1.6022730
 Standard basis: def2QZVPP (5D, 7F)
 There are    84 symmetry adapted cartesian basis functions of AG  symmetry.
 There are    27 symmetry adapted cartesian basis functions of B1G symmetry.
 There are    33 symmetry adapted cartesian basis functions of B2G symmetry.
 There are    41 symmetry adapted cartesian basis functions of B3G symmetry.
 There are    19 symmetry adapted cartesian basis functions of AU  symmetry.
 There are    68 symmetry adapted cartesian basis functions of B1U symmetry.
 There are    57 symmetry adapted cartesian basis functions of B2U symmetry.
 There are    41 symmetry adapted cartesian basis functions of B3U symmetry.
 There are    65 symmetry adapted basis functions of AG  symmetry.
 There are    23 symmetry adapted basis functions of B1G symmetry.
 There are    28 symmetry adapted basis functions of B2G symmetry.
 There are    34 symmetry adapted basis functions of B3G symmetry.
 There are    17 symmetry adapted basis functions of AU  symmetry.
 There are    54 symmetry adapted basis functions of B1U symmetry.
 There are    45 symmetry adapted basis functions of B2U symmetry.
 There are    34 symmetry adapted basis functions of B3U symmetry.
   300 basis functions,   484 primitive gaussians,   370 cartesian basis functions
    22 alpha electrons       22 beta electrons
       nuclear repulsion energy       178.2541460442 Hartrees.
 NAtoms=    6 NActive=    6 NUniq=    3 SFac= 4.00D+00 NAtFMM=   60 NAOKFM=F Big=F
 Integral buffers will be    131072 words long.
 Raffenetti 2 integral format.
 Two-electron integral symmetry is turned on.
 One-electron integrals computed using PRISM.
   8 Symmetry operations used in ECPInt.
 ECPInt:  NShTT=    4656 NPrTT=   14087 LenC2=    4296 LenP2D=   10222.
 LDataN:  DoStor=T MaxTD1= 8 Len=  415
 NBasis=   300 RedAO= T EigKep=  2.45D-04  NBF=    65    23    28    34    17    54    45    34
 NBsUse=   300 1.00D-06 EigRej= -1.00D+00 NBFU=    65    23    28    34    17    54    45    34
 ExpMin= 4.16D-02 ExpMax= 1.33D+05 ExpMxC= 1.27D+03 IAcc=3 IRadAn=         5 AccDes= 0.00D+00
 Harris functional with IExCor= 1009 and IRadAn=       5 diagonalized for initial guess.
 HarFok:  IExCor= 1009 AccDes= 0.00D+00 IRadAn=         5 IDoV= 1 UseB2=F ITyADJ=14
 ICtDFT=  3500011 ScaDFX=  1.000000  1.000000  1.000000  1.000000
 FoFCou: FMM=F IPFlag=           0 FMFlag=      100000 FMFlg1=           0
         NFxFlg=           0 DoJE=T BraDBF=F KetDBF=T FulRan=T
         wScrn=  0.000000 ICntrl=       500 IOpCl=  0 I1Cent=   200000004 NGrid=           0
         NMat0=    1 NMatS0=      1 NMatT0=    0 NMatD0=    1 NMtDS0=    0 NMtDT0=    0
 Petite list used in FoFCou.
 Initial guess orbital symmetries:
       Occupied  (B2U) (AG) (AG) (B1U) (AG) (B1U) (AG) (B2U) (AG)
                 (B1U) (AG) (B1U) (B3G) (AG) (B1U) (B3U) (B2U)
                 (B1G) (B2G) (B2U) (B3U) (B3G)
       Virtual   (AG) (B3U) (B1U) (B2G) (B2U) (AG) (B3G) (B3U)
                 (B1U) (B2G) (AG) (B2U) (B1U) (B1G) (AG) (B3G)
                 (AU) (B1U) (AG) (B3U) (B2U) (B3G) (B1U) (B2G)
                 (AG) (B1U) (AG) (B2U) (B3U) (B3G) (AG) (B2U) (B1U)
                 (B3U) (B2G) (B1G) (B1U) (AG) (B2U) (B3U) (AG)
                 (B3G) (B1U) (B2G) (B3G) (B3U) (AG) (B1U) (B1G)
                 (AU) (B2G) (B2U) (B1U) (B2G) (B3G) (AG) (AU) (B1G)
                 (B2U) (AG) (B1U) (B3U) (AG) (B3U) (B2U) (B3G)
                 (AG) (B1U) (B3G) (B2U) (B1U) (AG) (B1G) (AG) (B2G)
                 (AU) (B2U) (B3U) (AG) (B1U) (B1U) (B1G) (B2G)
                 (B3U) (B2U) (B1U) (B3G) (AG) (B2G) (B1U) (B3G)
                 (B2U) (B3U) (AU) (AG) (B3G) (B2U) (B1G) (B3U)
                 (AG) (B2G) (B1U) (B2U) (AG) (B3G) (B1U) (AG) (B1U)
                 (B2U) (B1G) (B3G) (B3U) (AG) (B2G) (B2U) (B1U)
                 (B2G) (B1G) (B3U) (AU) (AG) (B3G) (B2U) (B1U)
                 (B1G) (B2U) (B3U) (AU) (AG) (B2G) (B1U) (B3G)
                 (B2U) (B3U) (AG) (B1U) (AG) (B3G) (AG) (B1U) (B1G)
                 (AU) (AG) (B1U) (B2G) (AG) (B2U) (B3U) (B1G) (AU)
                 (B3G) (B3U) (B2G) (AG) (B2U) (B1U) (B1U) (B3G)
                 (B2U) (AG) (B3U) (B1G) (B3U) (B3G) (B2G) (B2U)
                 (AG) (B2U) (B1U) (B1U) (B3G) (AG) (B3U) (B2G)
                 (B2U) (AG) (B1U) (B3G) (AG) (B1U) (AU) (B3G) (B2U)
                 (B1G) (AU) (B3G) (B2G) (B2U) (B3U) (B1G) (AG)
                 (B3U) (B1G) (B2U) (B1U) (B2G) (AG) (AU) (B3U)
                 (B3G) (AG) (B3U) (B2G) (B2U) (AU) (B1G) (AG) (B1U)
                 (B2G) (B1U) (B2U) (B3G) (AG) (B1U) (AG) (B1U)
                 (B1G) (B3G) (B3U) (B2U) (B2G) (B2U) (B1G) (AU)
                 (B1U) (AG) (B3U) (B1G) (B2G) (B1U) (B3G) (AU)
                 (B3U) (B2G) (AG) (B2U) (B3U) (B3G) (AG) (B2U)
                 (B3G) (B1U) (B1U) (AG) (B2U) (AG) (AG) (B1U) (B1G)
                 (AU) (AG) (B1U) (B2G) (AU) (AG) (B3U) (B1G) (B2U)
                 (B3U) (B2G) (B2U) (B3G) (AG) (B1U) (B3G) (B2U)
                 (B1U) (AG) (B2U) (AG) (B1U) (AG) (AG) (B1U) (AG)
                 (B2U) (B1U) (AG)
 The electronic state of the initial guess is 1-AG.
 Requested convergence on RMS density matrix=1.00D-08 within 128 cycles.
 Requested convergence on MAX density matrix=1.00D-06.
 Requested convergence on             energy=1.00D-06.
 No special actions if energy rises.
 SCF Done:  E(RPBE1PBE) =  -429.022861081     A.U. after    8 cycles
            NFock=  8  Conv=0.69D-08     -V/T= 2.0038

 **********************************************************************

            Population analysis using the SCF Density.

 **********************************************************************

 Orbital symmetries:
       Occupied  (B2U) (AG) (B1U) (AG) (AG) (B1U) (AG) (B2U) (AG)
                 (B1U) (AG) (B1U) (B3G) (B3U) (B1G) (B2U) (AG)
                 (B1U) (B2G) (B2U) (B3U) (B3G)
       Virtual   (AG) (B3U) (B1U) (B2U) (B2G) (AG) (B3G) (B3U)
                 (B1U) (B2G) (AG) (B1G) (B2U) (B1U) (AG) (AU) (B1U)
                 (B3G) (B2U) (B3U) (AG) (B3G) (B2G) (B1U) (AG)
                 (B1U) (B2U) (AG) (B3U) (B3G) (AG) (B2U) (B3U)
                 (B1G) (B1U) (B2G) (AG) (B2U) (B3U) (B1U) (AG)
                 (B3G) (B1U) (B2G) (B3G) (B3U) (B1U) (AG) (AU)
                 (B1G) (B2G) (B2U) (B1U) (B2G) (B3G) (AG) (B1G)
                 (AU) (B2U) (B3U) (AG) (AG) (B1U) (B3U) (B2U) (B3G)
                 (B1U) (AG) (B3G) (B2U) (B1U) (AG) (B1G) (B2G)
                 (AG) (B2U) (AU) (B3U) (B1U) (B1G) (AG) (B2G) (B1U)
                 (B3U) (B2U) (B1U) (AG) (B3G) (B2G) (B1U) (B3G)
                 (B3U) (AU) (B2U) (AG) (B1G) (B2U) (B3G) (B3U)
                 (B2G) (AG) (B1U) (B2U) (AG) (B3G) (B1U) (AG) (B1U)
                 (B2U) (B1G) (AG) (B3G) (B3U) (B2G) (B1G) (B1U)
                 (B2U) (B2G) (AU) (B3U) (B2U) (B3G) (AG) (B1U)
                 (B1G) (B2U) (B3U) (AU) (AG) (B2G) (B1U) (B3U)
                 (B3G) (B2U) (AG) (B1U) (AG) (B3G) (AG) (B1U) (B1G)
                 (AU) (AG) (B1U) (B2G) (AG) (B2U) (B3U) (B1G) (AU)
                 (B3G) (B3U) (B2G) (B2U) (AG) (B1U) (B1U) (B3G)
                 (AG) (B2U) (B3U) (B1G) (B3U) (B3G) (B2G) (B2U)
                 (AG) (B2U) (B1U) (B1U) (B3G) (AG) (B3U) (B2G)
                 (B2U) (AG) (B3G) (B1U) (AG) (AU) (B3G) (B1U) (B1G)
                 (AU) (B2U) (B3U) (B2U) (B2G) (B1G) (AG) (B3U)
                 (AG) (B2G) (B3G) (B2U) (B3U) (B2G) (B1G) (AU)
                 (AG) (B1U) (B3U) (B2G) (B3G) (B2U) (B1U) (AU)
                 (B1G) (AG) (B1U) (B2U) (B3G) (AG) (B1U) (AG) (B1U)
                 (B1G) (B2U) (B3U) (B3G) (B1G) (B2G) (B2U) (AU)
                 (B1U) (B3U) (B2G) (B3G) (AG) (B3U) (B1G) (AG)
                 (B1U) (AU) (B2G) (B2U) (B3U) (B3G) (B3G) (B2U)
                 (AG) (B1U) (B1U) (AG) (B2U) (AG) (AG) (B1U) (B1G)
                 (AU) (AG) (B1U) (B2G) (AU) (B3U) (AG) (B1G) (B2U)
                 (B3U) (B2U) (B2G) (B3G) (AG) (B1U) (B3G) (B2U)
                 (B1U) (AG) (B2U) (AG) (B1U) (AG) (AG) (B1U) (AG)
                 (B2U) (B1U) (AG)
 The electronic state is 1-AG.
 Alpha  occ. eigenvalues --  -24.82015 -24.82015 -24.73804 -24.73804  -4.12052
 Alpha  occ. eigenvalues --   -4.12034  -1.28460  -1.25308  -1.18282  -1.18281
 Alpha  occ. eigenvalues --   -0.58991  -0.56196  -0.55497  -0.53042  -0.49240
 Alpha  occ. eigenvalues --   -0.48534  -0.47836  -0.47499  -0.43090  -0.42793
 Alpha  occ. eigenvalues --   -0.42779  -0.42097
 Alpha virt. eigenvalues --   -0.03330   0.00519   0.03059   0.03840   0.04687
 Alpha virt. eigenvalues --    0.08412   0.08592   0.11232   0.11995   0.13214
 Alpha virt. eigenvalues --    0.14161   0.17778   0.17993   0.18183   0.18353
 Alpha virt. eigenvalues --    0.23027   0.24079   0.24397   0.27491   0.27521
 Alpha virt. eigenvalues --    0.29386   0.35450   0.37619   0.38151   0.39550
 Alpha virt. eigenvalues --    0.40138   0.44078   0.45915   0.47082   0.49499
 Alpha virt. eigenvalues --    0.51658   0.52804   0.53243   0.53301   0.53362
 Alpha virt. eigenvalues --    0.54239   0.57626   0.59264   0.59382   0.59736
 Alpha virt. eigenvalues --    0.64032   0.68281   0.69540   0.75412   0.76087
 Alpha virt. eigenvalues --    0.76500   0.85937   0.86719   0.86999   0.87238
 Alpha virt. eigenvalues --    0.96083   0.98287   0.98758   1.03061   1.04394
 Alpha virt. eigenvalues --    1.06755   1.07623   1.07787   1.12618   1.19064
 Alpha virt. eigenvalues --    1.20180   1.21156   1.22110   1.31278   1.31485
 Alpha virt. eigenvalues --    1.35886   1.36405   1.37488   1.46205   1.47183
 Alpha virt. eigenvalues --    1.54389   1.56848   1.60565   1.65707   1.67429
 Alpha virt. eigenvalues --    1.67972   1.70010   1.74723   1.75589   1.76704
 Alpha virt. eigenvalues --    1.76885   1.79864   1.80411   1.83579   1.85241
 Alpha virt. eigenvalues --    1.87234   1.91738   1.92181   1.97067   2.01085
 Alpha virt. eigenvalues --    2.02798   2.05880   2.07135   2.09289   2.14633
 Alpha virt. eigenvalues --    2.23944   2.24502   2.25169   2.41075   2.47383
 Alpha virt. eigenvalues --    2.49456   2.65674   2.88968   2.97663   3.01919
 Alpha virt. eigenvalues --    3.05766   3.49053   3.64005   4.03379   4.08351
 Alpha virt. eigenvalues --    4.13953   4.14686   4.16025   4.19431   4.20787
 Alpha virt. eigenvalues --    4.20927   4.20989   4.23431   4.23584   4.23964
 Alpha virt. eigenvalues --    4.25515   4.25777   4.28107   4.31795   4.32274
 Alpha virt. eigenvalues --    4.32381   4.33154   4.34668   4.36359   4.37587
 Alpha virt. eigenvalues --    4.38367   4.46145   4.46164   4.48562   4.56176
 Alpha virt. eigenvalues --    4.57718   4.59556   4.59583   4.67250   4.86420
 Alpha virt. eigenvalues --    5.11061   5.15239   5.19840   5.25881   5.27039
 Alpha virt. eigenvalues --    5.31913   5.35602   5.37074   5.39906   5.41276
 Alpha virt. eigenvalues --    5.49151   5.57414   5.57527   5.58393   5.60671
 Alpha virt. eigenvalues --    5.65914   5.73883   5.78714   5.90861   5.93159
 Alpha virt. eigenvalues --    6.31367   6.39586   6.44804   6.56716   6.60110
 Alpha virt. eigenvalues --    6.60363   6.64188   6.74563   6.84856   7.01020
 Alpha virt. eigenvalues --    7.04403   7.18011  10.48223  10.56199  11.15283
 Alpha virt. eigenvalues --   11.17856  11.23096  11.23325  11.30761  11.31840
 Alpha virt. eigenvalues --   11.31982  11.32223  11.33199  11.33311  11.33473
 Alpha virt. eigenvalues --   11.33828  11.33867  11.33971  11.33976  11.33978
 Alpha virt. eigenvalues --   11.34849  11.35637  11.37660  11.39556  11.40222
 Alpha virt. eigenvalues --   11.40742  11.40769  11.40888  11.41077  11.41241
 Alpha virt. eigenvalues --   11.41332  11.42070  11.42090  11.42167  11.42190
 Alpha virt. eigenvalues --   11.42831  11.43152  11.43152  11.43153  11.43153
 Alpha virt. eigenvalues --   11.61594  11.71750  12.22961  12.33652  12.46554
 Alpha virt. eigenvalues --   12.70517  14.51224  14.55071  14.57683  14.57738
 Alpha virt. eigenvalues --   14.58513  14.59923  14.60713  14.61477  14.61883
 Alpha virt. eigenvalues --   14.63194  14.64441  14.66142  14.66719  14.67853
 Alpha virt. eigenvalues --   14.68031  14.69253  14.69773  14.70162  14.73122
 Alpha virt. eigenvalues --   14.73973  14.76117  14.79287  14.82152  14.82630
 Alpha virt. eigenvalues --   14.83473  14.92670  14.92831  14.99136  15.20137
 Alpha virt. eigenvalues --   15.25358  15.47885  15.50623  15.86302  15.88967
 Alpha virt. eigenvalues --   15.91998  15.95697  15.98239  16.03483  16.04918
 Alpha virt. eigenvalues --   16.05184  16.07224  16.13033  16.20830  16.21012
 Alpha virt. eigenvalues --   16.23662  16.25027  16.25946  16.42170  16.48516
 Alpha virt. eigenvalues --   16.53061  16.58195  16.59048  54.18130  54.18914
 Alpha virt. eigenvalues --   54.34237  54.41722  64.67421  64.70662 285.20678
 Alpha virt. eigenvalues --  285.21062 285.38216 285.48462
          Condensed to atoms (all electrons):
               1          2          3          4          5          6
     1  Be   2.468571  -0.012040   0.220148   0.220148   0.423990  -0.005527
     2  Be  -0.012040   2.468571   0.220148   0.220148  -0.005527   0.423990
     3  F    0.220148   0.220148   8.953416  -0.042595  -0.000553  -0.000553
     4  F    0.220148   0.220148  -0.042595   8.953416  -0.000553  -0.000553
     5  F    0.423990  -0.005527  -0.000553  -0.000553   8.917354  -0.000017
     6  F   -0.005527   0.423990  -0.000553  -0.000553  -0.000017   8.917354
 Mulliken charges:
               1
     1  Be   0.684708
     2  Be   0.684708
     3  F   -0.350012
     4  F   -0.350012
     5  F   -0.334696
     6  F   -0.334696
 Sum of Mulliken charges =  -0.00000
 Mulliken charges with hydrogens summed into heavy atoms:
               1
     1  Be   0.684708
     2  Be   0.684708
     3  F   -0.350012
     4  F   -0.350012
     5  F   -0.334696
     6  F   -0.334696
 Electronic spatial extent (au):  <R**2>=            605.8680
 Charge=             -0.0000 electrons
 Dipole moment (field-independent basis, Debye):
    X=             -0.0000    Y=             -0.0000    Z=              0.0000  Tot=              0.0000
 Quadrupole moment (field-independent basis, Debye-Ang):
   XX=            -25.4680   YY=            -30.6532   ZZ=            -44.3993
   XY=              0.0000   XZ=             -0.0000   YZ=              0.0000
 Traceless Quadrupole moment (field-independent basis, Debye-Ang):
   XX=              8.0388   YY=              2.8537   ZZ=            -10.8925
   XY=              0.0000   XZ=             -0.0000   YZ=              0.0000
 Octapole moment (field-independent basis, Debye-Ang**2):
  XXX=              0.0000  YYY=              0.0000  ZZZ=              0.0000  XYY=              0.0000
  XXY=             -0.0000  XXZ=             -0.0000  XZZ=             -0.0000  YZZ=              0.0000
  YYZ=              0.0000  XYZ=              0.0000
 Hexadecapole moment (field-independent basis, Debye-Ang**3):
 XXXX=            -19.6155 YYYY=           -103.3321 ZZZZ=           -631.2805 XXXY=              0.0000
 XXXZ=             -0.0000 YYYX=              0.0000 YYYZ=              0.0000 ZZZX=             -0.0000
 ZZZY=              0.0000 XXYY=            -20.0169 XXZZ=            -82.3579 YYZZ=            -95.9198
 XXYZ=              0.0000 YYXZ=             -0.0000 ZZXY=              0.0000
 N-N= 1.782541460442D+02 E-N=-1.380087757399D+03  KE= 4.274135458709D+02
 Symmetry AG   KE= 1.890780468567D+02
 Symmetry B1G  KE= 6.401514402710D+00
 Symmetry B2G  KE= 5.883646580985D+00
 Symmetry B3G  KE= 1.192210723479D+01
 Symmetry AU   KE=-3.694379900086D-24
 Symmetry B1U  KE= 1.075390319304D+02
 Symmetry B2U  KE= 9.502494326882D+01
 Symmetry B3U  KE= 1.156425559650D+01
   8 Symmetry operations used in ECPInt.
 ECPInt:  NShTT=    4656 NPrTT=   14087 LenC2=    4296 LenP2D=   10222.
 LDataN:  DoStor=T MaxTD1= 9 Len=  602
 Calling FoFJK, ICntrl=      2127 FMM=F ISym2X=1 I1Cent= 0 IOpClX= 0 NMat=1 NMatS=1 NMatT=0.
 ***** Axes restored to original set *****
 -------------------------------------------------------------------
 Center     Atomic                   Forces (Hartrees/Bohr)
 Number     Number              X              Y              Z
 -------------------------------------------------------------------
      1        4           0.002754399    0.000000000   -0.000000000
      2        4          -0.002754399   -0.000000000    0.000000000
      3        9          -0.000000000   -0.013241119    0.000000000
      4        9          -0.000000000    0.013241119    0.000000000
      5        9           0.016076397   -0.000000000   -0.000000000
      6        9          -0.016076397    0.000000000    0.000000000
 -------------------------------------------------------------------
 Cartesian Forces:  Max     0.016076397 RMS     0.007002892

 GradGradGradGradGradGradGradGradGradGradGradGradGradGradGradGradGradGrad
 Berny optimization.
 FormGI is forming the generalized inverse of G from B-inverse, IUseBI=4.
 Internal  Forces:  Max     0.016076397 RMS     0.006803384
 Search for a local minimum.
 Step number   1 out of a maximum of   29
 All quantities printed in internal units (Hartrees-Bohrs-Radians)
 Mixed Optimization -- RFO/linear search
 Second derivative matrix not updated -- first step.
 The second derivative matrix:
                          R1        R2        R3        R4        R5
           R1           0.05381
           R2           0.00000   0.24070
           R3           0.00000   0.00000   0.24070
           R4           0.00000   0.00000   0.00000   0.44741
           R5           0.00000   0.00000   0.00000   0.00000   0.24070
           R6           0.00000   0.00000   0.00000   0.00000   0.00000
           R7           0.00000   0.00000   0.00000   0.00000   0.00000
           A1           0.00000   0.00000   0.00000   0.00000   0.00000
           A2           0.00000   0.00000   0.00000   0.00000   0.00000
           A3           0.00000   0.00000   0.00000   0.00000   0.00000
           A4           0.00000   0.00000   0.00000   0.00000   0.00000
           A5           0.00000   0.00000   0.00000   0.00000   0.00000
           A6           0.00000   0.00000   0.00000   0.00000   0.00000
           A7           0.00000   0.00000   0.00000   0.00000   0.00000
           A8           0.00000   0.00000   0.00000   0.00000   0.00000
           A9           0.00000   0.00000   0.00000   0.00000   0.00000
           A10          0.00000   0.00000   0.00000   0.00000   0.00000
           D1           0.00000   0.00000   0.00000   0.00000   0.00000
           D2           0.00000   0.00000   0.00000   0.00000   0.00000
                          R6        R7        A1        A2        A3
           R6           0.24070
           R7           0.00000   0.44741
           A1           0.00000   0.00000   0.25000
           A2           0.00000   0.00000   0.00000   0.25000
           A3           0.00000   0.00000   0.00000   0.00000   0.25000
           A4           0.00000   0.00000   0.00000   0.00000   0.00000
           A5           0.00000   0.00000   0.00000   0.00000   0.00000
           A6           0.00000   0.00000   0.00000   0.00000   0.00000
           A7           0.00000   0.00000   0.00000   0.00000   0.00000
           A8           0.00000   0.00000   0.00000   0.00000   0.00000
           A9           0.00000   0.00000   0.00000   0.00000   0.00000
           A10          0.00000   0.00000   0.00000   0.00000   0.00000
           D1           0.00000   0.00000   0.00000   0.00000   0.00000
           D2           0.00000   0.00000   0.00000   0.00000   0.00000
                          A4        A5        A6        A7        A8
           A4           0.25000
           A5           0.00000   0.25000
           A6           0.00000   0.00000   0.25000
           A7           0.00000   0.00000   0.00000   0.05061
           A8           0.00000   0.00000   0.00000   0.00000   0.05061
           A9           0.00000   0.00000   0.00000   0.00000   0.00000
           A10          0.00000   0.00000   0.00000   0.00000   0.00000
           D1           0.00000   0.00000   0.00000   0.00000   0.00000
           D2           0.00000   0.00000   0.00000   0.00000   0.00000
                          A9        A10       D1        D2
           A9           0.05061
           A10          0.00000   0.05061
           D1           0.00000   0.00000   0.05061
           D2           0.00000   0.00000   0.00000   0.05061
 ITU=  0
     Eigenvalues ---    0.05061   0.05061   0.05061   0.11806   0.17816
     Eigenvalues ---    0.17818   0.24170   0.24170   0.24301   0.24305
     Eigenvalues ---    0.44741   0.44741
 RFO step:  Lambda=-3.05981427D-03 EMin= 5.06112969D-02
 Linear search not attempted -- first point.
 Iteration  1 RMS(Cart)=  0.02633402 RMS(Int)=  0.00002651
 Iteration  2 RMS(Cart)=  0.00002025 RMS(Int)=  0.00001682
 Iteration  3 RMS(Cart)=  0.00000000 RMS(Int)=  0.00001682
 ClnCor:  largest displacement from symmetrization is 2.12D-13 for atom     6.
 Variable       Old X    -DE/DX   Delta X   Delta X   Delta X     New X
                                 (Linear)    (Quad)   (Total)
    R1        4.26723  -0.00812   0.00000  -0.06809  -0.06805   4.19918
    R2        3.01633  -0.00847   0.00000  -0.04090  -0.04092   2.97541
    R3        3.01633  -0.00847   0.00000  -0.04090  -0.04092   2.97541
    R4        2.65577  -0.01608   0.00000  -0.03569  -0.03569   2.62009
    R5        3.01633  -0.00847   0.00000  -0.04090  -0.04092   2.97541
    R6        3.01633  -0.00847   0.00000  -0.04090  -0.04092   2.97541
    R7        2.65577  -0.01608   0.00000  -0.03569  -0.03569   2.62009
    A1        1.57009  -0.00181   0.00000   0.00480   0.00483   1.57492
    A2        2.35655   0.00090   0.00000  -0.00240  -0.00241   2.35413
    A3        2.35655   0.00090   0.00000  -0.00240  -0.00241   2.35413
    A4        1.57009  -0.00181   0.00000   0.00480   0.00483   1.57492
    A5        2.35655   0.00090   0.00000  -0.00240  -0.00241   2.35413
    A6        2.35655   0.00090   0.00000  -0.00240  -0.00241   2.35413
    A7        3.14159   0.00000   0.00000   0.00000  -0.00000   3.14159
    A8        3.14159  -0.00000   0.00000  -0.00000  -0.00000   3.14159
    A9        3.14159  -0.00000   0.00000  -0.00000   0.00000   3.14159
   A10        3.14159   0.00000   0.00000   0.00000   0.00000   3.14159
    D1        3.14159   0.00000   0.00000   0.00000   0.00000   3.14159
    D2        3.14159  -0.00000   0.00000  -0.00000   0.00000   3.14159
         Item               Value     Threshold  Converged?
 Maximum Force            0.016076     0.000450     NO 
 RMS     Force            0.006803     0.000300     NO 
 Maximum Displacement     0.069712     0.001800     NO 
 RMS     Displacement     0.026330     0.001200     NO 
 Predicted change in Energy=-1.550695D-03
 GradGradGradGradGradGradGradGradGradGradGradGradGradGradGradGradGradGrad

                          Input orientation:                          
 ---------------------------------------------------------------------
 Center     Atomic      Atomic             Coordinates (Angstroms)
 Number     Number       Type             X           Y           Z
 ---------------------------------------------------------------------
      1          4           0        8.388944    9.500000    9.500000
      2          4           0       10.611056    9.500000    9.500000
      3          9           0        9.500000   10.615645    9.500000
      4          9           0        9.500000    8.384355    9.500000
      5          9           0        7.002454    9.500000    9.500000
      6          9           0       11.997546    9.500000    9.500000
 ---------------------------------------------------------------------
                    Distance matrix (angstroms):
                    1          2          3          4          5
     1  Be   0.000000
     2  Be   2.222112   0.000000
     3  F    1.574519   1.574519   0.000000
     4  F    1.574519   1.574519   2.231291   0.000000
     5  F    1.386490   3.608602   2.735398   2.735398   0.000000
     6  F    3.608602   1.386490   2.735398   2.735398   4.995092
                    6
     6  F    0.000000
 Stoichiometry    Be2F4
 Framework group  D2H[C2'(F.F),C2"(FBe.BeF)]
 Deg. of freedom     3
 Full point group                 D2H     NOp   8
 Largest Abelian subgroup         D2H     NOp   8
 Largest concise Abelian subgroup D2      NOp   4
                         Standard orientation:                         
 ---------------------------------------------------------------------
 Center     Atomic      Atomic             Coordinates (Angstroms)
 Number     Number       Type             X           Y           Z
 ---------------------------------------------------------------------
      1          4           0        0.000000    0.000000    1.111056
      2          4           0        0.000000   -0.000000   -1.111056
      3          9           0       -0.000000    1.115645    0.000000
      4          9           0       -0.000000   -1.115645   -0.000000
      5          9           0        0.000000    0.000000    2.497546
      6          9           0        0.000000   -0.000000   -2.497546
 ---------------------------------------------------------------------
 Rotational constants (GHZ):          10.6860636           1.9492824           1.6485624
 Standard basis: def2QZVPP (5D, 7F)
 There are    84 symmetry adapted cartesian basis functions of AG  symmetry.
 There are    27 symmetry adapted cartesian basis functions of B1G symmetry.
 There are    33 symmetry adapted cartesian basis functions of B2G symmetry.
 There are    41 symmetry adapted cartesian basis functions of B3G symmetry.
 There are    19 symmetry adapted cartesian basis functions of AU  symmetry.
 There are    68 symmetry adapted cartesian basis functions of B1U symmetry.
 There are    57 symmetry adapted cartesian basis functions of B2U symmetry.
 There are    41 symmetry adapted cartesian basis functions of B3U symmetry.
 There are    65 symmetry adapted basis functions of AG  symmetry.
 There are    23 symmetry adapted basis functions of B1G symmetry.
 There are    28 symmetry adapted basis functions of B2G symmetry.
 There are    34 symmetry adapted basis functions of B3G symmetry.
 There are    17 symmetry adapted basis functions of AU  symmetry.
 There are    54 symmetry adapted basis functions of B1U symmetry.
 There are    45 symmetry adapted basis functions of B2U symmetry.
 There are    34 symmetry adapted basis functions of B3U symmetry.
   300 basis functions,   484 primitive gaussians,   370 cartesian basis functions
    22 alpha electrons       22 beta electrons
       nuclear repulsion energy       180.7160206772 Hartrees.
 NAtoms=    6 NActive=    6 NUniq=    3 SFac= 4.00D+00 NAtFMM=   60 NAOKFM=F Big=F
 Integral buffers will be    131072 words long.
 Raffenetti 2 integral format.
 Two-electron integral symmetry is turned on.
 One-electron integrals computed using PRISM.
   8 Symmetry operations used in ECPInt.
 ECPInt:  NShTT=    4656 NPrTT=   14087 LenC2=    4306 LenP2D=   10280.
 LDataN:  DoStor=T MaxTD1= 8 Len=  415
 NBasis=   300 RedAO= T EigKep=  2.26D-04  NBF=    65    23    28    34    17    54    45    34
 NBsUse=   300 1.00D-06 EigRej= -1.00D+00 NBFU=    65    23    28    34    17    54    45    34
 Initial guess from the checkpoint file:  "/data/hutter/SMG16/PBE0/Gau-6465.chk"
 B after Tr=     0.000000    0.000000    0.000000
         Rot=    1.000000    0.000000   -0.000000   -0.000000 Ang=   0.00 deg.
 Initial guess orbital symmetries:
       Occupied  (B2U) (AG) (B1U) (AG) (AG) (B1U) (AG) (B2U) (AG)
                 (B1U) (AG) (B1U) (B3G) (B3U) (B1G) (B2U) (AG)
                 (B1U) (B2G) (B2U) (B3U) (B3G)
       Virtual   (AG) (B3U) (B1U) (B2U) (B2G) (AG) (B3G) (B3U)
                 (B1U) (B2G) (AG) (B1G) (B2U) (B1U) (AG) (AU) (B1U)
                 (B3G) (B2U) (B3U) (AG) (B3G) (B2G) (B1U) (AG)
                 (B1U) (B2U) (AG) (B3U) (B3G) (AG) (B2U) (B3U)
                 (B1G) (B1U) (B2G) (AG) (B2U) (B3U) (B1U) (AG)
                 (B3G) (B1U) (B2G) (B3G) (B3U) (B1U) (AG) (AU)
                 (B1G) (B2G) (B2U) (B1U) (B2G) (B3G) (AG) (B1G)
                 (AU) (B2U) (B3U) (AG) (AG) (B1U) (B3U) (B2U) (B3G)
                 (B1U) (AG) (B3G) (B2U) (B1U) (AG) (B1G) (B2G)
                 (AG) (B2U) (AU) (B3U) (B1U) (B1G) (AG) (B2G) (B1U)
                 (B3U) (B2U) (B1U) (AG) (B3G) (B2G) (B1U) (B3G)
                 (B3U) (AU) (B2U) (AG) (B1G) (B2U) (B3G) (B3U)
                 (B2G) (AG) (B1U) (B2U) (AG) (B3G) (B1U) (AG) (B1U)
                 (B2U) (B1G) (AG) (B3G) (B3U) (B2G) (B1G) (B1U)
                 (B2U) (B2G) (AU) (B3U) (B2U) (B3G) (AG) (B1U)
                 (B1G) (B2U) (B3U) (AU) (AG) (B2G) (B1U) (B3U)
                 (B3G) (B2U) (AG) (B1U) (AG) (B3G) (AG) (B1U) (B1G)
                 (AU) (AG) (B1U) (B2G) (AG) (B2U) (B3U) (B1G) (AU)
                 (B3G) (B3U) (B2G) (B2U) (AG) (B1U) (B1U) (B3G)
                 (AG) (B2U) (B3U) (B1G) (B3U) (B3G) (B2G) (B2U)
                 (AG) (B2U) (B1U) (B1U) (B3G) (AG) (B3U) (B2G)
                 (B2U) (AG) (B3G) (B1U) (AG) (AU) (B3G) (B1U) (B1G)
                 (AU) (B2U) (B3U) (B2U) (B2G) (B1G) (AG) (B3U)
                 (AG) (B2G) (B3G) (B2U) (B3U) (B2G) (B1G) (AU)
                 (AG) (B1U) (B3U) (B2G) (B3G) (B2U) (B1U) (AU)
                 (B1G) (AG) (B1U) (B2U) (B3G) (AG) (B1U) (AG) (B1U)
                 (B1G) (B2U) (B3U) (B3G) (B1G) (B2G) (B2U) (AU)
                 (B1U) (B3U) (B2G) (B3G) (AG) (B3U) (B1G) (AG)
                 (B1U) (AU) (B2G) (B2U) (B3U) (B3G) (B3G) (B2U)
                 (AG) (B1U) (B1U) (AG) (B2U) (AG) (AG) (B1U) (B1G)
                 (AU) (AG) (B1U) (B2G) (AU) (B3U) (AG) (B1G) (B2U)
                 (B3U) (B2U) (B2G) (B3G) (AG) (B1U) (B3G) (B2U)
                 (B1U) (AG) (B2U) (AG) (B1U) (AG) (AG) (B1U) (AG)
                 (B2U) (B1U) (AG)
 ExpMin= 4.16D-02 ExpMax= 1.33D+05 ExpMxC= 1.27D+03 IAcc=3 IRadAn=         5 AccDes= 0.00D+00
 Harris functional with IExCor= 1009 and IRadAn=       5 diagonalized for initial guess.
 HarFok:  IExCor= 1009 AccDes= 0.00D+00 IRadAn=         5 IDoV= 1 UseB2=F ITyADJ=14
 ICtDFT=  3500011 ScaDFX=  1.000000  1.000000  1.000000  1.000000
 FoFCou: FMM=F IPFlag=           0 FMFlag=      100000 FMFlg1=           0
         NFxFlg=           0 DoJE=T BraDBF=F KetDBF=T FulRan=T
         wScrn=  0.000000 ICntrl=       500 IOpCl=  0 I1Cent=   200000004 NGrid=           0
         NMat0=    1 NMatS0=      1 NMatT0=    0 NMatD0=    1 NMtDS0=    0 NMtDT0=    0
 Petite list used in FoFCou.
 Requested convergence on RMS density matrix=1.00D-08 within 128 cycles.
 Requested convergence on MAX density matrix=1.00D-06.
 Requested convergence on             energy=1.00D-06.
 No special actions if energy rises.
 SCF Done:  E(RPBE1PBE) =  -429.024982270     A.U. after    7 cycles
            NFock=  7  Conv=0.71D-08     -V/T= 2.0034
   8 Symmetry operations used in ECPInt.
 ECPInt:  NShTT=    4656 NPrTT=   14087 LenC2=    4306 LenP2D=   10280.
 LDataN:  DoStor=T MaxTD1= 9 Len=  602
 Calling FoFJK, ICntrl=      2127 FMM=F ISym2X=1 I1Cent= 0 IOpClX= 0 NMat=1 NMatS=1 NMatT=0.
 ***** Axes restored to original set *****
 -------------------------------------------------------------------
 Center     Atomic                   Forces (Hartrees/Bohr)
 Number     Number              X              Y              Z
 -------------------------------------------------------------------
      1        4           0.006429313   -0.000000000   -0.000000000
      2        4          -0.006429313    0.000000000    0.000000000
      3        9          -0.000000000   -0.004234514    0.000000000
      4        9          -0.000000000    0.004234514    0.000000000
      5        9           0.003638964   -0.000000000   -0.000000000
      6        9          -0.003638964    0.000000000    0.000000000
 -------------------------------------------------------------------
 Cartesian Forces:  Max     0.006429313 RMS     0.002838412

 GradGradGradGradGradGradGradGradGradGradGradGradGradGradGradGradGradGrad
 Berny optimization.
 Using GEDIIS/GDIIS optimizer.
 FormGI is forming the generalized inverse of G from B-inverse, IUseBI=4.
 Internal  Forces:  Max     0.005302745 RMS     0.002242405
 Search for a local minimum.
 Step number   2 out of a maximum of   29
 All quantities printed in internal units (Hartrees-Bohrs-Radians)
 Mixed Optimization -- RFO/linear search
 Update second derivatives using D2CorX and points    1    2
 DE= -2.12D-03 DEPred=-1.55D-03 R= 1.37D+00
 TightC=F SS=  1.41D+00  RLast= 1.18D-01 DXNew= 5.0454D-01 3.5426D-01
 Trust test= 1.37D+00 RLast= 1.18D-01 DXMaxT set to 3.54D-01
 The second derivative matrix:
                          R1        R2        R3        R4        R5
           R1           0.05353
           R2          -0.00415   0.22317
           R3          -0.00415  -0.01754   0.22317
           R4          -0.00103  -0.01774  -0.01774   0.44381
           R5          -0.00415  -0.01754  -0.01754  -0.01774   0.22317
           R6          -0.00415  -0.01754  -0.01754  -0.01774  -0.01754
           R7          -0.00103  -0.01774  -0.01774  -0.00361  -0.01774
           A1           0.00470   0.01000   0.01000   0.02064   0.01000
           A2          -0.00235  -0.00500  -0.00500  -0.01032  -0.00500
           A3          -0.00235  -0.00500  -0.00500  -0.01032  -0.00500
           A4           0.00470   0.01000   0.01000   0.02064   0.01000
           A5          -0.00235  -0.00500  -0.00500  -0.01032  -0.00500
           A6          -0.00235  -0.00500  -0.00500  -0.01032  -0.00500
           A7           0.00000   0.00000   0.00000   0.00000   0.00000
           A8           0.00000   0.00000   0.00000   0.00000   0.00000
           A9          -0.00000  -0.00000  -0.00000  -0.00000  -0.00000
           A10          0.00000   0.00000   0.00000   0.00000   0.00000
           D1           0.00000   0.00000   0.00000   0.00000   0.00000
           D2          -0.00000  -0.00000  -0.00000  -0.00000  -0.00000
                          R6        R7        A1        A2        A3
           R6           0.22317
           R7          -0.01774   0.44381
           A1           0.01000   0.02064   0.25203
           A2          -0.00500  -0.01032  -0.00102   0.25051
           A3          -0.00500  -0.01032  -0.00102   0.00051   0.25051
           A4           0.01000   0.02064   0.00203  -0.00102  -0.00102
           A5          -0.00500  -0.01032  -0.00102   0.00051   0.00051
           A6          -0.00500  -0.01032  -0.00102   0.00051   0.00051
           A7           0.00000   0.00000   0.00000  -0.00000  -0.00000
           A8           0.00000   0.00000   0.00000  -0.00000  -0.00000
           A9          -0.00000  -0.00000  -0.00000   0.00000   0.00000
           A10          0.00000   0.00000   0.00000  -0.00000  -0.00000
           D1           0.00000   0.00000   0.00000  -0.00000  -0.00000
           D2          -0.00000  -0.00000  -0.00000   0.00000   0.00000
                          A4        A5        A6        A7        A8
           A4           0.25203
           A5          -0.00102   0.25051
           A6          -0.00102   0.00051   0.25051
           A7           0.00000  -0.00000  -0.00000   0.05061
           A8           0.00000  -0.00000  -0.00000   0.00000   0.05061
           A9          -0.00000   0.00000   0.00000  -0.00000  -0.00000
           A10          0.00000  -0.00000  -0.00000   0.00000   0.00000
           D1           0.00000  -0.00000  -0.00000   0.00000   0.00000
           D2          -0.00000   0.00000   0.00000  -0.00000  -0.00000
                          A9        A10       D1        D2
           A9           0.05061
           A10         -0.00000   0.05061
           D1          -0.00000   0.00000   0.05061
           D2           0.00000  -0.00000  -0.00000   0.05061
 ITU=  1  0
 Use linear search instead of GDIIS.
     Eigenvalues ---    0.05061   0.05061   0.05061   0.07974   0.17798
     Eigenvalues ---    0.17807   0.23031   0.24172   0.24173   0.24307
     Eigenvalues ---    0.44590   0.44741
 RFO step:  Lambda=-1.96809956D-04 EMin= 5.06112969D-02
 Quartic linear search produced a step of  0.55080.
 Iteration  1 RMS(Cart)=  0.01963887 RMS(Int)=  0.00006843
 Iteration  2 RMS(Cart)=  0.00005578 RMS(Int)=  0.00003301
 Iteration  3 RMS(Cart)=  0.00000000 RMS(Int)=  0.00003301
 ClnCor:  largest displacement from symmetrization is 1.85D-13 for atom     6.
 Variable       Old X    -DE/DX   Delta X   Delta X   Delta X     New X
                                 (Linear)    (Quad)   (Total)
    R1        4.19918  -0.00530  -0.03748  -0.03224  -0.06963   4.12955
    R2        2.97541  -0.00318  -0.02254  -0.00545  -0.02802   2.94739
    R3        2.97541  -0.00318  -0.02254  -0.00545  -0.02802   2.94739
    R4        2.62009  -0.00364  -0.01966   0.00524  -0.01441   2.60567
    R5        2.97541  -0.00318  -0.02254  -0.00545  -0.02802   2.94739
    R6        2.97541  -0.00318  -0.02254  -0.00545  -0.02802   2.94739
    R7        2.62009  -0.00364  -0.01966   0.00524  -0.01441   2.60567
    A1        1.57492   0.00039   0.00266   0.01164   0.01436   1.58928
    A2        2.35413  -0.00019  -0.00133  -0.00582  -0.00718   2.34695
    A3        2.35413  -0.00019  -0.00133  -0.00582  -0.00718   2.34695
    A4        1.57492   0.00039   0.00266   0.01164   0.01436   1.58928
    A5        2.35413  -0.00019  -0.00133  -0.00582  -0.00718   2.34695
    A6        2.35413  -0.00019  -0.00133  -0.00582  -0.00718   2.34695
    A7        3.14159   0.00000  -0.00000   0.00000   0.00000   3.14159
    A8        3.14159   0.00000  -0.00000   0.00000   0.00000   3.14159
    A9        3.14159  -0.00000   0.00000  -0.00000   0.00000   3.14159
   A10        3.14159   0.00000   0.00000   0.00000   0.00000   3.14159
    D1        3.14159   0.00000   0.00000   0.00000   0.00000   3.14159
    D2        3.14159  -0.00000   0.00000  -0.00000   0.00000   3.14159
         Item               Value     Threshold  Converged?
 Maximum Force            0.005303     0.000450     NO 
 RMS     Force            0.002242     0.000300     NO 
 Maximum Displacement     0.049230     0.001800     NO 
 RMS     Displacement     0.019630     0.001200     NO 
 Predicted change in Energy=-4.589059D-04
 GradGradGradGradGradGradGradGradGradGradGradGradGradGradGradGradGradGrad

                          Input orientation:                          
 ---------------------------------------------------------------------
 Center     Atomic      Atomic             Coordinates (Angstroms)
 Number     Number       Type             X           Y           Z
 ---------------------------------------------------------------------
      1          4           0        8.407368    9.500000    9.500000
      2          4           0       10.592632    9.500000    9.500000
      3          9           0        9.500000   10.613012    9.500000
      4          9           0        9.500000    8.386988    9.500000
      5          9           0        7.028506    9.500000    9.500000
      6          9           0       11.971494    9.500000    9.500000
 ---------------------------------------------------------------------
                    Distance matrix (angstroms):
                    1          2          3          4          5
     1  Be   0.000000
     2  Be   2.185263   0.000000
     3  F    1.559692   1.559692   0.000000
     4  F    1.559692   1.559692   2.226023   0.000000
     5  F    1.378863   3.564126   2.710550   2.710550   0.000000
     6  F    3.564126   1.378863   2.710550   2.710550   4.942989
                    6
     6  F    0.000000
 Stoichiometry    Be2F4
 Framework group  D2H[C2'(F.F),C2"(FBe.BeF)]
 Deg. of freedom     3
 Full point group                 D2H     NOp   8
 Largest Abelian subgroup         D2H     NOp   8
 Largest concise Abelian subgroup D2      NOp   4
                         Standard orientation:                         
 ---------------------------------------------------------------------
 Center     Atomic      Atomic             Coordinates (Angstroms)
 Number     Number       Type             X           Y           Z
 ---------------------------------------------------------------------
      1          4           0        0.000000   -0.000000    1.092632
      2          4           0        0.000000   -0.000000   -1.092632
      3          9           0        0.000000    1.113012    0.000000
      4          9           0       -0.000000   -1.113012    0.000000
      5          9           0        0.000000   -0.000000    2.471494
      6          9           0        0.000000   -0.000000   -2.471494
 ---------------------------------------------------------------------
 Rotational constants (GHZ):          10.7366974           1.9927126           1.6807654
 Standard basis: def2QZVPP (5D, 7F)
 There are    84 symmetry adapted cartesian basis functions of AG  symmetry.
 There are    27 symmetry adapted cartesian basis functions of B1G symmetry.
 There are    33 symmetry adapted cartesian basis functions of B2G symmetry.
 There are    41 symmetry adapted cartesian basis functions of B3G symmetry.
 There are    19 symmetry adapted cartesian basis functions of AU  symmetry.
 There are    68 symmetry adapted cartesian basis functions of B1U symmetry.
 There are    57 symmetry adapted cartesian basis functions of B2U symmetry.
 There are    41 symmetry adapted cartesian basis functions of B3U symmetry.
 There are    65 symmetry adapted basis functions of AG  symmetry.
 There are    23 symmetry adapted basis functions of B1G symmetry.
 There are    28 symmetry adapted basis functions of B2G symmetry.
 There are    34 symmetry adapted basis functions of B3G symmetry.
 There are    17 symmetry adapted basis functions of AU  symmetry.
 There are    54 symmetry adapted basis functions of B1U symmetry.
 There are    45 symmetry adapted basis functions of B2U symmetry.
 There are    34 symmetry adapted basis functions of B3U symmetry.
   300 basis functions,   484 primitive gaussians,   370 cartesian basis functions
    22 alpha electrons       22 beta electrons
       nuclear repulsion energy       182.2346111795 Hartrees.
 NAtoms=    6 NActive=    6 NUniq=    3 SFac= 4.00D+00 NAtFMM=   60 NAOKFM=F Big=F
 Integral buffers will be    131072 words long.
 Raffenetti 2 integral format.
 Two-electron integral symmetry is turned on.
 One-electron integrals computed using PRISM.
   8 Symmetry operations used in ECPInt.
 ECPInt:  NShTT=    4656 NPrTT=   14087 LenC2=    4314 LenP2D=   10308.
 LDataN:  DoStor=T MaxTD1= 8 Len=  415
 NBasis=   300 RedAO= T EigKep=  2.08D-04  NBF=    65    23    28    34    17    54    45    34
 NBsUse=   300 1.00D-06 EigRej= -1.00D+00 NBFU=    65    23    28    34    17    54    45    34
 Initial guess from the checkpoint file:  "/data/hutter/SMG16/PBE0/Gau-6465.chk"
 B after Tr=    -0.000000   -0.000000   -0.000000
         Rot=    1.000000   -0.000000    0.000000    0.000000 Ang=   0.00 deg.
 Initial guess orbital symmetries:
       Occupied  (B2U) (AG) (B1U) (AG) (AG) (B1U) (AG) (B2U) (AG)
                 (B1U) (AG) (B1U) (B3G) (B3U) (B1G) (B2U) (AG)
                 (B1U) (B2G) (B2U) (B3U) (B3G)
       Virtual   (AG) (B3U) (B1U) (B2U) (B2G) (AG) (B3G) (B3U)
                 (B1U) (B2G) (AG) (B1G) (AG) (B1U) (B2U) (AU) (B1U)
                 (B3G) (B2U) (B3U) (AG) (B3G) (B2G) (B1U) (AG)
                 (B1U) (B2U) (AG) (B3U) (B3G) (AG) (B2U) (B3U)
                 (B1G) (B1U) (B2G) (AG) (B3U) (B2U) (B1U) (AG)
                 (B3G) (B1U) (B2G) (B3G) (B3U) (B1U) (AG) (AU)
                 (B1G) (B2G) (B2U) (B1U) (B2G) (B3G) (B1G) (AU)
                 (AG) (B2U) (B3U) (AG) (AG) (B1U) (B2U) (B3U) (B3G)
                 (B1U) (AG) (B3G) (B2U) (B1U) (AG) (B1G) (B2G)
                 (AG) (B2U) (AU) (B3U) (B1G) (AG) (B1U) (B2G) (B1U)
                 (B3U) (B2U) (B1U) (AG) (B3G) (B2G) (B1U) (B3G)
                 (B3U) (AU) (B2U) (AG) (B1G) (B2U) (B3G) (B3U)
                 (B2G) (AG) (B1U) (B2U) (AG) (B3G) (B1U) (AG) (B1U)
                 (B2U) (B1G) (B3G) (AG) (B3U) (B2G) (B1G) (B2U)
                 (B1U) (B2G) (AU) (B3U) (B2U) (B3G) (AG) (B1U)
                 (B1G) (B3U) (AU) (B2U) (AG) (B2G) (B1U) (B3G)
                 (B3U) (B2U) (AG) (B3G) (AG) (B1U) (AG) (B1U) (B1G)
                 (AU) (AG) (B1U) (B2G) (AG) (B2U) (B3U) (B1G) (AU)
                 (B3G) (B2G) (B3U) (B2U) (AG) (B1U) (B1U) (B3G)
                 (B2U) (AG) (B3U) (B1G) (B3U) (B3G) (B2G) (B2U)
                 (AG) (B2U) (B1U) (B1U) (B3G) (AG) (B3U) (B2G)
                 (AG) (B2U) (B1U) (B3G) (AU) (AG) (B3G) (B1G) (B1U)
                 (AU) (B2U) (B3U) (AG) (B2U) (B2G) (B1G) (B3U)
                 (AG) (B2G) (B3G) (B2U) (B3U) (B1G) (B2G) (AU)
                 (AG) (B1U) (B3U) (B2G) (B3G) (B2U) (AU) (B1G)
                 (AG) (B1U) (B1U) (B2U) (B3G) (AG) (B1U) (AG) (B1U)
                 (B1G) (B2U) (B3G) (B3U) (B1G) (B2G) (B2U) (AU)
                 (B1U) (B3U) (B2G) (AG) (B3G) (B1G) (B3U) (AG)
                 (AU) (B1U) (B2G) (B2U) (B3U) (B3G) (B3G) (B2U)
                 (AG) (B1U) (B1U) (AG) (B2U) (AG) (AG) (B1U) (B1G)
                 (AU) (AG) (B1U) (B2G) (AU) (B3U) (AG) (B1G) (B2U)
                 (B3U) (B2U) (B2G) (B3G) (AG) (B1U) (B3G) (B2U)
                 (AG) (B1U) (B2U) (AG) (B1U) (AG) (AG) (B1U) (B2U)
                 (AG) (B1U) (AG)
 ExpMin= 4.16D-02 ExpMax= 1.33D+05 ExpMxC= 1.27D+03 IAcc=3 IRadAn=         5 AccDes= 0.00D+00
 Harris functional with IExCor= 1009 and IRadAn=       5 diagonalized for initial guess.
 HarFok:  IExCor= 1009 AccDes= 0.00D+00 IRadAn=         5 IDoV= 1 UseB2=F ITyADJ=14
 ICtDFT=  3500011 ScaDFX=  1.000000  1.000000  1.000000  1.000000
 FoFCou: FMM=F IPFlag=           0 FMFlag=      100000 FMFlg1=           0
         NFxFlg=           0 DoJE=T BraDBF=F KetDBF=T FulRan=T
         wScrn=  0.000000 ICntrl=       500 IOpCl=  0 I1Cent=   200000004 NGrid=           0
         NMat0=    1 NMatS0=      1 NMatT0=    0 NMatD0=    1 NMtDS0=    0 NMtDT0=    0
 Petite list used in FoFCou.
 Requested convergence on RMS density matrix=1.00D-08 within 128 cycles.
 Requested convergence on MAX density matrix=1.00D-06.
 Requested convergence on             energy=1.00D-06.
 No special actions if energy rises.
 SCF Done:  E(RPBE1PBE) =  -429.025452481     A.U. after    7 cycles
            NFock=  7  Conv=0.41D-08     -V/T= 2.0033
   8 Symmetry operations used in ECPInt.
 ECPInt:  NShTT=    4656 NPrTT=   14087 LenC2=    4314 LenP2D=   10308.
 LDataN:  DoStor=T MaxTD1= 9 Len=  602
 Calling FoFJK, ICntrl=      2127 FMM=F ISym2X=1 I1Cent= 0 IOpClX= 0 NMat=1 NMatS=1 NMatT=0.
 ***** Axes restored to original set *****
 -------------------------------------------------------------------
 Center     Atomic                   Forces (Hartrees/Bohr)
 Number     Number              X              Y              Z
 -------------------------------------------------------------------
      1        4           0.004124083    0.000000000   -0.000000000
      2        4          -0.004124083    0.000000000    0.000000000
      3        9          -0.000000000    0.000022442    0.000000000
      4        9          -0.000000000   -0.000022442    0.000000000
      5        9          -0.002064566   -0.000000000   -0.000000000
      6        9           0.002064566    0.000000000    0.000000000
 -------------------------------------------------------------------
 Cartesian Forces:  Max     0.004124083 RMS     0.001537350

 GradGradGradGradGradGradGradGradGradGradGradGradGradGradGradGradGradGrad
 Berny optimization.
 Using GEDIIS/GDIIS optimizer.
 FormGI is forming the generalized inverse of G from B-inverse, IUseBI=4.
 Internal  Forces:  Max     0.002064566 RMS     0.000773456
 Search for a local minimum.
 Step number   3 out of a maximum of   29
 All quantities printed in internal units (Hartrees-Bohrs-Radians)
 Mixed Optimization -- En-DIIS/RFO-DIIS
 Update second derivatives using D2CorX and points    1    2    3
 DE= -4.70D-04 DEPred=-4.59D-04 R= 1.02D+00
 TightC=F SS=  1.41D+00  RLast= 9.50D-02 DXNew= 5.9579D-01 2.8497D-01
 Trust test= 1.02D+00 RLast= 9.50D-02 DXMaxT set to 3.54D-01
 The second derivative matrix:
                          R1        R2        R3        R4        R5
           R1           0.06144
           R2          -0.00258   0.21825
           R3          -0.00258  -0.02245   0.21825
           R4           0.01609  -0.01192  -0.01192   0.47919
           R5          -0.00258  -0.02245  -0.02245  -0.01192   0.21825
           R6          -0.00258  -0.02245  -0.02245  -0.01192  -0.02245
           R7           0.01609  -0.01192  -0.01192   0.03178  -0.01192
           A1           0.01212   0.01754   0.01754   0.03358   0.01754
           A2          -0.00606  -0.00877  -0.00877  -0.01679  -0.00877
           A3          -0.00606  -0.00877  -0.00877  -0.01679  -0.00877
           A4           0.01212   0.01754   0.01754   0.03358   0.01754
           A5          -0.00606  -0.00877  -0.00877  -0.01679  -0.00877
           A6          -0.00606  -0.00877  -0.00877  -0.01679  -0.00877
           A7           0.00000   0.00000   0.00000   0.00000   0.00000
           A8           0.00000   0.00000   0.00000   0.00000   0.00000
           A9          -0.00000  -0.00000  -0.00000  -0.00000  -0.00000
           A10          0.00000   0.00000   0.00000   0.00000   0.00000
           D1           0.00000   0.00000   0.00000   0.00000   0.00000
           D2          -0.00000  -0.00000  -0.00000  -0.00000  -0.00000
                          R6        R7        A1        A2        A3
           R6           0.21825
           R7          -0.01192   0.47919
           A1           0.01754   0.03358   0.25177
           A2          -0.00877  -0.01679  -0.00089   0.25044
           A3          -0.00877  -0.01679  -0.00089   0.00044   0.25044
           A4           0.01754   0.03358   0.00177  -0.00089  -0.00089
           A5          -0.00877  -0.01679  -0.00089   0.00044   0.00044
           A6          -0.00877  -0.01679  -0.00089   0.00044   0.00044
           A7           0.00000   0.00000   0.00000  -0.00000  -0.00000
           A8           0.00000   0.00000   0.00000  -0.00000  -0.00000
           A9          -0.00000  -0.00000  -0.00000   0.00000   0.00000
           A10          0.00000   0.00000   0.00000  -0.00000  -0.00000
           D1           0.00000   0.00000   0.00000  -0.00000  -0.00000
           D2          -0.00000  -0.00000  -0.00000   0.00000   0.00000
                          A4        A5        A6        A7        A8
           A4           0.25177
           A5          -0.00089   0.25044
           A6          -0.00089   0.00044   0.25044
           A7           0.00000  -0.00000  -0.00000   0.05061
           A8           0.00000  -0.00000  -0.00000   0.00000   0.05061
           A9          -0.00000   0.00000   0.00000  -0.00000  -0.00000
           A10          0.00000  -0.00000  -0.00000   0.00000   0.00000
           D1           0.00000  -0.00000  -0.00000   0.00000   0.00000
           D2          -0.00000   0.00000   0.00000  -0.00000  -0.00000
                          A9        A10       D1        D2
           A9           0.05061
           A10         -0.00000   0.05061
           D1          -0.00000   0.00000   0.05061
           D2           0.00000  -0.00000  -0.00000   0.05061
 ITU=  1  1  0
 Use linear search instead of GDIIS.
     Eigenvalues ---    0.05061   0.05061   0.05061   0.06916   0.17773
     Eigenvalues ---    0.17812   0.23781   0.24171   0.24178   0.24316
     Eigenvalues ---    0.44741   0.51421
 RFO step:  Lambda=-3.83713882D-05 EMin= 5.06112969D-02
 Quartic linear search produced a step of  0.10499.
 Iteration  1 RMS(Cart)=  0.00321836 RMS(Int)=  0.00000582
 Iteration  2 RMS(Cart)=  0.00000438 RMS(Int)=  0.00000295
 Iteration  3 RMS(Cart)=  0.00000000 RMS(Int)=  0.00000295
 ClnCor:  largest displacement from symmetrization is 3.99D-13 for atom     4.
 Variable       Old X    -DE/DX   Delta X   Delta X   Delta X     New X
                                 (Linear)    (Quad)   (Total)
    R1        4.12955  -0.00137  -0.00731  -0.00929  -0.01659   4.11296
    R2        2.94739  -0.00023  -0.00294  -0.00154  -0.00448   2.94291
    R3        2.94739  -0.00023  -0.00294  -0.00154  -0.00448   2.94291
    R4        2.60567   0.00206  -0.00151   0.00470   0.00319   2.60886
    R5        2.94739  -0.00023  -0.00294  -0.00154  -0.00448   2.94291
    R6        2.94739  -0.00023  -0.00294  -0.00154  -0.00448   2.94291
    R7        2.60567   0.00206  -0.00151   0.00470   0.00319   2.60886
    A1        1.58928   0.00050   0.00151   0.00339   0.00491   1.59418
    A2        2.34695  -0.00025  -0.00075  -0.00170  -0.00245   2.34450
    A3        2.34695  -0.00025  -0.00075  -0.00170  -0.00245   2.34450
    A4        1.58928   0.00050   0.00151   0.00339   0.00491   1.59418
    A5        2.34695  -0.00025  -0.00075  -0.00170  -0.00245   2.34450
    A6        2.34695  -0.00025  -0.00075  -0.00170  -0.00245   2.34450
    A7        3.14159   0.00000   0.00000   0.00000   0.00000   3.14159
    A8        3.14159   0.00000   0.00000   0.00000   0.00000   3.14159
    A9        3.14159  -0.00000   0.00000  -0.00000   0.00000   3.14159
   A10        3.14159   0.00000   0.00000   0.00000   0.00000   3.14159
    D1        3.14159   0.00000   0.00000   0.00000   0.00000   3.14159
    D2        3.14159  -0.00000   0.00000  -0.00000   0.00000   3.14159
         Item               Value     Threshold  Converged?
 Maximum Force            0.002065     0.000450     NO 
 RMS     Force            0.000773     0.000300     NO 
 Maximum Displacement     0.008296     0.001800     NO 
 RMS     Displacement     0.003217     0.001200     NO 
 Predicted change in Energy=-2.404055D-05
 GradGradGradGradGradGradGradGradGradGradGradGradGradGradGradGradGradGrad

                          Input orientation:                          
 ---------------------------------------------------------------------
 Center     Atomic      Atomic             Coordinates (Angstroms)
 Number     Number       Type             X           Y           Z
 ---------------------------------------------------------------------
      1          4           0        8.411759    9.500000    9.500000
      2          4           0       10.588241    9.500000    9.500000
      3          9           0        9.500000   10.613992    9.500000
      4          9           0        9.500000    8.386008    9.500000
      5          9           0        7.031208    9.500000    9.500000
      6          9           0       11.968792    9.500000    9.500000
 ---------------------------------------------------------------------
                    Distance matrix (angstroms):
                    1          2          3          4          5
     1  Be   0.000000
     2  Be   2.176483   0.000000
     3  F    1.557321   1.557321   0.000000
     4  F    1.557321   1.557321   2.227984   0.000000
     5  F    1.380551   3.557034   2.708489   2.708489   0.000000
     6  F    3.557034   1.380551   2.708489   2.708489   4.937584
                    6
     6  F    0.000000
 Stoichiometry    Be2F4
 Framework group  D2H[C2'(F.F),C2"(FBe.BeF)]
 Deg. of freedom     3
 Full point group                 D2H     NOp   8
 Largest Abelian subgroup         D2H     NOp   8
 Largest concise Abelian subgroup D2      NOp   4
                         Standard orientation:                         
 ---------------------------------------------------------------------
 Center     Atomic      Atomic             Coordinates (Angstroms)
 Number     Number       Type             X           Y           Z
 ---------------------------------------------------------------------
      1          4           0        0.000000    0.000000    1.088241
      2          4           0        0.000000    0.000000   -1.088241
      3          9           0        0.000000    1.113992    0.000000
      4          9           0       -0.000000   -1.113992    0.000000
      5          9           0        0.000000    0.000000    2.468792
      6          9           0        0.000000    0.000000   -2.468792
 ---------------------------------------------------------------------
 Rotational constants (GHZ):          10.7178115           1.9980686           1.6841086
 Standard basis: def2QZVPP (5D, 7F)
 There are    84 symmetry adapted cartesian basis functions of AG  symmetry.
 There are    27 symmetry adapted cartesian basis functions of B1G symmetry.
 There are    33 symmetry adapted cartesian basis functions of B2G symmetry.
 There are    41 symmetry adapted cartesian basis functions of B3G symmetry.
 There are    19 symmetry adapted cartesian basis functions of AU  symmetry.
 There are    68 symmetry adapted cartesian basis functions of B1U symmetry.
 There are    57 symmetry adapted cartesian basis functions of B2U symmetry.
 There are    41 symmetry adapted cartesian basis functions of B3U symmetry.
 There are    65 symmetry adapted basis functions of AG  symmetry.
 There are    23 symmetry adapted basis functions of B1G symmetry.
 There are    28 symmetry adapted basis functions of B2G symmetry.
 There are    34 symmetry adapted basis functions of B3G symmetry.
 There are    17 symmetry adapted basis functions of AU  symmetry.
 There are    54 symmetry adapted basis functions of B1U symmetry.
 There are    45 symmetry adapted basis functions of B2U symmetry.
 There are    34 symmetry adapted basis functions of B3U symmetry.
   300 basis functions,   484 primitive gaussians,   370 cartesian basis functions
    22 alpha electrons       22 beta electrons
       nuclear repulsion energy       182.3528433940 Hartrees.
 NAtoms=    6 NActive=    6 NUniq=    3 SFac= 4.00D+00 NAtFMM=   60 NAOKFM=F Big=F
 Integral buffers will be    131072 words long.
 Raffenetti 2 integral format.
 Two-electron integral symmetry is turned on.
 One-electron integrals computed using PRISM.
   8 Symmetry operations used in ECPInt.
 ECPInt:  NShTT=    4656 NPrTT=   14087 LenC2=    4314 LenP2D=   10308.
 LDataN:  DoStor=T MaxTD1= 8 Len=  415
 NBasis=   300 RedAO= T EigKep=  2.04D-04  NBF=    65    23    28    34    17    54    45    34
 NBsUse=   300 1.00D-06 EigRej= -1.00D+00 NBFU=    65    23    28    34    17    54    45    34
 Initial guess from the checkpoint file:  "/data/hutter/SMG16/PBE0/Gau-6465.chk"
 B after Tr=     0.000000    0.000000    0.000000
         Rot=    1.000000   -0.000000    0.000000    0.000000 Ang=   0.00 deg.
 Initial guess orbital symmetries:
       Occupied  (B2U) (AG) (B1U) (AG) (AG) (B1U) (AG) (B2U) (AG)
                 (B1U) (AG) (B1U) (B3G) (B3U) (B1G) (B2U) (AG)
                 (B1U) (B2G) (B2U) (B3U) (B3G)
       Virtual   (AG) (B3U) (B1U) (B2U) (B2G) (AG) (B3G) (B3U)
                 (B1U) (B2G) (AG) (B1G) (AG) (B1U) (B2U) (AU) (B1U)
                 (B3G) (B2U) (B3U) (AG) (B3G) (B2G) (B1U) (AG)
                 (B1U) (B2U) (AG) (B3U) (B3G) (AG) (B2U) (B3U)
                 (B1G) (B1U) (B2G) (AG) (B3U) (B2U) (B1U) (AG)
                 (B3G) (B1U) (B3G) (B2G) (B3U) (B1U) (AU) (AG)
                 (B1G) (B2G) (B2U) (B1U) (B2G) (B3G) (B1G) (AU)
                 (AG) (B2U) (AG) (B3U) (AG) (B1U) (B2U) (B3U) (B3G)
                 (B1U) (AG) (B3G) (B2U) (AG) (B1U) (B1G) (B2G)
                 (AG) (B2U) (AU) (B3U) (AG) (B1G) (B1U) (B2G) (B1U)
                 (B3U) (B2U) (B1U) (AG) (B3G) (B2G) (B1U) (B3G)
                 (B3U) (AU) (B2U) (AG) (B1G) (B2U) (B3G) (B2G)
                 (B3U) (AG) (B1U) (B2U) (AG) (B3G) (B1U) (AG) (B1U)
                 (B2U) (B1G) (B3G) (B3U) (AG) (B1G) (B2G) (B1U)
                 (B2U) (B2G) (AU) (B3U) (B2U) (B3G) (AG) (B1G)
                 (B1U) (B3U) (AU) (B2U) (B2G) (AG) (B1U) (B3G)
                 (B2U) (B3U) (AG) (B3G) (AG) (B1U) (AG) (B1U) (B1G)
                 (AU) (AG) (B1U) (B2G) (AG) (B2U) (B3U) (B1G) (AU)
                 (B3G) (B2G) (B3U) (AG) (B2U) (B1U) (B1U) (B3G)
                 (B2U) (AG) (B3U) (B1G) (B3U) (B3G) (B2G) (B2U)
                 (AG) (B2U) (B1U) (B3G) (B1U) (AG) (B3U) (B2G)
                 (AG) (B2U) (B1U) (B3G) (AU) (B3G) (AG) (B1G) (AU)
                 (B2U) (B3U) (B1G) (B2G) (AG) (B1U) (B2U) (B3U)
                 (AG) (B2G) (B3G) (B2U) (B3U) (B1G) (B2G) (AU)
                 (AG) (B1U) (B3U) (B2G) (B3G) (B2U) (AU) (B1G)
                 (AG) (B1U) (B1U) (B2U) (B3G) (AG) (B1U) (AG) (B1U)
                 (B1G) (B2U) (B3G) (B3U) (B1G) (B2G) (B2U) (AU)
                 (B1U) (B3U) (B2G) (AG) (B3G) (B1G) (B3U) (AG)
                 (AU) (B1U) (B2G) (B2U) (B3U) (B3G) (B2U) (B3G)
                 (AG) (B1U) (B1U) (AG) (B2U) (AG) (AG) (B1U) (B1G)
                 (AU) (AG) (B1U) (B2G) (AU) (B3U) (AG) (B1G) (B2U)
                 (B3U) (B2G) (B2U) (B3G) (AG) (B1U) (B3G) (B2U)
                 (AG) (B1U) (B2U) (AG) (B1U) (AG) (AG) (B1U) (B2U)
                 (AG) (B1U) (AG)
 Requested convergence on RMS density matrix=1.00D-08 within 128 cycles.
 Requested convergence on MAX density matrix=1.00D-06.
 Requested convergence on             energy=1.00D-06.
 No special actions if energy rises.
 SCF Done:  E(RPBE1PBE) =  -429.025483265     A.U. after    7 cycles
            NFock=  7  Conv=0.12D-08     -V/T= 2.0032
   8 Symmetry operations used in ECPInt.
 ECPInt:  NShTT=    4656 NPrTT=   14087 LenC2=    4314 LenP2D=   10308.
 LDataN:  DoStor=T MaxTD1= 9 Len=  602
 Calling FoFJK, ICntrl=      2127 FMM=F ISym2X=1 I1Cent= 0 IOpClX= 0 NMat=1 NMatS=1 NMatT=0.
 ***** Axes restored to original set *****
 -------------------------------------------------------------------
 Center     Atomic                   Forces (Hartrees/Bohr)
 Number     Number              X              Y              Z
 -------------------------------------------------------------------
      1        4           0.001456515    0.000000000   -0.000000000
      2        4          -0.001456515    0.000000000    0.000000000
      3        9          -0.000000000    0.000124423    0.000000000
      4        9          -0.000000000   -0.000124423    0.000000000
      5        9          -0.001030661    0.000000000   -0.000000000
      6        9           0.001030661   -0.000000000    0.000000000
 -------------------------------------------------------------------
 Cartesian Forces:  Max     0.001456515 RMS     0.000596208

 GradGradGradGradGradGradGradGradGradGradGradGradGradGradGradGradGradGrad
 Berny optimization.
 Using GEDIIS/GDIIS optimizer.
 FormGI is forming the generalized inverse of G from B-inverse, IUseBI=4.
 Internal  Forces:  Max     0.001030661 RMS     0.000348193
 Search for a local minimum.
 Step number   4 out of a maximum of   29
 All quantities printed in internal units (Hartrees-Bohrs-Radians)
 Mixed Optimization -- En-DIIS/RFO-DIIS
 Swapping is turned off.
 Update second derivatives using D2CorX and points    1    2    3    4
 DE= -3.08D-05 DEPred=-2.40D-05 R= 1.28D+00
 TightC=F SS=  1.41D+00  RLast= 2.12D-02 DXNew= 5.9579D-01 6.3509D-02
 Trust test= 1.28D+00 RLast= 2.12D-02 DXMaxT set to 3.54D-01
 The second derivative matrix:
                          R1        R2        R3        R4        R5
           R1           0.08666
           R2          -0.00134   0.21543
           R3          -0.00134  -0.02528   0.21543
           R4           0.01913   0.00049   0.00049   0.42653
           R5          -0.00134  -0.02528  -0.02528   0.00049   0.21543
           R6          -0.00134  -0.02528  -0.02528   0.00049  -0.02528
           R7           0.01913   0.00049   0.00049  -0.02088   0.00049
           A1           0.01641   0.02442   0.02442   0.00451   0.02442
           A2          -0.00821  -0.01221  -0.01221  -0.00226  -0.01221
           A3          -0.00821  -0.01221  -0.01221  -0.00226  -0.01221
           A4           0.01641   0.02442   0.02442   0.00451   0.02442
           A5          -0.00821  -0.01221  -0.01221  -0.00226  -0.01221
           A6          -0.00821  -0.01221  -0.01221  -0.00226  -0.01221
           A7          -0.00000  -0.00000  -0.00000   0.00000  -0.00000
           A8          -0.00000  -0.00000  -0.00000   0.00000  -0.00000
           A9          -0.00000  -0.00000  -0.00000  -0.00000  -0.00000
           A10          0.00000   0.00000   0.00000   0.00000   0.00000
           D1           0.00000   0.00000   0.00000   0.00000   0.00000
           D2          -0.00000  -0.00000  -0.00000  -0.00000  -0.00000
                          R6        R7        A1        A2        A3
           R6           0.21543
           R7           0.00049   0.42653
           A1           0.02442   0.00451   0.23599
           A2          -0.01221  -0.00226   0.00700   0.24650
           A3          -0.01221  -0.00226   0.00700  -0.00350   0.24650
           A4           0.02442   0.00451  -0.01401   0.00700   0.00700
           A5          -0.01221  -0.00226   0.00700  -0.00350  -0.00350
           A6          -0.01221  -0.00226   0.00700  -0.00350  -0.00350
           A7          -0.00000   0.00000   0.00000  -0.00000  -0.00000
           A8          -0.00000   0.00000   0.00000  -0.00000  -0.00000
           A9          -0.00000  -0.00000   0.00000  -0.00000  -0.00000
           A10          0.00000   0.00000   0.00000  -0.00000  -0.00000
           D1           0.00000   0.00000   0.00000  -0.00000  -0.00000
           D2          -0.00000  -0.00000   0.00000  -0.00000  -0.00000
                          A4        A5        A6        A7        A8
           A4           0.23599
           A5           0.00700   0.24650
           A6           0.00700  -0.00350   0.24650
           A7           0.00000  -0.00000  -0.00000   0.05061
           A8           0.00000  -0.00000  -0.00000   0.00000   0.05061
           A9           0.00000  -0.00000  -0.00000   0.00000   0.00000
           A10          0.00000  -0.00000  -0.00000  -0.00000  -0.00000
           D1           0.00000  -0.00000  -0.00000  -0.00000  -0.00000
           D2           0.00000  -0.00000  -0.00000   0.00000   0.00000
                          A9        A10       D1        D2
           A9           0.05061
           A10         -0.00000   0.05061
           D1          -0.00000   0.00000   0.05061
           D2           0.00000  -0.00000  -0.00000   0.05061
 ITU=  1  1  1  0
     Eigenvalues ---    0.05061   0.05061   0.05061   0.06534   0.17766
     Eigenvalues ---    0.17816   0.23597   0.24170   0.24179   0.24318
     Eigenvalues ---    0.40664   0.44741
 En-DIIS/RFO-DIIS/Sim-DIIS IScMMF=       -3 using points:     4    3
 RFO step:  Lambda=-8.15645301D-06.
 DidBck=F Rises=F RFO-DIIS coefs:    1.33768   -0.33768
 Iteration  1 RMS(Cart)=  0.00092428 RMS(Int)=  0.00000061
 Iteration  2 RMS(Cart)=  0.00000051 RMS(Int)=  0.00000012
 ClnCor:  largest displacement from symmetrization is 2.09D-13 for atom     6.
 Variable       Old X    -DE/DX   Delta X   Delta X   Delta X     New X
                                 (Linear)    (Quad)   (Total)
    R1        4.11296  -0.00032  -0.00560   0.00031  -0.00530   4.10766
    R2        2.94291   0.00001  -0.00151   0.00041  -0.00110   2.94181
    R3        2.94291   0.00001  -0.00151   0.00041  -0.00110   2.94181
    R4        2.60886   0.00103   0.00108   0.00166   0.00274   2.61160
    R5        2.94291   0.00001  -0.00151   0.00041  -0.00110   2.94181
    R6        2.94291   0.00001  -0.00151   0.00041  -0.00110   2.94181
    R7        2.60886   0.00103   0.00108   0.00166   0.00274   2.61160
    A1        1.59418   0.00016   0.00166   0.00013   0.00178   1.59597
    A2        2.34450  -0.00008  -0.00083  -0.00006  -0.00089   2.34361
    A3        2.34450  -0.00008  -0.00083  -0.00006  -0.00089   2.34361
    A4        1.59418   0.00016   0.00166   0.00013   0.00178   1.59597
    A5        2.34450  -0.00008  -0.00083  -0.00006  -0.00089   2.34361
    A6        2.34450  -0.00008  -0.00083  -0.00006  -0.00089   2.34361
    A7        3.14159  -0.00000   0.00000  -0.00000   0.00000   3.14159
    A8        3.14159  -0.00000   0.00000  -0.00000   0.00000   3.14159
    A9        3.14159  -0.00000   0.00000  -0.00000   0.00000   3.14159
   A10        3.14159   0.00000   0.00000   0.00000   0.00000   3.14159
    D1        3.14159   0.00000   0.00000   0.00000   0.00000   3.14159
    D2        3.14159  -0.00000   0.00000  -0.00000   0.00000   3.14159
         Item               Value     Threshold  Converged?
 Maximum Force            0.001031     0.000450     NO 
 RMS     Force            0.000348     0.000300     NO 
 Maximum Displacement     0.002648     0.001800     NO 
 RMS     Displacement     0.000924     0.001200     YES
 Predicted change in Energy=-4.078241D-06
 GradGradGradGradGradGradGradGradGradGradGradGradGradGradGradGradGradGrad

                          Input orientation:                          
 ---------------------------------------------------------------------
 Center     Atomic      Atomic             Coordinates (Angstroms)
 Number     Number       Type             X           Y           Z
 ---------------------------------------------------------------------
      1          4           0        8.413160    9.500000    9.500000
      2          4           0       10.586840    9.500000    9.500000
      3          9           0        9.500000   10.614545    9.500000
      4          9           0        9.500000    8.385455    9.500000
      5          9           0        7.031161    9.500000    9.500000
      6          9           0       11.968839    9.500000    9.500000
 ---------------------------------------------------------------------
                    Distance matrix (angstroms):
                    1          2          3          4          5
     1  Be   0.000000
     2  Be   2.173680   0.000000
     3  F    1.556738   1.556738   0.000000
     4  F    1.556738   1.556738   2.229090   0.000000
     5  F    1.381999   3.555679   2.708759   2.708759   0.000000
     6  F    3.555679   1.381999   2.708759   2.708759   4.937678
                    6
     6  F    0.000000
 Stoichiometry    Be2F4
 Framework group  D2H[C2'(F.F),C2"(FBe.BeF)]
 Deg. of freedom     3
 Full point group                 D2H     NOp   8
 Largest Abelian subgroup         D2H     NOp   8
 Largest concise Abelian subgroup D2      NOp   4
                         Standard orientation:                         
 ---------------------------------------------------------------------
 Center     Atomic      Atomic             Coordinates (Angstroms)
 Number     Number       Type             X           Y           Z
 ---------------------------------------------------------------------
      1          4           0        0.000000    0.000000    1.086840
      2          4           0        0.000000    0.000000   -1.086840
      3          9           0        0.000000    1.114545    0.000000
      4          9           0       -0.000000   -1.114545    0.000000
      5          9           0        0.000000    0.000000    2.468839
      6          9           0        0.000000    0.000000   -2.468839
 ---------------------------------------------------------------------
 Rotational constants (GHZ):          10.7071747           1.9984333           1.6841047
 Standard basis: def2QZVPP (5D, 7F)
 There are    84 symmetry adapted cartesian basis functions of AG  symmetry.
 There are    27 symmetry adapted cartesian basis functions of B1G symmetry.
 There are    33 symmetry adapted cartesian basis functions of B2G symmetry.
 There are    41 symmetry adapted cartesian basis functions of B3G symmetry.
 There are    19 symmetry adapted cartesian basis functions of AU  symmetry.
 There are    68 symmetry adapted cartesian basis functions of B1U symmetry.
 There are    57 symmetry adapted cartesian basis functions of B2U symmetry.
 There are    41 symmetry adapted cartesian basis functions of B3U symmetry.
 There are    65 symmetry adapted basis functions of AG  symmetry.
 There are    23 symmetry adapted basis functions of B1G symmetry.
 There are    28 symmetry adapted basis functions of B2G symmetry.
 There are    34 symmetry adapted basis functions of B3G symmetry.
 There are    17 symmetry adapted basis functions of AU  symmetry.
 There are    54 symmetry adapted basis functions of B1U symmetry.
 There are    45 symmetry adapted basis functions of B2U symmetry.
 There are    34 symmetry adapted basis functions of B3U symmetry.
   300 basis functions,   484 primitive gaussians,   370 cartesian basis functions
    22 alpha electrons       22 beta electrons
       nuclear repulsion energy       182.3353146872 Hartrees.
 NAtoms=    6 NActive=    6 NUniq=    3 SFac= 4.00D+00 NAtFMM=   60 NAOKFM=F Big=F
 Integral buffers will be    131072 words long.
 Raffenetti 2 integral format.
 Two-electron integral symmetry is turned on.
 One-electron integrals computed using PRISM.
   8 Symmetry operations used in ECPInt.
 ECPInt:  NShTT=    4656 NPrTT=   14087 LenC2=    4314 LenP2D=   10308.
 LDataN:  DoStor=T MaxTD1= 8 Len=  415
 NBasis=   300 RedAO= T EigKep=  2.03D-04  NBF=    65    23    28    34    17    54    45    34
 NBsUse=   300 1.00D-06 EigRej= -1.00D+00 NBFU=    65    23    28    34    17    54    45    34
 Initial guess from the checkpoint file:  "/data/hutter/SMG16/PBE0/Gau-6465.chk"
 B after Tr=     0.000000    0.000000    0.000000
         Rot=    1.000000    0.000000    0.000000    0.000000 Ang=   0.00 deg.
 Initial guess orbital symmetries:
       Occupied  (B2U) (AG) (B1U) (AG) (AG) (B1U) (AG) (B2U) (AG)
                 (B1U) (AG) (B1U) (B3G) (B3U) (B1G) (B2U) (AG)
                 (B1U) (B2G) (B2U) (B3U) (B3G)
       Virtual   (AG) (B3U) (B1U) (B2U) (B2G) (AG) (B3G) (B3U)
                 (B1U) (B2G) (AG) (B1G) (AG) (B1U) (B2U) (AU) (B1U)
                 (B3G) (B2U) (B3U) (AG) (B3G) (B2G) (B1U) (AG)
                 (B1U) (B2U) (AG) (B3U) (B3G) (AG) (B2U) (B3U)
                 (B1G) (B1U) (B2G) (AG) (B3U) (B2U) (B1U) (AG)
                 (B3G) (B1U) (B3G) (B2G) (B3U) (B1U) (AU) (AG)
                 (B1G) (B2G) (B2U) (B1U) (B2G) (B3G) (B1G) (AU)
                 (AG) (B2U) (AG) (B3U) (AG) (B1U) (B2U) (B3U) (B3G)
                 (B1U) (AG) (B3G) (B2U) (AG) (B1U) (B1G) (B2G)
                 (AG) (B2U) (AU) (B3U) (AG) (B1G) (B1U) (B2G) (B1U)
                 (B3U) (B2U) (B1U) (AG) (B3G) (B2G) (B1U) (B3G)
                 (B3U) (AU) (B2U) (AG) (B1G) (B2U) (B3G) (B2G)
                 (B3U) (AG) (B1U) (B2U) (AG) (B3G) (B1U) (AG) (B1U)
                 (B2U) (B1G) (B3G) (B3U) (AG) (B1G) (B2G) (B1U)
                 (B2U) (B2G) (AU) (B3U) (B2U) (B3G) (AG) (B1G)
                 (B1U) (B3U) (AU) (B2U) (B2G) (AG) (B1U) (B3G)
                 (B2U) (B3U) (AG) (B3G) (B1U) (AG) (AG) (B1U) (B1G)
                 (AU) (AG) (B1U) (B2G) (AG) (B2U) (B3U) (AU) (B1G)
                 (B3G) (B2G) (B3U) (AG) (B2U) (B1U) (B1U) (B3G)
                 (B2U) (AG) (B3U) (B1G) (B3U) (B3G) (B2G) (B2U)
                 (AG) (B2U) (B1U) (B3G) (B1U) (AG) (B3U) (B2G)
                 (AG) (B2U) (B1U) (B3G) (AU) (B3G) (AG) (B1G) (AU)
                 (B2U) (B3U) (B1G) (B2G) (AG) (B1U) (B2U) (B3U)
                 (AG) (B2G) (B3G) (B2U) (B3U) (B1G) (B2G) (AU)
                 (AG) (B1U) (B3U) (B2G) (B3G) (B2U) (AU) (B1G)
                 (AG) (B1U) (B1U) (B2U) (B3G) (AG) (B1U) (AG) (B1U)
                 (B1G) (B2U) (B3G) (B3U) (B1G) (B2G) (B2U) (AU)
                 (B1U) (B3U) (B2G) (AG) (B3G) (B1G) (B3U) (AU)
                 (AG) (B1U) (B2G) (B2U) (B3U) (B3G) (B2U) (B3G)
                 (AG) (B1U) (B1U) (AG) (B2U) (AG) (AG) (B1U) (B1G)
                 (AU) (AG) (B1U) (B2G) (AU) (B3U) (AG) (B1G) (B2U)
                 (B3U) (B2G) (B2U) (B3G) (AG) (B1U) (B3G) (B2U)
                 (AG) (B1U) (B2U) (AG) (B1U) (AG) (AG) (B1U) (B2U)
                 (AG) (B1U) (AG)
 Requested convergence on RMS density matrix=1.00D-08 within 128 cycles.
 Requested convergence on MAX density matrix=1.00D-06.
 Requested convergence on             energy=1.00D-06.
 No special actions if energy rises.
 SCF Done:  E(RPBE1PBE) =  -429.025487490     A.U. after    6 cycles
            NFock=  6  Conv=0.59D-08     -V/T= 2.0033
   8 Symmetry operations used in ECPInt.
 ECPInt:  NShTT=    4656 NPrTT=   14087 LenC2=    4314 LenP2D=   10308.
 LDataN:  DoStor=T MaxTD1= 9 Len=  602
 Calling FoFJK, ICntrl=      2127 FMM=F ISym2X=1 I1Cent= 0 IOpClX= 0 NMat=1 NMatS=1 NMatT=0.
 ***** Axes restored to original set *****
 -------------------------------------------------------------------
 Center     Atomic                   Forces (Hartrees/Bohr)
 Number     Number              X              Y              Z
 -------------------------------------------------------------------
      1        4           0.000051415    0.000000000   -0.000000000
      2        4          -0.000051415   -0.000000000    0.000000000
      3        9          -0.000000000    0.000006102    0.000000000
      4        9          -0.000000000   -0.000006102    0.000000000
      5        9          -0.000085757   -0.000000000   -0.000000000
      6        9           0.000085757    0.000000000    0.000000000
 -------------------------------------------------------------------
 Cartesian Forces:  Max     0.000085757 RMS     0.000033392

 GradGradGradGradGradGradGradGradGradGradGradGradGradGradGradGradGradGrad
 Berny optimization.
 Using GEDIIS/GDIIS optimizer.
 FormGI is forming the generalized inverse of G from B-inverse, IUseBI=4.
 Internal  Forces:  Max     0.000085757 RMS     0.000028486
 Search for a local minimum.
 Step number   5 out of a maximum of   29
 All quantities printed in internal units (Hartrees-Bohrs-Radians)
 Mixed Optimization -- En-DIIS/RFO-DIIS
 Swapping is turned off.
 Update second derivatives using D2CorX and points    1    2    3    4    5
 DE= -4.23D-06 DEPred=-4.08D-06 R= 1.04D+00
 TightC=F SS=  1.41D+00  RLast= 7.58D-03 DXNew= 5.9579D-01 2.2735D-02
 Trust test= 1.04D+00 RLast= 7.58D-03 DXMaxT set to 3.54D-01
 The second derivative matrix:
                          R1        R2        R3        R4        R5
           R1           0.07811
           R2          -0.00584   0.21784
           R3          -0.00584  -0.02286   0.21784
           R4          -0.00087   0.00262   0.00262   0.40418
           R5          -0.00584  -0.02286  -0.02286   0.00262   0.21784
           R6          -0.00584  -0.02286  -0.02286   0.00262  -0.02286
           R7          -0.00087   0.00262   0.00262  -0.04323   0.00262
           A1           0.00935   0.02249   0.02249  -0.00671   0.02249
           A2          -0.00467  -0.01124  -0.01124   0.00335  -0.01124
           A3          -0.00467  -0.01124  -0.01124   0.00335  -0.01124
           A4           0.00935   0.02249   0.02249  -0.00671   0.02249
           A5          -0.00467  -0.01124  -0.01124   0.00335  -0.01124
           A6          -0.00467  -0.01124  -0.01124   0.00335  -0.01124
           A7           0.00000   0.00000   0.00000  -0.00000   0.00000
           A8           0.00000   0.00000   0.00000  -0.00000   0.00000
           A9          -0.00000  -0.00000  -0.00000   0.00000  -0.00000
           A10          0.00000   0.00000   0.00000  -0.00000   0.00000
           D1           0.00000   0.00000   0.00000   0.00000   0.00000
           D2          -0.00000  -0.00000  -0.00000   0.00000  -0.00000
                          R6        R7        A1        A2        A3
           R6           0.21784
           R7           0.00262   0.40418
           A1           0.02249  -0.00671   0.23184
           A2          -0.01124   0.00335   0.00908   0.24546
           A3          -0.01124   0.00335   0.00908  -0.00454   0.24546
           A4           0.02249  -0.00671  -0.01816   0.00908   0.00908
           A5          -0.01124   0.00335   0.00908  -0.00454  -0.00454
           A6          -0.01124   0.00335   0.00908  -0.00454  -0.00454
           A7           0.00000  -0.00000  -0.00000   0.00000   0.00000
           A8           0.00000  -0.00000  -0.00000   0.00000   0.00000
           A9          -0.00000   0.00000   0.00000  -0.00000  -0.00000
           A10          0.00000  -0.00000  -0.00000   0.00000   0.00000
           D1           0.00000   0.00000  -0.00000   0.00000   0.00000
           D2          -0.00000   0.00000   0.00000  -0.00000  -0.00000
                          A4        A5        A6        A7        A8
           A4           0.23184
           A5           0.00908   0.24546
           A6           0.00908  -0.00454   0.24546
           A7          -0.00000   0.00000   0.00000   0.05061
           A8          -0.00000   0.00000   0.00000   0.00000   0.05061
           A9           0.00000  -0.00000  -0.00000  -0.00000  -0.00000
           A10         -0.00000   0.00000   0.00000   0.00000   0.00000
           D1          -0.00000   0.00000   0.00000   0.00000   0.00000
           D2           0.00000  -0.00000  -0.00000  -0.00000  -0.00000
                          A9        A10       D1        D2
           A9           0.05061
           A10         -0.00000   0.05061
           D1          -0.00000   0.00000   0.05061
           D2           0.00000  -0.00000  -0.00000   0.05061
 ITU=  1  1  1  1  0
     Eigenvalues ---    0.05061   0.05061   0.05061   0.06415   0.17763
     Eigenvalues ---    0.17817   0.23585   0.24170   0.24179   0.24319
     Eigenvalues ---    0.36133   0.44741
 En-DIIS/RFO-DIIS/Sim-DIIS IScMMF=       -3 using points:     5    4    3
 RFO step:  Lambda=-4.94708791D-08.
 DidBck=F Rises=F RFO-DIIS coefs:    1.15331   -0.21884    0.06553
 Iteration  1 RMS(Cart)=  0.00013293 RMS(Int)=  0.00000004
 Iteration  2 RMS(Cart)=  0.00000000 RMS(Int)=  0.00000004
 ClnCor:  largest displacement from symmetrization is 3.53D-13 for atom     6.
 Variable       Old X    -DE/DX   Delta X   Delta X   Delta X     New X
                                 (Linear)    (Quad)   (Total)
    R1        4.10766   0.00002   0.00028   0.00002   0.00030   4.10796
    R2        2.94181   0.00001   0.00012  -0.00004   0.00009   2.94189
    R3        2.94181   0.00001   0.00012  -0.00004   0.00009   2.94189
    R4        2.61160   0.00009   0.00021   0.00002   0.00023   2.61183
    R5        2.94181   0.00001   0.00012  -0.00004   0.00009   2.94189
    R6        2.94181   0.00001   0.00012  -0.00004   0.00009   2.94189
    R7        2.61160   0.00009   0.00021   0.00002   0.00023   2.61183
    A1        1.59597  -0.00001  -0.00005  -0.00003  -0.00008   1.59588
    A2        2.34361   0.00000   0.00002   0.00002   0.00004   2.34365
    A3        2.34361   0.00000   0.00002   0.00002   0.00004   2.34365
    A4        1.59597  -0.00001  -0.00005  -0.00003  -0.00008   1.59588
    A5        2.34361   0.00000   0.00002   0.00002   0.00004   2.34365
    A6        2.34361   0.00000   0.00002   0.00002   0.00004   2.34365
    A7        3.14159   0.00000   0.00000   0.00000   0.00000   3.14159
    A8        3.14159   0.00000   0.00000   0.00000   0.00000   3.14159
    A9        3.14159  -0.00000   0.00000  -0.00000   0.00000   3.14159
   A10        3.14159   0.00000   0.00000   0.00000   0.00000   3.14159
    D1        3.14159   0.00000   0.00000   0.00000   0.00000   3.14159
    D2        3.14159  -0.00000   0.00000  -0.00000   0.00000   3.14159
         Item               Value     Threshold  Converged?
 Maximum Force            0.000086     0.000450     YES
 RMS     Force            0.000028     0.000300     YES
 Maximum Displacement     0.000381     0.001800     YES
 RMS     Displacement     0.000133     0.001200     YES
 Predicted change in Energy=-2.471249D-08
 Optimization completed.
    -- Stationary point found.
                           ----------------------------
                           !   Optimized Parameters   !
                           ! (Angstroms and Degrees)  !
 --------------------------                            --------------------------
 ! Name  Definition              Value          Derivative Info.                !
 --------------------------------------------------------------------------------
 ! R1    R(1,2)                  2.1737         -DE/DX =    0.0                 !
 ! R2    R(1,3)                  1.5567         -DE/DX =    0.0                 !
 ! R3    R(1,4)                  1.5567         -DE/DX =    0.0                 !
 ! R4    R(1,5)                  1.382          -DE/DX =    0.0001              !
 ! R5    R(2,3)                  1.5567         -DE/DX =    0.0                 !
 ! R6    R(2,4)                  1.5567         -DE/DX =    0.0                 !
 ! R7    R(2,6)                  1.382          -DE/DX =    0.0001              !
 ! A1    A(3,1,4)               91.4421         -DE/DX =    0.0                 !
 ! A2    A(3,1,5)              134.279          -DE/DX =    0.0                 !
 ! A3    A(4,1,5)              134.279          -DE/DX =    0.0                 !
 ! A4    A(3,2,4)               91.4421         -DE/DX =    0.0                 !
 ! A5    A(3,2,6)              134.279          -DE/DX =    0.0                 !
 ! A6    A(4,2,6)              134.279          -DE/DX =    0.0                 !
 ! A7    L(2,1,5,3,-1)         180.0            -DE/DX =    0.0                 !
 ! A8    L(1,2,6,3,-1)         180.0            -DE/DX =    0.0                 !
 ! A9    L(2,1,5,3,-2)         180.0            -DE/DX =    0.0                 !
 ! A10   L(1,2,6,3,-2)         180.0            -DE/DX =    0.0                 !
 ! D1    D(3,1,5,4)            180.0            -DE/DX =    0.0                 !
 ! D2    D(3,2,6,4)            180.0            -DE/DX =    0.0                 !
 --------------------------------------------------------------------------------
 GradGradGradGradGradGradGradGradGradGradGradGradGradGradGradGradGradGrad

                          Input orientation:                          
 ---------------------------------------------------------------------
 Center     Atomic      Atomic             Coordinates (Angstroms)
 Number     Number       Type             X           Y           Z
 ---------------------------------------------------------------------
      1          4           0        8.413160    9.500000    9.500000
      2          4           0       10.586840    9.500000    9.500000
      3          9           0        9.500000   10.614545    9.500000
      4          9           0        9.500000    8.385455    9.500000
      5          9           0        7.031161    9.500000    9.500000
      6          9           0       11.968839    9.500000    9.500000
 ---------------------------------------------------------------------
                    Distance matrix (angstroms):
                    1          2          3          4          5
     1  Be   0.000000
     2  Be   2.173680   0.000000
     3  F    1.556738   1.556738   0.000000
     4  F    1.556738   1.556738   2.229090   0.000000
     5  F    1.381999   3.555679   2.708759   2.708759   0.000000
     6  F    3.555679   1.381999   2.708759   2.708759   4.937678
                    6
     6  F    0.000000
 Stoichiometry    Be2F4
 Framework group  D2H[C2'(F.F),C2"(FBe.BeF)]
 Deg. of freedom     3
 Full point group                 D2H     NOp   8
 Largest Abelian subgroup         D2H     NOp   8
 Largest concise Abelian subgroup D2      NOp   4
                         Standard orientation:                         
 ---------------------------------------------------------------------
 Center     Atomic      Atomic             Coordinates (Angstroms)
 Number     Number       Type             X           Y           Z
 ---------------------------------------------------------------------
      1          4           0        0.000000    0.000000    1.086840
      2          4           0        0.000000    0.000000   -1.086840
      3          9           0        0.000000    1.114545    0.000000
      4          9           0       -0.000000   -1.114545    0.000000
      5          9           0        0.000000    0.000000    2.468839
      6          9           0        0.000000    0.000000   -2.468839
 ---------------------------------------------------------------------
 Rotational constants (GHZ):          10.7071747           1.9984333           1.6841047

 **********************************************************************

            Population analysis using the SCF Density.

 **********************************************************************

 Orbital symmetries:
       Occupied  (B2U) (AG) (B1U) (AG) (AG) (B1U) (AG) (B2U) (AG)
                 (B1U) (AG) (B1U) (B3G) (B3U) (B1G) (B2U) (AG)
                 (B1U) (B2G) (B2U) (B3U) (B3G)
       Virtual   (AG) (B3U) (B1U) (B2U) (B2G) (AG) (B3G) (B3U)
                 (B1U) (B2G) (AG) (B1G) (AG) (B1U) (B2U) (AU) (B1U)
                 (B3G) (B2U) (B3U) (AG) (B3G) (B2G) (B1U) (AG)
                 (B1U) (B2U) (AG) (B3U) (B3G) (AG) (B2U) (B3U)
                 (B1G) (B2G) (B1U) (AG) (B3U) (B2U) (B1U) (AG)
                 (B3G) (B1U) (B3G) (B2G) (B3U) (B1U) (AU) (AG)
                 (B1G) (B2G) (B2U) (B1U) (B2G) (B3G) (B1G) (AU)
                 (AG) (B2U) (AG) (B3U) (AG) (B1U) (B2U) (B3U) (B3G)
                 (B1U) (AG) (B3G) (B2U) (AG) (B1U) (B1G) (B2G)
                 (AG) (B2U) (AU) (B3U) (AG) (B1G) (B1U) (B2G) (B1U)
                 (B3U) (B2U) (B1U) (AG) (B3G) (B2G) (B1U) (B3G)
                 (B3U) (AU) (B2U) (AG) (B1G) (B2U) (B3G) (B2G)
                 (B3U) (AG) (B1U) (B2U) (AG) (B3G) (B1U) (AG) (B1U)
                 (B2U) (B1G) (B3G) (B3U) (AG) (B1G) (B2G) (B1U)
                 (B2U) (B2G) (AU) (B3U) (B2U) (B3G) (AG) (B1G)
                 (B1U) (B3U) (AU) (B2U) (B2G) (AG) (B1U) (B3G)
                 (B2U) (B3U) (AG) (B3G) (B1U) (AG) (AG) (B1U) (B1G)
                 (AU) (AG) (B1U) (B2G) (AG) (B2U) (B3U) (AU) (B1G)
                 (B3G) (B2G) (B3U) (AG) (B2U) (B1U) (B1U) (B3G)
                 (B2U) (AG) (B3U) (B1G) (B3U) (B3G) (B2G) (B2U)
                 (AG) (B2U) (B1U) (B3G) (B1U) (AG) (B3U) (B2G)
                 (AG) (B2U) (B1U) (B3G) (AU) (B3G) (AG) (B1G) (AU)
                 (B2U) (B3U) (B1G) (B2G) (AG) (B1U) (B2U) (B3U)
                 (AG) (B2G) (B3G) (B2U) (B3U) (B1G) (B2G) (AU)
                 (AG) (B1U) (B3U) (B2G) (B3G) (B2U) (AU) (B1G)
                 (AG) (B1U) (B1U) (B2U) (B3G) (AG) (B1U) (AG) (B1U)
                 (B1G) (B2U) (B3G) (B3U) (B1G) (B2G) (B2U) (AU)
                 (B1U) (B3U) (B2G) (AG) (B3G) (B1G) (B3U) (AU)
                 (AG) (B1U) (B2G) (B2U) (B3U) (B3G) (B2U) (B3G)
                 (AG) (B1U) (B1U) (AG) (B2U) (AG) (AG) (B1U) (B1G)
                 (AU) (AG) (B1U) (B2G) (AU) (B3U) (AG) (B1G) (B2U)
                 (B3U) (B2G) (B2U) (B3G) (AG) (B1U) (B3G) (B2U)
                 (AG) (B1U) (B2U) (AG) (B1U) (AG) (AG) (B1U) (B2U)
                 (AG) (B1U) (AG)
 The electronic state is 1-AG.
 Alpha  occ. eigenvalues --  -24.82434 -24.82433 -24.73687 -24.73687  -4.11042
 Alpha  occ. eigenvalues --   -4.11014  -1.29626  -1.26254  -1.18535  -1.18533
 Alpha  occ. eigenvalues --   -0.60081  -0.56845  -0.56515  -0.54029  -0.49917
 Alpha  occ. eigenvalues --   -0.49352  -0.47950  -0.47602  -0.43283  -0.42949
 Alpha  occ. eigenvalues --   -0.42925  -0.42163
 Alpha virt. eigenvalues --   -0.02971   0.00875   0.03389   0.04082   0.05337
 Alpha virt. eigenvalues --    0.08511   0.08710   0.11447   0.12204   0.13473
 Alpha virt. eigenvalues --    0.14362   0.17750   0.18709   0.19029   0.19313
 Alpha virt. eigenvalues --    0.23328   0.24439   0.25825   0.27715   0.28122
 Alpha virt. eigenvalues --    0.30088   0.35577   0.37142   0.38671   0.39813
 Alpha virt. eigenvalues --    0.41488   0.44067   0.46491   0.47050   0.49940
 Alpha virt. eigenvalues --    0.51040   0.53115   0.53602   0.53824   0.54001
 Alpha virt. eigenvalues --    0.54030   0.58412   0.59637   0.60142   0.61649
 Alpha virt. eigenvalues --    0.64844   0.68657   0.71641   0.77003   0.77318
 Alpha virt. eigenvalues --    0.77389   0.86782   0.87029   0.87150   0.87413
 Alpha virt. eigenvalues --    0.96923   0.98730   0.99527   1.04158   1.06115
 Alpha virt. eigenvalues --    1.07899   1.09308   1.10840   1.15097   1.19042
 Alpha virt. eigenvalues --    1.20393   1.20815   1.22915   1.33571   1.35415
 Alpha virt. eigenvalues --    1.37755   1.38612   1.40250   1.47843   1.49289
 Alpha virt. eigenvalues --    1.55289   1.56067   1.62426   1.65806   1.67704
 Alpha virt. eigenvalues --    1.67846   1.73215   1.74833   1.76965   1.77376
 Alpha virt. eigenvalues --    1.79008   1.82685   1.83099   1.84314   1.85991
 Alpha virt. eigenvalues --    1.89015   1.92223   1.93572   1.98957   2.03206
 Alpha virt. eigenvalues --    2.06835   2.07434   2.08604   2.16389   2.19107
 Alpha virt. eigenvalues --    2.27535   2.28261   2.30047   2.46168   2.47853
 Alpha virt. eigenvalues --    2.58326   2.72371   2.92481   3.01145   3.08510
 Alpha virt. eigenvalues --    3.11756   3.38644   3.66960   4.03780   4.07703
 Alpha virt. eigenvalues --    4.14280   4.16027   4.16476   4.18900   4.19721
 Alpha virt. eigenvalues --    4.21367   4.21760   4.23441   4.24505   4.24665
 Alpha virt. eigenvalues --    4.25479   4.27511   4.29268   4.33556   4.33707
 Alpha virt. eigenvalues --    4.33821   4.34679   4.35555   4.38268   4.39264
 Alpha virt. eigenvalues --    4.41862   4.45787   4.46912   4.47734   4.53815
 Alpha virt. eigenvalues --    4.60627   4.61494   4.61566   4.72171   4.92398
 Alpha virt. eigenvalues --    5.12601   5.17664   5.18886   5.27873   5.29378
 Alpha virt. eigenvalues --    5.35180   5.37001   5.37924   5.41803   5.41986
 Alpha virt. eigenvalues --    5.52391   5.58128   5.61370   5.63941   5.65700
 Alpha virt. eigenvalues --    5.69671   5.75634   5.80195   5.91934   5.94660
 Alpha virt. eigenvalues --    6.31809   6.41326   6.47741   6.61193   6.61475
 Alpha virt. eigenvalues --    6.62556   6.68724   6.77607   6.86307   7.06293
 Alpha virt. eigenvalues --    7.07490   7.18041  10.52351  10.63020  11.12853
 Alpha virt. eigenvalues --   11.17621  11.22247  11.24050  11.30847  11.30961
 Alpha virt. eigenvalues --   11.31591  11.32227  11.32540  11.32700  11.33051
 Alpha virt. eigenvalues --   11.33141  11.33173  11.33205  11.33220  11.33256
 Alpha virt. eigenvalues --   11.34106  11.35168  11.37634  11.38699  11.39637
 Alpha virt. eigenvalues --   11.40548  11.40633  11.40762  11.40839  11.41142
 Alpha virt. eigenvalues --   11.41336  11.41951  11.41972  11.42047  11.42073
 Alpha virt. eigenvalues --   11.43015  11.43015  11.43016  11.43017  11.43519
 Alpha virt. eigenvalues --   11.74399  11.89318  12.30090  12.40873  12.61305
 Alpha virt. eigenvalues --   12.89182  14.50806  14.55438  14.57463  14.57663
 Alpha virt. eigenvalues --   14.57698  14.60077  14.61078  14.62168  14.62226
 Alpha virt. eigenvalues --   14.63853  14.64921  14.67304  14.67983  14.68530
 Alpha virt. eigenvalues --   14.68870  14.70318  14.70376  14.70922  14.73268
 Alpha virt. eigenvalues --   14.76640  14.76670  14.80633  14.80984  14.81818
 Alpha virt. eigenvalues --   14.85922  14.92603  14.97768  15.01969  15.24284
 Alpha virt. eigenvalues --   15.30815  15.48905  15.58084  15.87172  15.90410
 Alpha virt. eigenvalues --   15.92021  15.96904  15.99987  16.03695  16.06070
 Alpha virt. eigenvalues --   16.08050  16.09445  16.15232  16.23983  16.24060
 Alpha virt. eigenvalues --   16.25962  16.27905  16.30585  16.45244  16.50463
 Alpha virt. eigenvalues --   16.53159  16.57876  16.65328  54.20121  54.21935
 Alpha virt. eigenvalues --   54.37880  54.43544  64.69439  64.79169 285.23641
 Alpha virt. eigenvalues --  285.24396 285.42470 285.50883
          Condensed to atoms (all electrons):
               1          2          3          4          5          6
     1  Be   2.483069  -0.014122   0.224686   0.224686   0.425745  -0.006675
     2  Be  -0.014122   2.483069   0.224686   0.224686  -0.006675   0.425745
     3  F    0.224686   0.224686   8.920006  -0.040286   0.000303   0.000303
     4  F    0.224686   0.224686  -0.040286   8.920006   0.000303   0.000303
     5  F    0.425745  -0.006675   0.000303   0.000303   8.913263  -0.000024
     6  F   -0.006675   0.425745   0.000303   0.000303  -0.000024   8.913263
 Mulliken charges:
               1
     1  Be   0.662611
     2  Be   0.662611
     3  F   -0.329697
     4  F   -0.329697
     5  F   -0.332914
     6  F   -0.332914
 Sum of Mulliken charges =  -0.00000
 Mulliken charges with hydrogens summed into heavy atoms:
               1
     1  Be   0.662611
     2  Be   0.662611
     3  F   -0.329697
     4  F   -0.329697
     5  F   -0.332914
     6  F   -0.332914
 Electronic spatial extent (au):  <R**2>=            579.2174
 Charge=             -0.0000 electrons
 Dipole moment (field-independent basis, Debye):
    X=              0.0000    Y=              0.0000    Z=             -0.0000  Tot=              0.0000
 Quadrupole moment (field-independent basis, Debye-Ang):
   XX=            -25.3288   YY=            -30.2611   ZZ=            -43.7156
   XY=             -0.0000   XZ=             -0.0000   YZ=              0.0000
 Traceless Quadrupole moment (field-independent basis, Debye-Ang):
   XX=              7.7730   YY=              2.8408   ZZ=            -10.6138
   XY=             -0.0000   XZ=             -0.0000   YZ=              0.0000
 Octapole moment (field-independent basis, Debye-Ang**2):
  XXX=             -0.0000  YYY=             -0.0000  ZZZ=             -0.0000  XYY=             -0.0000
  XXY=             -0.0000  XXZ=             -0.0000  XZZ=             -0.0000  YZZ=             -0.0000
  YYZ=             -0.0000  XYZ=              0.0000
 Hexadecapole moment (field-independent basis, Debye-Ang**3):
 XXXX=            -19.3347 YYYY=           -100.1198 ZZZZ=           -591.3226 XXXY=              0.0000
 XXXZ=             -0.0000 YYYX=             -0.0000 YYYZ=              0.0000 ZZZX=             -0.0000
 ZZZY=              0.0000 XXYY=            -19.4853 XXZZ=            -78.1311 YYZZ=            -91.2443
 XXYZ=              0.0000 YYXZ=             -0.0000 ZZXY=              0.0000
 N-N= 1.823353146872D+02 E-N=-1.388304057688D+03  KE= 4.276325062324D+02
 Symmetry AG   KE= 1.891495186693D+02
 Symmetry B1G  KE= 6.413417272551D+00
 Symmetry B2G  KE= 5.874362330108D+00
 Symmetry B3G  KE= 1.195543259263D+01
 Symmetry AU   KE= 3.221771745644D-22
 Symmetry B1U  KE= 1.076594088781D+02
 Symmetry B2U  KE= 9.504057838133D+01
 Symmetry B3U  KE= 1.153978810840D+01
 Unable to Open any file for archive entry.
 1\1\GINC-TCOPT10\FOpt\RPBE1PBE\def2QZVPP\Be2F4\HUTTER\01-Aug-2021\0\\#
 N RPBE1PBE/Def2QZVPP scf=tight Int(Grid=ultrafine) OPT FREQ\\Mol job 1
 \\0,1\Be,8.4131597791,9.5,9.5\Be,10.5868402209,9.5,9.5\F,9.5,10.614544
 9969,9.5\F,9.5,8.3854550031,9.5\F,7.0311610743,9.5,9.5\F,11.9688389257
 ,9.5,9.5\\Version=ES64L-G16RevC.01\State=1-AG\HF=-429.0254875\RMSD=5.8
 99e-09\RMSF=3.339e-05\Dipole=0.,0.,0.\Quadrupole=-7.8910873,2.1120419,
 5.7790455,0.,0.,0.\PG=D02H [C2'(F1.F1),C2"(F1Be1.Be1F1)]\\@
 The archive entry for this job was punched.


 THE MORE ACCURATE THE CALCULATIONS BECOME, THE MORE THE CONCEPTS
 TEND TO VANISH INTO THIN AIR.
     -- R.S. MULLIKEN, J.C.P. 43,S2(1965)
 Job cpu time:       0 days  0 hours 23 minutes 19.8 seconds.
 Elapsed time:       0 days  0 hours  3 minutes  8.5 seconds.
 File lengths (MBytes):  RWF=     60 Int=      0 D2E=      0 Chk=      8 Scr=      1
 Normal termination of Gaussian 16 at Sun Aug  1 09:43:41 2021.
 Link1:  Proceeding to internal job step number  2.
 ----------------------------------------------------------------------
 #N Geom=AllCheck Guess=TCheck SCRF=Check GenChk RPBE1PBE/def2QZVPP Fre
 q
 ----------------------------------------------------------------------
 1/10=4,29=7,30=1,38=1,40=1/1,3;
 2/12=2,40=1/2;
 3/5=45,7=202,11=2,14=-4,25=1,30=1,70=2,71=2,74=-13,75=-5,116=1,140=1/1,2,3;
 4/5=101/1;
 5/5=2,32=2,38=6,98=1/2;
 8/6=4,10=90,11=11/1;
 11/6=1,8=1,9=11,15=111,16=1/1,2,10;
 10/6=1/2;
 6/7=2,8=2,9=2,10=2,28=1/1;
 7/8=1,10=1,25=1/1,2,3,16;
 1/10=4,30=1/3;
 99//99;
 Structure from the checkpoint file:  "/data/hutter/SMG16/PBE0/Gau-6465.chk"
 ---------
 Mol job 1
 ---------
 Charge =  0 Multiplicity = 1
 Redundant internal coordinates found in file.  (old form).
 Be,0,8.4131597791,9.5,9.5
 Be,0,10.5868402209,9.5,9.5
 F,0,9.5,10.6145449969,9.5
 F,0,9.5,8.3854550031,9.5
 F,0,7.0311610743,9.5,9.5
 F,0,11.9688389257,9.5,9.5
 Recover connectivity data from disk.

 GradGradGradGradGradGradGradGradGradGradGradGradGradGradGradGradGradGrad
 Berny optimization.
 Initialization pass.
                           ----------------------------
                           !    Initial Parameters    !
                           ! (Angstroms and Degrees)  !
 --------------------------                            --------------------------
 ! Name  Definition              Value          Derivative Info.                !
 --------------------------------------------------------------------------------
 ! R1    R(1,2)                  2.1737         calculate D2E/DX2 analytically  !
 ! R2    R(1,3)                  1.5567         calculate D2E/DX2 analytically  !
 ! R3    R(1,4)                  1.5567         calculate D2E/DX2 analytically  !
 ! R4    R(1,5)                  1.382          calculate D2E/DX2 analytically  !
 ! R5    R(2,3)                  1.5567         calculate D2E/DX2 analytically  !
 ! R6    R(2,4)                  1.5567         calculate D2E/DX2 analytically  !
 ! R7    R(2,6)                  1.382          calculate D2E/DX2 analytically  !
 ! A1    A(3,1,4)               91.4421         calculate D2E/DX2 analytically  !
 ! A2    A(3,1,5)              134.279          calculate D2E/DX2 analytically  !
 ! A3    A(4,1,5)              134.279          calculate D2E/DX2 analytically  !
 ! A4    A(3,2,4)               91.4421         calculate D2E/DX2 analytically  !
 ! A5    A(3,2,6)              134.279          calculate D2E/DX2 analytically  !
 ! A6    A(4,2,6)              134.279          calculate D2E/DX2 analytically  !
 ! A7    L(2,1,5,3,-1)         180.0            calculate D2E/DX2 analytically  !
 ! A8    L(1,2,6,3,-1)         180.0            calculate D2E/DX2 analytically  !
 ! A9    L(2,1,5,3,-2)         180.0            calculate D2E/DX2 analytically  !
 ! A10   L(1,2,6,3,-2)         180.0            calculate D2E/DX2 analytically  !
 ! D1    D(3,1,5,4)            180.0            calculate D2E/DX2 analytically  !
 ! D2    D(3,2,6,4)            180.0            calculate D2E/DX2 analytically  !
 --------------------------------------------------------------------------------
 Trust Radius=3.00D-01 FncErr=1.00D-07 GrdErr=1.00D-07 EigMax=2.50D+02 EigMin=1.00D-04
 Number of steps in this run=      2 maximum allowed number of steps=      2.
 GradGradGradGradGradGradGradGradGradGradGradGradGradGradGradGradGradGrad

                          Input orientation:                          
 ---------------------------------------------------------------------
 Center     Atomic      Atomic             Coordinates (Angstroms)
 Number     Number       Type             X           Y           Z
 ---------------------------------------------------------------------
      1          4           0        8.413160    9.500000    9.500000
      2          4           0       10.586840    9.500000    9.500000
      3          9           0        9.500000   10.614545    9.500000
      4          9           0        9.500000    8.385455    9.500000
      5          9           0        7.031161    9.500000    9.500000
      6          9           0       11.968839    9.500000    9.500000
 ---------------------------------------------------------------------
                    Distance matrix (angstroms):
                    1          2          3          4          5
     1  Be   0.000000
     2  Be   2.173680   0.000000
     3  F    1.556738   1.556738   0.000000
     4  F    1.556738   1.556738   2.229090   0.000000
     5  F    1.381999   3.555679   2.708759   2.708759   0.000000
     6  F    3.555679   1.381999   2.708759   2.708759   4.937678
                    6
     6  F    0.000000
 Stoichiometry    Be2F4
 Framework group  D2H[C2'(F.F),C2"(FBe.BeF)]
 Deg. of freedom     3
 Full point group                 D2H     NOp   8
 Largest Abelian subgroup         D2H     NOp   8
 Largest concise Abelian subgroup D2      NOp   4
                         Standard orientation:                         
 ---------------------------------------------------------------------
 Center     Atomic      Atomic             Coordinates (Angstroms)
 Number     Number       Type             X           Y           Z
 ---------------------------------------------------------------------
      1          4           0        0.000000    0.000000    1.086840
      2          4           0        0.000000    0.000000   -1.086840
      3          9           0        0.000000    1.114545    0.000000
      4          9           0       -0.000000   -1.114545    0.000000
      5          9           0        0.000000    0.000000    2.468839
      6          9           0        0.000000    0.000000   -2.468839
 ---------------------------------------------------------------------
 Rotational constants (GHZ):          10.7071747           1.9984333           1.6841047
 Standard basis: def2QZVPP (5D, 7F)
 There are    84 symmetry adapted cartesian basis functions of AG  symmetry.
 There are    27 symmetry adapted cartesian basis functions of B1G symmetry.
 There are    33 symmetry adapted cartesian basis functions of B2G symmetry.
 There are    41 symmetry adapted cartesian basis functions of B3G symmetry.
 There are    19 symmetry adapted cartesian basis functions of AU  symmetry.
 There are    68 symmetry adapted cartesian basis functions of B1U symmetry.
 There are    57 symmetry adapted cartesian basis functions of B2U symmetry.
 There are    41 symmetry adapted cartesian basis functions of B3U symmetry.
 There are    65 symmetry adapted basis functions of AG  symmetry.
 There are    23 symmetry adapted basis functions of B1G symmetry.
 There are    28 symmetry adapted basis functions of B2G symmetry.
 There are    34 symmetry adapted basis functions of B3G symmetry.
 There are    17 symmetry adapted basis functions of AU  symmetry.
 There are    54 symmetry adapted basis functions of B1U symmetry.
 There are    45 symmetry adapted basis functions of B2U symmetry.
 There are    34 symmetry adapted basis functions of B3U symmetry.
   300 basis functions,   484 primitive gaussians,   370 cartesian basis functions
    22 alpha electrons       22 beta electrons
       nuclear repulsion energy       182.3353146872 Hartrees.
 NAtoms=    6 NActive=    6 NUniq=    3 SFac= 4.00D+00 NAtFMM=   60 NAOKFM=F Big=F
 Integral buffers will be    131072 words long.
 Raffenetti 2 integral format.
 Two-electron integral symmetry is turned on.
 One-electron integrals computed using PRISM.
   8 Symmetry operations used in ECPInt.
 ECPInt:  NShTT=    4656 NPrTT=   14087 LenC2=    4314 LenP2D=   10308.
 LDataN:  DoStor=T MaxTD1= 8 Len=  415
 NBasis=   300 RedAO= T EigKep=  2.03D-04  NBF=    65    23    28    34    17    54    45    34
 NBsUse=   300 1.00D-06 EigRej= -1.00D+00 NBFU=    65    23    28    34    17    54    45    34
 Initial guess from the checkpoint file:  "/data/hutter/SMG16/PBE0/Gau-6465.chk"
 B after Tr=     0.000000    0.000000    0.000000
         Rot=    1.000000    0.000000    0.000000    0.000000 Ang=   0.00 deg.
 Initial guess orbital symmetries:
       Occupied  (B2U) (AG) (B1U) (AG) (AG) (B1U) (AG) (B2U) (AG)
                 (B1U) (AG) (B1U) (B3G) (B3U) (B1G) (B2U) (AG)
                 (B1U) (B2G) (B2U) (B3U) (B3G)
       Virtual   (AG) (B3U) (B1U) (B2U) (B2G) (AG) (B3G) (B3U)
                 (B1U) (B2G) (AG) (B1G) (AG) (B1U) (B2U) (AU) (B1U)
                 (B3G) (B2U) (B3U) (AG) (B3G) (B2G) (B1U) (AG)
                 (B1U) (B2U) (AG) (B3U) (B3G) (AG) (B2U) (B3U)
                 (B1G) (B2G) (B1U) (AG) (B3U) (B2U) (B1U) (AG)
                 (B3G) (B1U) (B3G) (B2G) (B3U) (B1U) (AU) (AG)
                 (B1G) (B2G) (B2U) (B1U) (B2G) (B3G) (B1G) (AU)
                 (AG) (B2U) (AG) (B3U) (AG) (B1U) (B2U) (B3U) (B3G)
                 (B1U) (AG) (B3G) (B2U) (AG) (B1U) (B1G) (B2G)
                 (AG) (B2U) (AU) (B3U) (AG) (B1G) (B1U) (B2G) (B1U)
                 (B3U) (B2U) (B1U) (AG) (B3G) (B2G) (B1U) (B3G)
                 (B3U) (AU) (B2U) (AG) (B1G) (B2U) (B3G) (B2G)
                 (B3U) (AG) (B1U) (B2U) (AG) (B3G) (B1U) (AG) (B1U)
                 (B2U) (B1G) (B3G) (B3U) (AG) (B1G) (B2G) (B1U)
                 (B2U) (B2G) (AU) (B3U) (B2U) (B3G) (AG) (B1G)
                 (B1U) (B3U) (AU) (B2U) (B2G) (AG) (B1U) (B3G)
                 (B2U) (B3U) (AG) (B3G) (B1U) (AG) (AG) (B1U) (B1G)
                 (AU) (AG) (B1U) (B2G) (AG) (B2U) (B3U) (AU) (B1G)
                 (B3G) (B2G) (B3U) (AG) (B2U) (B1U) (B1U) (B3G)
                 (B2U) (AG) (B3U) (B1G) (B3U) (B3G) (B2G) (B2U)
                 (AG) (B2U) (B1U) (B3G) (B1U) (AG) (B3U) (B2G)
                 (AG) (B2U) (B1U) (B3G) (AU) (B3G) (AG) (B1G) (AU)
                 (B2U) (B3U) (B1G) (B2G) (AG) (B1U) (B2U) (B3U)
                 (AG) (B2G) (B3G) (B2U) (B3U) (B1G) (B2G) (AU)
                 (AG) (B1U) (B3U) (B2G) (B3G) (B2U) (AU) (B1G)
                 (AG) (B1U) (B1U) (B2U) (B3G) (AG) (B1U) (AG) (B1U)
                 (B1G) (B2U) (B3G) (B3U) (B1G) (B2G) (B2U) (AU)
                 (B1U) (B3U) (B2G) (AG) (B3G) (B1G) (B3U) (AU)
                 (AG) (B1U) (B2G) (B2U) (B3U) (B3G) (B2U) (B3G)
                 (AG) (B1U) (B1U) (AG) (B2U) (AG) (AG) (B1U) (B1G)
                 (AU) (AG) (B1U) (B2G) (AU) (B3U) (AG) (B1G) (B2U)
                 (B3U) (B2G) (B2U) (B3G) (AG) (B1U) (B3G) (B2U)
                 (AG) (B1U) (B2U) (AG) (B1U) (AG) (AG) (B1U) (B2U)
                 (AG) (B1U) (AG)
 Requested convergence on RMS density matrix=1.00D-08 within 128 cycles.
 Requested convergence on MAX density matrix=1.00D-06.
 Requested convergence on             energy=1.00D-06.
 No special actions if energy rises.
 SCF Done:  E(RPBE1PBE) =  -429.025487490     A.U. after    1 cycles
            NFock=  1  Conv=0.41D-09     -V/T= 2.0033
 DoSCS=F DFT=T ScalE2(SS,OS)=  1.000000  1.000000
 Range of M.O.s used for correlation:     1   300
 NBasis=   300 NAE=    22 NBE=    22 NFC=     0 NFV=     0
 NROrb=    300 NOA=    22 NOB=    22 NVA=   278 NVB=   278

 **** Warning!!: The largest alpha MO coefficient is  0.16707454D+02

   8 Symmetry operations used in ECPInt.
 ECPInt:  NShTT=    4656 NPrTT=   14087 LenC2=    4314 LenP2D=   10308.
 LDataN:  DoStor=T MaxTD1= 9 Len=  602
 Symmetrizing basis deriv contribution to polar:
 IMax=3 JMax=2 DiffMx= 0.00D+00
 G2DrvN: will do     7 centers at a time, making    1 passes.
 Calling FoFCou, ICntrl=  3107 FMM=F I1Cent=   0 AccDes= 0.00D+00.
 End of G2Drv F.D. properties file   721 does not exist.
 End of G2Drv F.D. properties file   722 does not exist.
 End of G2Drv F.D. properties file   788 does not exist.
          IDoAtm=111111
          Differentiating once with respect to electric field.
                with respect to dipole field.
          Differentiating once with respect to nuclear coordinates.
 CalDSu exits because no D1Ps are significant.
          There are    12 degrees of freedom in the 1st order CPHF.  IDoFFX=4 NUNeed=    12.
     12 vectors produced by pass  0 Test12= 5.10D-14 8.33D-09 XBig12= 1.08D+01 1.15D+00.
 AX will form    12 AO Fock derivatives at one time.
     12 vectors produced by pass  1 Test12= 5.10D-14 8.33D-09 XBig12= 1.41D+00 3.42D-01.
     12 vectors produced by pass  2 Test12= 5.10D-14 8.33D-09 XBig12= 1.10D-01 8.85D-02.
     12 vectors produced by pass  3 Test12= 5.10D-14 8.33D-09 XBig12= 2.52D-03 1.14D-02.
     12 vectors produced by pass  4 Test12= 5.10D-14 8.33D-09 XBig12= 2.20D-05 1.16D-03.
     12 vectors produced by pass  5 Test12= 5.10D-14 8.33D-09 XBig12= 1.63D-07 9.63D-05.
      8 vectors produced by pass  6 Test12= 5.10D-14 8.33D-09 XBig12= 1.49D-09 7.82D-06.
      4 vectors produced by pass  7 Test12= 5.10D-14 8.33D-09 XBig12= 6.09D-12 4.39D-07.
      1 vectors produced by pass  8 Test12= 5.10D-14 8.33D-09 XBig12= 2.39D-14 2.57D-08.
 InvSVY:  IOpt=1 It=  1 EMax= 8.88D-16
 Solved reduced A of dimension    85 with    12 vectors.
 Isotropic polarizability for W=    0.000000       23.96 Bohr**3.
 End of Minotr F.D. properties file   721 does not exist.
 End of Minotr F.D. properties file   722 does not exist.
 End of Minotr F.D. properties file   788 does not exist.

 **********************************************************************

            Population analysis using the SCF Density.

 **********************************************************************

 Orbital symmetries:
       Occupied  (B2U) (AG) (B1U) (AG) (AG) (B1U) (AG) (B2U) (AG)
                 (B1U) (AG) (B1U) (B3G) (B3U) (B1G) (B2U) (AG)
                 (B1U) (B2G) (B2U) (B3U) (B3G)
       Virtual   (AG) (B3U) (B1U) (B2U) (B2G) (AG) (B3G) (B3U)
                 (B1U) (B2G) (AG) (B1G) (AG) (B1U) (B2U) (AU) (B1U)
                 (B3G) (B2U) (B3U) (AG) (B3G) (B2G) (B1U) (AG)
                 (B1U) (B2U) (AG) (B3U) (B3G) (AG) (B2U) (B3U)
                 (B1G) (B2G) (B1U) (AG) (B3U) (B2U) (B1U) (AG)
                 (B3G) (B1U) (B3G) (B2G) (B3U) (B1U) (AU) (AG)
                 (B1G) (B2G) (B2U) (B1U) (B2G) (B3G) (B1G) (AU)
                 (AG) (B2U) (AG) (B3U) (AG) (B1U) (B2U) (B3U) (B3G)
                 (B1U) (AG) (B3G) (B2U) (AG) (B1U) (B1G) (B2G)
                 (AG) (B2U) (AU) (B3U) (AG) (B1G) (B1U) (B2G) (B1U)
                 (B3U) (B2U) (B1U) (AG) (B3G) (B2G) (B1U) (B3G)
                 (B3U) (AU) (B2U) (AG) (B1G) (B2U) (B3G) (B2G)
                 (B3U) (AG) (B1U) (B2U) (AG) (B3G) (B1U) (AG) (B1U)
                 (B2U) (B1G) (B3G) (B3U) (AG) (B1G) (B2G) (B1U)
                 (B2U) (B2G) (AU) (B3U) (B2U) (B3G) (AG) (B1G)
                 (B1U) (B3U) (AU) (B2U) (B2G) (AG) (B1U) (B3G)
                 (B2U) (B3U) (AG) (B3G) (B1U) (AG) (AG) (B1U) (B1G)
                 (AU) (AG) (B1U) (B2G) (AG) (B2U) (B3U) (AU) (B1G)
                 (B3G) (B2G) (B3U) (AG) (B2U) (B1U) (B1U) (B3G)
                 (B2U) (AG) (B3U) (B1G) (B3U) (B3G) (B2G) (B2U)
                 (AG) (B2U) (B1U) (B3G) (B1U) (AG) (B3U) (B2G)
                 (AG) (B2U) (B1U) (B3G) (AU) (B3G) (AG) (B1G) (AU)
                 (B2U) (B3U) (B1G) (B2G) (AG) (B1U) (B2U) (B3U)
                 (AG) (B2G) (B3G) (B2U) (B3U) (B1G) (B2G) (AU)
                 (AG) (B1U) (B3U) (B2G) (B3G) (B2U) (AU) (B1G)
                 (AG) (B1U) (B1U) (B2U) (B3G) (AG) (B1U) (AG) (B1U)
                 (B1G) (B2U) (B3G) (B3U) (B1G) (B2G) (B2U) (AU)
                 (B1U) (B3U) (B2G) (AG) (B3G) (B1G) (B3U) (AU)
                 (AG) (B1U) (B2G) (B2U) (B3U) (B3G) (B2U) (B3G)
                 (AG) (B1U) (B1U) (AG) (B2U) (AG) (AG) (B1U) (B1G)
                 (AU) (AG) (B1U) (B2G) (AU) (B3U) (AG) (B1G) (B2U)
                 (B3U) (B2G) (B2U) (B3G) (AG) (B1U) (B3G) (B2U)
                 (AG) (B1U) (B2U) (AG) (B1U) (AG) (AG) (B1U) (B2U)
                 (AG) (B1U) (AG)
 The electronic state is 1-AG.
 Alpha  occ. eigenvalues --  -24.82434 -24.82433 -24.73687 -24.73687  -4.11042
 Alpha  occ. eigenvalues --   -4.11014  -1.29626  -1.26254  -1.18535  -1.18533
 Alpha  occ. eigenvalues --   -0.60081  -0.56845  -0.56515  -0.54029  -0.49917
 Alpha  occ. eigenvalues --   -0.49352  -0.47950  -0.47602  -0.43283  -0.42949
 Alpha  occ. eigenvalues --   -0.42925  -0.42163
 Alpha virt. eigenvalues --   -0.02971   0.00875   0.03389   0.04082   0.05337
 Alpha virt. eigenvalues --    0.08511   0.08710   0.11447   0.12204   0.13473
 Alpha virt. eigenvalues --    0.14362   0.17750   0.18709   0.19029   0.19313
 Alpha virt. eigenvalues --    0.23328   0.24439   0.25825   0.27715   0.28122
 Alpha virt. eigenvalues --    0.30088   0.35577   0.37142   0.38671   0.39813
 Alpha virt. eigenvalues --    0.41488   0.44067   0.46491   0.47050   0.49940
 Alpha virt. eigenvalues --    0.51040   0.53115   0.53602   0.53824   0.54001
 Alpha virt. eigenvalues --    0.54030   0.58412   0.59637   0.60142   0.61649
 Alpha virt. eigenvalues --    0.64844   0.68657   0.71641   0.77003   0.77318
 Alpha virt. eigenvalues --    0.77389   0.86782   0.87029   0.87150   0.87413
 Alpha virt. eigenvalues --    0.96923   0.98730   0.99527   1.04158   1.06115
 Alpha virt. eigenvalues --    1.07899   1.09308   1.10840   1.15097   1.19042
 Alpha virt. eigenvalues --    1.20393   1.20815   1.22915   1.33571   1.35415
 Alpha virt. eigenvalues --    1.37755   1.38612   1.40250   1.47843   1.49289
 Alpha virt. eigenvalues --    1.55289   1.56067   1.62426   1.65806   1.67704
 Alpha virt. eigenvalues --    1.67846   1.73215   1.74833   1.76965   1.77376
 Alpha virt. eigenvalues --    1.79008   1.82685   1.83099   1.84314   1.85991
 Alpha virt. eigenvalues --    1.89015   1.92223   1.93572   1.98957   2.03206
 Alpha virt. eigenvalues --    2.06835   2.07434   2.08604   2.16389   2.19107
 Alpha virt. eigenvalues --    2.27535   2.28261   2.30047   2.46168   2.47853
 Alpha virt. eigenvalues --    2.58326   2.72371   2.92481   3.01145   3.08510
 Alpha virt. eigenvalues --    3.11756   3.38644   3.66960   4.03780   4.07703
 Alpha virt. eigenvalues --    4.14280   4.16027   4.16476   4.18900   4.19721
 Alpha virt. eigenvalues --    4.21367   4.21760   4.23441   4.24505   4.24665
 Alpha virt. eigenvalues --    4.25479   4.27511   4.29268   4.33556   4.33707
 Alpha virt. eigenvalues --    4.33821   4.34679   4.35555   4.38268   4.39264
 Alpha virt. eigenvalues --    4.41862   4.45787   4.46912   4.47734   4.53815
 Alpha virt. eigenvalues --    4.60627   4.61494   4.61566   4.72171   4.92398
 Alpha virt. eigenvalues --    5.12601   5.17664   5.18886   5.27873   5.29378
 Alpha virt. eigenvalues --    5.35180   5.37001   5.37924   5.41803   5.41986
 Alpha virt. eigenvalues --    5.52391   5.58128   5.61370   5.63941   5.65700
 Alpha virt. eigenvalues --    5.69671   5.75634   5.80195   5.91934   5.94660
 Alpha virt. eigenvalues --    6.31809   6.41326   6.47741   6.61193   6.61475
 Alpha virt. eigenvalues --    6.62556   6.68724   6.77607   6.86307   7.06293
 Alpha virt. eigenvalues --    7.07490   7.18041  10.52351  10.63020  11.12853
 Alpha virt. eigenvalues --   11.17621  11.22247  11.24050  11.30847  11.30961
 Alpha virt. eigenvalues --   11.31591  11.32227  11.32540  11.32700  11.33051
 Alpha virt. eigenvalues --   11.33141  11.33173  11.33205  11.33220  11.33256
 Alpha virt. eigenvalues --   11.34106  11.35168  11.37634  11.38699  11.39637
 Alpha virt. eigenvalues --   11.40548  11.40633  11.40762  11.40839  11.41142
 Alpha virt. eigenvalues --   11.41336  11.41951  11.41972  11.42047  11.42073
 Alpha virt. eigenvalues --   11.43015  11.43015  11.43016  11.43017  11.43519
 Alpha virt. eigenvalues --   11.74399  11.89318  12.30090  12.40873  12.61305
 Alpha virt. eigenvalues --   12.89182  14.50806  14.55438  14.57463  14.57663
 Alpha virt. eigenvalues --   14.57698  14.60077  14.61078  14.62168  14.62226
 Alpha virt. eigenvalues --   14.63853  14.64921  14.67304  14.67983  14.68530
 Alpha virt. eigenvalues --   14.68870  14.70318  14.70376  14.70922  14.73268
 Alpha virt. eigenvalues --   14.76640  14.76670  14.80633  14.80984  14.81818
 Alpha virt. eigenvalues --   14.85922  14.92603  14.97768  15.01969  15.24284
 Alpha virt. eigenvalues --   15.30815  15.48905  15.58084  15.87172  15.90410
 Alpha virt. eigenvalues --   15.92021  15.96904  15.99987  16.03695  16.06069
 Alpha virt. eigenvalues --   16.08050  16.09445  16.15232  16.23983  16.24060
 Alpha virt. eigenvalues --   16.25962  16.27905  16.30585  16.45244  16.50463
 Alpha virt. eigenvalues --   16.53159  16.57876  16.65328  54.20121  54.21935
 Alpha virt. eigenvalues --   54.37880  54.43544  64.69439  64.79169 285.23641
 Alpha virt. eigenvalues --  285.24396 285.42470 285.50883
          Condensed to atoms (all electrons):
               1          2          3          4          5          6
     1  Be   2.483069  -0.014122   0.224686   0.224686   0.425745  -0.006675
     2  Be  -0.014122   2.483069   0.224686   0.224686  -0.006675   0.425745
     3  F    0.224686   0.224686   8.920006  -0.040286   0.000303   0.000303
     4  F    0.224686   0.224686  -0.040286   8.920006   0.000303   0.000303
     5  F    0.425745  -0.006675   0.000303   0.000303   8.913263  -0.000024
     6  F   -0.006675   0.425745   0.000303   0.000303  -0.000024   8.913263
 Mulliken charges:
               1
     1  Be   0.662611
     2  Be   0.662611
     3  F   -0.329697
     4  F   -0.329697
     5  F   -0.332914
     6  F   -0.332914
 Sum of Mulliken charges =  -0.00000
 Mulliken charges with hydrogens summed into heavy atoms:
               1
     1  Be   0.662611
     2  Be   0.662611
     3  F   -0.329697
     4  F   -0.329697
     5  F   -0.332914
     6  F   -0.332914
 APT charges:
               1
     1  Be   1.347550
     2  Be   1.347550
     3  F   -0.669054
     4  F   -0.669054
     5  F   -0.678496
     6  F   -0.678496
 Sum of APT charges =  -0.00000
 APT charges with hydrogens summed into heavy atoms:
               1
     1  Be   1.347550
     2  Be   1.347550
     3  F   -0.669054
     4  F   -0.669054
     5  F   -0.678496
     6  F   -0.678496
 Electronic spatial extent (au):  <R**2>=            579.2174
 Charge=             -0.0000 electrons
 Dipole moment (field-independent basis, Debye):
    X=              0.0000    Y=              0.0000    Z=              0.0000  Tot=              0.0000
 Quadrupole moment (field-independent basis, Debye-Ang):
   XX=            -25.3288   YY=            -30.2611   ZZ=            -43.7156
   XY=             -0.0000   XZ=             -0.0000   YZ=             -0.0000
 Traceless Quadrupole moment (field-independent basis, Debye-Ang):
   XX=              7.7730   YY=              2.8408   ZZ=            -10.6138
   XY=             -0.0000   XZ=             -0.0000   YZ=             -0.0000
 Octapole moment (field-independent basis, Debye-Ang**2):
  XXX=             -0.0000  YYY=              0.0000  ZZZ=             -0.0000  XYY=             -0.0000
  XXY=             -0.0000  XXZ=             -0.0000  XZZ=             -0.0000  YZZ=              0.0000
  YYZ=             -0.0000  XYZ=             -0.0000
 Hexadecapole moment (field-independent basis, Debye-Ang**3):
 XXXX=            -19.3347 YYYY=           -100.1198 ZZZZ=           -591.3226 XXXY=             -0.0000
 XXXZ=             -0.0000 YYYX=             -0.0000 YYYZ=             -0.0000 ZZZX=             -0.0000
 ZZZY=              0.0000 XXYY=            -19.4853 XXZZ=            -78.1311 YYZZ=            -91.2443
 XXYZ=             -0.0000 YYXZ=             -0.0000 ZZXY=             -0.0000
 N-N= 1.823353146872D+02 E-N=-1.388304056965D+03  KE= 4.276325058598D+02
 Symmetry AG   KE= 1.891495184579D+02
 Symmetry B1G  KE= 6.413417450615D+00
 Symmetry B2G  KE= 5.874362147829D+00
 Symmetry B3G  KE= 1.195543257255D+01
 Symmetry AU   KE= 6.936541314813D-21
 Symmetry B1U  KE= 1.076594086199D+02
 Symmetry B2U  KE= 9.504057839687D+01
 Symmetry B3U  KE= 1.153978821418D+01
  Exact polarizability:      20.636       0.000      22.361      -0.000      -0.000      28.896
 Approx polarizability:      24.743       0.000      25.751      -0.000      -0.000      31.129
   8 Symmetry operations used in ECPInt.
 ECPInt:  NShTT=    4656 NPrTT=   14087 LenC2=    4314 LenP2D=   10308.
 LDataN:  DoStor=T MaxTD1=10 Len=  848
 Calling FoFJK, ICntrl=    100127 FMM=F ISym2X=1 I1Cent= 0 IOpClX= 0 NMat=1 NMatS=1 NMatT=0.
 Full mass-weighted force constant matrix:
 Low frequencies ---   -4.6726   -4.3894   -2.7394   -0.0016   -0.0010   -0.0006
 Low frequencies ---   78.4714  183.7911  294.8871
 Diagonal vibrational polarizability:
       94.8727323      37.5596883      17.7159805
 Harmonic frequencies (cm**-1), IR intensities (KM/Mole), Raman scattering
 activities (A**4/AMU), depolarization ratios for plane and unpolarized
 incident light, reduced masses (AMU), force constants (mDyne/A),
 and normal coordinates:
                      1                      2                      3
                     B3U                    B2U                    B3G
 Frequencies --     78.4714               183.7911               294.8871
 Red. masses --     18.3740                17.4325                15.0532
 Frc consts  --      0.0667                 0.3469                 0.7712
 IR Inten    --     16.3212                28.7075                 0.0000
  Atom  AN      X      Y      Z        X      Y      Z        X      Y      Z
     1   4    -0.18   0.00   0.00     0.00  -0.28   0.00    -0.00  -0.44  -0.00
     2   4    -0.18  -0.00   0.00    -0.00  -0.28  -0.00    -0.00   0.44  -0.00
     3   9    -0.44   0.00  -0.00    -0.00  -0.39  -0.00    -0.00  -0.00   0.46
     4   9    -0.44   0.00  -0.00    -0.00  -0.39   0.00    -0.00  -0.00  -0.46
     5   9     0.52  -0.00   0.00     0.00   0.52   0.00     0.00   0.30  -0.00
     6   9     0.52   0.00   0.00     0.00   0.52  -0.00     0.00  -0.30  -0.00
                      4                      5                      6
                     B2G                    AG                     B3U
 Frequencies --    338.7047               380.3782               506.8916
 Red. masses --      9.4295                15.7582                10.2051
 Frc consts  --      0.6374                 1.3433                 1.5449
 IR Inten    --      0.0000                 0.0000               224.7956
  Atom  AN      X      Y      Z        X      Y      Z        X      Y      Z
     1   4     0.69  -0.00   0.00    -0.00   0.00   0.40     0.66  -0.00  -0.00
     2   4    -0.69   0.00  -0.00     0.00   0.00  -0.40     0.66   0.00   0.00
     3   9     0.00  -0.00  -0.00    -0.00  -0.18   0.00    -0.23   0.00  -0.00
     4   9     0.00   0.00   0.00    -0.00   0.18   0.00    -0.23   0.00  -0.00
     5   9    -0.14  -0.00   0.00     0.00  -0.00   0.55    -0.09   0.00   0.00
     6   9     0.14  -0.00  -0.00    -0.00  -0.00  -0.55    -0.09   0.00   0.00
                      7                      8                      9
                     B1U                    B3G                    AG
 Frequencies --    546.5826               574.3224               651.0524
 Red. masses --     18.0247                10.7495                18.9438
 Frc consts  --      3.1727                 2.0890                 4.7310
 IR Inten    --     46.5298                 0.0000                 0.0000
  Atom  AN      X      Y      Z        X      Y      Z        X      Y      Z
     1   4     0.00  -0.00  -0.22     0.00   0.64  -0.00     0.00  -0.00   0.05
     2   4     0.00   0.00  -0.22     0.00  -0.64  -0.00    -0.00  -0.00  -0.05
     3   9    -0.00  -0.00   0.52    -0.00   0.00   0.29    -0.00   0.67   0.00
     4   9    -0.00   0.00   0.52    -0.00   0.00  -0.29    -0.00  -0.67   0.00
     5   9     0.00  -0.00  -0.42    -0.00  -0.00  -0.00    -0.00  -0.00   0.21
     6   9     0.00   0.00  -0.42    -0.00   0.00  -0.00     0.00  -0.00  -0.21
                     10                     11                     12
                     B2U                    B1U                    AG
 Frequencies --    867.2508              1291.0086              1393.0134
 Red. masses --     10.5206                10.3161                10.0014
 Frc consts  --      4.6621                10.1303                11.4346
 IR Inten    --    410.5336               837.6277                 0.0000
  Atom  AN      X      Y      Z        X      Y      Z        X      Y      Z
     1   4     0.00   0.65  -0.00     0.00  -0.00   0.66     0.00   0.00   0.67
     2   4     0.00   0.65   0.00     0.00   0.00   0.66    -0.00   0.00  -0.67
     3   9    -0.00  -0.27   0.00    -0.00  -0.00  -0.07     0.00   0.04   0.00
     4   9    -0.00  -0.27  -0.00    -0.00   0.00  -0.07     0.00  -0.04   0.00
     5   9     0.00  -0.04   0.00    -0.00   0.00  -0.25    -0.00  -0.00  -0.22
     6   9     0.00  -0.04  -0.00    -0.00  -0.00  -0.25     0.00  -0.00   0.22

 -------------------
 - Thermochemistry -
 -------------------
 Temperature   298.150 Kelvin.  Pressure   1.00000 Atm.
 Atom     1 has atomic number  4 and mass   9.01218
 Atom     2 has atomic number  4 and mass   9.01218
 Atom     3 has atomic number  9 and mass  18.99840
 Atom     4 has atomic number  9 and mass  18.99840
 Atom     5 has atomic number  9 and mass  18.99840
 Atom     6 has atomic number  9 and mass  18.99840
 Molecular mass:    94.01798 amu.
 Principal axes and moments of inertia in atomic units:
                           1         2         3
     Eigenvalues --   168.55438 903.078011071.63239
           X            0.00000   0.00000   1.00000
           Y            0.00000   1.00000  -0.00000
           Z            1.00000   0.00000  -0.00000
 This molecule is an asymmetric top.
 Rotational symmetry number  4.
 Rotational temperatures (Kelvin)      0.51386     0.09591     0.08082
 Rotational constants (GHZ):          10.70717     1.99843     1.68410
 Zero-point vibrational energy      42505.4 (Joules/Mol)
                                   10.15904 (Kcal/Mol)
 Warning -- explicit consideration of   8 degrees of freedom as
           vibrations may cause significant error
 Vibrational temperatures:    112.90   264.43   424.28   487.32   547.28
          (Kelvin)            729.30   786.41   826.32   936.72  1247.78
                             1857.47  2004.24
 
 Zero-point correction=                           0.016189 (Hartree/Particle)
 Thermal correction to Energy=                    0.022315
 Thermal correction to Enthalpy=                  0.023259
 Thermal correction to Gibbs Free Energy=        -0.012640
 Sum of electronic and zero-point Energies=           -429.009298
 Sum of electronic and thermal Energies=              -429.003173
 Sum of electronic and thermal Enthalpies=            -429.002229
 Sum of electronic and thermal Free Energies=         -429.038127
 
                     E (Thermal)             CV                S
                      KCal/Mol        Cal/Mol-Kelvin    Cal/Mol-Kelvin
 Total                   14.003             19.782             75.555
 Electronic               0.000              0.000              0.000
 Translational            0.889              2.981             39.534
 Rotational               0.889              2.981             23.837
 Vibrational             12.225             13.821             12.184
 Vibration     1          0.600              1.964              3.929
 Vibration     2          0.631              1.862              2.290
 Vibration     3          0.689              1.683              1.446
 Vibration     4          0.719              1.598              1.218
 Vibration     5          0.750              1.512              1.038
 Vibration     6          0.862              1.235              0.641
 Vibration     7          0.902              1.147              0.551
 Vibration     8          0.931              1.087              0.496
                       Q            Log10(Q)             Ln(Q)
 Total Bot       0.651533D+06          5.813936         13.387083
 Total V=0       0.182208D+14         13.260567         30.533584
 Vib (Bot)       0.503066D-06         -6.298375        -14.502545
 Vib (Bot)    1  0.262505D+01          0.419138          0.965101
 Vib (Bot)    2  0.109138D+01          0.037975          0.087440
 Vib (Bot)    3  0.646757D+00         -0.189259         -0.435785
 Vib (Bot)    4  0.548668D+00         -0.260690         -0.600261
 Vib (Bot)    5  0.475205D+00         -0.323119         -0.744010
 Vib (Bot)    6  0.322248D+00         -0.491810         -1.132434
 Vib (Bot)    7  0.288056D+00         -0.540523         -1.244599
 Vib (Bot)    8  0.266832D+00         -0.573763         -1.321137
 Vib (V=0)       0.140688D+02          1.148256          2.643956
 Vib (V=0)    1  0.317225D+01          0.501367          1.154440
 Vib (V=0)    2  0.170046D+01          0.230566          0.530898
 Vib (V=0)    3  0.131749D+01          0.119748          0.275730
 Vib (V=0)    4  0.124232D+01          0.094233          0.216980
 Vib (V=0)    5  0.118980D+01          0.075473          0.173782
 Vib (V=0)    6  0.109485D+01          0.039354          0.090615
 Vib (V=0)    7  0.107704D+01          0.032232          0.074218
 Vib (V=0)    8  0.106674D+01          0.028060          0.064611
 Electronic      0.100000D+01          0.000000          0.000000
 Translational   0.358319D+08          7.554270         17.394350
 Rotational      0.361444D+05          4.558041         10.495278
 ***** Axes restored to original set *****
 -------------------------------------------------------------------
 Center     Atomic                   Forces (Hartrees/Bohr)
 Number     Number              X              Y              Z
 -------------------------------------------------------------------
      1        4           0.000051408   -0.000000000    0.000000000
      2        4          -0.000051408    0.000000000   -0.000000000
      3        9           0.000000000    0.000006106   -0.000000000
      4        9           0.000000000   -0.000006106    0.000000000
      5        9          -0.000085757    0.000000000    0.000000000
      6        9           0.000085757    0.000000000   -0.000000000
 -------------------------------------------------------------------
 Cartesian Forces:  Max     0.000085757 RMS     0.000033390
 FormGI is forming the generalized inverse of G from B-inverse, IUseBI=4.

 GradGradGradGradGradGradGradGradGradGradGradGradGradGradGradGradGradGrad
 Berny optimization.
 Internal  Forces:  Max     0.000085757 RMS     0.000028486
 Search for a local minimum.
 Step number   1 out of a maximum of    2
 All quantities printed in internal units (Hartrees-Bohrs-Radians)
 Second derivative matrix not updated -- analytic derivatives used.
 The second derivative matrix:
                          R1        R2        R3        R4        R5
           R1           0.04653
           R2          -0.00189   0.11362
           R3          -0.00189   0.00330   0.11362
           R4           0.00365   0.01080   0.01080   0.35207
           R5          -0.00189   0.03109   0.00665  -0.00383   0.11362
           R6          -0.00189   0.00665   0.03109  -0.00383   0.00330
           R7           0.00365  -0.00383  -0.00383   0.00332   0.01080
           A1          -0.02334   0.01273   0.01273  -0.00452   0.04033
           A2           0.01167  -0.00346  -0.00927   0.00226  -0.03157
           A3           0.01167  -0.00927  -0.00346   0.00226  -0.00877
           A4          -0.02334   0.04033   0.04033   0.00568   0.01273
           A5           0.01167  -0.03157  -0.00877  -0.00284  -0.00346
           A6           0.01167  -0.00877  -0.03157  -0.00284  -0.00927
           A7           0.00000   0.00658  -0.00658   0.00000   0.00725
           A8           0.00000   0.00725  -0.00725  -0.00000   0.00658
           A9           0.00000  -0.00000  -0.00000  -0.00000   0.00000
           A10          0.00000   0.00000   0.00000   0.00000  -0.00000
           D1           0.00000  -0.00000  -0.00000   0.00000  -0.00000
           D2           0.00000  -0.00000  -0.00000  -0.00000  -0.00000
                          R6        R7        A1        A2        A3
           R6           0.11362
           R7           0.01080   0.35207
           A1           0.04033   0.00568   0.03829
           A2          -0.00877  -0.00284  -0.01915   0.02333
           A3          -0.03157  -0.00284  -0.01915  -0.00419   0.02333
           A4           0.01273  -0.00452   0.01905  -0.00953  -0.00953
           A5          -0.00927   0.00226  -0.00953   0.00495   0.00457
           A6          -0.00346   0.00226  -0.00953   0.00457   0.00495
           A7          -0.00725  -0.00000   0.00000   0.00986  -0.00986
           A8          -0.00658   0.00000   0.00000   0.00128  -0.00128
           A9           0.00000   0.00000   0.00000  -0.00000  -0.00000
           A10         -0.00000  -0.00000  -0.00000   0.00000   0.00000
           D1          -0.00000  -0.00000  -0.00000   0.00000   0.00000
           D2          -0.00000   0.00000  -0.00000   0.00000   0.00000
                          A4        A5        A6        A7        A8
           A4           0.03829
           A5          -0.01915   0.02333
           A6          -0.01915  -0.00419   0.02333
           A7           0.00000   0.00128  -0.00128   0.01227
           A8           0.00000   0.00986  -0.00986   0.00345   0.01227
           A9          -0.00000   0.00000   0.00000  -0.00000  -0.00000
           A10          0.00000  -0.00000  -0.00000   0.00000   0.00000
           D1          -0.00000   0.00000   0.00000   0.00000   0.00000
           D2          -0.00000   0.00000   0.00000  -0.00000  -0.00000
                          A9        A10       D1        D2
           A9           0.02419
           A10         -0.02140   0.02419
           D1          -0.01606   0.01996   0.02367
           D2           0.01996  -0.01606  -0.01822   0.02367
 ITU=  0
     Eigenvalues ---    0.00768   0.00824   0.02417   0.03862   0.06454
     Eigenvalues ---    0.07980   0.09767   0.10564   0.13976   0.22198
     Eigenvalues ---    0.35115   0.35607
 Angle between quadratic step and forces=  35.58 degrees.
 Linear search not attempted -- first point.
 Iteration  1 RMS(Cart)=  0.00013348 RMS(Int)=  0.00000000
 Iteration  2 RMS(Cart)=  0.00000000 RMS(Int)=  0.00000000
 ClnCor:  largest displacement from symmetrization is 5.56D-12 for atom     4.
 Variable       Old X    -DE/DX   Delta X   Delta X   Delta X     New X
                                 (Linear)    (Quad)   (Total)
    R1        4.10766   0.00002   0.00000   0.00029   0.00029   4.10796
    R2        2.94181   0.00001   0.00000   0.00008   0.00008   2.94189
    R3        2.94181   0.00001   0.00000   0.00008   0.00008   2.94189
    R4        2.61160   0.00009   0.00000   0.00024   0.00024   2.61183
    R5        2.94181   0.00001   0.00000   0.00008   0.00008   2.94189
    R6        2.94181   0.00001   0.00000   0.00008   0.00008   2.94189
    R7        2.61160   0.00009   0.00000   0.00024   0.00024   2.61183
    A1        1.59597  -0.00001   0.00000  -0.00009  -0.00009   1.59588
    A2        2.34361   0.00000   0.00000   0.00004   0.00004   2.34365
    A3        2.34361   0.00000   0.00000   0.00004   0.00004   2.34365
    A4        1.59597  -0.00001   0.00000  -0.00009  -0.00009   1.59588
    A5        2.34361   0.00000   0.00000   0.00004   0.00004   2.34365
    A6        2.34361   0.00000   0.00000   0.00004   0.00004   2.34365
    A7        3.14159  -0.00000   0.00000  -0.00000   0.00000   3.14159
    A8        3.14159  -0.00000   0.00000  -0.00000   0.00000   3.14159
    A9        3.14159   0.00000   0.00000   0.00000   0.00000   3.14159
   A10        3.14159   0.00000   0.00000   0.00000   0.00000   3.14159
    D1        3.14159   0.00000   0.00000   0.00000   0.00000   3.14159
    D2        3.14159   0.00000   0.00000   0.00000   0.00000   3.14159
         Item               Value     Threshold  Converged?
 Maximum Force            0.000086     0.000450     YES
 RMS     Force            0.000028     0.000300     YES
 Maximum Displacement     0.000383     0.001800     YES
 RMS     Displacement     0.000133     0.001200     YES
 Predicted change in Energy=-2.507892D-08
 Optimization completed.
    -- Stationary point found.
                           ----------------------------
                           !   Optimized Parameters   !
                           ! (Angstroms and Degrees)  !
 --------------------------                            --------------------------
 ! Name  Definition              Value          Derivative Info.                !
 --------------------------------------------------------------------------------
 ! R1    R(1,2)                  2.1737         -DE/DX =    0.0                 !
 ! R2    R(1,3)                  1.5567         -DE/DX =    0.0                 !
 ! R3    R(1,4)                  1.5567         -DE/DX =    0.0                 !
 ! R4    R(1,5)                  1.382          -DE/DX =    0.0001              !
 ! R5    R(2,3)                  1.5567         -DE/DX =    0.0                 !
 ! R6    R(2,4)                  1.5567         -DE/DX =    0.0                 !
 ! R7    R(2,6)                  1.382          -DE/DX =    0.0001              !
 ! A1    A(3,1,4)               91.4421         -DE/DX =    0.0                 !
 ! A2    A(3,1,5)              134.279          -DE/DX =    0.0                 !
 ! A3    A(4,1,5)              134.279          -DE/DX =    0.0                 !
 ! A4    A(3,2,4)               91.4421         -DE/DX =    0.0                 !
 ! A5    A(3,2,6)              134.279          -DE/DX =    0.0                 !
 ! A6    A(4,2,6)              134.279          -DE/DX =    0.0                 !
 ! A7    L(2,1,5,3,-1)         180.0            -DE/DX =    0.0                 !
 ! A8    L(1,2,6,3,-1)         180.0            -DE/DX =    0.0                 !
 ! A9    L(2,1,5,3,-2)         180.0            -DE/DX =    0.0                 !
 ! A10   L(1,2,6,3,-2)         180.0            -DE/DX =    0.0                 !
 ! D1    D(3,1,5,4)            180.0            -DE/DX =    0.0                 !
 ! D2    D(3,2,6,4)            180.0            -DE/DX =    0.0                 !
 --------------------------------------------------------------------------------
 GradGradGradGradGradGradGradGradGradGradGradGradGradGradGradGradGradGrad

 Dipole is zero, so no output in dipole orientation.

 ----------------------------------------------------------------------

 Electric dipole moment (input orientation):
 (Debye = 10**-18 statcoulomb cm , SI units = C m)
                  (au)            (Debye)         (10**-30 SI)
   Tot        0.000000D+00      0.000000D+00      0.000000D+00
   x          0.000000D+00      0.000000D+00      0.000000D+00
   y          0.000000D+00      0.000000D+00      0.000000D+00
   z          0.000000D+00      0.000000D+00      0.000000D+00

 Dipole polarizability, Alpha (input orientation).
 (esu units = cm**3 , SI units = C**2 m**2 J**-1)
 Alpha(0;0):
               (au)            (10**-24 esu)      (10**-40 SI)
   iso        0.239645D+02      0.355117D+01      0.395121D+01
   aniso      0.754605D+01      0.111821D+01      0.124418D+01
   xx         0.288956D+02      0.428189D+01      0.476425D+01
   yx         0.000000D+00      0.000000D+00      0.000000D+00
   yy         0.223614D+02      0.331361D+01      0.368689D+01
   zx         0.000000D+00      0.000000D+00      0.000000D+00
   zy         0.000000D+00      0.000000D+00      0.000000D+00
   zz         0.206365D+02      0.305801D+01      0.340249D+01

 ----------------------------------------------------------------------
 Unable to Open any file for archive entry.
 1\1\GINC-TCOPT10\Freq\RPBE1PBE\def2QZVPP\Be2F4\HUTTER\01-Aug-2021\0\\#
 N Geom=AllCheck Guess=TCheck SCRF=Check GenChk RPBE1PBE/def2QZVPP Freq
 \\Mol job 1\\0,1\Be,8.4131597791,9.5,9.5\Be,10.5868402209,9.5,9.5\F,9.
 5,10.6145449969,9.5\F,9.5,8.3854550031,9.5\F,7.0311610743,9.5,9.5\F,11
 .9688389257,9.5,9.5\\Version=ES64L-G16RevC.01\State=1-AG\HF=-429.02548
 75\RMSD=4.067e-10\RMSF=3.339e-05\ZeroPoint=0.0161895\Thermal=0.0223146
 \ETot=-429.0031729\HTot=-429.0022287\GTot=-429.0381274\Dipole=0.,0.,0.
 \DipoleDeriv=1.8172388,0.,0.,0.,1.2784294,0.,0.,0.,0.9469803,1.8172388
 ,0.,0.,0.,1.2784294,0.,0.,0.,0.9469803,-0.8740473,0.,0.,0.,-0.7323607,
 0.,0.,0.,-0.4007534,-0.8740473,0.,0.,0.,-0.7323607,0.,0.,0.,-0.4007534
 ,-0.9431915,0.,0.,0.,-0.5460687,0.,0.,0.,-0.5462269,-0.9431915,0.,0.,0
 .,-0.5460687,0.,0.,0.,-0.5462269\Polar=28.8956383,0.,22.3613682,0.,0.,
 20.6364677\Quadrupole=-7.8910857,2.1120407,5.779045,0.,0.,0.\PG=D02H [
 C2'(F1.F1),C2"(F1Be1.Be1F1)]\NImag=0\\0.49176238,0.,0.13620136,0.,0.,0
 .05202185,-0.05504808,0.,0.,0.49176238,0.,0.05127539,0.,0.,0.13620136,
 0.,0.,0.01618522,0.,0.,0.05202185,-0.05791988,-0.03002094,0.,-0.057919
 88,0.03002094,0.,0.12504900,-0.03630853,-0.08083327,0.,0.03630853,-0.0
 8083327,0.,0.,0.22432490,0.,0.,-0.02459330,0.,0.,-0.02459330,0.,0.,0.0
 1888180,-0.05791988,0.03002094,0.,-0.05791988,-0.03002094,0.,0.0186674
 8,0.,0.,0.12504900,0.03630853,-0.08083327,0.,-0.03630853,-0.08083327,0
 .,0.,-0.07148583,0.,0.,0.22432490,0.,0.,-0.02459330,0.,0.,-0.02459330,
 0.,0.,0.01888720,0.,0.,0.01888180,-0.33003539,0.,0.,0.00916084,0.,0.,-
 0.01393836,-0.00540174,0.,-0.01393836,0.00540174,0.,0.35206891,0.,-0.0
 1803841,0.,0.,-0.00777181,0.,-0.01079632,0.00441373,0.,0.01079632,0.00
 441374,0.,0.,0.01561162,0.,0.,-0.01739272,0.,0.,-0.00162773,0.,0.,0.00
 570880,0.,0.,0.00570880,0.,0.,0.00726147,0.00916084,0.,0.,-0.33003539,
 0.,0.,-0.01393836,0.00540174,0.,-0.01393836,-0.00540174,0.,-0.00331764
 ,0.,0.,0.35206891,0.,-0.00777181,0.,0.,-0.01803841,0.,0.01079632,0.004
 41373,0.,-0.01079632,0.00441374,0.,0.,0.00137113,0.,0.,0.01561162,0.,0
 .,-0.00162773,0.,0.,-0.01739272,0.,0.,0.00570880,0.,0.,0.00570880,0.,0
 .,0.00034138,0.,0.,0.00726147\\-0.00005141,0.,0.,0.00005141,0.,0.,0.,-
 0.00000611,0.,0.,0.00000611,0.,0.00008576,0.,0.,-0.00008576,0.,0.\\\@
 The archive entry for this job was punched.


 WHEN IT COMES TO CASH FLOW, IT SEEMS LIKE THE TIDE IS ALWAYS GOING OUT.
 Job cpu time:       0 days  0 hours 34 minutes  4.3 seconds.
 Elapsed time:       0 days  0 hours  4 minutes 30.9 seconds.
 File lengths (MBytes):  RWF=     60 Int=      0 D2E=      0 Chk=      8 Scr=      1
 Normal termination of Gaussian 16 at Sun Aug  1 09:48:12 2021.
