 Entering Gaussian System, Link 0=g16
 Initial command:
 /sw-ng/spack/opt/spack/linux-opensuse_leap15-sandybridge/pgi-18.10/gaussian-src-16-C.01-zldqaomctopxhethwccpmxmwefdscg3m/g16/l1.exe "/data/hutter/SMG16/PBE0/Gau-67592.inp" -scrdir="/data/hutter/SMG16/PBE0/"
 Entering Link 1 = /sw-ng/spack/opt/spack/linux-opensuse_leap15-sandybridge/pgi-18.10/gaussian-src-16-C.01-zldqaomctopxhethwccpmxmwefdscg3m/g16/l1.exe PID=     67600.
  
 Copyright (c) 1988-2019, Gaussian, Inc.  All Rights Reserved.
  
 This is part of the Gaussian(R) 16 program.  It is based on
 the Gaussian(R) 09 system (copyright 2009, Gaussian, Inc.),
 the Gaussian(R) 03 system (copyright 2003, Gaussian, Inc.),
 the Gaussian(R) 98 system (copyright 1998, Gaussian, Inc.),
 the Gaussian(R) 94 system (copyright 1995, Gaussian, Inc.),
 the Gaussian 92(TM) system (copyright 1992, Gaussian, Inc.),
 the Gaussian 90(TM) system (copyright 1990, Gaussian, Inc.),
 the Gaussian 88(TM) system (copyright 1988, Gaussian, Inc.),
 the Gaussian 86(TM) system (copyright 1986, Carnegie Mellon
 University), and the Gaussian 82(TM) system (copyright 1983,
 Carnegie Mellon University). Gaussian is a federally registered
 trademark of Gaussian, Inc.
  
 This software contains proprietary and confidential information,
 including trade secrets, belonging to Gaussian, Inc.
  
 This software is provided under written license and may be
 used, copied, transmitted, or stored only in accord with that
 written license.
  
 The following legend is applicable only to US Government
 contracts under FAR:
  
                    RESTRICTED RIGHTS LEGEND
  
 Use, reproduction and disclosure by the US Government is
 subject to restrictions as set forth in subparagraphs (a)
 and (c) of the Commercial Computer Software - Restricted
 Rights clause in FAR 52.227-19.
  
 Gaussian, Inc.
 340 Quinnipiac St., Bldg. 40, Wallingford CT 06492
  
  
 ---------------------------------------------------------------
 Warning -- This program may not be used in any manner that
 competes with the business of Gaussian, Inc. or will provide
 assistance to any competitor of Gaussian, Inc.  The licensee
 of this program is prohibited from giving any competitor of
 Gaussian, Inc. access to this program.  By using this program,
 the user acknowledges that Gaussian, Inc. is engaged in the
 business of creating and licensing software in the field of
 computational chemistry and represents and warrants to the
 licensee that it is not a competitor of Gaussian, Inc. and that
 it will not use this program in any manner prohibited above.
 ---------------------------------------------------------------
  

 Cite this work as:
 Gaussian 16, Revision C.01,
 M. J. Frisch, G. W. Trucks, H. B. Schlegel, G. E. Scuseria, 
 M. A. Robb, J. R. Cheeseman, G. Scalmani, V. Barone, 
 G. A. Petersson, H. Nakatsuji, X. Li, M. Caricato, A. V. Marenich, 
 J. Bloino, B. G. Janesko, R. Gomperts, B. Mennucci, H. P. Hratchian, 
 J. V. Ortiz, A. F. Izmaylov, J. L. Sonnenberg, D. Williams-Young, 
 F. Ding, F. Lipparini, F. Egidi, J. Goings, B. Peng, A. Petrone, 
 T. Henderson, D. Ranasinghe, V. G. Zakrzewski, J. Gao, N. Rega, 
 G. Zheng, W. Liang, M. Hada, M. Ehara, K. Toyota, R. Fukuda, 
 J. Hasegawa, M. Ishida, T. Nakajima, Y. Honda, O. Kitao, H. Nakai, 
 T. Vreven, K. Throssell, J. A. Montgomery, Jr., J. E. Peralta, 
 F. Ogliaro, M. J. Bearpark, J. J. Heyd, E. N. Brothers, K. N. Kudin, 
 V. N. Staroverov, T. A. Keith, R. Kobayashi, J. Normand, 
 K. Raghavachari, A. P. Rendell, J. C. Burant, S. S. Iyengar, 
 J. Tomasi, M. Cossi, J. M. Millam, M. Klene, C. Adamo, R. Cammi, 
 J. W. Ochterski, R. L. Martin, K. Morokuma, O. Farkas, 
 J. B. Foresman, and D. J. Fox, Gaussian, Inc., Wallingford CT, 2019.
 
 ******************************************
 Gaussian 16:  ES64L-G16RevC.01  3-Jul-2019
                 1-Aug-2021 
 ******************************************
 %mem=8GB
 %NProcShare=8
 Will use up to    8 processors via shared memory.
 ------------------------------------------------------------
 #N UPBE1PBE/Def2QZVPP scf=tight Int(Grid=ultrafine) OPT FREQ
 ------------------------------------------------------------
 1/18=20,19=15,26=4,38=1/1,3;
 2/9=110,12=2,17=6,18=5,40=1/2;
 3/5=45,7=202,11=2,25=1,30=1,71=1,74=-13,75=-5,116=2/1,2,3;
 4//1;
 5/5=2,32=2,38=5/2;
 6/7=2,8=2,9=2,10=2,28=1/1;
 7//1,2,3,16;
 1/18=20,19=15,26=4/3(2);
 2/9=110/2;
 99//99;
 2/9=110/2;
 3/5=45,7=202,11=2,25=1,30=1,71=1,74=-13,75=-5,116=2/1,2,3;
 4/5=5,16=3,69=1/1;
 5/5=2,32=2,38=5/2;
 7//1,2,3,16;
 1/18=20,19=15,26=4/3(-5);
 2/9=110/2;
 6/7=2,8=2,9=2,10=2,19=2,28=1/1;
 99/9=1/99;
 ---------
 Mol job 1
 ---------
 Symbolic Z-matrix:
 Charge =  0 Multiplicity = 2
 Te                    8.0033    8.5       8.62515 
 F                     7.0099    10.22062   8.37485 
 F                     7.0099    6.77938   8.37485 
 F                     9.9901    8.5       8.37485 
 

 GradGradGradGradGradGradGradGradGradGradGradGradGradGradGradGradGradGrad
 Berny optimization.
 Initialization pass.
                           ----------------------------
                           !    Initial Parameters    !
                           ! (Angstroms and Degrees)  !
 --------------------------                            --------------------------
 ! Name  Definition              Value          Derivative Info.                !
 --------------------------------------------------------------------------------
 ! R1    R(1,2)                  2.0025         estimate D2E/DX2                !
 ! R2    R(1,3)                  2.0025         estimate D2E/DX2                !
 ! R3    R(1,4)                  2.0025         estimate D2E/DX2                !
 ! A1    A(2,1,3)              118.4612         estimate D2E/DX2                !
 ! A2    A(2,1,4)              118.4612         estimate D2E/DX2                !
 ! A3    A(3,1,4)              118.4612         estimate D2E/DX2                !
 ! D1    D(2,1,4,3)           -155.568          estimate D2E/DX2                !
 --------------------------------------------------------------------------------
 Trust Radius=3.00D-01 FncErr=1.00D-07 GrdErr=1.00D-06 EigMax=2.50D+02 EigMin=1.00D-04
 Number of steps in this run=     20 maximum allowed number of steps=    100.
 GradGradGradGradGradGradGradGradGradGradGradGradGradGradGradGradGradGrad

                          Input orientation:                          
 ---------------------------------------------------------------------
 Center     Atomic      Atomic             Coordinates (Angstroms)
 Number     Number       Type             X           Y           Z
 ---------------------------------------------------------------------
      1         52           0        8.003300    8.500000    8.625153
      2          9           0        7.009901   10.220619    8.374847
      3          9           0        7.009901    6.779381    8.374847
      4          9           0        9.990099    8.500000    8.374847
 ---------------------------------------------------------------------
                    Distance matrix (angstroms):
                    1          2          3          4
     1  Te   0.000000
     2  F    2.002504   0.000000
     3  F    2.002504   3.441237   0.000000
     4  F    2.002504   3.441237   3.441237   0.000000
 Stoichiometry    F3Te(2)
 Framework group  C3V[C3(Te),3SGV(F)]
 Deg. of freedom     2
 Full point group                 C3V     NOp   6
 Largest Abelian subgroup         CS      NOp   2
 Largest concise Abelian subgroup CS      NOp   2
                         Standard orientation:                         
 ---------------------------------------------------------------------
 Center     Atomic      Atomic             Coordinates (Angstroms)
 Number     Number       Type             X           Y           Z
 ---------------------------------------------------------------------
      1         52           0        0.000000    0.000000    0.085547
      2          9           0       -0.000000    1.986799   -0.164758
      3          9           0       -1.720619   -0.993400   -0.164758
      4          9           0        1.720619   -0.993400   -0.164758
 ---------------------------------------------------------------------
 Rotational constants (GHZ):           4.3956479           4.3956479           2.2463163
 Standard basis: def2QZVPP (5D, 7F)
 There are   188 symmetry adapted cartesian basis functions of A'  symmetry.
 There are   132 symmetry adapted cartesian basis functions of A"  symmetry.
 There are   146 symmetry adapted basis functions of A'  symmetry.
 There are   107 symmetry adapted basis functions of A"  symmetry.
   253 basis functions,   456 primitive gaussians,   320 cartesian basis functions
    26 alpha electrons       25 beta electrons
       nuclear repulsion energy       208.6063891703 Hartrees.
 NAtoms=    4 NActive=    4 NUniq=    2 SFac= 4.00D+00 NAtFMM=   60 NAOKFM=F Big=F
 Integral buffers will be    131072 words long.
 Raffenetti 2 integral format.
 Two-electron integral symmetry is turned on.
 One-electron integrals computed using PRISM.
   6 Symmetry operations used in ECPInt.
 ECPInt:  NShTT=    2701 NPrTT=    9253 LenC2=    2504 LenP2D=    6937.
 LDataN:  DoStor=T MaxTD1= 8 Len=  415
 NBasis=   253 RedAO= T EigKep=  6.90D-04  NBF=   146   107
 NBsUse=   253 1.00D-06 EigRej= -1.00D+00 NBFU=   146   107
 Defaulting to unpruned grid for atomic number  52.
 ExpMin= 5.71D-02 ExpMax= 1.33D+05 ExpMxC= 1.27D+03 IAcc=3 IRadAn=         5 AccDes= 0.00D+00
 Harris functional with IExCor= 1009 and IRadAn=       5 diagonalized for initial guess.
 HarFok:  IExCor= 1009 AccDes= 0.00D+00 IRadAn=         5 IDoV= 1 UseB2=F ITyADJ=14
 ICtDFT=  3500011 ScaDFX=  1.000000  1.000000  1.000000  1.000000
 Defaulting to unpruned grid for atomic number  52.
 FoFCou: FMM=F IPFlag=           0 FMFlag=      100000 FMFlg1=           0
         NFxFlg=           0 DoJE=T BraDBF=F KetDBF=T FulRan=T
         wScrn=  0.000000 ICntrl=       500 IOpCl=  0 I1Cent=   200000004 NGrid=           0
         NMat0=    1 NMatS0=      1 NMatT0=    0 NMatD0=    1 NMtDS0=    0 NMtDT0=    0
 Petite list used in FoFCou.
 Initial guess orbital symmetries:
 Alpha Orbitals:
       Occupied  (E) (E) (A1) (A1) (E) (E) (A1) (E) (E) (A1) (E)
                 (E) (A1) (E) (E) (A1) (E) (E) (A1) (E) (E) (E)
                 (E) (A2) (A1) (A1)
       Virtual   (E) (E) (A1) (A1) (E) (E) (E) (E) (A1) (E) (E)
                 (A1) (E) (E) (A2) (E) (E) (A1) (E) (E) (E) (E)
                 (A1) (E) (E) (A1) (A2) (E) (E) (A1) (E) (E) (A1)
                 (E) (E) (A1) (A1) (E) (E) (A1) (E) (E) (A2) (E)
                 (E) (A1) (A2) (E) (E) (A1) (E) (E) (E) (E) (A1)
                 (E) (E) (A2) (A1) (E) (E) (E) (E) (A1) (E) (E)
                 (A2) (A1) (E) (E) (E) (E) (A1) (E) (E) (A2) (E)
                 (E) (A1) (E) (E) (E) (E) (A1) (A1) (A1) (E) (E)
                 (A2) (A1) (E) (E) (A1) (E) (E) (A1) (E) (E) (E)
                 (E) (A2) (E) (E) (A1) (E) (E) (E) (E) (A1) (A2)
                 (E) (E) (E) (E) (A2) (A1) (A1) (E) (E) (A2) (E)
                 (E) (E) (E) (A1) (E) (E) (E) (E) (A1) (A2) (A1)
                 (E) (E) (E) (E) (A1) (E) (E) (A2) (E) (E) (A1)
                 (A1) (E) (E) (A2) (E) (E) (A1) (E) (E) (E) (E)
                 (A2) (A1) (E) (E) (E) (E) (A1) (A2) (E) (E) (E)
                 (E) (A1) (A2) (E) (E) (E) (E) (A1) (A2) (E) (E)
                 (A1) (A1) (E) (E) (A2) (E) (E) (A1) (E) (E) (E)
                 (E) (A1) (A2) (E) (E) (E) (E) (A2) (A1) (A1) (E)
                 (E) (E) (E) (A1) (A2) (E) (E) (E) (E) (A1) (E)
                 (E) (A1) (E) (E) (A2) (E) (E) (A1) (A1) (E) (E)
                 (A1) (E) (E) (A1) (A1) (E) (E)
 Beta  Orbitals:
       Occupied  (E) (E) (A1) (A1) (E) (E) (A1) (E) (E) (A1) (E)
                 (E) (A1) (E) (E) (A1) (E) (E) (A1) (E) (E) (E)
                 (E) (A2) (A1)
       Virtual   (A1) (E) (E) (A1) (A1) (E) (E) (E) (E) (A1) (E)
                 (E) (A1) (E) (E) (A2) (E) (E) (A1) (E) (E) (E)
                 (E) (A1) (E) (E) (A1) (A2) (E) (E) (A1) (E) (E)
                 (A1) (E) (E) (A1) (A1) (E) (E) (A1) (E) (E) (A2)
                 (E) (E) (A1) (A2) (E) (E) (A1) (E) (E) (E) (E)
                 (A1) (E) (E) (A2) (A1) (E) (E) (E) (E) (A1) (E)
                 (E) (A2) (A1) (E) (E) (E) (E) (A1) (E) (E) (A2)
                 (E) (E) (A1) (E) (E) (E) (E) (A1) (A1) (A1) (E)
                 (E) (A2) (A1) (E) (E) (A1) (E) (E) (A1) (E) (E)
                 (E) (E) (A2) (E) (E) (A1) (E) (E) (E) (E) (A1)
                 (A2) (E) (E) (E) (E) (A2) (A1) (A1) (E) (E) (A2)
                 (E) (E) (E) (E) (A1) (E) (E) (E) (E) (A1) (A2)
                 (A1) (E) (E) (E) (E) (A1) (E) (E) (A2) (E) (E)
                 (A1) (A1) (E) (E) (A2) (E) (E) (A1) (E) (E) (E)
                 (E) (A2) (A1) (E) (E) (E) (E) (A1) (A2) (E) (E)
                 (E) (E) (A1) (A2) (E) (E) (E) (E) (A1) (A2) (E)
                 (E) (A1) (A1) (E) (E) (A2) (E) (E) (A1) (E) (E)
                 (E) (E) (A1) (A2) (E) (E) (E) (E) (A2) (A1) (A1)
                 (E) (E) (E) (E) (A1) (A2) (E) (E) (E) (E) (A1)
                 (E) (E) (A1) (E) (E) (A2) (E) (E) (A1) (A1) (E)
                 (E) (A1) (E) (E) (A1) (A1) (E) (E)
 The electronic state of the initial guess is 2-A1.
 Initial guess <Sx>= 0.0000 <Sy>= 0.0000 <Sz>= 0.5000 <S**2>= 0.7500 S= 0.5000
 Keep R1 and R2 ints in memory in symmetry-blocked form, NReq=775008467.
 Requested convergence on RMS density matrix=1.00D-08 within 128 cycles.
 Requested convergence on MAX density matrix=1.00D-06.
 Requested convergence on             energy=1.00D-06.
 No special actions if energy rises.
 Integral accuracy reduced to 1.0D-05 until final iterations.
 Defaulting to unpruned grid for atomic number  52.
 Defaulting to unpruned grid for atomic number  52.
 Defaulting to unpruned grid for atomic number  52.
 Defaulting to unpruned grid for atomic number  52.
 Defaulting to unpruned grid for atomic number  52.
 Defaulting to unpruned grid for atomic number  52.
 Defaulting to unpruned grid for atomic number  52.
 Defaulting to unpruned grid for atomic number  52.
 Initial convergence to 1.0D-05 achieved.  Increase integral accuracy.
 SCF Done:  E(UPBE1PBE) =  -567.416996857     A.U. after   14 cycles
            NFock= 14  Conv=0.63D-08     -V/T= 2.4146
 <Sx>= 0.0000 <Sy>= 0.0000 <Sz>= 0.5000 <S**2>= 0.7533 S= 0.5017
 <L.S>=  0.00000000000    
 Annihilation of the first spin contaminant:
 S**2 before annihilation     0.7533,   after     0.7500

 **********************************************************************

            Population analysis using the SCF Density.

 **********************************************************************

 Orbital symmetries:
 Alpha Orbitals:
       Occupied  (A1) (E) (E) (A1) (E) (E) (A1) (E) (E) (E) (E)
                 (A1) (A1) (E) (E) (A1) (E) (E) (A1) (E) (E) (E)
                 (E) (A2) (A1) (A1)
       Virtual   (E) (E) (A1) (A1) (E) (E) (A1) (E) (E) (E) (E)
                 (A1) (E) (E) (A2) (E) (E) (A1) (E) (E) (E) (E)
                 (A1) (A1) (E) (E) (A2) (A1) (E) (E) (A1) (E) (E)
                 (E) (E) (A1) (A1) (E) (E) (A1) (E) (E) (A1) (E)
                 (E) (A2) (A2) (E) (E) (A1) (E) (E) (E) (E) (E)
                 (E) (A1) (A1) (A2) (E) (E) (E) (E) (A1) (E) (E)
                 (A1) (A2) (E) (E) (E) (E) (A1) (E) (E) (E) (E)
                 (A2) (A1) (E) (E) (E) (E) (A1) (A1) (A1) (E) (E)
                 (A1) (A2) (E) (E) (A1) (E) (E) (A1) (E) (E) (E)
                 (E) (A2) (E) (E) (A1) (E) (E) (E) (E) (A1) (A2)
                 (E) (E) (E) (E) (A2) (A1) (A1) (E) (E) (A2) (E)
                 (E) (E) (E) (A1) (E) (E) (E) (E) (A1) (A2) (A1)
                 (E) (E) (E) (E) (A1) (E) (E) (A2) (E) (E) (A1)
                 (A1) (E) (E) (A2) (E) (E) (A1) (E) (E) (E) (E)
                 (A1) (A2) (E) (E) (E) (E) (A1) (A2) (E) (E) (E)
                 (E) (A1) (A2) (E) (E) (E) (E) (A1) (A2) (E) (E)
                 (A1) (A1) (E) (E) (A2) (E) (E) (A1) (E) (E) (E)
                 (E) (A1) (A2) (E) (E) (E) (E) (A2) (A1) (A1) (E)
                 (E) (E) (E) (A1) (A2) (E) (E) (E) (E) (A1) (E)
                 (E) (A1) (E) (E) (A2) (E) (E) (A1) (A1) (E) (E)
                 (A1) (E) (E) (A1) (A1) (E) (E)
 Beta  Orbitals:
       Occupied  (E) (E) (A1) (A1) (E) (E) (A1) (E) (E) (E) (E)
                 (A1) (A1) (E) (E) (A1) (E) (E) (A1) (E) (E) (A2)
                 (E) (E) (A1)
       Virtual   (A1) (E) (E) (A1) (A1) (E) (E) (A1) (E) (E) (E)
                 (E) (A1) (E) (E) (A2) (E) (E) (A1) (E) (E) (E)
                 (E) (A1) (E) (E) (A1) (A2) (A1) (E) (E) (E) (E)
                 (A1) (E) (E) (A1) (A1) (E) (E) (A1) (E) (E) (A1)
                 (E) (E) (A2) (A2) (E) (E) (A1) (E) (E) (E) (E)
                 (E) (E) (A1) (A1) (A2) (E) (E) (E) (E) (E) (E)
                 (A1) (A1) (A2) (E) (E) (E) (E) (A1) (E) (E) (E)
                 (E) (A2) (A1) (E) (E) (E) (E) (A1) (A1) (A1) (E)
                 (E) (A2) (A1) (E) (E) (A1) (E) (E) (A1) (E) (E)
                 (E) (E) (A2) (E) (E) (A1) (E) (E) (E) (E) (A1)
                 (A2) (E) (E) (E) (E) (A2) (A1) (A1) (E) (E) (A2)
                 (E) (E) (E) (E) (A1) (E) (E) (E) (E) (A1) (A2)
                 (A1) (E) (E) (E) (E) (A1) (E) (E) (A2) (A1) (E)
                 (E) (A1) (E) (E) (A2) (E) (E) (A1) (E) (E) (E)
                 (E) (A1) (A2) (E) (E) (E) (E) (A1) (A2) (E) (E)
                 (A2) (E) (E) (E) (E) (A1) (E) (E) (A1) (A2) (E)
                 (E) (A1) (A1) (E) (E) (A2) (E) (E) (A1) (E) (E)
                 (E) (E) (A1) (A2) (E) (E) (E) (E) (A2) (A1) (A1)
                 (E) (E) (E) (E) (A1) (A2) (E) (E) (E) (E) (A1)
                 (E) (E) (A1) (E) (E) (A2) (E) (E) (A1) (A1) (E)
                 (E) (A1) (E) (E) (A1) (A1) (E) (E)
 The electronic state is 2-A1.
 Alpha  occ. eigenvalues --  -24.77275 -24.77275 -24.77275  -6.46518  -4.58768
 Alpha  occ. eigenvalues --   -4.58768  -4.58101  -1.76670  -1.76670  -1.75947
 Alpha  occ. eigenvalues --   -1.75947  -1.75849  -1.20862  -1.19772  -1.19772
 Alpha  occ. eigenvalues --   -0.72933  -0.52122  -0.52122  -0.48041  -0.45009
 Alpha  occ. eigenvalues --   -0.45009  -0.44735  -0.44735  -0.43917  -0.37511
 Alpha  occ. eigenvalues --   -0.30264
 Alpha virt. eigenvalues --   -0.10047  -0.10047   0.04575   0.08820   0.11608
 Alpha virt. eigenvalues --    0.11608   0.13842   0.14419   0.14419   0.22408
 Alpha virt. eigenvalues --    0.22408   0.32162   0.36630   0.36630   0.38948
 Alpha virt. eigenvalues --    0.39440   0.39440   0.42084   0.46101   0.46101
 Alpha virt. eigenvalues --    0.52843   0.52843   0.53411   0.56517   0.57338
 Alpha virt. eigenvalues --    0.57338   0.59973   0.62343   0.62384   0.62384
 Alpha virt. eigenvalues --    0.63714   0.65155   0.65155   0.73669   0.73669
 Alpha virt. eigenvalues --    0.83333   1.04366   1.06896   1.06896   1.11407
 Alpha virt. eigenvalues --    1.12877   1.12877   1.13015   1.17422   1.17422
 Alpha virt. eigenvalues --    1.18228   1.26584   1.30759   1.30759   1.38322
 Alpha virt. eigenvalues --    1.43514   1.43514   1.48099   1.48099   1.56789
 Alpha virt. eigenvalues --    1.56789   1.58250   1.67363   1.69091   1.69978
 Alpha virt. eigenvalues --    1.69978   1.70067   1.70067   1.72123   1.72789
 Alpha virt. eigenvalues --    1.72789   1.74238   1.75837   1.77015   1.77015
 Alpha virt. eigenvalues --    1.85453   1.85453   2.02475   2.11608   2.11608
 Alpha virt. eigenvalues --    2.19983   2.19983   2.22991   2.24842   2.27850
 Alpha virt. eigenvalues --    2.27850   2.32191   2.32191   2.34068   2.63465
 Alpha virt. eigenvalues --    2.77011   2.89743   2.89743   2.93339   2.93449
 Alpha virt. eigenvalues --    2.94098   2.94098   3.42460   3.52068   3.52068
 Alpha virt. eigenvalues --    3.98164   4.03612   4.03612   4.14794   4.14794
 Alpha virt. eigenvalues --    4.15006   4.15511   4.15511   4.15750   4.18042
 Alpha virt. eigenvalues --    4.18042   4.19868   4.19868   4.21806   4.25517
 Alpha virt. eigenvalues --    4.34310   4.34310   4.35842   4.35842   4.39437
 Alpha virt. eigenvalues --    4.42361   4.69028   4.72014   4.72014   4.99648
 Alpha virt. eigenvalues --    5.00292   5.00292   5.01811   5.01811   5.06135
 Alpha virt. eigenvalues --    5.32360   5.32360   5.35201   5.35201   5.35364
 Alpha virt. eigenvalues --    5.43295   5.63672   5.65419   5.65419   6.25207
 Alpha virt. eigenvalues --    6.25207   6.26115   6.27305   6.27305   6.34881
 Alpha virt. eigenvalues --    6.99502   6.99502   6.99509  10.29629  10.30265
 Alpha virt. eigenvalues --   10.30265  10.33578  10.40324  10.40324  10.62233
 Alpha virt. eigenvalues --   11.38738  11.38738  11.39016  11.39016  11.39270
 Alpha virt. eigenvalues --   11.39596  11.39687  11.39687  11.39747  11.39747
 Alpha virt. eigenvalues --   11.39870  11.40504  11.40839  11.40839  11.41053
 Alpha virt. eigenvalues --   11.41053  11.41054  11.41065  11.41080  11.41080
 Alpha virt. eigenvalues --   11.41425  11.41425  11.42528  11.44223  11.46461
 Alpha virt. eigenvalues --   11.46461  11.48989  14.10070  14.55949  14.55949
 Alpha virt. eigenvalues --   14.56040  14.56290  14.56290  14.56360  14.57508
 Alpha virt. eigenvalues --   14.57508  14.58277  14.58277  14.59723  14.60431
 Alpha virt. eigenvalues --   14.67232  14.67232  14.67910  14.67910  14.68552
 Alpha virt. eigenvalues --   14.70477  14.78532  14.80695  14.80695  15.06302
 Alpha virt. eigenvalues --   15.06302  15.17518  15.77527  15.78575  15.78575
 Alpha virt. eigenvalues --   15.79369  15.79369  15.82045  15.99114  15.99114
 Alpha virt. eigenvalues --   16.00672  16.01916  16.01916  16.10963  16.35169
 Alpha virt. eigenvalues --   16.35169  16.40951  40.71838  40.75913  40.75913
 Alpha virt. eigenvalues --   53.96245  54.02132  54.02132  73.81060 284.92574
 Alpha virt. eigenvalues --  284.99970 284.99970
  Beta  occ. eigenvalues --  -24.76971 -24.76971 -24.76971  -6.46195  -4.58674
  Beta  occ. eigenvalues --   -4.58674  -4.57325  -1.76605  -1.76605  -1.75385
  Beta  occ. eigenvalues --   -1.75385  -1.75058  -1.20104  -1.19071  -1.19071
  Beta  occ. eigenvalues --   -0.70274  -0.51488  -0.51488  -0.45754  -0.44535
  Beta  occ. eigenvalues --   -0.44535  -0.43705  -0.43294  -0.43294  -0.36184
  Beta virt. eigenvalues --   -0.17833  -0.08911  -0.08911   0.05610   0.10282
  Beta virt. eigenvalues --    0.11941   0.11941   0.16019   0.16409   0.16409
  Beta virt. eigenvalues --    0.22684   0.22684   0.32351   0.37388   0.37388
  Beta virt. eigenvalues --    0.38965   0.39892   0.39892   0.43138   0.46421
  Beta virt. eigenvalues --    0.46421   0.54762   0.54762   0.55756   0.58863
  Beta virt. eigenvalues --    0.58863   0.59621   0.60094   0.63484   0.63894
  Beta virt. eigenvalues --    0.63894   0.65842   0.65842   0.66497   0.74062
  Beta virt. eigenvalues --    0.74062   0.84481   1.04813   1.08273   1.08273
  Beta virt. eigenvalues --    1.12311   1.13725   1.13725   1.14637   1.17883
  Beta virt. eigenvalues --    1.17883   1.18479   1.26700   1.31528   1.31528
  Beta virt. eigenvalues --    1.39171   1.45637   1.45637   1.48457   1.48457
  Beta virt. eigenvalues --    1.57348   1.57348   1.58622   1.67984   1.69191
  Beta virt. eigenvalues --    1.70158   1.70158   1.70723   1.70723   1.73539
  Beta virt. eigenvalues --    1.73539   1.73690   1.75921   1.76588   1.78316
  Beta virt. eigenvalues --    1.78316   1.87004   1.87004   2.04727   2.12493
  Beta virt. eigenvalues --    2.12493   2.21766   2.21766   2.23558   2.26221
  Beta virt. eigenvalues --    2.28050   2.28050   2.32500   2.32500   2.35547
  Beta virt. eigenvalues --    2.64091   2.79521   2.91247   2.91247   2.93479
  Beta virt. eigenvalues --    2.94938   2.94957   2.94957   3.42839   3.52537
  Beta virt. eigenvalues --    3.52537   3.98550   4.03957   4.03957   4.15025
  Beta virt. eigenvalues --    4.15025   4.15238   4.15652   4.15652   4.16024
  Beta virt. eigenvalues --    4.18263   4.18263   4.20145   4.20145   4.21955
  Beta virt. eigenvalues --    4.25680   4.34686   4.34686   4.36173   4.36173
  Beta virt. eigenvalues --    4.39688   4.42907   4.69519   4.72347   4.72347
  Beta virt. eigenvalues --    5.00206   5.00857   5.00857   5.02399   5.02399
  Beta virt. eigenvalues --    5.06708   5.32799   5.32799   5.35810   5.35810
  Beta virt. eigenvalues --    5.36090   5.43580   5.64160   5.65830   5.65830
  Beta virt. eigenvalues --    6.26068   6.26068   6.26999   6.27493   6.27493
  Beta virt. eigenvalues --    6.35081   6.99931   6.99960   6.99960  10.30318
  Beta virt. eigenvalues --   10.30699  10.30699  10.33589  10.40915  10.40915
  Beta virt. eigenvalues --   10.62340  11.38943  11.38943  11.39365  11.39365
  Beta virt. eigenvalues --   11.39749  11.40029  11.40080  11.40080  11.40118
  Beta virt. eigenvalues --   11.40118  11.40183  11.40797  11.41334  11.41334
  Beta virt. eigenvalues --   11.41468  11.41468  11.41468  11.41470  11.41470
  Beta virt. eigenvalues --   11.41476  11.41955  11.41955  11.42981  11.44453
  Beta virt. eigenvalues --   11.46689  11.46689  11.49331  14.10654  14.56641
  Beta virt. eigenvalues --   14.56641  14.56755  14.56832  14.56832  14.57116
  Beta virt. eigenvalues --   14.58069  14.58069  14.59003  14.59003  14.60145
  Beta virt. eigenvalues --   14.60823  14.68038  14.68038  14.68440  14.68440
  Beta virt. eigenvalues --   14.69057  14.71360  14.79124  14.81131  14.81131
  Beta virt. eigenvalues --   15.06880  15.06880  15.18138  15.78342  15.79336
  Beta virt. eigenvalues --   15.79336  15.80136  15.80136  15.82957  15.99593
  Beta virt. eigenvalues --   15.99593  16.01630  16.02826  16.02826  16.11295
  Beta virt. eigenvalues --   16.35810  16.35810  16.41535  40.72472  40.75978
  Beta virt. eigenvalues --   40.75978  53.96620  54.02506  54.02506  73.81267
  Beta virt. eigenvalues --  284.92715 285.00112 285.00112
          Condensed to atoms (all electrons):
               1          2          3          4
     1  Te  22.296551   0.132512   0.132512   0.132512
     2  F    0.132512   9.297426   0.002683   0.002683
     3  F    0.132512   0.002683   9.297426   0.002683
     4  F    0.132512   0.002683   0.002683   9.297426
          Atomic-Atomic Spin Densities.
               1          2          3          4
     1  Te   0.951626  -0.042199  -0.042199  -0.042199
     2  F   -0.042199   0.098985   0.000769   0.000769
     3  F   -0.042199   0.000769   0.098985   0.000769
     4  F   -0.042199   0.000769   0.000769   0.098985
 Mulliken charges and spin densities:
               1          2
     1  Te   1.305913   0.825028
     2  F   -0.435304   0.058324
     3  F   -0.435304   0.058324
     4  F   -0.435304   0.058324
 Sum of Mulliken charges =  -0.00000   1.00000
 Mulliken charges and spin densities with hydrogens summed into heavy atoms:
               1          2
     1  Te   1.305913   0.825028
     2  F   -0.435304   0.058324
     3  F   -0.435304   0.058324
     4  F   -0.435304   0.058324
 Electronic spatial extent (au):  <R**2>=            481.7030
 Charge=             -0.0000 electrons
 Dipole moment (field-independent basis, Debye):
    X=              0.0000    Y=             -0.0000    Z=              1.0215  Tot=              1.0215
 Quadrupole moment (field-independent basis, Debye-Ang):
   XX=            -46.6057   YY=            -46.6057   ZZ=            -38.4109
   XY=              0.0000   XZ=             -0.0000   YZ=             -0.0000
 Traceless Quadrupole moment (field-independent basis, Debye-Ang):
   XX=             -2.7316   YY=             -2.7316   ZZ=              5.4632
   XY=              0.0000   XZ=             -0.0000   YZ=             -0.0000
 Octapole moment (field-independent basis, Debye-Ang**2):
  XXX=              0.0000  YYY=            -10.0405  ZZZ=              1.4836  XYY=             -0.0000
  XXY=             10.0405  XXZ=              2.3825  XZZ=              0.0000  YZZ=             -0.0000
  YYZ=              2.3825  XYZ=             -0.0000
 Hexadecapole moment (field-independent basis, Debye-Ang**3):
 XXXX=           -246.5711 YYYY=           -246.5711 ZZZZ=            -43.7848 XXXY=              0.0000
 XXXZ=              0.0000 YYYX=              0.0000 YYYZ=              1.2150 ZZZX=             -0.0000
 ZZZY=              0.0000 XXYY=            -82.1904 XXZZ=            -44.2111 YYZZ=            -44.2111
 XXYZ=             -1.2150 YYXZ=             -0.0000 ZZXY=              0.0000
 N-N= 2.086063891703D+02 E-N=-1.701563942735D+03  KE= 4.011055372991D+02
 Symmetry A'   KE= 2.606123619986D+02
 Symmetry A"   KE= 1.404931753006D+02
 Symmetry A'   SP= 9.999999999998D-01
 Symmetry A"   SP=-7.920476028424D-14
                          Isotropic Fermi Contact Couplings
        Atom                 a.u.       MegaHertz       Gauss      10(-4) cm-1
     1  Te(125             0.00005      -0.07274      -0.02596      -0.02426
     2  F(19)              0.02295      96.56996      34.45856      32.21227
     3  F(19)              0.02295      96.56996      34.45856      32.21227
     4  F(19)              0.02295      96.56996      34.45856      32.21227
 --------------------------------------------------------
       Center         ----  Spin Dipole Couplings  ----
                      3XX-RR        3YY-RR        3ZZ-RR
 --------------------------------------------------------
     1   Atom       -0.132889     -0.132889      0.265778
     2   Atom       -0.324160      0.061689      0.262471
     3   Atom       -0.034773     -0.227697      0.262471
     4   Atom       -0.034773     -0.227697      0.262471
 --------------------------------------------------------
                        XY            XZ            YZ
 --------------------------------------------------------
     1   Atom        0.000000      0.000000      0.000000
     2   Atom       -0.000000      0.000000      0.528364
     3   Atom        0.167077     -0.457577     -0.264182
     4   Atom       -0.167077      0.457577     -0.264182
 --------------------------------------------------------


 ---------------------------------------------------------------------------------
              Anisotropic Spin Dipole Couplings in Principal Axis System
 ---------------------------------------------------------------------------------

       Atom             a.u.   MegaHertz   Gauss  10(-4) cm-1        Axes

              Baa    -0.1329    22.551     8.047     7.522 -0.3066  0.9519 -0.0000
     1 Te(125 Bbb    -0.1329    22.551     8.047     7.522  0.9519  0.3066 -0.0000
              Bcc     0.2658   -45.102   -16.094   -15.045  0.0000  0.0000  1.0000
 
              Baa    -0.3757  -188.705   -67.335   -62.945  0.0000  0.7703 -0.6377
     2 F(19)  Bbb    -0.3242  -162.801   -58.092   -54.305  1.0000 -0.0000  0.0000
              Bcc     0.6999   351.506   125.426   117.250 -0.0000  0.6377  0.7703
 
              Baa    -0.3757  -188.705   -67.335   -62.945  0.6671  0.3851  0.6377
     3 F(19)  Bbb    -0.3242  -162.801   -58.092   -54.305 -0.5000  0.8660  0.0000
              Bcc     0.6999   351.506   125.426   117.250 -0.5523 -0.3189  0.7703
 
              Baa    -0.3757  -188.705   -67.335   -62.945  0.6671 -0.3851 -0.6377
     4 F(19)  Bbb    -0.3242  -162.801   -58.092   -54.305  0.5000  0.8660  0.0000
              Bcc     0.6999   351.506   125.426   117.250  0.5523 -0.3189  0.7703
 

 ---------------------------------------------------------------------------------

   6 Symmetry operations used in ECPInt.
 ECPInt:  NShTT=    2701 NPrTT=    9253 LenC2=    2504 LenP2D=    6937.
 LDataN:  DoStor=T MaxTD1= 9 Len=  602
 Calling FoFJK, ICntrl=      2127 FMM=F ISym2X=1 I1Cent= 0 IOpClX= 1 NMat=1 NMatS=1 NMatT=0.
 Defaulting to unpruned grid for atomic number  52.
 Defaulting to unpruned grid for atomic number  52.
 Defaulting to unpruned grid for atomic number  52.
 Defaulting to unpruned grid for atomic number  52.
 Defaulting to unpruned grid for atomic number  52.
 Defaulting to unpruned grid for atomic number  52.
 Defaulting to unpruned grid for atomic number  52.
 Defaulting to unpruned grid for atomic number  52.
 ***** Axes restored to original set *****
 -------------------------------------------------------------------
 Center     Atomic                   Forces (Hartrees/Bohr)
 Number     Number              X              Y              Z
 -------------------------------------------------------------------
      1       52          -0.000000000    0.000000000   -0.008291028
      2        9           0.011827464   -0.020485769    0.002763676
      3        9           0.011827464    0.020485769    0.002763676
      4        9          -0.023654929   -0.000000000    0.002763676
 -------------------------------------------------------------------
 Cartesian Forces:  Max     0.023654929 RMS     0.012146062

 GradGradGradGradGradGradGradGradGradGradGradGradGradGradGradGradGradGrad
 Berny optimization.
 FormGI is forming the generalized inverse of G from B-inverse, IUseBI=4.
 Internal  Forces:  Max     0.023814857 RMS     0.015592983
 Search for a local minimum.
 Step number   1 out of a maximum of   20
 All quantities printed in internal units (Hartrees-Bohrs-Radians)
 Mixed Optimization -- RFO/linear search
 Second derivative matrix not updated -- first step.
 The second derivative matrix:
                          R1        R2        R3        A1        A2
           R1           0.17962
           R2           0.00000   0.17962
           R3           0.00000   0.00000   0.17962
           A1           0.00000   0.00000   0.00000   0.25000
           A2           0.00000   0.00000   0.00000   0.00000   0.25000
           A3           0.00000   0.00000   0.00000   0.00000   0.00000
           D1           0.00000   0.00000   0.00000   0.00000   0.00000
                          A3        D1
           A3           0.25000
           D1           0.00000   0.00230
 ITU=  0
     Eigenvalues ---    0.01404   0.17962   0.17962   0.17962   0.25000
     Eigenvalues ---    0.25000
 RFO step:  Lambda=-9.04139598D-03 EMin= 1.40385515D-02
 Linear search not attempted -- first point.
 Iteration  1 RMS(Cart)=  0.08511524 RMS(Int)=  0.00041022
 Iteration  2 RMS(Cart)=  0.00036758 RMS(Int)=  0.00009966
 Iteration  3 RMS(Cart)=  0.00000016 RMS(Int)=  0.00009966
 ClnCor:  largest displacement from symmetrization is 2.57D-04 for atom     4.
 Variable       Old X    -DE/DX   Delta X   Delta X   Delta X     New X
                                 (Linear)    (Quad)   (Total)
    R1        3.78418  -0.02381   0.00000  -0.12623  -0.12615   3.65804
    R2        3.78418  -0.02381   0.00000  -0.12623  -0.12615   3.65804
    R3        3.78418  -0.02381   0.00000  -0.12623  -0.12615   3.65804
    A1        2.06754   0.00002   0.00000  -0.00373  -0.00410   2.06344
    A2        2.06754  -0.00015   0.00000  -0.00406  -0.00410   2.06344
    A3        2.06754  -0.00015   0.00000  -0.00406  -0.00410   2.06344
    D1       -2.71517   0.00071   0.00000   0.03059   0.03057  -2.68460
         Item               Value     Threshold  Converged?
 Maximum Force            0.023815     0.000450     NO 
 RMS     Force            0.015593     0.000300     NO 
 Maximum Displacement     0.129593     0.001800     NO 
 RMS     Displacement     0.085046     0.001200     NO 
 Predicted change in Energy=-4.740518D-03
 GradGradGradGradGradGradGradGradGradGradGradGradGradGradGradGradGradGrad

                          Input orientation:                          
 ---------------------------------------------------------------------
 Center     Atomic      Atomic             Coordinates (Angstroms)
 Number     Number       Type             X           Y           Z
 ---------------------------------------------------------------------
      1         52           0        8.003300    8.500000    8.632355
      2          9           0        7.044189   10.161229    8.372450
      3          9           0        7.044189    6.838771    8.372450
      4          9           0        9.921522    8.500000    8.372450
 ---------------------------------------------------------------------
                    Distance matrix (angstroms):
                    1          2          3          4
     1  Te   0.000000
     2  F    1.935749   0.000000
     3  F    1.935749   3.322457   0.000000
     4  F    1.935749   3.322457   3.322457   0.000000
 Stoichiometry    F3Te(2)
 Framework group  C3V[C3(Te),3SGV(F)]
 Deg. of freedom     2
 Full point group                 C3V     NOp   6
 Largest Abelian subgroup         CS      NOp   2
 Largest concise Abelian subgroup CS      NOp   2
                         Standard orientation:                         
 ---------------------------------------------------------------------
 Center     Atomic      Atomic             Coordinates (Angstroms)
 Number     Number       Type             X           Y           Z
 ---------------------------------------------------------------------
      1         52           0        0.000000    0.000000    0.088828
      2          9           0       -0.000000    1.918222   -0.171077
      3          9           0       -1.661229   -0.959111   -0.171077
      4          9           0        1.661229   -0.959111   -0.171077
 ---------------------------------------------------------------------
 Rotational constants (GHZ):           4.6996681           4.6996681           2.4098016
 Standard basis: def2QZVPP (5D, 7F)
 There are   188 symmetry adapted cartesian basis functions of A'  symmetry.
 There are   132 symmetry adapted cartesian basis functions of A"  symmetry.
 There are   146 symmetry adapted basis functions of A'  symmetry.
 There are   107 symmetry adapted basis functions of A"  symmetry.
   253 basis functions,   456 primitive gaussians,   320 cartesian basis functions
    26 alpha electrons       25 beta electrons
       nuclear repulsion energy       215.8475531667 Hartrees.
 NAtoms=    4 NActive=    4 NUniq=    2 SFac= 4.00D+00 NAtFMM=   60 NAOKFM=F Big=F
 Integral buffers will be    131072 words long.
 Raffenetti 2 integral format.
 Two-electron integral symmetry is turned on.
 One-electron integrals computed using PRISM.
   6 Symmetry operations used in ECPInt.
 ECPInt:  NShTT=    2701 NPrTT=    9253 LenC2=    2540 LenP2D=    7012.
 LDataN:  DoStor=T MaxTD1= 8 Len=  415
 NBasis=   253 RedAO= T EigKep=  6.24D-04  NBF=   146   107
 NBsUse=   253 1.00D-06 EigRej= -1.00D+00 NBFU=   146   107
 Defaulting to unpruned grid for atomic number  52.
 Initial guess from the checkpoint file:  "/data/hutter/SMG16/PBE0/Gau-67600.chk"
 B after Tr=     0.000000   -0.000000   -0.000000
         Rot=    1.000000    0.000000    0.000000   -0.000000 Ang=   0.00 deg.
 Initial guess orbital symmetries:
 Alpha Orbitals:
       Occupied  (A1) (E) (E) (A1) (E) (E) (A1) (E) (E) (E) (E)
                 (A1) (A1) (E) (E) (A1) (E) (E) (A1) (E) (E) (E)
                 (E) (A2) (A1) (A1)
       Virtual   (E) (E) (A1) (A1) (E) (E) (A1) (E) (E) (E) (E)
                 (A1) (E) (E) (A2) (E) (E) (A1) (E) (E) (E) (E)
                 (A1) (A1) (E) (E) (A2) (A1) (E) (E) (A1) (E) (E)
                 (E) (E) (A1) (A1) (E) (E) (A1) (E) (E) (A1) (E)
                 (E) (A2) (A2) (E) (E) (A1) (E) (E) (E) (E) (E)
                 (E) (A1) (A1) (A2) (E) (E) (E) (E) (A1) (E) (E)
                 (A1) (A2) (E) (E) (E) (E) (A1) (E) (E) (E) (E)
                 (A2) (A1) (E) (E) (E) (E) (A1) (A1) (A1) (E) (E)
                 (A1) (A2) (E) (E) (A1) (E) (E) (A1) (E) (E) (E)
                 (E) (A2) (E) (E) (A1) (E) (E) (E) (E) (A1) (A2)
                 (E) (E) (E) (E) (A2) (A1) (A1) (E) (E) (A2) (E)
                 (E) (E) (E) (A1) (E) (E) (E) (E) (A1) (A2) (A1)
                 (E) (E) (E) (E) (A1) (E) (E) (A2) (E) (E) (A1)
                 (A1) (E) (E) (A2) (E) (E) (A1) (E) (E) (E) (E)
                 (A1) (A2) (E) (E) (E) (E) (A1) (A2) (E) (E) (E)
                 (E) (A1) (A2) (E) (E) (E) (E) (A1) (A2) (E) (E)
                 (A1) (A1) (E) (E) (A2) (E) (E) (A1) (E) (E) (E)
                 (E) (A1) (A2) (E) (E) (E) (E) (A2) (A1) (A1) (E)
                 (E) (E) (E) (A1) (A2) (E) (E) (E) (E) (A1) (E)
                 (E) (A1) (E) (E) (A2) (E) (E) (A1) (A1) (E) (E)
                 (A1) (E) (E) (A1) (A1) (E) (E)
 Beta  Orbitals:
       Occupied  (E) (E) (A1) (A1) (E) (E) (A1) (E) (E) (E) (E)
                 (A1) (A1) (E) (E) (A1) (E) (E) (A1) (E) (E) (A2)
                 (E) (E) (A1)
       Virtual   (A1) (E) (E) (A1) (A1) (E) (E) (A1) (E) (E) (E)
                 (E) (A1) (E) (E) (A2) (E) (E) (A1) (E) (E) (E)
                 (E) (A1) (E) (E) (A1) (A2) (A1) (E) (E) (E) (E)
                 (A1) (E) (E) (A1) (A1) (E) (E) (A1) (E) (E) (A1)
                 (E) (E) (A2) (A2) (E) (E) (A1) (E) (E) (E) (E)
                 (E) (E) (A1) (A1) (A2) (E) (E) (E) (E) (E) (E)
                 (A1) (A1) (A2) (E) (E) (E) (E) (A1) (E) (E) (E)
                 (E) (A2) (A1) (E) (E) (E) (E) (A1) (A1) (A1) (E)
                 (E) (A2) (A1) (E) (E) (A1) (E) (E) (A1) (E) (E)
                 (E) (E) (A2) (E) (E) (A1) (E) (E) (E) (E) (A1)
                 (A2) (E) (E) (E) (E) (A2) (A1) (A1) (E) (E) (A2)
                 (E) (E) (E) (E) (A1) (E) (E) (E) (E) (A1) (A2)
                 (A1) (E) (E) (E) (E) (A1) (E) (E) (A2) (A1) (E)
                 (E) (A1) (E) (E) (A2) (E) (E) (A1) (E) (E) (E)
                 (E) (A1) (A2) (E) (E) (E) (E) (A1) (A2) (E) (E)
                 (A2) (E) (E) (E) (E) (A1) (E) (E) (A1) (A2) (E)
                 (E) (A1) (A1) (E) (E) (A2) (E) (E) (A1) (E) (E)
                 (E) (E) (A1) (A2) (E) (E) (E) (E) (A2) (A1) (A1)
                 (E) (E) (E) (E) (A1) (A2) (E) (E) (E) (E) (A1)
                 (E) (E) (A1) (E) (E) (A2) (E) (E) (A1) (A1) (E)
                 (E) (A1) (E) (E) (A1) (A1) (E) (E)
 Initial guess <Sx>= 0.0000 <Sy>= 0.0000 <Sz>= 0.5000 <S**2>= 0.7533 S= 0.5016
 ExpMin= 5.71D-02 ExpMax= 1.33D+05 ExpMxC= 1.27D+03 IAcc=3 IRadAn=         5 AccDes= 0.00D+00
 Harris functional with IExCor= 1009 and IRadAn=       5 diagonalized for initial guess.
 HarFok:  IExCor= 1009 AccDes= 0.00D+00 IRadAn=         5 IDoV= 1 UseB2=F ITyADJ=14
 ICtDFT=  3500011 ScaDFX=  1.000000  1.000000  1.000000  1.000000
 Defaulting to unpruned grid for atomic number  52.
 FoFCou: FMM=F IPFlag=           0 FMFlag=      100000 FMFlg1=           0
         NFxFlg=           0 DoJE=T BraDBF=F KetDBF=T FulRan=T
         wScrn=  0.000000 ICntrl=       500 IOpCl=  0 I1Cent=   200000004 NGrid=           0
         NMat0=    1 NMatS0=      1 NMatT0=    0 NMatD0=    1 NMtDS0=    0 NMtDT0=    0
 Petite list used in FoFCou.
 Keep R1 and R2 ints in memory in symmetry-blocked form, NReq=775008467.
 Requested convergence on RMS density matrix=1.00D-08 within 128 cycles.
 Requested convergence on MAX density matrix=1.00D-06.
 Requested convergence on             energy=1.00D-06.
 No special actions if energy rises.
 Integral accuracy reduced to 1.0D-05 until final iterations.
 Defaulting to unpruned grid for atomic number  52.
 Defaulting to unpruned grid for atomic number  52.
 Defaulting to unpruned grid for atomic number  52.
 Defaulting to unpruned grid for atomic number  52.
 Defaulting to unpruned grid for atomic number  52.
 Defaulting to unpruned grid for atomic number  52.
 Defaulting to unpruned grid for atomic number  52.
 Defaulting to unpruned grid for atomic number  52.
 Initial convergence to 1.0D-05 achieved.  Increase integral accuracy.
 SCF Done:  E(UPBE1PBE) =  -567.421388186     A.U. after   13 cycles
            NFock= 13  Conv=0.62D-08     -V/T= 2.4137
 <Sx>= 0.0000 <Sy>= 0.0000 <Sz>= 0.5000 <S**2>= 0.7531 S= 0.5015
 <L.S>=  0.00000000000    
 Annihilation of the first spin contaminant:
 S**2 before annihilation     0.7531,   after     0.7500
   6 Symmetry operations used in ECPInt.
 ECPInt:  NShTT=    2701 NPrTT=    9253 LenC2=    2540 LenP2D=    7012.
 LDataN:  DoStor=T MaxTD1= 9 Len=  602
 Calling FoFJK, ICntrl=      2127 FMM=F ISym2X=1 I1Cent= 0 IOpClX= 1 NMat=1 NMatS=1 NMatT=0.
 Defaulting to unpruned grid for atomic number  52.
 Defaulting to unpruned grid for atomic number  52.
 Defaulting to unpruned grid for atomic number  52.
 Defaulting to unpruned grid for atomic number  52.
 Defaulting to unpruned grid for atomic number  52.
 Defaulting to unpruned grid for atomic number  52.
 Defaulting to unpruned grid for atomic number  52.
 Defaulting to unpruned grid for atomic number  52.
 ***** Axes restored to original set *****
 -------------------------------------------------------------------
 Center     Atomic                   Forces (Hartrees/Bohr)
 Number     Number              X              Y              Z
 -------------------------------------------------------------------
      1       52          -0.000000000    0.000000000    0.002936628
      2        9          -0.001034077    0.001791074   -0.000978876
      3        9          -0.001034077   -0.001791074   -0.000978876
      4        9           0.002068154    0.000000000   -0.000978876
 -------------------------------------------------------------------
 Cartesian Forces:  Max     0.002936628 RMS     0.001423908

 GradGradGradGradGradGradGradGradGradGradGradGradGradGradGradGradGradGrad
 Berny optimization.
 Using GEDIIS/GDIIS optimizer.
 FormGI is forming the generalized inverse of G from B-inverse, IUseBI=4.
 Internal  Forces:  Max     0.002199397 RMS     0.001674939
 Search for a local minimum.
 Step number   2 out of a maximum of   20
 All quantities printed in internal units (Hartrees-Bohrs-Radians)
 Mixed Optimization -- RFO/linear search
 Update second derivatives using D2CorX and points    1    2
 DE= -4.39D-03 DEPred=-4.74D-03 R= 9.26D-01
 TightC=F SS=  1.41D+00  RLast= 2.21D-01 DXNew= 5.0454D-01 6.6222D-01
 Trust test= 9.26D-01 RLast= 2.21D-01 DXMaxT set to 5.05D-01
 The second derivative matrix:
                          R1        R2        R3        A1        A2
           R1           0.18888
           R2           0.00926   0.18888
           R3           0.00926   0.00926   0.18888
           A1          -0.00258  -0.00258  -0.00258   0.24988
           A2          -0.00366  -0.00366  -0.00366  -0.00012   0.24989
           A3          -0.00366  -0.00366  -0.00366  -0.00012  -0.00011
           D1           0.00415   0.00415   0.00415   0.00002  -0.00005
                          A3        D1
           A3           0.24989
           D1          -0.00005   0.00253
 ITU=  1  0
 Use linear search instead of GDIIS.
     Eigenvalues ---    0.01562   0.17962   0.17962   0.20775   0.25000
     Eigenvalues ---    0.25011
 RFO step:  Lambda=-3.06432928D-04 EMin= 1.56216290D-02
 Quartic linear search produced a step of -0.06719.
 Iteration  1 RMS(Cart)=  0.04938239 RMS(Int)=  0.00278906
 Iteration  2 RMS(Cart)=  0.00214640 RMS(Int)=  0.00189071
 Iteration  3 RMS(Cart)=  0.00000208 RMS(Int)=  0.00189071
 Iteration  4 RMS(Cart)=  0.00000001 RMS(Int)=  0.00189071
 ClnCor:  largest displacement from symmetrization is 1.84D-04 for atom     4.
 Variable       Old X    -DE/DX   Delta X   Delta X   Delta X     New X
                                 (Linear)    (Quad)   (Total)
    R1        3.65804   0.00218   0.00848  -0.00269   0.00573   3.66376
    R2        3.65804   0.00218   0.00848  -0.00269   0.00573   3.66376
    R3        3.65804   0.00218   0.00848  -0.00269   0.00573   3.66376
    A1        2.06344   0.00007   0.00028  -0.01850  -0.02117   2.04227
    A2        2.06344  -0.00051   0.00028  -0.01880  -0.02117   2.04227
    A3        2.06344  -0.00051   0.00028  -0.01880  -0.02117   2.04227
    D1       -2.68460   0.00220  -0.00205   0.13440   0.13079  -2.55382
         Item               Value     Threshold  Converged?
 Maximum Force            0.002199     0.000450     NO 
 RMS     Force            0.001675     0.000300     NO 
 Maximum Displacement     0.111777     0.001800     NO 
 RMS     Displacement     0.050116     0.001200     NO 
 Predicted change in Energy=-1.326508D-04
 GradGradGradGradGradGradGradGradGradGradGradGradGradGradGradGradGradGrad

                          Input orientation:                          
 ---------------------------------------------------------------------
 Center     Atomic      Atomic             Coordinates (Angstroms)
 Number     Number       Type             X           Y           Z
 ---------------------------------------------------------------------
      1         52           0        8.003300    8.500000    8.691505
      2          9           0        7.048824   10.153202    8.352729
      3          9           0        7.048824    6.846798    8.352729
      4          9           0        9.912253    8.500000    8.352729
 ---------------------------------------------------------------------
                    Distance matrix (angstroms):
                    1          2          3          4
     1  Te   0.000000
     2  F    1.938781   0.000000
     3  F    1.938781   3.306403   0.000000
     4  F    1.938781   3.306403   3.306403   0.000000
 Stoichiometry    F3Te(2)
 Framework group  C3V[C3(Te),3SGV(F)]
 Deg. of freedom     2
 Full point group                 C3V     NOp   6
 Largest Abelian subgroup         CS      NOp   2
 Largest concise Abelian subgroup CS      NOp   2
                         Standard orientation:                         
 ---------------------------------------------------------------------
 Center     Atomic      Atomic             Coordinates (Angstroms)
 Number     Number       Type             X           Y           Z
 ---------------------------------------------------------------------
      1         52           0        0.000000    0.000000    0.115784
      2          9           0       -0.000000    1.908953   -0.222992
      3          9           0       -1.653202   -0.954476   -0.222992
      4          9           0        1.653202   -0.954476   -0.222992
 ---------------------------------------------------------------------
 Rotational constants (GHZ):           4.6623959           4.6623959           2.4332595
 Standard basis: def2QZVPP (5D, 7F)
 There are   188 symmetry adapted cartesian basis functions of A'  symmetry.
 There are   132 symmetry adapted cartesian basis functions of A"  symmetry.
 There are   146 symmetry adapted basis functions of A'  symmetry.
 There are   107 symmetry adapted basis functions of A"  symmetry.
   253 basis functions,   456 primitive gaussians,   320 cartesian basis functions
    26 alpha electrons       25 beta electrons
       nuclear repulsion energy       215.7584877185 Hartrees.
 NAtoms=    4 NActive=    4 NUniq=    2 SFac= 4.00D+00 NAtFMM=   60 NAOKFM=F Big=F
 Integral buffers will be    131072 words long.
 Raffenetti 2 integral format.
 Two-electron integral symmetry is turned on.
 One-electron integrals computed using PRISM.
   6 Symmetry operations used in ECPInt.
 ECPInt:  NShTT=    2701 NPrTT=    9253 LenC2=    2546 LenP2D=    7012.
 LDataN:  DoStor=T MaxTD1= 8 Len=  415
 NBasis=   253 RedAO= T EigKep=  6.39D-04  NBF=   146   107
 NBsUse=   253 1.00D-06 EigRej= -1.00D+00 NBFU=   146   107
 Defaulting to unpruned grid for atomic number  52.
 Initial guess from the checkpoint file:  "/data/hutter/SMG16/PBE0/Gau-67600.chk"
 B after Tr=     0.000000   -0.000000   -0.000000
         Rot=    1.000000   -0.000000    0.000000    0.000000 Ang=   0.00 deg.
 Initial guess orbital symmetries:
 Alpha Orbitals:
       Occupied  (A1) (E) (E) (A1) (E) (E) (A1) (E) (E) (E) (E)
                 (A1) (A1) (E) (E) (A1) (E) (E) (A1) (E) (E) (E)
                 (E) (A2) (A1) (A1)
       Virtual   (E) (E) (A1) (A1) (E) (E) (A1) (E) (E) (E) (E)
                 (A1) (E) (E) (A2) (E) (E) (A1) (E) (E) (E) (E)
                 (A1) (A1) (E) (E) (A2) (A1) (E) (E) (A1) (E) (E)
                 (E) (E) (A1) (A1) (E) (E) (A1) (A1) (E) (E) (A2)
                 (E) (E) (A2) (E) (E) (A1) (E) (E) (E) (E) (A1)
                 (E) (E) (A1) (A2) (E) (E) (E) (E) (A1) (E) (E)
                 (A1) (A2) (E) (E) (E) (E) (A1) (E) (E) (E) (E)
                 (A2) (A1) (E) (E) (A1) (E) (E) (A1) (A1) (E) (E)
                 (A2) (A1) (E) (E) (A1) (E) (E) (A1) (E) (E) (E)
                 (E) (A2) (E) (E) (A1) (E) (E) (E) (E) (A1) (A2)
                 (E) (E) (E) (E) (A1) (A2) (A1) (E) (E) (A2) (E)
                 (E) (E) (E) (A1) (E) (E) (A1) (E) (E) (A2) (A1)
                 (E) (E) (E) (E) (A1) (E) (E) (A2) (A1) (E) (E)
                 (A1) (E) (E) (A2) (E) (E) (A1) (E) (E) (E) (E)
                 (A1) (A2) (E) (E) (E) (E) (A1) (A2) (E) (E) (E)
                 (E) (A1) (A2) (E) (E) (E) (E) (A1) (A2) (E) (E)
                 (A1) (A1) (E) (E) (A2) (E) (E) (A1) (E) (E) (E)
                 (E) (A1) (A2) (E) (E) (E) (E) (A2) (A1) (A1) (E)
                 (E) (E) (E) (A1) (A2) (E) (E) (E) (E) (A1) (E)
                 (E) (A1) (E) (E) (A2) (E) (E) (A1) (A1) (E) (E)
                 (A1) (E) (E) (A1) (A1) (E) (E)
 Beta  Orbitals:
       Occupied  (E) (E) (A1) (A1) (E) (E) (A1) (E) (E) (E) (E)
                 (A1) (A1) (E) (E) (A1) (E) (E) (A1) (E) (E) (A2)
                 (E) (E) (A1)
       Virtual   (A1) (E) (E) (A1) (A1) (E) (E) (A1) (E) (E) (E)
                 (E) (A1) (E) (E) (A2) (E) (E) (A1) (E) (E) (E)
                 (E) (A1) (A1) (E) (E) (A2) (A1) (E) (E) (E) (E)
                 (A1) (E) (E) (A1) (A1) (E) (E) (A1) (E) (E) (A1)
                 (A2) (E) (E) (A2) (E) (E) (A1) (E) (E) (E) (E)
                 (A1) (E) (E) (A2) (A1) (E) (E) (E) (E) (A1) (E)
                 (E) (A1) (A2) (E) (E) (E) (E) (A1) (E) (E) (E)
                 (E) (A2) (E) (E) (A1) (A1) (E) (E) (A1) (A1) (E)
                 (E) (A2) (A1) (E) (E) (A1) (E) (E) (A1) (E) (E)
                 (E) (E) (A2) (E) (E) (A1) (E) (E) (E) (E) (A1)
                 (A2) (E) (E) (E) (E) (A2) (A1) (A1) (E) (E) (A2)
                 (E) (E) (E) (E) (A1) (E) (E) (E) (E) (A1) (A2)
                 (A1) (E) (E) (E) (E) (A1) (E) (E) (A2) (A1) (E)
                 (E) (A1) (E) (E) (A2) (E) (E) (A1) (E) (E) (E)
                 (E) (A1) (A2) (E) (E) (E) (E) (A1) (A2) (E) (E)
                 (A2) (E) (E) (A1) (E) (E) (E) (E) (A1) (A2) (E)
                 (E) (A1) (A1) (E) (E) (A2) (E) (E) (A1) (E) (E)
                 (E) (E) (A1) (A2) (E) (E) (E) (E) (A2) (A1) (A1)
                 (E) (E) (E) (E) (A1) (A2) (E) (E) (E) (E) (A1)
                 (E) (E) (A1) (E) (E) (A2) (E) (E) (A1) (A1) (E)
                 (E) (A1) (E) (E) (A1) (A1) (E) (E)
 Initial guess <Sx>= 0.0000 <Sy>= 0.0000 <Sz>= 0.5000 <S**2>= 0.7531 S= 0.5015
 ExpMin= 5.71D-02 ExpMax= 1.33D+05 ExpMxC= 1.27D+03 IAcc=3 IRadAn=         5 AccDes= 0.00D+00
 Harris functional with IExCor= 1009 and IRadAn=       5 diagonalized for initial guess.
 HarFok:  IExCor= 1009 AccDes= 0.00D+00 IRadAn=         5 IDoV= 1 UseB2=F ITyADJ=14
 ICtDFT=  3500011 ScaDFX=  1.000000  1.000000  1.000000  1.000000
 Defaulting to unpruned grid for atomic number  52.
 FoFCou: FMM=F IPFlag=           0 FMFlag=      100000 FMFlg1=           0
         NFxFlg=           0 DoJE=T BraDBF=F KetDBF=T FulRan=T
         wScrn=  0.000000 ICntrl=       500 IOpCl=  0 I1Cent=   200000004 NGrid=           0
         NMat0=    1 NMatS0=      1 NMatT0=    0 NMatD0=    1 NMtDS0=    0 NMtDT0=    0
 Petite list used in FoFCou.
 Keep R1 and R2 ints in memory in symmetry-blocked form, NReq=775008467.
 Requested convergence on RMS density matrix=1.00D-08 within 128 cycles.
 Requested convergence on MAX density matrix=1.00D-06.
 Requested convergence on             energy=1.00D-06.
 No special actions if energy rises.
 Integral accuracy reduced to 1.0D-05 until final iterations.
 Defaulting to unpruned grid for atomic number  52.
 Defaulting to unpruned grid for atomic number  52.
 Defaulting to unpruned grid for atomic number  52.
 Defaulting to unpruned grid for atomic number  52.
 Defaulting to unpruned grid for atomic number  52.
 Defaulting to unpruned grid for atomic number  52.
 Defaulting to unpruned grid for atomic number  52.
 Defaulting to unpruned grid for atomic number  52.
 Initial convergence to 1.0D-05 achieved.  Increase integral accuracy.
 SCF Done:  E(UPBE1PBE) =  -567.421247794     A.U. after   13 cycles
            NFock= 13  Conv=0.59D-08     -V/T= 2.4138
 <Sx>= 0.0000 <Sy>= 0.0000 <Sz>= 0.5000 <S**2>= 0.7530 S= 0.5015
 <L.S>=  0.00000000000    
 Annihilation of the first spin contaminant:
 S**2 before annihilation     0.7530,   after     0.7500
   6 Symmetry operations used in ECPInt.
 ECPInt:  NShTT=    2701 NPrTT=    9253 LenC2=    2546 LenP2D=    7012.
 LDataN:  DoStor=T MaxTD1= 9 Len=  602
 Calling FoFJK, ICntrl=      2127 FMM=F ISym2X=1 I1Cent= 0 IOpClX= 1 NMat=1 NMatS=1 NMatT=0.
 Defaulting to unpruned grid for atomic number  52.
 Defaulting to unpruned grid for atomic number  52.
 Defaulting to unpruned grid for atomic number  52.
 Defaulting to unpruned grid for atomic number  52.
 Defaulting to unpruned grid for atomic number  52.
 Defaulting to unpruned grid for atomic number  52.
 Defaulting to unpruned grid for atomic number  52.
 Defaulting to unpruned grid for atomic number  52.
 ***** Axes restored to original set *****
 -------------------------------------------------------------------
 Center     Atomic                   Forces (Hartrees/Bohr)
 Number     Number              X              Y              Z
 -------------------------------------------------------------------
      1       52          -0.000000000    0.000000000   -0.004585232
      2        9          -0.000085969    0.000148903    0.001528411
      3        9          -0.000085969   -0.000148903    0.001528411
      4        9           0.000171938   -0.000000000    0.001528411
 -------------------------------------------------------------------
 Cartesian Forces:  Max     0.004585232 RMS     0.001530826

 GradGradGradGradGradGradGradGradGradGradGradGradGradGradGradGradGradGrad
 Berny optimization.
 Using GEDIIS/GDIIS optimizer.
 FormGI is forming the generalized inverse of G from B-inverse, IUseBI=4.
 Internal  Forces:  Max     0.004859632 RMS     0.002010210
 Search for a local minimum.
 Step number   3 out of a maximum of   20
 All quantities printed in internal units (Hartrees-Bohrs-Radians)
 Mixed Optimization -- RFO/linear search
 Update second derivatives using D2CorX and points    1    3    2
 DE=  1.40D-04 DEPred=-1.33D-04 R=-1.06D+00
 Trust test=-1.06D+00 RLast= 1.36D-01 DXMaxT set to 2.52D-01
 The second derivative matrix:
                          R1        R2        R3        A1        A2
           R1           0.18500
           R2           0.00538   0.18500
           R3           0.00538   0.00538   0.18500
           A1           0.02214   0.02214   0.02214   0.18324
           A2           0.01631   0.01631   0.01631  -0.06753   0.18649
           A3           0.01631   0.01631   0.01631  -0.06753  -0.06351
           D1           0.01771   0.01771   0.01771   0.00640  -0.00872
                          A3        D1
           A3           0.18649
           D1          -0.00872   0.04986
 ITU= -1  1  0
 Use linear search instead of GDIIS.
     Eigenvalues ---    0.05194   0.17962   0.17962   0.19655   0.25000
     Eigenvalues ---    0.25279
 RFO step:  Lambda=-2.92591473D-05 EMin= 5.19387228D-02
 Quartic linear search produced a step of -0.62048.
 Iteration  1 RMS(Cart)=  0.03476516 RMS(Int)=  0.00094298
 Iteration  2 RMS(Cart)=  0.00085489 RMS(Int)=  0.00033487
 Iteration  3 RMS(Cart)=  0.00000002 RMS(Int)=  0.00033487
 ClnCor:  largest displacement from symmetrization is 7.00D-04 for atom     4.
 Variable       Old X    -DE/DX   Delta X   Delta X   Delta X     New X
                                 (Linear)    (Quad)   (Total)
    R1        3.66376  -0.00010  -0.00355   0.00702   0.00324   3.66701
    R2        3.66376  -0.00010  -0.00355   0.00702   0.00324   3.66701
    R3        3.66376  -0.00010  -0.00355   0.00702   0.00324   3.66701
    A1        2.04227  -0.00013   0.01314   0.00046   0.01469   2.05696
    A2        2.04227   0.00152   0.01314   0.00137   0.01469   2.05696
    A3        2.04227   0.00152   0.01314   0.00137   0.01469   2.05696
    D1       -2.55382  -0.00486  -0.08115  -0.00556  -0.08660  -2.64041
         Item               Value     Threshold  Converged?
 Maximum Force            0.004860     0.000450     NO 
 RMS     Force            0.002010     0.000300     NO 
 Maximum Displacement     0.073717     0.001800     NO 
 RMS     Displacement     0.034568     0.001200     NO 
 Predicted change in Energy=-1.081005D-04
 GradGradGradGradGradGradGradGradGradGradGradGradGradGradGradGradGradGrad

                          Input orientation:                          
 ---------------------------------------------------------------------
 Center     Atomic      Atomic             Coordinates (Angstroms)
 Number     Number       Type             X           Y           Z
 ---------------------------------------------------------------------
      1         52           0        8.003300    8.500000    8.652495
      2          9           0        7.043706   10.162067    8.365718
      3          9           0        7.043706    6.837933    8.365718
      4          9           0        9.922490    8.500000    8.365718
 ---------------------------------------------------------------------
                    Distance matrix (angstroms):
                    1          2          3          4
     1  Te   0.000000
     2  F    1.940497   0.000000
     3  F    1.940497   3.324133   0.000000
     4  F    1.940497   3.324133   3.324133   0.000000
 Stoichiometry    F3Te(2)
 Framework group  C3V[C3(Te),3SGV(F)]
 Deg. of freedom     2
 Full point group                 C3V     NOp   6
 Largest Abelian subgroup         CS      NOp   2
 Largest concise Abelian subgroup CS      NOp   2
                         Standard orientation:                         
 ---------------------------------------------------------------------
 Center     Atomic      Atomic             Coordinates (Angstroms)
 Number     Number       Type             X           Y           Z
 ---------------------------------------------------------------------
      1         52           0        0.000000    0.000000    0.098012
      2          9           0       -0.000000    1.919189   -0.188765
      3          9           0       -1.662067   -0.959595   -0.188765
      4          9           0        1.662067   -0.959595   -0.188765
 ---------------------------------------------------------------------
 Rotational constants (GHZ):           4.6698003           4.6698003           2.4073720
 Standard basis: def2QZVPP (5D, 7F)
 There are   188 symmetry adapted cartesian basis functions of A'  symmetry.
 There are   132 symmetry adapted cartesian basis functions of A"  symmetry.
 There are   146 symmetry adapted basis functions of A'  symmetry.
 There are   107 symmetry adapted basis functions of A"  symmetry.
   253 basis functions,   456 primitive gaussians,   320 cartesian basis functions
    26 alpha electrons       25 beta electrons
       nuclear repulsion energy       215.3946096345 Hartrees.
 NAtoms=    4 NActive=    4 NUniq=    2 SFac= 4.00D+00 NAtFMM=   60 NAOKFM=F Big=F
 Integral buffers will be    131072 words long.
 Raffenetti 2 integral format.
 Two-electron integral symmetry is turned on.
 One-electron integrals computed using PRISM.
   6 Symmetry operations used in ECPInt.
 ECPInt:  NShTT=    2701 NPrTT=    9253 LenC2=    2540 LenP2D=    7006.
 LDataN:  DoStor=T MaxTD1= 8 Len=  415
 NBasis=   253 RedAO= T EigKep=  6.33D-04  NBF=   146   107
 NBsUse=   253 1.00D-06 EigRej= -1.00D+00 NBFU=   146   107
 Defaulting to unpruned grid for atomic number  52.
 Lowest energy guess from the checkpoint file:  "/data/hutter/SMG16/PBE0/Gau-67600.chk"
 B after Tr=     0.000000   -0.000000   -0.000000
         Rot=    1.000000   -0.000000    0.000000    0.000000 Ang=   0.00 deg.
 B after Tr=     0.000000    0.000000    0.000000
         Rot=    1.000000    0.000000   -0.000000   -0.000000 Ang=   0.00 deg.
 Initial guess orbital symmetries:
 Alpha Orbitals:
       Occupied  (E) (E) (A1) (A1) (A1) (E) (E) (E) (E) (A1) (A2)
                 (A1) (E) (E) (E) (E) (A1) (E) (E) (E) (E) (A1)
                 (A1) (E) (E) (A1)
       Virtual   (E) (E) (A1) (A1) (A1) (E) (E) (E) (E) (A1) (A2)
                 (A1) (E) (E) (E) (E) (A1) (E) (E) (E) (E) (A1)
                 (A1) (E) (E) (A1) (?A) (?A) (?A) (?A) (?A) (?A)
                 (?A) (?A) (?A) (?A) (?A) (?A) (?A) (?A) (?A) (?A)
                 (?A) (?A) (?A) (?A) (A2) (?A) (?A) (?A) (?A) (?A)
                 (?A) (?A) (?A) (?A) (?A) (?A) (?A) (?A) (?A) (?A)
                 (?A) (?A) (?A) (?A) (?A) (?A) (?A) (?A) (?A) (?A)
                 (?A) (?A) (?A) (?A) (?A) (?A) (?A) (?A) (?A) (?A)
                 (?A) (?A) (?A) (?A) (?A) (?A) (A2) (?A) (?A) (?A)
                 (?A) (?A) (?A) (?A) (?A) (?A) (?A) (?A) (A2) (?A)
                 (?A) (?A) (?A) (?A) (?A) (?A) (?A) (?A) (?A) (?A)
                 (?A) (?A) (?A) (A2) (?A) (?A) (?A) (A2) (?A) (?A)
                 (?A) (?A) (?A) (?A) (?A) (?A) (?A) (?A) (A2) (?A)
                 (?A) (?A) (?A) (?A) (?A) (?A) (?A) (A2) (?A) (?A)
                 (?A) (?A) (?A) (?A) (A2) (?A) (?A) (?A) (?A) (?A)
                 (E) (E) (?A) (A2) (E) (E) (E) (E) (A1) (A2) (E)
                 (E) (A1) (E) (E) (A2) (?A) (?A) (?A) (?A) (?A)
                 (A2) (?A) (?A) (?A) (?A) (E) (E) (A2) (E) (E)
                 (A1) (E) (E) (E) (E) (A1) (A2) (?A) (?A) (?A)
                 (?A) (?A) (A2) (?A) (?A) (?A) (?A) (?A) (?A) (A2)
                 (?A) (?A) (?A) (?A) (?A) (?A) (?A) (?A) (?A) (?A)
                 (A2) (?A) (?A) (?A) (?A) (E) (E) (?A) (?A) (?A)
                 (?A) (A1) (E) (E)
 Beta  Orbitals:
       Occupied  (A1) (E) (E) (A1) (E) (E) (E) (E) (A1) (A2) (E)
                 (E) (A1) (E) (E) (A1) (E) (E) (A1) (E) (E) (E)
                 (E) (A1) (A1)
       Virtual   (A1) (E) (E) (A1) (E) (E) (E) (E) (A1) (A2) (E)
                 (E) (A1) (E) (E) (A1) (E) (E) (A1) (E) (E) (E)
                 (E) (A1) (A1) (?A) (?A) (?A) (?A) (?A) (?A) (?A)
                 (?A) (?A) (?A) (?A) (?A) (?A) (?A) (?A) (?A) (?A)
                 (?A) (?A) (?A) (?A) (?A) (?A) (?A) (?A) (?A) (?A)
                 (?A) (?A) (?A) (?A) (?A) (?A) (?A) (?A) (?A) (?A)
                 (?A) (?A) (?A) (?A) (?A) (?A) (?A) (?A) (?A) (?A)
                 (?A) (?A) (?A) (?A) (?A) (?A) (?A) (?A) (?A) (?A)
                 (?A) (?A) (?A) (?A) (?A) (?A) (?A) (?A) (?A) (?A)
                 (?A) (?A) (?A) (?A) (?A) (?A) (?A) (?A) (?A) (A2)
                 (?A) (?A) (?A) (?A) (?A) (?A) (?A) (?A) (?A) (?A)
                 (?A) (?A) (?A) (?A) (?A) (?A) (?A) (?A) (?A) (?A)
                 (?A) (?A) (?A) (?A) (?A) (?A) (?A) (?A) (?A) (?A)
                 (?A) (?A) (?A) (?A) (?A) (?A) (?A) (?A) (?A) (?A)
                 (?A) (?A) (?A) (?A) (?A) (A2) (?A) (?A) (?A) (E)
                 (E) (E) (E) (A1) (A2) (E) (E) (A1) (E) (E) (?A)
                 (A2) (E) (E) (E) (E) (A1) (?A) (?A) (?A) (?A)
                 (?A) (A2) (?A) (?A) (?A) (?A) (E) (E) (A2) (E)
                 (E) (A1) (E) (E) (E) (E) (?A) (?A) (?A) (?A) (?A)
                 (?A) (?A) (?A) (?A) (?A) (?A) (?A) (?A) (?A) (?A)
                 (?A) (?A) (?A) (?A) (?A) (?A) (?A) (?A) (?A) (?A)
                 (A2) (?A) (?A) (?A) (?A) (E) (E) (A1) (E) (E)
                 (?A) (A1) (E) (E)
 Initial guess <Sx>= 0.0000 <Sy>= 0.0000 <Sz>= 0.5000 <S**2>= 0.7530 S= 0.5015
 Keep R1 and R2 ints in memory in symmetry-blocked form, NReq=775008467.
 Requested convergence on RMS density matrix=1.00D-08 within 128 cycles.
 Requested convergence on MAX density matrix=1.00D-06.
 Requested convergence on             energy=1.00D-06.
 No special actions if energy rises.
 Integral accuracy reduced to 1.0D-05 until final iterations.
 An orbital has undefined symmetry, so N**3 symmetry is turned off.
 Defaulting to unpruned grid for atomic number  52.
 Defaulting to unpruned grid for atomic number  52.
 Defaulting to unpruned grid for atomic number  52.
 Defaulting to unpruned grid for atomic number  52.
 Defaulting to unpruned grid for atomic number  52.
 Defaulting to unpruned grid for atomic number  52.
 Defaulting to unpruned grid for atomic number  52.
 Defaulting to unpruned grid for atomic number  52.
 Initial convergence to 1.0D-05 achieved.  Increase integral accuracy.
 SCF Done:  E(UPBE1PBE) =  -567.421466346     A.U. after   11 cycles
            NFock= 11  Conv=0.13D-08     -V/T= 2.4138
 <Sx>= 0.0000 <Sy>= 0.0000 <Sz>= 0.5000 <S**2>= 0.7530 S= 0.5015
 <L.S>=  0.00000000000    
 Annihilation of the first spin contaminant:
 S**2 before annihilation     0.7530,   after     0.7500
   6 Symmetry operations used in ECPInt.
 ECPInt:  NShTT=    2701 NPrTT=    9253 LenC2=    2540 LenP2D=    7006.
 LDataN:  DoStor=T MaxTD1= 9 Len=  602
 Calling FoFJK, ICntrl=      2127 FMM=F ISym2X=1 I1Cent= 0 IOpClX= 1 NMat=1 NMatS=1 NMatT=0.
 Defaulting to unpruned grid for atomic number  52.
 Defaulting to unpruned grid for atomic number  52.
 Defaulting to unpruned grid for atomic number  52.
 Defaulting to unpruned grid for atomic number  52.
 Defaulting to unpruned grid for atomic number  52.
 Defaulting to unpruned grid for atomic number  52.
 Defaulting to unpruned grid for atomic number  52.
 Defaulting to unpruned grid for atomic number  52.
 ***** Axes restored to original set *****
 -------------------------------------------------------------------
 Center     Atomic                   Forces (Hartrees/Bohr)
 Number     Number              X              Y              Z
 -------------------------------------------------------------------
      1       52          -0.000000000    0.000000000   -0.000132761
      2        9           0.000150440   -0.000260570    0.000044254
      3        9           0.000150440    0.000260570    0.000044254
      4        9          -0.000300880   -0.000000000    0.000044254
 -------------------------------------------------------------------
 Cartesian Forces:  Max     0.000300880 RMS     0.000156814

 GradGradGradGradGradGradGradGradGradGradGradGradGradGradGradGradGradGrad
 Berny optimization.
 Using GEDIIS/GDIIS optimizer.
 FormGI is forming the generalized inverse of G from B-inverse, IUseBI=4.
 Internal  Forces:  Max     0.000304116 RMS     0.000199093
 Search for a local minimum.
 Step number   4 out of a maximum of   20
 All quantities printed in internal units (Hartrees-Bohrs-Radians)
 Mixed Optimization -- En-DIIS/RFO-DIIS
 Update second derivatives using D2CorX and points    1    3    2    4
 DE= -7.82D-05 DEPred=-1.08D-04 R= 7.23D-01
 TightC=F SS=  1.41D+00  RLast= 4.82D-02 DXNew= 4.2426D-01 1.4452D-01
 Trust test= 7.23D-01 RLast= 4.82D-02 DXMaxT set to 2.52D-01
 The second derivative matrix:
                          R1        R2        R3        A1        A2
           R1           0.20093
           R2           0.02132   0.20093
           R3           0.02132   0.02132   0.20093
           A1          -0.00011  -0.00011  -0.00011   0.17548
           A2          -0.00000  -0.00000  -0.00000  -0.07483   0.17847
           A3          -0.00000  -0.00000  -0.00000  -0.07483  -0.07153
           D1           0.00676   0.00676   0.00676   0.00537  -0.00690
                          A3        D1
           A3           0.17847
           D1          -0.00690   0.04436
 ITU=  1 -1  1  0
 Use linear search instead of GDIIS.
     Eigenvalues ---    0.04465   0.17962   0.17962   0.24421   0.25000
     Eigenvalues ---    0.25215
 RFO step:  Lambda=-7.98144735D-07 EMin= 4.46548379D-02
 Quartic linear search produced a step of -0.04572.
 Iteration  1 RMS(Cart)=  0.00091607 RMS(Int)=  0.00000965
 Iteration  2 RMS(Cart)=  0.00000009 RMS(Int)=  0.00000965
 ClnCor:  largest displacement from symmetrization is 3.00D-05 for atom     4.
 Variable       Old X    -DE/DX   Delta X   Delta X   Delta X     New X
                                 (Linear)    (Quad)   (Total)
    R1        3.66701  -0.00030  -0.00041  -0.00085  -0.00127   3.66574
    R2        3.66701  -0.00030  -0.00041  -0.00085  -0.00127   3.66574
    R3        3.66701  -0.00030  -0.00041  -0.00085  -0.00127   3.66574
    A1        2.05696   0.00000   0.00030  -0.00044  -0.00011   2.05685
    A2        2.05696  -0.00000   0.00030  -0.00041  -0.00011   2.05685
    A3        2.05696  -0.00000   0.00030  -0.00041  -0.00011   2.05685
    D1       -2.64041   0.00000  -0.00202   0.00272   0.00070  -2.63971
         Item               Value     Threshold  Converged?
 Maximum Force            0.000304     0.000450     YES
 RMS     Force            0.000199     0.000300     YES
 Maximum Displacement     0.001377     0.001800     YES
 RMS     Displacement     0.000922     0.001200     YES
 Predicted change in Energy=-5.771399D-07
 Optimization completed.
    -- Stationary point found.
                           ----------------------------
                           !   Optimized Parameters   !
                           ! (Angstroms and Degrees)  !
 --------------------------                            --------------------------
 ! Name  Definition              Value          Derivative Info.                !
 --------------------------------------------------------------------------------
 ! R1    R(1,2)                  1.9405         -DE/DX =   -0.0003              !
 ! R2    R(1,3)                  1.9405         -DE/DX =   -0.0003              !
 ! R3    R(1,4)                  1.9405         -DE/DX =   -0.0003              !
 ! A1    A(2,1,3)              117.8552         -DE/DX =    0.0                 !
 ! A2    A(2,1,4)              117.8552         -DE/DX =    0.0                 !
 ! A3    A(3,1,4)              117.8552         -DE/DX =    0.0                 !
 ! D1    D(2,1,4,3)           -151.2844         -DE/DX =    0.0                 !
 --------------------------------------------------------------------------------
 GradGradGradGradGradGradGradGradGradGradGradGradGradGradGradGradGradGrad

                          Input orientation:                          
 ---------------------------------------------------------------------
 Center     Atomic      Atomic             Coordinates (Angstroms)
 Number     Number       Type             X           Y           Z
 ---------------------------------------------------------------------
      1         52           0        8.003300    8.500000    8.652495
      2          9           0        7.043706   10.162067    8.365718
      3          9           0        7.043706    6.837933    8.365718
      4          9           0        9.922490    8.500000    8.365718
 ---------------------------------------------------------------------
                    Distance matrix (angstroms):
                    1          2          3          4
     1  Te   0.000000
     2  F    1.940497   0.000000
     3  F    1.940497   3.324133   0.000000
     4  F    1.940497   3.324133   3.324133   0.000000
 Stoichiometry    F3Te(2)
 Framework group  C3V[C3(Te),3SGV(F)]
 Deg. of freedom     2
 Full point group                 C3V     NOp   6
 Largest Abelian subgroup         CS      NOp   2
 Largest concise Abelian subgroup CS      NOp   2
                         Standard orientation:                         
 ---------------------------------------------------------------------
 Center     Atomic      Atomic             Coordinates (Angstroms)
 Number     Number       Type             X           Y           Z
 ---------------------------------------------------------------------
      1         52           0        0.000000    0.000000    0.098012
      2          9           0       -0.000000    1.919189   -0.188765
      3          9           0       -1.662067   -0.959595   -0.188765
      4          9           0        1.662067   -0.959595   -0.188765
 ---------------------------------------------------------------------
 Rotational constants (GHZ):           4.6698003           4.6698003           2.4073720

 **********************************************************************

            Population analysis using the SCF Density.

 **********************************************************************

 Orbital symmetries:
 Alpha Orbitals:
       Occupied  (A1) (E) (E) (A1) (E) (E) (A1) (E) (E) (E) (E)
                 (A1) (A1) (E) (E) (A1) (E) (E) (A1) (E) (E) (E)
                 (E) (A2) (A1) (A1)
       Virtual   (E) (E) (A1) (A1) (E) (E) (A1) (E) (E) (E) (E)
                 (A1) (E) (E) (A2) (E) (E) (A1) (E) (E) (A1) (E)
                 (E) (A1) (E) (E) (A2) (A1) (E) (E) (A1) (E) (E)
                 (E) (E) (A1) (A1) (E) (E) (A1) (A1) (E) (E) (A2)
                 (E) (E) (A2) (E) (E) (A1) (E) (E) (E) (E) (A1)
                 (E) (E) (A1) (A2) (E) (E) (E) (E) (A1) (E) (E)
                 (A1) (A2) (E) (E) (E) (E) (A1) (E) (E) (E) (E)
                 (A1) (E) (E) (A2) (A1) (E) (E) (A1) (A1) (E) (E)
                 (A2) (A1) (E) (E) (A1) (E) (E) (A1) (E) (E) (E)
                 (E) (A2) (E) (E) (A1) (E) (E) (E) (E) (A1) (A2)
                 (E) (E) (E) (E) (A1) (A2) (A1) (E) (E) (A2) (E)
                 (E) (E) (E) (A1) (E) (E) (A1) (E) (E) (A2) (E)
                 (E) (A1) (E) (E) (A1) (E) (E) (A2) (A1) (E) (E)
                 (A1) (E) (E) (A2) (E) (E) (A1) (E) (E) (E) (E)
                 (A1) (A2) (E) (E) (E) (E) (A1) (A2) (E) (E) (E)
                 (E) (A1) (A2) (E) (E) (E) (E) (A1) (A2) (E) (E)
                 (A1) (A1) (E) (E) (A2) (E) (E) (A1) (E) (E) (E)
                 (E) (A1) (A2) (E) (E) (E) (E) (A2) (A1) (A1) (E)
                 (E) (E) (E) (A1) (A2) (E) (E) (E) (E) (A1) (E)
                 (E) (A1) (E) (E) (A2) (E) (E) (A1) (A1) (E) (E)
                 (A1) (E) (E) (A1) (A1) (E) (E)
 Beta  Orbitals:
       Occupied  (E) (E) (A1) (A1) (E) (E) (A1) (E) (E) (E) (E)
                 (A1) (A1) (E) (E) (A1) (E) (E) (A1) (E) (E) (A2)
                 (E) (E) (A1)
       Virtual   (A1) (E) (E) (A1) (A1) (E) (E) (A1) (E) (E) (E)
                 (E) (A1) (E) (E) (A2) (E) (E) (A1) (E) (E) (A1)
                 (E) (E) (A1) (E) (E) (A2) (A1) (E) (E) (E) (E)
                 (A1) (E) (E) (A1) (A1) (E) (E) (A1) (E) (E) (A1)
                 (A2) (E) (E) (A2) (E) (E) (A1) (E) (E) (E) (E)
                 (A1) (E) (E) (A2) (A1) (E) (E) (E) (E) (A1) (E)
                 (E) (A1) (A2) (E) (E) (E) (E) (A1) (E) (E) (E)
                 (E) (E) (E) (A1) (A2) (A1) (E) (E) (A1) (A1) (E)
                 (E) (A2) (A1) (E) (E) (A1) (E) (E) (A1) (E) (E)
                 (E) (E) (A2) (E) (E) (A1) (E) (E) (E) (E) (A1)
                 (A2) (E) (E) (E) (E) (A2) (A1) (A1) (E) (E) (A2)
                 (E) (E) (E) (E) (A1) (E) (E) (A1) (E) (E) (A2)
                 (E) (E) (A1) (E) (E) (A1) (E) (E) (A2) (A1) (E)
                 (E) (A1) (E) (E) (A2) (E) (E) (A1) (E) (E) (E)
                 (E) (A1) (A2) (E) (E) (E) (E) (A1) (A2) (E) (E)
                 (A2) (E) (E) (A1) (E) (E) (E) (E) (A1) (A2) (E)
                 (E) (A1) (A1) (E) (E) (A2) (E) (E) (A1) (E) (E)
                 (E) (E) (A1) (A2) (E) (E) (E) (E) (A2) (A1) (A1)
                 (E) (E) (E) (E) (A1) (A2) (E) (E) (E) (E) (A1)
                 (E) (E) (A1) (E) (E) (A2) (E) (E) (A1) (A1) (E)
                 (E) (A1) (E) (E) (A1) (A1) (E) (E)
 The electronic state is 2-A1.
 Alpha  occ. eigenvalues --  -24.77549 -24.77549 -24.77549  -6.45124  -4.57431
 Alpha  occ. eigenvalues --   -4.57431  -4.56664  -1.75511  -1.75511  -1.74608
 Alpha  occ. eigenvalues --   -1.74608  -1.74531  -1.22212  -1.20805  -1.20805
 Alpha  occ. eigenvalues --   -0.72316  -0.53123  -0.53123  -0.48954  -0.45755
 Alpha  occ. eigenvalues --   -0.45755  -0.45547  -0.45547  -0.44640  -0.36862
 Alpha  occ. eigenvalues --   -0.28383
 Alpha virt. eigenvalues --   -0.07961  -0.07961   0.05059   0.09066   0.12020
 Alpha virt. eigenvalues --    0.12020   0.14344   0.15402   0.15402   0.22940
 Alpha virt. eigenvalues --    0.22940   0.32059   0.36842   0.36842   0.39407
 Alpha virt. eigenvalues --    0.39831   0.39831   0.42602   0.46482   0.46482
 Alpha virt. eigenvalues --    0.54027   0.54366   0.54366   0.57287   0.59429
 Alpha virt. eigenvalues --    0.59429   0.61774   0.62751   0.62850   0.62850
 Alpha virt. eigenvalues --    0.64536   0.65596   0.65596   0.75103   0.75103
 Alpha virt. eigenvalues --    0.86329   1.06918   1.08370   1.08370   1.11193
 Alpha virt. eigenvalues --    1.13132   1.13720   1.13720   1.17058   1.18071
 Alpha virt. eigenvalues --    1.18071   1.28571   1.31012   1.31012   1.41022
 Alpha virt. eigenvalues --    1.47442   1.47442   1.49014   1.49014   1.60557
 Alpha virt. eigenvalues --    1.61513   1.61513   1.68492   1.69049   1.69942
 Alpha virt. eigenvalues --    1.69942   1.70118   1.70118   1.73008   1.73787
 Alpha virt. eigenvalues --    1.73787   1.76025   1.77782   1.79121   1.79121
 Alpha virt. eigenvalues --    1.87460   1.87460   2.08734   2.13067   2.13067
 Alpha virt. eigenvalues --    2.23438   2.23438   2.28543   2.28849   2.28849
 Alpha virt. eigenvalues --    2.29759   2.31703   2.40608   2.40608   2.65836
 Alpha virt. eigenvalues --    2.79431   2.90723   2.90723   2.94140   2.94764
 Alpha virt. eigenvalues --    2.95487   2.95487   3.48699   3.59012   3.59012
 Alpha virt. eigenvalues --    4.01870   4.06538   4.06538   4.14077   4.14077
 Alpha virt. eigenvalues --    4.14281   4.15062   4.15062   4.15387   4.17980
 Alpha virt. eigenvalues --    4.17980   4.22042   4.22042   4.22296   4.27972
 Alpha virt. eigenvalues --    4.37328   4.37328   4.40476   4.40476   4.47211
 Alpha virt. eigenvalues --    4.47500   4.80469   4.80787   4.80787   5.00562
 Alpha virt. eigenvalues --    5.00901   5.00901   5.03740   5.03740   5.07767
 Alpha virt. eigenvalues --    5.36006   5.36006   5.39587   5.39926   5.39926
 Alpha virt. eigenvalues --    5.48119   5.70912   5.70912   5.71228   6.26737
 Alpha virt. eigenvalues --    6.26737   6.26825   6.28502   6.28502   6.37828
 Alpha virt. eigenvalues --    7.04993   7.06192   7.06192  10.31890  10.32981
 Alpha virt. eigenvalues --   10.32981  10.36867  10.43832  10.43832  10.68621
 Alpha virt. eigenvalues --   11.37930  11.37930  11.38416  11.38416  11.38522
 Alpha virt. eigenvalues --   11.38761  11.38896  11.38896  11.39053  11.39053
 Alpha virt. eigenvalues --   11.39211  11.40206  11.40349  11.40349  11.40365
 Alpha virt. eigenvalues --   11.40365  11.40365  11.40417  11.40796  11.40796
 Alpha virt. eigenvalues --   11.41845  11.41845  11.42868  11.46084  11.47453
 Alpha virt. eigenvalues --   11.47453  11.52520  14.16691  14.55386  14.55386
 Alpha virt. eigenvalues --   14.55481  14.55835  14.55835  14.55946  14.57346
 Alpha virt. eigenvalues --   14.57346  14.58907  14.58907  14.59836  14.61314
 Alpha virt. eigenvalues --   14.69120  14.69120  14.70396  14.70396  14.73338
 Alpha virt. eigenvalues --   14.73561  14.78920  14.82488  14.82488  15.13043
 Alpha virt. eigenvalues --   15.13043  15.27793  15.77744  15.78881  15.78881
 Alpha virt. eigenvalues --   15.80092  15.80092  15.83013  16.01601  16.01601
 Alpha virt. eigenvalues --   16.03114  16.05003  16.05003  16.14458  16.38843
 Alpha virt. eigenvalues --   16.38843  16.44889  40.73552  40.79229  40.79229
 Alpha virt. eigenvalues --   54.00555  54.04603  54.04603  73.85431 284.97862
 Alpha virt. eigenvalues --  285.03050 285.03050
  Beta  occ. eigenvalues --  -24.77208 -24.77208 -24.77208  -6.44803  -4.57334
  Beta  occ. eigenvalues --   -4.57334  -4.55911  -1.75439  -1.75439  -1.74062
  Beta  occ. eigenvalues --   -1.74062  -1.73748  -1.21365  -1.20026  -1.20026
  Beta  occ. eigenvalues --   -0.69839  -0.52372  -0.52372  -0.46763  -0.45317
  Beta  occ. eigenvalues --   -0.45317  -0.44400  -0.44026  -0.44026  -0.35422
  Beta virt. eigenvalues --   -0.15769  -0.06882  -0.06882   0.05995   0.10555
  Beta virt. eigenvalues --    0.12370   0.12370   0.16504   0.17317   0.17317
  Beta virt. eigenvalues --    0.23186   0.23186   0.32266   0.37603   0.37603
  Beta virt. eigenvalues --    0.39433   0.40266   0.40266   0.43610   0.46815
  Beta virt. eigenvalues --    0.46815   0.56232   0.56475   0.56475   0.60287
  Beta virt. eigenvalues --    0.60600   0.60600   0.61873   0.63818   0.64167
  Beta virt. eigenvalues --    0.64167   0.66408   0.66408   0.67267   0.75531
  Beta virt. eigenvalues --    0.75531   0.87652   1.07468   1.09653   1.09653
  Beta virt. eigenvalues --    1.11921   1.14550   1.14550   1.14839   1.17305
  Beta virt. eigenvalues --    1.18583   1.18583   1.28631   1.31721   1.31721
  Beta virt. eigenvalues --    1.41906   1.49065   1.49065   1.50014   1.50014
  Beta virt. eigenvalues --    1.60963   1.61955   1.61955   1.69165   1.69227
  Beta virt. eigenvalues --    1.70151   1.70151   1.70767   1.70767   1.73912
  Beta virt. eigenvalues --    1.74219   1.74219   1.78336   1.78386   1.80745
  Beta virt. eigenvalues --    1.80745   1.88900   1.88900   2.11032   2.14007
  Beta virt. eigenvalues --    2.14007   2.25022   2.25022   2.29144   2.29144
  Beta virt. eigenvalues --    2.29854   2.30384   2.32999   2.40917   2.40917
  Beta virt. eigenvalues --    2.66404   2.81938   2.92141   2.92141   2.94181
  Beta virt. eigenvalues --    2.96250   2.96285   2.96285   3.49071   3.59477
  Beta virt. eigenvalues --    3.59477   4.02294   4.06915   4.06915   4.14303
  Beta virt. eigenvalues --    4.14303   4.14499   4.15185   4.15185   4.15660
  Beta virt. eigenvalues --    4.18225   4.18225   4.22356   4.22356   4.22460
  Beta virt. eigenvalues --    4.28158   4.37772   4.37772   4.40894   4.40894
  Beta virt. eigenvalues --    4.47828   4.47830   4.81077   4.81181   4.81181
  Beta virt. eigenvalues --    5.01104   5.01467   5.01467   5.04363   5.04363
  Beta virt. eigenvalues --    5.08348   5.36532   5.36532   5.40354   5.40601
  Beta virt. eigenvalues --    5.40601   5.48486   5.71396   5.71396   5.71863
  Beta virt. eigenvalues --    6.27592   6.27592   6.27712   6.28713   6.28713
  Beta virt. eigenvalues --    6.38050   7.05486   7.06745   7.06745  10.32555
  Beta virt. eigenvalues --   10.33421  10.33421  10.36892  10.44404  10.44404
  Beta virt. eigenvalues --   10.68760  11.38253  11.38253  11.38695  11.38695
  Beta virt. eigenvalues --   11.39112  11.39217  11.39368  11.39368  11.39464
  Beta virt. eigenvalues --   11.39464  11.39499  11.40591  11.40765  11.40765
  Beta virt. eigenvalues --   11.40765  11.40771  11.40771  11.40781  11.41294
  Beta virt. eigenvalues --   11.41294  11.42435  11.42435  11.43358  11.46377
  Beta virt. eigenvalues --   11.47740  11.47740  11.52923  14.17282  14.56088
  Beta virt. eigenvalues --   14.56088  14.56199  14.56355  14.56355  14.56726
  Beta virt. eigenvalues --   14.57996  14.57996  14.59710  14.59710  14.60304
  Beta virt. eigenvalues --   14.61755  14.69960  14.69960  14.71158  14.71158
  Beta virt. eigenvalues --   14.73984  14.74543  14.79673  14.83025  14.83025
  Beta virt. eigenvalues --   15.13692  15.13692  15.28458  15.78570  15.79645
  Beta virt. eigenvalues --   15.79645  15.80853  15.80853  15.83959  16.02232
  Beta virt. eigenvalues --   16.02232  16.04149  16.05979  16.05979  16.14894
  Beta virt. eigenvalues --   16.39608  16.39608  16.45599  40.74174  40.79297
  Beta virt. eigenvalues --   40.79297  54.00974  54.05020  54.05020  73.85635
  Beta virt. eigenvalues --  284.98024 285.03212 285.03212
          Condensed to atoms (all electrons):
               1          2          3          4
     1  Te  22.357538   0.122358   0.122358   0.122358
     2  F    0.122358   9.296499   0.003137   0.003137
     3  F    0.122358   0.003137   9.296499   0.003137
     4  F    0.122358   0.003137   0.003137   9.296499
          Atomic-Atomic Spin Densities.
               1          2          3          4
     1  Te   0.981505  -0.055023  -0.055023  -0.055023
     2  F   -0.055023   0.113374   0.001418   0.001418
     3  F   -0.055023   0.001418   0.113374   0.001418
     4  F   -0.055023   0.001418   0.001418   0.113374
 Mulliken charges and spin densities:
               1          2
     1  Te   1.275389   0.816437
     2  F   -0.425130   0.061188
     3  F   -0.425130   0.061188
     4  F   -0.425130   0.061188
 Sum of Mulliken charges =  -0.00000   1.00000
 Mulliken charges and spin densities with hydrogens summed into heavy atoms:
               1          2
     1  Te   1.275389   0.816437
     2  F   -0.425130   0.061188
     3  F   -0.425130   0.061188
     4  F   -0.425130   0.061188
 Electronic spatial extent (au):  <R**2>=            455.9200
 Charge=             -0.0000 electrons
 Dipole moment (field-independent basis, Debye):
    X=              0.0000    Y=              0.0000    Z=              1.0812  Tot=              1.0812
 Quadrupole moment (field-independent basis, Debye-Ang):
   XX=            -45.5733   YY=            -45.5733   ZZ=            -38.6803
   XY=             -0.0000   XZ=             -0.0000   YZ=              0.0000
 Traceless Quadrupole moment (field-independent basis, Debye-Ang):
   XX=             -2.2977   YY=             -2.2977   ZZ=              4.5953
   XY=             -0.0000   XZ=             -0.0000   YZ=              0.0000
 Octapole moment (field-independent basis, Debye-Ang**2):
  XXX=             -0.0000  YYY=             -8.9711  ZZZ=              1.4465  XYY=              0.0000
  XXY=              8.9711  XXZ=              2.5332  XZZ=              0.0000  YZZ=             -0.0000
  YYZ=              2.5332  XYZ=              0.0000
 Hexadecapole moment (field-independent basis, Debye-Ang**3):
 XXXX=           -228.9417 YYYY=           -228.9417 ZZZZ=            -46.1365 XXXY=              0.0000
 XXXZ=              0.0000 YYYX=              0.0000 YYYZ=              1.2395 ZZZX=             -0.0000
 ZZZY=              0.0000 XXYY=            -76.3139 XXZZ=            -42.1793 YYZZ=            -42.1793
 XXYZ=             -1.2395 YYXZ=             -0.0000 ZZXY=              0.0000
 N-N= 2.153946096345D+02 E-N=-1.715428151519D+03  KE= 4.013483099329D+02
 Symmetry A'   KE= 2.607503799648D+02
 Symmetry A"   KE= 1.405979299682D+02
 Symmetry A'   SP= 1.000000000000D+00
 Symmetry A"   SP= 2.495813887540D-14
                          Isotropic Fermi Contact Couplings
        Atom                 a.u.       MegaHertz       Gauss      10(-4) cm-1
     1  Te(125             0.00089      -1.26812      -0.45250      -0.42300
     2  F(19)              0.03663     154.10706      54.98923      51.40458
     3  F(19)              0.03663     154.10706      54.98923      51.40458
     4  F(19)              0.03663     154.10706      54.98923      51.40458
 --------------------------------------------------------
       Center         ----  Spin Dipole Couplings  ----
                      3XX-RR        3YY-RR        3ZZ-RR
 --------------------------------------------------------
     1   Atom       -0.128978     -0.128978      0.257956
     2   Atom       -0.356755      0.181437      0.175318
     3   Atom        0.046889     -0.222207      0.175318
     4   Atom        0.046889     -0.222207      0.175318
 --------------------------------------------------------
                        XY            XZ            YZ
 --------------------------------------------------------
     1   Atom        0.000000      0.000000     -0.000000
     2   Atom        0.000000     -0.000000      0.570492
     3   Atom        0.233044     -0.494060     -0.285246
     4   Atom       -0.233044      0.494060     -0.285246
 --------------------------------------------------------


 ---------------------------------------------------------------------------------
              Anisotropic Spin Dipole Couplings in Principal Axis System
 ---------------------------------------------------------------------------------

       Atom             a.u.   MegaHertz   Gauss  10(-4) cm-1        Axes

              Baa    -0.1290    21.887     7.810     7.301  0.8648 -0.5021 -0.0000
     1 Te(125 Bbb    -0.1290    21.887     7.810     7.301  0.5021  0.8648  0.0000
              Bcc     0.2580   -43.775   -15.620   -14.602  0.0000 -0.0000  1.0000
 
              Baa    -0.3921  -196.934   -70.271   -65.690  0.0000 -0.7052  0.7090
     2 F(19)  Bbb    -0.3568  -179.172   -63.933   -59.765  1.0000  0.0000 -0.0000
              Bcc     0.7489   376.105   134.204   125.455  0.0000  0.7090  0.7052
 
              Baa    -0.3921  -196.934   -70.271   -65.690  0.6107  0.3526  0.7090
     3 F(19)  Bbb    -0.3568  -179.172   -63.933   -59.765 -0.5000  0.8660 -0.0000
              Bcc     0.7489   376.105   134.204   125.455 -0.6140 -0.3545  0.7052
 
              Baa    -0.3921  -196.934   -70.271   -65.690 -0.6107  0.3526  0.7090
     4 F(19)  Bbb    -0.3568  -179.172   -63.933   -59.765  0.5000  0.8660 -0.0000
              Bcc     0.7489   376.105   134.204   125.455  0.6140 -0.3545  0.7052
 

 ---------------------------------------------------------------------------------

 Unable to Open any file for archive entry.
 1\1\GINC-TCOPT10\FOpt\UPBE1PBE\def2QZVPP\F3Te1(2)\HUTTER\01-Aug-2021\0
 \\#N UPBE1PBE/Def2QZVPP scf=tight Int(Grid=ultrafine) OPT FREQ\\Mol jo
 b 1\\0,2\Te,8.0033002111,8.5,8.6524954219\F,7.043705551,10.1620667061,
 8.3657182833\F,7.043705551,6.8379332939,8.3657182833\F,9.9224895314,8.
 5,8.3657182833\\Version=ES64L-G16RevC.01\State=2-A1\HF=-567.4214663\S2
 =0.753038\S2-1=0.\S2A=0.750007\RMSD=1.303e-09\RMSF=1.568e-04\Dipole=0.
 ,0.,0.4253816\Quadrupole=-1.7082511,-1.7082511,3.4165022,0.,0.,0.\PG=C
 03V [C3(Te1),3SGV(F1)]\\@
 The archive entry for this job was punched.


 The hours that make us happy make us wise.
                         -- John Masefield
 Job cpu time:       0 days  0 hours 28 minutes 18.2 seconds.
 Elapsed time:       0 days  0 hours  4 minutes 23.4 seconds.
 File lengths (MBytes):  RWF=     59 Int=      0 D2E=      0 Chk=      7 Scr=      1
 Normal termination of Gaussian 16 at Sun Aug  1 17:27:08 2021.
 Link1:  Proceeding to internal job step number  2.
 ----------------------------------------------------------------------
 #N Geom=AllCheck Guess=TCheck SCRF=Check GenChk UPBE1PBE/def2QZVPP Fre
 q
 ----------------------------------------------------------------------
 1/10=4,29=7,30=1,38=1,40=1/1,3;
 2/12=2,40=1/2;
 3/5=45,7=202,11=2,14=-4,25=1,30=1,70=2,71=2,74=-13,75=-5,116=2,140=1/1,2,3;
 4/5=101/1;
 5/5=2,32=2,38=6,98=1/2;
 8/6=4,10=90,11=11/1;
 11/6=1,8=1,9=11,15=111,16=1/1,2,10;
 10/6=1/2;
 6/7=2,8=2,9=2,10=2,28=1/1;
 7/8=1,10=1,25=1/1,2,3,16;
 1/10=4,30=1/3;
 99//99;
 Structure from the checkpoint file:  "/data/hutter/SMG16/PBE0/Gau-67600.chk"
 ---------
 Mol job 1
 ---------
 Charge =  0 Multiplicity = 2
 Redundant internal coordinates found in file.  (old form).
 Te,0,8.0033002111,8.5,8.6524954219
 F,0,7.043705551,10.1620667061,8.3657182833
 F,0,7.043705551,6.8379332939,8.3657182833
 F,0,9.9224895314,8.5,8.3657182833
 Recover connectivity data from disk.

 GradGradGradGradGradGradGradGradGradGradGradGradGradGradGradGradGradGrad
 Berny optimization.
 Initialization pass.
                           ----------------------------
                           !    Initial Parameters    !
                           ! (Angstroms and Degrees)  !
 --------------------------                            --------------------------
 ! Name  Definition              Value          Derivative Info.                !
 --------------------------------------------------------------------------------
 ! R1    R(1,2)                  1.9405         calculate D2E/DX2 analytically  !
 ! R2    R(1,3)                  1.9405         calculate D2E/DX2 analytically  !
 ! R3    R(1,4)                  1.9405         calculate D2E/DX2 analytically  !
 ! A1    A(2,1,3)              117.8552         calculate D2E/DX2 analytically  !
 ! A2    A(2,1,4)              117.8552         calculate D2E/DX2 analytically  !
 ! A3    A(3,1,4)              117.8552         calculate D2E/DX2 analytically  !
 ! D1    D(2,1,4,3)           -151.2844         calculate D2E/DX2 analytically  !
 --------------------------------------------------------------------------------
 Trust Radius=3.00D-01 FncErr=1.00D-07 GrdErr=1.00D-07 EigMax=2.50D+02 EigMin=1.00D-04
 Number of steps in this run=      2 maximum allowed number of steps=      2.
 GradGradGradGradGradGradGradGradGradGradGradGradGradGradGradGradGradGrad

                          Input orientation:                          
 ---------------------------------------------------------------------
 Center     Atomic      Atomic             Coordinates (Angstroms)
 Number     Number       Type             X           Y           Z
 ---------------------------------------------------------------------
      1         52           0        8.003300    8.500000    8.652495
      2          9           0        7.043706   10.162067    8.365718
      3          9           0        7.043706    6.837933    8.365718
      4          9           0        9.922490    8.500000    8.365718
 ---------------------------------------------------------------------
                    Distance matrix (angstroms):
                    1          2          3          4
     1  Te   0.000000
     2  F    1.940497   0.000000
     3  F    1.940497   3.324133   0.000000
     4  F    1.940497   3.324133   3.324133   0.000000
 Stoichiometry    F3Te(2)
 Framework group  C3V[C3(Te),3SGV(F)]
 Deg. of freedom     2
 Full point group                 C3V     NOp   6
 Largest Abelian subgroup         CS      NOp   2
 Largest concise Abelian subgroup CS      NOp   2
                         Standard orientation:                         
 ---------------------------------------------------------------------
 Center     Atomic      Atomic             Coordinates (Angstroms)
 Number     Number       Type             X           Y           Z
 ---------------------------------------------------------------------
      1         52           0        0.000000    0.000000    0.098012
      2          9           0       -0.000000    1.919189   -0.188765
      3          9           0       -1.662067   -0.959595   -0.188765
      4          9           0        1.662067   -0.959595   -0.188765
 ---------------------------------------------------------------------
 Rotational constants (GHZ):           4.6698003           4.6698003           2.4073720
 Standard basis: def2QZVPP (5D, 7F)
 There are   188 symmetry adapted cartesian basis functions of A'  symmetry.
 There are   132 symmetry adapted cartesian basis functions of A"  symmetry.
 There are   146 symmetry adapted basis functions of A'  symmetry.
 There are   107 symmetry adapted basis functions of A"  symmetry.
   253 basis functions,   456 primitive gaussians,   320 cartesian basis functions
    26 alpha electrons       25 beta electrons
       nuclear repulsion energy       215.3946096345 Hartrees.
 NAtoms=    4 NActive=    4 NUniq=    2 SFac= 4.00D+00 NAtFMM=   60 NAOKFM=F Big=F
 Integral buffers will be    131072 words long.
 Raffenetti 2 integral format.
 Two-electron integral symmetry is turned on.
 One-electron integrals computed using PRISM.
   6 Symmetry operations used in ECPInt.
 ECPInt:  NShTT=    2701 NPrTT=    9253 LenC2=    2540 LenP2D=    7006.
 LDataN:  DoStor=T MaxTD1= 8 Len=  415
 NBasis=   253 RedAO= T EigKep=  6.33D-04  NBF=   146   107
 NBsUse=   253 1.00D-06 EigRej= -1.00D+00 NBFU=   146   107
 Defaulting to unpruned grid for atomic number  52.
 Initial guess from the checkpoint file:  "/data/hutter/SMG16/PBE0/Gau-67600.chk"
 B after Tr=     0.000000    0.000000    0.000000
         Rot=    1.000000    0.000000    0.000000    0.000000 Ang=   0.00 deg.
 Initial guess orbital symmetries:
 Alpha Orbitals:
       Occupied  (A1) (E) (E) (A1) (E) (E) (A1) (E) (E) (E) (E)
                 (A1) (A1) (E) (E) (A1) (E) (E) (A1) (E) (E) (E)
                 (E) (A2) (A1) (A1)
       Virtual   (E) (E) (A1) (A1) (E) (E) (A1) (E) (E) (E) (E)
                 (A1) (E) (E) (A2) (E) (E) (A1) (E) (E) (A1) (E)
                 (E) (A1) (E) (E) (A2) (A1) (E) (E) (A1) (E) (E)
                 (E) (E) (A1) (A1) (E) (E) (A1) (A1) (E) (E) (A2)
                 (E) (E) (A2) (E) (E) (A1) (E) (E) (E) (E) (A1)
                 (E) (E) (A1) (A2) (E) (E) (E) (E) (A1) (E) (E)
                 (A1) (A2) (E) (E) (E) (E) (A1) (E) (E) (E) (E)
                 (A1) (E) (E) (A2) (A1) (E) (E) (A1) (A1) (E) (E)
                 (A2) (A1) (E) (E) (A1) (E) (E) (A1) (E) (E) (E)
                 (E) (A2) (E) (E) (A1) (E) (E) (E) (E) (A1) (A2)
                 (E) (E) (E) (E) (A1) (A2) (A1) (E) (E) (A2) (E)
                 (E) (E) (E) (A1) (E) (E) (A1) (E) (E) (A2) (E)
                 (E) (A1) (E) (E) (A1) (E) (E) (A2) (A1) (E) (E)
                 (A1) (E) (E) (A2) (E) (E) (A1) (E) (E) (E) (E)
                 (A1) (A2) (E) (E) (E) (E) (A1) (A2) (E) (E) (E)
                 (E) (A1) (A2) (E) (E) (E) (E) (A1) (A2) (E) (E)
                 (A1) (A1) (E) (E) (A2) (E) (E) (A1) (E) (E) (E)
                 (E) (A1) (A2) (E) (E) (E) (E) (A2) (A1) (A1) (E)
                 (E) (E) (E) (A1) (A2) (E) (E) (E) (E) (A1) (E)
                 (E) (A1) (E) (E) (A2) (E) (E) (A1) (A1) (E) (E)
                 (A1) (E) (E) (A1) (A1) (E) (E)
 Beta  Orbitals:
       Occupied  (E) (E) (A1) (A1) (E) (E) (A1) (E) (E) (E) (E)
                 (A1) (A1) (E) (E) (A1) (E) (E) (A1) (E) (E) (A2)
                 (E) (E) (A1)
       Virtual   (A1) (E) (E) (A1) (A1) (E) (E) (A1) (E) (E) (E)
                 (E) (A1) (E) (E) (A2) (E) (E) (A1) (E) (E) (A1)
                 (E) (E) (A1) (E) (E) (A2) (A1) (E) (E) (E) (E)
                 (A1) (E) (E) (A1) (A1) (E) (E) (A1) (E) (E) (A1)
                 (A2) (E) (E) (A2) (E) (E) (A1) (E) (E) (E) (E)
                 (A1) (E) (E) (A2) (A1) (E) (E) (E) (E) (A1) (E)
                 (E) (A1) (A2) (E) (E) (E) (E) (A1) (E) (E) (E)
                 (E) (E) (E) (A1) (A2) (A1) (E) (E) (A1) (A1) (E)
                 (E) (A2) (A1) (E) (E) (A1) (E) (E) (A1) (E) (E)
                 (E) (E) (A2) (E) (E) (A1) (E) (E) (E) (E) (A1)
                 (A2) (E) (E) (E) (E) (A2) (A1) (A1) (E) (E) (A2)
                 (E) (E) (E) (E) (A1) (E) (E) (A1) (E) (E) (A2)
                 (E) (E) (A1) (E) (E) (A1) (E) (E) (A2) (A1) (E)
                 (E) (A1) (E) (E) (A2) (E) (E) (A1) (E) (E) (E)
                 (E) (A1) (A2) (E) (E) (E) (E) (A1) (A2) (E) (E)
                 (A2) (E) (E) (A1) (E) (E) (E) (E) (A1) (A2) (E)
                 (E) (A1) (A1) (E) (E) (A2) (E) (E) (A1) (E) (E)
                 (E) (E) (A1) (A2) (E) (E) (E) (E) (A2) (A1) (A1)
                 (E) (E) (E) (E) (A1) (A2) (E) (E) (E) (E) (A1)
                 (E) (E) (A1) (E) (E) (A2) (E) (E) (A1) (A1) (E)
                 (E) (A1) (E) (E) (A1) (A1) (E) (E)
 Initial guess <Sx>= 0.0000 <Sy>= 0.0000 <Sz>= 0.5000 <S**2>= 0.7530 S= 0.5015
 Keep R1 and R2 ints in memory in symmetry-blocked form, NReq=775008467.
 Requested convergence on RMS density matrix=1.00D-08 within 128 cycles.
 Requested convergence on MAX density matrix=1.00D-06.
 Requested convergence on             energy=1.00D-06.
 No special actions if energy rises.
 An orbital has undefined symmetry, so N**3 symmetry is turned off.
 Defaulting to unpruned grid for atomic number  52.
 Defaulting to unpruned grid for atomic number  52.
 Defaulting to unpruned grid for atomic number  52.
 Defaulting to unpruned grid for atomic number  52.
 Defaulting to unpruned grid for atomic number  52.
 Defaulting to unpruned grid for atomic number  52.
 Defaulting to unpruned grid for atomic number  52.
 Defaulting to unpruned grid for atomic number  52.
 SCF Done:  E(UPBE1PBE) =  -567.421466346     A.U. after    1 cycles
            NFock=  1  Conv=0.47D-09     -V/T= 2.4138
 <Sx>= 0.0000 <Sy>= 0.0000 <Sz>= 0.5000 <S**2>= 0.7530 S= 0.5015
 <L.S>=  0.00000000000    
 Annihilation of the first spin contaminant:
 S**2 before annihilation     0.7530,   after     0.7500
 DoSCS=F DFT=T ScalE2(SS,OS)=  1.000000  1.000000
 Range of M.O.s used for correlation:     1   253
 NBasis=   253 NAE=    26 NBE=    25 NFC=     0 NFV=     0
 NROrb=    253 NOA=    26 NOB=    25 NVA=   227 NVB=   228

 **** Warning!!: The largest alpha MO coefficient is  0.16764131D+02


 **** Warning!!: The largest beta MO coefficient is  0.16636706D+02

   6 Symmetry operations used in ECPInt.
 ECPInt:  NShTT=    2701 NPrTT=    9253 LenC2=    2540 LenP2D=    7006.
 LDataN:  DoStor=T MaxTD1= 9 Len=  602
 Symmetrizing basis deriv contribution to polar:
 IMax=3 JMax=2 DiffMx= 0.00D+00
 G2DrvN: will do     5 centers at a time, making    1 passes.
 Calling FoFCou, ICntrl=  3107 FMM=F I1Cent=   0 AccDes= 0.00D+00.
 Defaulting to unpruned grid for atomic number  52.
 Defaulting to unpruned grid for atomic number  52.
 Defaulting to unpruned grid for atomic number  52.
 Defaulting to unpruned grid for atomic number  52.
 Defaulting to unpruned grid for atomic number  52.
 Defaulting to unpruned grid for atomic number  52.
 Defaulting to unpruned grid for atomic number  52.
 Defaulting to unpruned grid for atomic number  52.
 End of G2Drv F.D. properties file   721 does not exist.
 End of G2Drv F.D. properties file   722 does not exist.
 End of G2Drv F.D. properties file   788 does not exist.
          IDoAtm=1111
          Differentiating once with respect to electric field.
                with respect to dipole field.
          Differentiating once with respect to nuclear coordinates.
 Defaulting to unpruned grid for atomic number  52.
 Keep R1 and R2 ints in memory in symmetry-blocked form, NReq=775011232.
 Defaulting to unpruned grid for atomic number  52.
 Defaulting to unpruned grid for atomic number  52.
 Defaulting to unpruned grid for atomic number  52.
 Defaulting to unpruned grid for atomic number  52.
 Defaulting to unpruned grid for atomic number  52.
 Defaulting to unpruned grid for atomic number  52.
 Defaulting to unpruned grid for atomic number  52.
 Defaulting to unpruned grid for atomic number  52.
          There are     9 degrees of freedom in the 1st order CPHF.  IDoFFX=4 NUNeed=     9.
      9 vectors produced by pass  0 Test12= 1.29D-13 1.11D-08 XBig12= 8.73D+01 4.55D+00.
 AX will form     9 AO Fock derivatives at one time.
      9 vectors produced by pass  1 Test12= 1.29D-13 1.11D-08 XBig12= 2.82D+01 1.17D+00.
      9 vectors produced by pass  2 Test12= 1.29D-13 1.11D-08 XBig12= 5.16D-01 2.17D-01.
      9 vectors produced by pass  3 Test12= 1.29D-13 1.11D-08 XBig12= 4.61D-02 6.00D-02.
      9 vectors produced by pass  4 Test12= 1.29D-13 1.11D-08 XBig12= 1.69D-03 1.27D-02.
      9 vectors produced by pass  5 Test12= 1.29D-13 1.11D-08 XBig12= 3.96D-05 1.55D-03.
      9 vectors produced by pass  6 Test12= 1.29D-13 1.11D-08 XBig12= 1.10D-06 2.28D-04.
      9 vectors produced by pass  7 Test12= 1.29D-13 1.11D-08 XBig12= 4.37D-08 4.87D-05.
      8 vectors produced by pass  8 Test12= 1.29D-13 1.11D-08 XBig12= 2.16D-09 1.25D-05.
      5 vectors produced by pass  9 Test12= 1.29D-13 1.11D-08 XBig12= 4.64D-11 1.40D-06.
      2 vectors produced by pass 10 Test12= 1.29D-13 1.11D-08 XBig12= 6.42D-13 1.80D-07.
      1 vectors produced by pass 11 Test12= 1.29D-13 1.11D-08 XBig12= 7.02D-15 2.76D-08.
 InvSVY:  IOpt=1 It=  1 EMax= 4.44D-15
 Solved reduced A of dimension    88 with     9 vectors.
 Isotropic polarizability for W=    0.000000       38.88 Bohr**3.
 End of Minotr F.D. properties file   721 does not exist.
 End of Minotr F.D. properties file   722 does not exist.
 End of Minotr F.D. properties file   788 does not exist.

 **********************************************************************

            Population analysis using the SCF Density.

 **********************************************************************

 Orbital symmetries:
 Alpha Orbitals:
       Occupied  (A1) (E) (E) (A1) (E) (E) (A1) (E) (E) (E) (E)
                 (A1) (A1) (E) (E) (A1) (E) (E) (A1) (E) (E) (E)
                 (E) (A2) (A1) (A1)
       Virtual   (E) (E) (A1) (A1) (E) (E) (A1) (E) (E) (E) (E)
                 (A1) (E) (E) (A2) (E) (E) (A1) (E) (E) (A1) (E)
                 (E) (A1) (E) (E) (A2) (A1) (E) (E) (A1) (E) (E)
                 (E) (E) (A1) (A1) (E) (E) (A1) (A1) (E) (E) (A2)
                 (E) (E) (A2) (E) (E) (A1) (E) (E) (E) (E) (A1)
                 (E) (E) (A1) (A2) (E) (E) (E) (E) (A1) (E) (E)
                 (A1) (A2) (E) (E) (E) (E) (A1) (E) (E) (E) (E)
                 (A1) (E) (E) (A2) (A1) (E) (E) (A1) (A1) (E) (E)
                 (A2) (A1) (E) (E) (A1) (E) (E) (A1) (E) (E) (E)
                 (E) (A2) (E) (E) (A1) (E) (E) (E) (E) (A1) (A2)
                 (E) (E) (E) (E) (A1) (A2) (A1) (E) (E) (A2) (E)
                 (E) (E) (E) (A1) (E) (E) (A1) (E) (E) (A2) (E)
                 (E) (A1) (E) (E) (A1) (E) (E) (A2) (A1) (E) (E)
                 (A1) (E) (E) (A2) (E) (E) (A1) (E) (E) (E) (E)
                 (A1) (A2) (E) (E) (E) (E) (A1) (A2) (E) (E) (E)
                 (E) (A1) (A2) (E) (E) (E) (E) (A1) (A2) (E) (E)
                 (A1) (A1) (E) (E) (A2) (E) (E) (A1) (E) (E) (E)
                 (E) (A1) (A2) (E) (E) (E) (E) (A2) (A1) (A1) (E)
                 (E) (E) (E) (A1) (A2) (E) (E) (E) (E) (A1) (E)
                 (E) (A1) (E) (E) (A2) (E) (E) (A1) (A1) (E) (E)
                 (A1) (E) (E) (A1) (A1) (E) (E)
 Beta  Orbitals:
       Occupied  (E) (E) (A1) (A1) (E) (E) (A1) (E) (E) (E) (E)
                 (A1) (A1) (E) (E) (A1) (E) (E) (A1) (E) (E) (A2)
                 (E) (E) (A1)
       Virtual   (A1) (E) (E) (A1) (A1) (E) (E) (A1) (E) (E) (E)
                 (E) (A1) (E) (E) (A2) (E) (E) (A1) (E) (E) (A1)
                 (E) (E) (A1) (E) (E) (A2) (A1) (E) (E) (E) (E)
                 (A1) (E) (E) (A1) (A1) (E) (E) (A1) (E) (E) (A1)
                 (A2) (E) (E) (A2) (E) (E) (A1) (E) (E) (E) (E)
                 (A1) (E) (E) (A2) (A1) (E) (E) (E) (E) (A1) (E)
                 (E) (A1) (A2) (E) (E) (E) (E) (A1) (E) (E) (E)
                 (E) (E) (E) (A1) (A2) (A1) (E) (E) (A1) (A1) (E)
                 (E) (A2) (A1) (E) (E) (A1) (E) (E) (A1) (E) (E)
                 (E) (E) (A2) (E) (E) (A1) (E) (E) (E) (E) (A1)
                 (A2) (E) (E) (E) (E) (A2) (A1) (A1) (E) (E) (A2)
                 (E) (E) (E) (E) (A1) (E) (E) (A1) (E) (E) (A2)
                 (E) (E) (A1) (E) (E) (A1) (E) (E) (A2) (A1) (E)
                 (E) (A1) (E) (E) (A2) (E) (E) (A1) (E) (E) (E)
                 (E) (A1) (A2) (E) (E) (E) (E) (A1) (A2) (E) (E)
                 (A2) (E) (E) (A1) (E) (E) (E) (E) (A1) (A2) (E)
                 (E) (A1) (A1) (E) (E) (A2) (E) (E) (A1) (E) (E)
                 (E) (E) (A1) (A2) (E) (E) (E) (E) (A2) (A1) (A1)
                 (E) (E) (E) (E) (A1) (A2) (E) (E) (E) (E) (A1)
                 (E) (E) (A1) (E) (E) (A2) (E) (E) (A1) (A1) (E)
                 (E) (A1) (E) (E) (A1) (A1) (E) (E)
 The electronic state is 2-A1.
 Alpha  occ. eigenvalues --  -24.77549 -24.77549 -24.77549  -6.45124  -4.57431
 Alpha  occ. eigenvalues --   -4.57431  -4.56664  -1.75511  -1.75511  -1.74608
 Alpha  occ. eigenvalues --   -1.74608  -1.74531  -1.22212  -1.20805  -1.20805
 Alpha  occ. eigenvalues --   -0.72316  -0.53123  -0.53123  -0.48954  -0.45755
 Alpha  occ. eigenvalues --   -0.45755  -0.45547  -0.45547  -0.44640  -0.36862
 Alpha  occ. eigenvalues --   -0.28383
 Alpha virt. eigenvalues --   -0.07961  -0.07961   0.05059   0.09066   0.12020
 Alpha virt. eigenvalues --    0.12020   0.14344   0.15402   0.15402   0.22940
 Alpha virt. eigenvalues --    0.22940   0.32059   0.36842   0.36842   0.39407
 Alpha virt. eigenvalues --    0.39831   0.39831   0.42602   0.46482   0.46482
 Alpha virt. eigenvalues --    0.54027   0.54366   0.54366   0.57287   0.59429
 Alpha virt. eigenvalues --    0.59429   0.61774   0.62751   0.62850   0.62850
 Alpha virt. eigenvalues --    0.64536   0.65596   0.65596   0.75103   0.75103
 Alpha virt. eigenvalues --    0.86329   1.06918   1.08370   1.08370   1.11193
 Alpha virt. eigenvalues --    1.13132   1.13720   1.13720   1.17058   1.18071
 Alpha virt. eigenvalues --    1.18071   1.28571   1.31012   1.31012   1.41022
 Alpha virt. eigenvalues --    1.47442   1.47442   1.49014   1.49014   1.60557
 Alpha virt. eigenvalues --    1.61513   1.61513   1.68492   1.69049   1.69942
 Alpha virt. eigenvalues --    1.69942   1.70118   1.70118   1.73008   1.73787
 Alpha virt. eigenvalues --    1.73787   1.76025   1.77782   1.79121   1.79121
 Alpha virt. eigenvalues --    1.87460   1.87460   2.08734   2.13067   2.13067
 Alpha virt. eigenvalues --    2.23438   2.23438   2.28543   2.28849   2.28849
 Alpha virt. eigenvalues --    2.29759   2.31703   2.40608   2.40608   2.65836
 Alpha virt. eigenvalues --    2.79431   2.90723   2.90723   2.94140   2.94764
 Alpha virt. eigenvalues --    2.95487   2.95487   3.48699   3.59012   3.59012
 Alpha virt. eigenvalues --    4.01870   4.06538   4.06538   4.14077   4.14077
 Alpha virt. eigenvalues --    4.14281   4.15062   4.15062   4.15387   4.17980
 Alpha virt. eigenvalues --    4.17980   4.22042   4.22042   4.22296   4.27972
 Alpha virt. eigenvalues --    4.37328   4.37328   4.40476   4.40476   4.47211
 Alpha virt. eigenvalues --    4.47500   4.80469   4.80787   4.80787   5.00562
 Alpha virt. eigenvalues --    5.00901   5.00901   5.03740   5.03740   5.07767
 Alpha virt. eigenvalues --    5.36006   5.36006   5.39587   5.39926   5.39926
 Alpha virt. eigenvalues --    5.48119   5.70912   5.70912   5.71228   6.26737
 Alpha virt. eigenvalues --    6.26737   6.26825   6.28502   6.28502   6.37828
 Alpha virt. eigenvalues --    7.04993   7.06192   7.06192  10.31890  10.32981
 Alpha virt. eigenvalues --   10.32981  10.36867  10.43832  10.43832  10.68621
 Alpha virt. eigenvalues --   11.37930  11.37930  11.38416  11.38416  11.38522
 Alpha virt. eigenvalues --   11.38761  11.38896  11.38896  11.39053  11.39053
 Alpha virt. eigenvalues --   11.39211  11.40206  11.40349  11.40349  11.40365
 Alpha virt. eigenvalues --   11.40365  11.40365  11.40417  11.40796  11.40796
 Alpha virt. eigenvalues --   11.41845  11.41845  11.42868  11.46084  11.47453
 Alpha virt. eigenvalues --   11.47453  11.52520  14.16691  14.55386  14.55386
 Alpha virt. eigenvalues --   14.55481  14.55835  14.55835  14.55946  14.57346
 Alpha virt. eigenvalues --   14.57346  14.58907  14.58907  14.59836  14.61314
 Alpha virt. eigenvalues --   14.69120  14.69120  14.70396  14.70396  14.73338
 Alpha virt. eigenvalues --   14.73561  14.78920  14.82488  14.82488  15.13043
 Alpha virt. eigenvalues --   15.13043  15.27793  15.77744  15.78881  15.78881
 Alpha virt. eigenvalues --   15.80092  15.80092  15.83013  16.01601  16.01601
 Alpha virt. eigenvalues --   16.03114  16.05003  16.05003  16.14458  16.38843
 Alpha virt. eigenvalues --   16.38843  16.44889  40.73552  40.79229  40.79229
 Alpha virt. eigenvalues --   54.00555  54.04603  54.04603  73.85431 284.97862
 Alpha virt. eigenvalues --  285.03050 285.03050
  Beta  occ. eigenvalues --  -24.77208 -24.77208 -24.77208  -6.44803  -4.57334
  Beta  occ. eigenvalues --   -4.57334  -4.55911  -1.75439  -1.75439  -1.74062
  Beta  occ. eigenvalues --   -1.74062  -1.73748  -1.21365  -1.20026  -1.20026
  Beta  occ. eigenvalues --   -0.69839  -0.52372  -0.52372  -0.46763  -0.45317
  Beta  occ. eigenvalues --   -0.45317  -0.44400  -0.44026  -0.44026  -0.35422
  Beta virt. eigenvalues --   -0.15769  -0.06882  -0.06882   0.05995   0.10555
  Beta virt. eigenvalues --    0.12370   0.12370   0.16504   0.17317   0.17317
  Beta virt. eigenvalues --    0.23186   0.23186   0.32266   0.37603   0.37603
  Beta virt. eigenvalues --    0.39433   0.40266   0.40266   0.43610   0.46815
  Beta virt. eigenvalues --    0.46815   0.56232   0.56475   0.56475   0.60287
  Beta virt. eigenvalues --    0.60600   0.60600   0.61873   0.63818   0.64167
  Beta virt. eigenvalues --    0.64167   0.66408   0.66408   0.67267   0.75531
  Beta virt. eigenvalues --    0.75531   0.87652   1.07468   1.09653   1.09653
  Beta virt. eigenvalues --    1.11921   1.14550   1.14550   1.14839   1.17305
  Beta virt. eigenvalues --    1.18583   1.18583   1.28631   1.31721   1.31721
  Beta virt. eigenvalues --    1.41906   1.49065   1.49065   1.50014   1.50014
  Beta virt. eigenvalues --    1.60963   1.61955   1.61955   1.69165   1.69227
  Beta virt. eigenvalues --    1.70151   1.70151   1.70767   1.70767   1.73912
  Beta virt. eigenvalues --    1.74219   1.74219   1.78336   1.78386   1.80745
  Beta virt. eigenvalues --    1.80745   1.88900   1.88900   2.11032   2.14007
  Beta virt. eigenvalues --    2.14007   2.25022   2.25022   2.29144   2.29144
  Beta virt. eigenvalues --    2.29854   2.30384   2.32999   2.40917   2.40917
  Beta virt. eigenvalues --    2.66404   2.81938   2.92141   2.92141   2.94181
  Beta virt. eigenvalues --    2.96250   2.96285   2.96285   3.49071   3.59477
  Beta virt. eigenvalues --    3.59477   4.02294   4.06915   4.06915   4.14303
  Beta virt. eigenvalues --    4.14303   4.14499   4.15185   4.15185   4.15660
  Beta virt. eigenvalues --    4.18225   4.18225   4.22356   4.22356   4.22460
  Beta virt. eigenvalues --    4.28158   4.37772   4.37772   4.40894   4.40894
  Beta virt. eigenvalues --    4.47828   4.47830   4.81077   4.81181   4.81181
  Beta virt. eigenvalues --    5.01104   5.01467   5.01467   5.04363   5.04363
  Beta virt. eigenvalues --    5.08348   5.36532   5.36532   5.40354   5.40601
  Beta virt. eigenvalues --    5.40601   5.48486   5.71396   5.71396   5.71863
  Beta virt. eigenvalues --    6.27592   6.27592   6.27712   6.28713   6.28713
  Beta virt. eigenvalues --    6.38050   7.05486   7.06745   7.06745  10.32555
  Beta virt. eigenvalues --   10.33420  10.33420  10.36892  10.44404  10.44404
  Beta virt. eigenvalues --   10.68760  11.38253  11.38253  11.38695  11.38695
  Beta virt. eigenvalues --   11.39112  11.39217  11.39368  11.39368  11.39464
  Beta virt. eigenvalues --   11.39464  11.39499  11.40591  11.40765  11.40765
  Beta virt. eigenvalues --   11.40765  11.40771  11.40771  11.40781  11.41294
  Beta virt. eigenvalues --   11.41294  11.42435  11.42435  11.43358  11.46377
  Beta virt. eigenvalues --   11.47740  11.47740  11.52923  14.17282  14.56088
  Beta virt. eigenvalues --   14.56088  14.56199  14.56355  14.56355  14.56726
  Beta virt. eigenvalues --   14.57996  14.57996  14.59710  14.59710  14.60304
  Beta virt. eigenvalues --   14.61755  14.69960  14.69960  14.71158  14.71158
  Beta virt. eigenvalues --   14.73984  14.74543  14.79673  14.83025  14.83025
  Beta virt. eigenvalues --   15.13692  15.13692  15.28458  15.78570  15.79645
  Beta virt. eigenvalues --   15.79645  15.80853  15.80853  15.83959  16.02232
  Beta virt. eigenvalues --   16.02232  16.04149  16.05979  16.05979  16.14894
  Beta virt. eigenvalues --   16.39608  16.39608  16.45599  40.74174  40.79297
  Beta virt. eigenvalues --   40.79297  54.00974  54.05020  54.05020  73.85635
  Beta virt. eigenvalues --  284.98024 285.03212 285.03212
          Condensed to atoms (all electrons):
               1          2          3          4
     1  Te  22.357538   0.122358   0.122358   0.122358
     2  F    0.122358   9.296499   0.003137   0.003137
     3  F    0.122358   0.003137   9.296499   0.003137
     4  F    0.122358   0.003137   0.003137   9.296499
          Atomic-Atomic Spin Densities.
               1          2          3          4
     1  Te   0.981505  -0.055023  -0.055023  -0.055023
     2  F   -0.055023   0.113374   0.001418   0.001418
     3  F   -0.055023   0.001418   0.113374   0.001418
     4  F   -0.055023   0.001418   0.001418   0.113374
 Mulliken charges and spin densities:
               1          2
     1  Te   1.275389   0.816437
     2  F   -0.425130   0.061188
     3  F   -0.425130   0.061188
     4  F   -0.425130   0.061188
 Sum of Mulliken charges =  -0.00000   1.00000
 Mulliken charges and spin densities with hydrogens summed into heavy atoms:
               1          2
     1  Te   1.275389   0.816437
     2  F   -0.425130   0.061188
     3  F   -0.425130   0.061188
     4  F   -0.425130   0.061188
 APT charges:
               1
     1  Te   1.905359
     2  F   -0.635141
     3  F   -0.635125
     4  F   -0.635125
 Sum of APT charges =  -0.00003
 APT charges with hydrogens summed into heavy atoms:
               1
     1  Te   1.905359
     2  F   -0.635141
     3  F   -0.635125
     4  F   -0.635125
 Electronic spatial extent (au):  <R**2>=            455.9200
 Charge=             -0.0000 electrons
 Dipole moment (field-independent basis, Debye):
    X=              0.0000    Y=             -0.0000    Z=              1.0812  Tot=              1.0812
 Quadrupole moment (field-independent basis, Debye-Ang):
   XX=            -45.5733   YY=            -45.5733   ZZ=            -38.6803
   XY=              0.0000   XZ=              0.0000   YZ=              0.0000
 Traceless Quadrupole moment (field-independent basis, Debye-Ang):
   XX=             -2.2977   YY=             -2.2977   ZZ=              4.5953
   XY=              0.0000   XZ=              0.0000   YZ=              0.0000
 Octapole moment (field-independent basis, Debye-Ang**2):
  XXX=             -0.0000  YYY=             -8.9711  ZZZ=              1.4465  XYY=             -0.0000
  XXY=              8.9711  XXZ=              2.5332  XZZ=             -0.0000  YZZ=              0.0000
  YYZ=              2.5332  XYZ=             -0.0000
 Hexadecapole moment (field-independent basis, Debye-Ang**3):
 XXXX=           -228.9417 YYYY=           -228.9417 ZZZZ=            -46.1365 XXXY=             -0.0000
 XXXZ=             -0.0000 YYYX=              0.0000 YYYZ=              1.2395 ZZZX=              0.0000
 ZZZY=             -0.0000 XXYY=            -76.3139 XXZZ=            -42.1793 YYZZ=            -42.1793
 XXYZ=             -1.2395 YYXZ=             -0.0000 ZZXY=              0.0000
 N-N= 2.153946096345D+02 E-N=-1.715428151664D+03  KE= 4.013483096622D+02
 Symmetry A'   KE= 2.607503798838D+02
 Symmetry A"   KE= 1.405979297784D+02
 Symmetry A'   SP= 1.000000000000D+00
 Symmetry A"   SP=-1.326031624762D-14
  Exact polarizability:      43.019       0.000      43.018       0.000      -0.000      30.597
 Approx polarizability:      68.845       0.000      68.845       0.000      -0.000      40.159
                          Isotropic Fermi Contact Couplings
        Atom                 a.u.       MegaHertz       Gauss      10(-4) cm-1
     1  Te(125             0.00089      -1.26813      -0.45250      -0.42300
     2  F(19)              0.03663     154.10673      54.98911      51.40447
     3  F(19)              0.03663     154.10673      54.98911      51.40447
     4  F(19)              0.03663     154.10673      54.98911      51.40447
 --------------------------------------------------------
       Center         ----  Spin Dipole Couplings  ----
                      3XX-RR        3YY-RR        3ZZ-RR
 --------------------------------------------------------
     1   Atom       -0.128978     -0.128978      0.257956
     2   Atom       -0.356755      0.181437      0.175318
     3   Atom        0.046889     -0.222207      0.175318
     4   Atom        0.046889     -0.222207      0.175318
 --------------------------------------------------------
                        XY            XZ            YZ
 --------------------------------------------------------
     1   Atom        0.000000      0.000000     -0.000000
     2   Atom        0.000000     -0.000000      0.570491
     3   Atom        0.233044     -0.494060     -0.285246
     4   Atom       -0.233044      0.494060     -0.285246
 --------------------------------------------------------


 ---------------------------------------------------------------------------------
              Anisotropic Spin Dipole Couplings in Principal Axis System
 ---------------------------------------------------------------------------------

       Atom             a.u.   MegaHertz   Gauss  10(-4) cm-1        Axes

              Baa    -0.1290    21.887     7.810     7.301  0.8596 -0.5110 -0.0000
     1 Te(125 Bbb    -0.1290    21.887     7.810     7.301  0.5110  0.8596  0.0000
              Bcc     0.2580   -43.775   -15.620   -14.602  0.0000 -0.0000  1.0000
 
              Baa    -0.3921  -196.934   -70.271   -65.690  0.0000 -0.7052  0.7090
     2 F(19)  Bbb    -0.3568  -179.172   -63.933   -59.765  1.0000  0.0000 -0.0000
              Bcc     0.7489   376.105   134.204   125.455  0.0000  0.7090  0.7052
 
              Baa    -0.3921  -196.934   -70.271   -65.690  0.6107  0.3526  0.7090
     3 F(19)  Bbb    -0.3568  -179.172   -63.933   -59.765 -0.5000  0.8660 -0.0000
              Bcc     0.7489   376.105   134.204   125.455 -0.6140 -0.3545  0.7052
 
              Baa    -0.3921  -196.934   -70.271   -65.690 -0.6107  0.3526  0.7090
     4 F(19)  Bbb    -0.3568  -179.172   -63.933   -59.765  0.5000  0.8660 -0.0000
              Bcc     0.7489   376.105   134.204   125.455  0.6140 -0.3545  0.7052
 

 ---------------------------------------------------------------------------------

   6 Symmetry operations used in ECPInt.
 ECPInt:  NShTT=    2701 NPrTT=    9253 LenC2=    2540 LenP2D=    7006.
 LDataN:  DoStor=T MaxTD1=10 Len=  848
 Calling FoFJK, ICntrl=    100127 FMM=F ISym2X=1 I1Cent= 0 IOpClX= 1 NMat=1 NMatS=1 NMatT=0.
 Defaulting to unpruned grid for atomic number  52.
 Defaulting to unpruned grid for atomic number  52.
 Defaulting to unpruned grid for atomic number  52.
 Defaulting to unpruned grid for atomic number  52.
 Defaulting to unpruned grid for atomic number  52.
 Defaulting to unpruned grid for atomic number  52.
 Defaulting to unpruned grid for atomic number  52.
 Defaulting to unpruned grid for atomic number  52.
 Full mass-weighted force constant matrix:
 Low frequencies ---  -59.4559  -59.4522  -11.4991   -0.0171   -0.0014    0.0072
 Low frequencies ---    4.4110    4.4136  162.8645
 ******    2 imaginary frequencies (negative Signs) ****** 
 Diagonal vibrational polarizability:
       17.5905540      17.5909120      19.7712154
 Harmonic frequencies (cm**-1), IR intensities (KM/Mole), Raman scattering
 activities (A**4/AMU), depolarization ratios for plane and unpolarized
 incident light, reduced masses (AMU), force constants (mDyne/A),
 and normal coordinates:
                      1                      2                      3
                      E                      E                     A1
 Frequencies --    -59.4558               -59.4521               162.8645
 Red. masses --     20.5819                20.5819                25.2718
 Frc consts  --      0.0429                 0.0429                 0.3949
 IR Inten    --      0.0483                 0.0482                18.9832
  Atom  AN      X      Y      Z        X      Y      Z        X      Y      Z
     1  52    -0.12  -0.00   0.00     0.00  -0.12   0.00     0.00   0.00   0.24
     2   9     0.77  -0.00  -0.00    -0.00  -0.23  -0.08    -0.00  -0.14  -0.54
     3   9     0.02  -0.43   0.07    -0.43   0.52   0.04     0.12   0.07  -0.54
     4   9     0.02   0.43  -0.07     0.43   0.52   0.04    -0.12   0.07  -0.54
                      4                      5                      6
                      E                      E                     A1
 Frequencies --    555.6239               555.6250               576.2487
 Red. masses --     23.0445                23.0445                19.2314
 Frc consts  --      4.1916                 4.1916                 3.7625
 IR Inten    --    197.5891               197.5806                 6.3122
  Atom  AN      X      Y      Z        X      Y      Z        X      Y      Z
     1  52     0.00  -0.19  -0.00    -0.19  -0.00   0.00     0.00  -0.00   0.05
     2   9    -0.00   0.79  -0.13     0.08   0.00  -0.00    -0.00   0.57  -0.10
     3   9     0.30   0.26   0.07     0.61   0.30   0.11    -0.49  -0.28  -0.10
     4   9    -0.30   0.26   0.07     0.61  -0.30  -0.11     0.49  -0.28  -0.10

 -------------------
 - Thermochemistry -
 -------------------
 Temperature   298.150 Kelvin.  Pressure   1.00000 Atm.
 Atom     1 has atomic number 52 and mass 129.90670
 Atom     2 has atomic number  9 and mass  18.99840
 Atom     3 has atomic number  9 and mass  18.99840
 Atom     4 has atomic number  9 and mass  18.99840
 Molecular mass:   186.90191 amu.
 Principal axes and moments of inertia in atomic units:
                           1         2         3
     Eigenvalues --   386.47075 386.47075 749.67275
           X            0.92388   0.38268   0.00000
           Y           -0.38268   0.92388   0.00000
           Z           -0.00000   0.00000   1.00000
 This molecule is an oblate symmetric top.
 Rotational symmetry number  3.
 Rotational temperatures (Kelvin)      0.22412     0.22412     0.11554
 Rotational constants (GHZ):           4.66980     4.66980     2.40737
    2 imaginary frequencies ignored.
 Zero-point vibrational energy      11067.6 (Joules/Mol)
                                    2.64523 (Kcal/Mol)
 Warning -- explicit consideration of   4 degrees of freedom as
           vibrations may cause significant error
 Vibrational temperatures:    234.33   799.42   799.42   829.09
          (Kelvin)
 
 Zero-point correction=                           0.004215 (Hartree/Particle)
 Thermal correction to Energy=                    0.008215
 Thermal correction to Enthalpy=                  0.009159
 Thermal correction to Gibbs Free Energy=        -0.024608
 Sum of electronic and zero-point Energies=           -567.417251
 Sum of electronic and thermal Energies=              -567.413251
 Sum of electronic and thermal Enthalpies=            -567.412307
 Sum of electronic and thermal Free Energies=         -567.446074
 
                     E (Thermal)             CV                S
                      KCal/Mol        Cal/Mol-Kelvin    Cal/Mol-Kelvin
 Total                    5.155             11.187             71.068
 Electronic               0.000              0.000              1.377
 Translational            0.889              2.981             41.582
 Rotational               0.889              2.981             24.035
 Vibrational              3.378              5.225              4.074
 Vibration     1          0.623              1.888              2.516
 Vibration     2          0.911              1.127              0.533
 Vibration     3          0.911              1.127              0.533
 Vibration     4          0.933              1.083              0.492
                       Q            Log10(Q)             Ln(Q)
 Total Bot       0.208343D+12         11.318779         26.062453
 Total V=0       0.181027D+14         13.257743         30.527082
 Vib (Bot)       0.259775D-01         -1.585402         -3.650523
 Vib (Bot)    1  0.124021D+01          0.093494          0.215279
 Vib (Bot)    2  0.280916D+00         -0.551423         -1.269698
 Vib (Bot)    3  0.280916D+00         -0.551424         -1.269701
 Vib (Bot)    4  0.265430D+00         -0.576049         -1.326402
 Vib (V=0)       0.225716D+01          0.353562          0.814106
 Vib (V=0)    1  0.183720D+01          0.264157          0.608245
 Vib (V=0)    2  0.107351D+01          0.030806          0.070934
 Vib (V=0)    3  0.107351D+01          0.030806          0.070934
 Vib (V=0)    4  0.106609D+01          0.027792          0.063994
 Electronic      0.200000D+01          0.301030          0.693147
 Translational   0.100433D+09          8.001874         18.424997
 Rotational      0.399279D+05          4.601277         10.594831
 ***** Axes restored to original set *****
 -------------------------------------------------------------------
 Center     Atomic                   Forces (Hartrees/Bohr)
 Number     Number              X              Y              Z
 -------------------------------------------------------------------
      1       52          -0.000000000   -0.000000000   -0.000132754
      2        9           0.000150440   -0.000260569    0.000044251
      3        9           0.000150440    0.000260569    0.000044251
      4        9          -0.000300879    0.000000000    0.000044251
 -------------------------------------------------------------------
 Cartesian Forces:  Max     0.000300879 RMS     0.000156813
 FormGI is forming the generalized inverse of G from B-inverse, IUseBI=4.

 GradGradGradGradGradGradGradGradGradGradGradGradGradGradGradGradGradGrad
 Berny optimization.
 Internal  Forces:  Max     0.000304115 RMS     0.000199092
 Search for a local minimum.
 Step number   1 out of a maximum of    2
 All quantities printed in internal units (Hartrees-Bohrs-Radians)
 Second derivative matrix not updated -- analytic derivatives used.
 The second derivative matrix:
                          R1        R2        R3        A1        A2
           R1           0.19451
           R2           0.02037   0.19451
           R3           0.02037   0.02037   0.19451
           A1          -0.01303  -0.01303   0.02667  -0.00064
           A2          -0.01509   0.02649  -0.01674   0.00003   0.00229
           A3           0.02649  -0.01509  -0.01674   0.00003   0.00342
           D1           0.00712   0.00712   0.00632   0.00139  -0.01186
                          A3        D1
           A3           0.00229
           D1          -0.01186   0.04571
 ITU=  0
     Eigenvalues ---   -0.01049  -0.01004   0.05045   0.18351   0.18363
     Eigenvalues ---    0.23613
 Eigenvalue     1 is  -1.05D-02 should be greater than     0.000000 Eigenvector:
                          A2        A3        R2        R1        A1
   1                    0.69101  -0.68864  -0.15561   0.15510  -0.00232
                          D1        R3
   1                    0.00056   0.00053
 Eigenvalue     2 is  -1.00D-02 should be greater than     0.000000 Eigenvector:
                          A1        A3        A2        D1        R3
   1                    0.77629  -0.39856  -0.39445  -0.19023  -0.17760
                          R1        R2
   1                    0.08763   0.08671
 Angle between quadratic step and forces=  14.85 degrees.
 Linear search not attempted -- first point.
 Iteration  1 RMS(Cart)=  0.00094011 RMS(Int)=  0.00000009
 Iteration  2 RMS(Cart)=  0.00000008 RMS(Int)=  0.00000005
 ClnCor:  largest displacement from symmetrization is 2.43D-04 for atom     4.
 Variable       Old X    -DE/DX   Delta X   Delta X   Delta X     New X
                                 (Linear)    (Quad)   (Total)
    R1        3.66701  -0.00030   0.00000  -0.00129  -0.00123   3.66578
    R2        3.66701  -0.00030   0.00000  -0.00129  -0.00123   3.66578
    R3        3.66701  -0.00030   0.00000  -0.00135  -0.00123   3.66578
    A1        2.05696   0.00000   0.00000   0.00007  -0.00009   2.05687
    A2        2.05696  -0.00000   0.00000  -0.00018  -0.00009   2.05687
    A3        2.05696  -0.00000   0.00000  -0.00018  -0.00009   2.05687
    D1       -2.64041   0.00000   0.00000   0.00055   0.00059  -2.63982
         Item               Value     Threshold  Converged?
 Maximum Force            0.000304     0.000450     YES
 RMS     Force            0.000199     0.000300     YES
 Maximum Displacement     0.001318     0.001800     YES
 RMS     Displacement     0.000877     0.001200     YES
 Predicted change in Energy=-5.967405D-07
 Optimization completed.
    -- Stationary point found.
                           ----------------------------
                           !   Optimized Parameters   !
                           ! (Angstroms and Degrees)  !
 --------------------------                            --------------------------
 ! Name  Definition              Value          Derivative Info.                !
 --------------------------------------------------------------------------------
 ! R1    R(1,2)                  1.9405         -DE/DX =   -0.0003              !
 ! R2    R(1,3)                  1.9405         -DE/DX =   -0.0003              !
 ! R3    R(1,4)                  1.9405         -DE/DX =   -0.0003              !
 ! A1    A(2,1,3)              117.8552         -DE/DX =    0.0                 !
 ! A2    A(2,1,4)              117.8552         -DE/DX =    0.0                 !
 ! A3    A(3,1,4)              117.8552         -DE/DX =    0.0                 !
 ! D1    D(2,1,4,3)           -151.2844         -DE/DX =    0.0                 !
 --------------------------------------------------------------------------------
 GradGradGradGradGradGradGradGradGradGradGradGradGradGradGradGradGradGrad


 ----------------------------------------------------------------------

 Electric dipole moment (input orientation):
 (Debye = 10**-18 statcoulomb cm , SI units = C m)
                  (au)            (Debye)         (10**-30 SI)
   Tot        0.425382D+00      0.108121D+01      0.360654D+01
   x          0.000000D+00      0.000000D+00      0.000000D+00
   y          0.000000D+00      0.000000D+00      0.000000D+00
   z          0.425382D+00      0.108121D+01      0.360654D+01

 Dipole polarizability, Alpha (input orientation).
 (esu units = cm**3 , SI units = C**2 m**2 J**-1)
 Alpha(0;0):
               (au)            (10**-24 esu)      (10**-40 SI)
   iso        0.388782D+02      0.576116D+01      0.641016D+01
   aniso      0.124218D+02      0.184072D+01      0.204808D+01
   xx         0.430191D+02      0.637477D+01      0.709289D+01
   yx         0.438084D-03      0.649173D-04      0.722303D-04
   yy         0.430186D+02      0.637470D+01      0.709281D+01
   zx         0.207715D-03      0.307802D-04      0.342476D-04
   zy        -0.359773D-03     -0.533129D-04     -0.593186D-04
   zz         0.305971D+02      0.453402D+01      0.504477D+01

 ----------------------------------------------------------------------

 Dipole orientation:
    52         15.12404549         16.06267206         16.35084664
     9         13.31067439         19.20352293         15.80891639
     9         13.31067439         12.92182118         15.80891639
     9         18.75078769         16.06267206         15.80891639

 Electric dipole moment (dipole orientation):
 (Debye = 10**-18 statcoulomb cm , SI units = C m)
                  (au)            (Debye)         (10**-30 SI)
   Tot        0.425382D+00      0.108121D+01      0.360654D+01
   x          0.000000D+00      0.000000D+00      0.000000D+00
   y          0.000000D+00      0.000000D+00      0.000000D+00
   z          0.425382D+00      0.108121D+01      0.360654D+01

 Dipole polarizability, Alpha (dipole orientation).
 (esu units = cm**3 , SI units = C**2 m**2 J**-1)
 Alpha(0;0):
               (au)            (10**-24 esu)      (10**-40 SI)
   iso        0.388782D+02      0.576116D+01      0.641016D+01
   aniso      0.124218D+02      0.184072D+01      0.204808D+01
   xx         0.430191D+02      0.637477D+01      0.709289D+01
   yx         0.438084D-03      0.649173D-04      0.722303D-04
   yy         0.430186D+02      0.637470D+01      0.709281D+01
   zx         0.207715D-03      0.307802D-04      0.342476D-04
   zy        -0.359773D-03     -0.533129D-04     -0.593186D-04
   zz         0.305971D+02      0.453402D+01      0.504477D+01

 ----------------------------------------------------------------------
 Unable to Open any file for archive entry.
 1\1\GINC-TCOPT10\Freq\UPBE1PBE\def2QZVPP\F3Te1(2)\HUTTER\01-Aug-2021\0
 \\#N Geom=AllCheck Guess=TCheck SCRF=Check GenChk UPBE1PBE/def2QZVPP F
 req\\Mol job 1\\0,2\Te,8.0033002111,8.5,8.6524954219\F,7.043705551,10.
 1620667061,8.3657182833\F,7.043705551,6.8379332939,8.3657182833\F,9.92
 24895314,8.5,8.3657182833\\Version=ES64L-G16RevC.01\State=2-A1\HF=-567
 .4214663\S2=0.753038\S2-1=0.\S2A=0.750007\RMSD=4.654e-10\RMSF=1.568e-0
 4\ZeroPoint=0.0042154\Thermal=0.008215\ETot=-567.4132514\HTot=-567.412
 3072\GTot=-567.4460741\Dipole=0.,0.,0.4253816\DipoleDeriv=2.3746014,-0
 .000024,0.0000411,-0.000024,2.3746291,-0.0000712,0.0000041,-0.0000071,
 0.9668452,-0.4862672,0.528792,-0.061005,0.528792,-1.0968635,0.1056638,
 -0.0791547,0.1371,-0.322293,-0.4862509,-0.5287906,-0.0609787,-0.528772
 8,-1.0968394,-0.1056249,-0.0791574,-0.1370992,-0.3222846,-1.4021306,0.
 0000106,0.1219632,-0.0000072,-0.1809597,-0.0000033,0.1583101,0.0000027
 ,-0.3222846\Polar=43.0190965,0.0004381,43.0185907,0.0002077,-0.0003598
 ,30.5970597\Quadrupole=-1.7082509,-1.7082509,3.4165018,0.,0.,0.\PG=C03
 V [C3(Te1),3SGV(F1)]\NImag=2\\0.31048738,0.00000150,0.31048564,-0.0000
 0020,0.00000035,0.06107781,-0.06107813,0.07346730,-0.01928726,0.047193
 79,0.07346730,-0.14591086,0.03340651,-0.08197515,0.14185054,-0.0155206
 8,0.02688261,-0.02035925,0.01584202,-0.02743918,0.00989947,-0.06107920
 ,-0.07346685,-0.01928733,0.01431170,-0.01395846,0.00312386,0.04719379,
 -0.07346840,-0.14591131,-0.03340667,0.01395846,-0.00533938,0.00217459,
 0.08197515,0.14185054,-0.01552068,-0.02688272,-0.02035926,0.00312386,-
 0.00217459,0.00522989,0.01584202,0.02743918,0.00989947,-0.18832811,-0.
 00000121,0.03857469,-0.00042661,0.02246762,-0.00344518,-0.00042661,-0.
 02246762,-0.00344518,0.18917891,0.00000035,-0.01866240,-0.00000002,-0.
 00544929,0.00939893,-0.00161805,0.00544929,0.00939893,0.00161805,0.,-0
 .00013458,0.03104146,-0.00000006,-0.02035926,0.00032132,-0.00379264,0.
 00522989,0.00032132,0.00379264,0.00522989,-0.03168403,0.,0.00989947\\0
 .,0.,0.00013275,-0.00015044,0.00026057,-0.00004425,-0.00015044,-0.0002
 6057,-0.00004425,0.00030088,0.,-0.00004425\\\@
 The archive entry for this job was punched.


 MAN IS A SINGULAR CREATURE.  HE HAS A SET OF GIFTS
 WHICH MAKE HIM UNIQUE AMONG THE ANIMALS: SO THAT, 
 UNLIKE THEM, HE IS NOT A FIGURE IN THE LANDSCAPE --
 HE IS A SHAPER OF THE LANDSCAPE.

                       -- JACOB BRONOWSKI
 Job cpu time:       0 days  0 hours 30 minutes  2.5 seconds.
 Elapsed time:       0 days  0 hours  4 minutes  5.5 seconds.
 File lengths (MBytes):  RWF=     59 Int=      0 D2E=      0 Chk=      8 Scr=      1
 Normal termination of Gaussian 16 at Sun Aug  1 17:31:14 2021.
