 Entering Gaussian System, Link 0=g16
 Initial command:
 /sw-ng/spack/opt/spack/linux-opensuse_leap15-sandybridge/pgi-18.10/gaussian-src-16-C.01-zldqaomctopxhethwccpmxmwefdscg3m/g16/l1.exe "/data/hutter/SMG16/PBE0/Gau-87876.inp" -scrdir="/data/hutter/SMG16/PBE0/"
 Entering Link 1 = /sw-ng/spack/opt/spack/linux-opensuse_leap15-sandybridge/pgi-18.10/gaussian-src-16-C.01-zldqaomctopxhethwccpmxmwefdscg3m/g16/l1.exe PID=     87883.
  
 Copyright (c) 1988-2019, Gaussian, Inc.  All Rights Reserved.
  
 This is part of the Gaussian(R) 16 program.  It is based on
 the Gaussian(R) 09 system (copyright 2009, Gaussian, Inc.),
 the Gaussian(R) 03 system (copyright 2003, Gaussian, Inc.),
 the Gaussian(R) 98 system (copyright 1998, Gaussian, Inc.),
 the Gaussian(R) 94 system (copyright 1995, Gaussian, Inc.),
 the Gaussian 92(TM) system (copyright 1992, Gaussian, Inc.),
 the Gaussian 90(TM) system (copyright 1990, Gaussian, Inc.),
 the Gaussian 88(TM) system (copyright 1988, Gaussian, Inc.),
 the Gaussian 86(TM) system (copyright 1986, Carnegie Mellon
 University), and the Gaussian 82(TM) system (copyright 1983,
 Carnegie Mellon University). Gaussian is a federally registered
 trademark of Gaussian, Inc.
  
 This software contains proprietary and confidential information,
 including trade secrets, belonging to Gaussian, Inc.
  
 This software is provided under written license and may be
 used, copied, transmitted, or stored only in accord with that
 written license.
  
 The following legend is applicable only to US Government
 contracts under FAR:
  
                    RESTRICTED RIGHTS LEGEND
  
 Use, reproduction and disclosure by the US Government is
 subject to restrictions as set forth in subparagraphs (a)
 and (c) of the Commercial Computer Software - Restricted
 Rights clause in FAR 52.227-19.
  
 Gaussian, Inc.
 340 Quinnipiac St., Bldg. 40, Wallingford CT 06492
  
  
 ---------------------------------------------------------------
 Warning -- This program may not be used in any manner that
 competes with the business of Gaussian, Inc. or will provide
 assistance to any competitor of Gaussian, Inc.  The licensee
 of this program is prohibited from giving any competitor of
 Gaussian, Inc. access to this program.  By using this program,
 the user acknowledges that Gaussian, Inc. is engaged in the
 business of creating and licensing software in the field of
 computational chemistry and represents and warrants to the
 licensee that it is not a competitor of Gaussian, Inc. and that
 it will not use this program in any manner prohibited above.
 ---------------------------------------------------------------
  

 Cite this work as:
 Gaussian 16, Revision C.01,
 M. J. Frisch, G. W. Trucks, H. B. Schlegel, G. E. Scuseria, 
 M. A. Robb, J. R. Cheeseman, G. Scalmani, V. Barone, 
 G. A. Petersson, H. Nakatsuji, X. Li, M. Caricato, A. V. Marenich, 
 J. Bloino, B. G. Janesko, R. Gomperts, B. Mennucci, H. P. Hratchian, 
 J. V. Ortiz, A. F. Izmaylov, J. L. Sonnenberg, D. Williams-Young, 
 F. Ding, F. Lipparini, F. Egidi, J. Goings, B. Peng, A. Petrone, 
 T. Henderson, D. Ranasinghe, V. G. Zakrzewski, J. Gao, N. Rega, 
 G. Zheng, W. Liang, M. Hada, M. Ehara, K. Toyota, R. Fukuda, 
 J. Hasegawa, M. Ishida, T. Nakajima, Y. Honda, O. Kitao, H. Nakai, 
 T. Vreven, K. Throssell, J. A. Montgomery, Jr., J. E. Peralta, 
 F. Ogliaro, M. J. Bearpark, J. J. Heyd, E. N. Brothers, K. N. Kudin, 
 V. N. Staroverov, T. A. Keith, R. Kobayashi, J. Normand, 
 K. Raghavachari, A. P. Rendell, J. C. Burant, S. S. Iyengar, 
 J. Tomasi, M. Cossi, J. M. Millam, M. Klene, C. Adamo, R. Cammi, 
 J. W. Ochterski, R. L. Martin, K. Morokuma, O. Farkas, 
 J. B. Foresman, and D. J. Fox, Gaussian, Inc., Wallingford CT, 2019.
 
 ******************************************
 Gaussian 16:  ES64L-G16RevC.01  3-Jul-2019
                 1-Aug-2021 
 ******************************************
 %mem=8GB
 %NProcShare=8
 Will use up to    8 processors via shared memory.
 ------------------------------------------------------------
 #N RPBE1PBE/Def2QZVPP scf=tight Int(Grid=ultrafine) OPT FREQ
 ------------------------------------------------------------
 1/18=20,19=15,26=4,38=1/1,3;
 2/9=110,12=2,17=6,18=5,40=1/2;
 3/5=45,7=202,11=2,25=1,30=1,71=1,74=-13,75=-5,116=1/1,2,3;
 4//1;
 5/5=2,32=2,38=5/2;
 6/7=2,8=2,9=2,10=2,28=1/1;
 7//1,2,3,16;
 1/18=20,19=15,26=4/3(2);
 2/9=110/2;
 99//99;
 2/9=110/2;
 3/5=45,7=202,11=2,25=1,30=1,71=1,74=-13,75=-5,116=1/1,2,3;
 4/5=5,16=3,69=1/1;
 5/5=2,32=2,38=5/2;
 7//1,2,3,16;
 1/18=20,19=15,26=4/3(-5);
 2/9=110/2;
 6/7=2,8=2,9=2,10=2,19=2,28=1/1;
 99/9=1/99;
 ---------
 Mol job 1
 ---------
 Symbolic Z-matrix:
 Charge =  0 Multiplicity = 1
 P                     9.9243    9.66565   10.1574 
 Na                    10.72705   7.55607   8.8426 
 Na                    11.31923   11.44393   8.84516 
 Na                    7.68077   10.01658   8.85258 
 

 GradGradGradGradGradGradGradGradGradGradGradGradGradGradGradGradGradGrad
 Berny optimization.
 Initialization pass.
                           ----------------------------
                           !    Initial Parameters    !
                           ! (Angstroms and Degrees)  !
 --------------------------                            --------------------------
 ! Name  Definition              Value          Derivative Info.                !
 --------------------------------------------------------------------------------
 ! R1    R(1,2)                  2.6122         estimate D2E/DX2                !
 ! R2    R(1,3)                  2.6134         estimate D2E/DX2                !
 ! R3    R(1,4)                  2.619          estimate D2E/DX2                !
 ! A1    A(2,1,3)               97.629          estimate D2E/DX2                !
 ! A2    A(2,1,4)               96.9323         estimate D2E/DX2                !
 ! A3    A(3,1,4)               96.6553         estimate D2E/DX2                !
 ! D1    D(2,1,4,3)            -98.5591         estimate D2E/DX2                !
 --------------------------------------------------------------------------------
 Trust Radius=3.00D-01 FncErr=1.00D-07 GrdErr=1.00D-06 EigMax=2.50D+02 EigMin=1.00D-04
 Number of steps in this run=     20 maximum allowed number of steps=    100.
 GradGradGradGradGradGradGradGradGradGradGradGradGradGradGradGradGradGrad

                          Input orientation:                          
 ---------------------------------------------------------------------
 Center     Atomic      Atomic             Coordinates (Angstroms)
 Number     Number       Type             X           Y           Z
 ---------------------------------------------------------------------
      1         15           0        9.924305    9.665648   10.157402
      2         11           0       10.727046    7.556073    8.842598
      3         11           0       11.319229   11.443927    8.845160
      4         11           0        7.680771   10.016580    8.852580
 ---------------------------------------------------------------------
                    Distance matrix (angstroms):
                    1          2          3          4
     1  P    0.000000
     2  Na   2.612165   0.000000
     3  Na   2.613441   3.932695   0.000000
     4  Na   2.618999   3.915864   3.908421   0.000000
 Stoichiometry    Na3P
 Framework group  C1[X(Na3P)]
 Deg. of freedom     6
 Full point group                 C1      NOp   1
 Largest Abelian subgroup         C1      NOp   1
 Largest concise Abelian subgroup C1      NOp   1
                         Standard orientation:                         
 ---------------------------------------------------------------------
 Center     Atomic      Atomic             Coordinates (Angstroms)
 Number     Number       Type             X           Y           Z
 ---------------------------------------------------------------------
      1         15           0       -0.004500   -0.010511    0.901053
      2         11           0       -2.114080   -0.813239   -0.413751
      3         11           0        1.773769   -1.405448   -0.411189
      4         11           0        0.346448    2.233020   -0.403769
 ---------------------------------------------------------------------
 Rotational constants (GHZ):           2.3841792           2.3554456           1.4312808
 Standard basis: def2QZVPP (5D, 7F)
 There are   290 symmetry adapted cartesian basis functions of A   symmetry.
 There are   244 symmetry adapted basis functions of A   symmetry.
   244 basis functions,   421 primitive gaussians,   290 cartesian basis functions
    24 alpha electrons       24 beta electrons
       nuclear repulsion energy       149.1902748664 Hartrees.
 NAtoms=    4 NActive=    4 NUniq=    4 SFac= 1.00D+00 NAtFMM=   60 NAOKFM=F Big=F
 Integral buffers will be    131072 words long.
 Raffenetti 2 integral format.
 Two-electron integral symmetry is turned on.
 One-electron integrals computed using PRISM.
   1 Symmetry operations used in ECPInt.
 ECPInt:  NShTT=    3403 NPrTT=   12395 LenC2=    3203 LenP2D=    8839.
 LDataN:  DoStor=T MaxTD1= 8 Len=  415
 NBasis=   244 RedAO= T EigKep=  3.33D-04  NBF=   244
 NBsUse=   244 1.00D-06 EigRej= -1.00D+00 NBFU=   244
 ExpMin= 1.55D-02 ExpMax= 1.09D+06 ExpMxC= 1.24D+03 IAcc=3 IRadAn=         5 AccDes= 0.00D+00
 Harris functional with IExCor= 1009 and IRadAn=       5 diagonalized for initial guess.
 HarFok:  IExCor= 1009 AccDes= 0.00D+00 IRadAn=         5 IDoV= 1 UseB2=F ITyADJ=14
 ICtDFT=  3500011 ScaDFX=  1.000000  1.000000  1.000000  1.000000
 FoFCou: FMM=F IPFlag=           0 FMFlag=      100000 FMFlg1=           0
         NFxFlg=           0 DoJE=T BraDBF=F KetDBF=T FulRan=T
         wScrn=  0.000000 ICntrl=       500 IOpCl=  0 I1Cent=   200000004 NGrid=           0
         NMat0=    1 NMatS0=      1 NMatT0=    0 NMatD0=    1 NMtDS0=    0 NMtDT0=    0
 Petite list used in FoFCou.
 Keep R1 ints in memory in canonical form, NReq=459043149.
 Requested convergence on RMS density matrix=1.00D-08 within 128 cycles.
 Requested convergence on MAX density matrix=1.00D-06.
 Requested convergence on             energy=1.00D-06.
 No special actions if energy rises.
 SCF Done:  E(RPBE1PBE) =  -827.848084065     A.U. after   15 cycles
            NFock= 15  Conv=0.28D-08     -V/T= 2.0030

 **********************************************************************

            Population analysis using the SCF Density.

 **********************************************************************

 Orbital symmetries:
       Occupied  (A) (A) (A) (A) (A) (A) (A) (A) (A) (A) (A) (A)
                 (A) (A) (A) (A) (A) (A) (A) (A) (A) (A) (A) (A)
       Virtual   (A) (A) (A) (A) (A) (A) (A) (A) (A) (A) (A) (A)
                 (A) (A) (A) (A) (A) (A) (A) (A) (A) (A) (A) (A)
                 (A) (A) (A) (A) (A) (A) (A) (A) (A) (A) (A) (A)
                 (A) (A) (A) (A) (A) (A) (A) (A) (A) (A) (A) (A)
                 (A) (A) (A) (A) (A) (A) (A) (A) (A) (A) (A) (A)
                 (A) (A) (A) (A) (A) (A) (A) (A) (A) (A) (A) (A)
                 (A) (A) (A) (A) (A) (A) (A) (A) (A) (A) (A) (A)
                 (A) (A) (A) (A) (A) (A) (A) (A) (A) (A) (A) (A)
                 (A) (A) (A) (A) (A) (A) (A) (A) (A) (A) (A) (A)
                 (A) (A) (A) (A) (A) (A) (A) (A) (A) (A) (A) (A)
                 (A) (A) (A) (A) (A) (A) (A) (A) (A) (A) (A) (A)
                 (A) (A) (A) (A) (A) (A) (A) (A) (A) (A) (A) (A)
                 (A) (A) (A) (A) (A) (A) (A) (A) (A) (A) (A) (A)
                 (A) (A) (A) (A) (A) (A) (A) (A) (A) (A) (A) (A)
                 (A) (A) (A) (A) (A) (A) (A) (A) (A) (A) (A) (A)
                 (A) (A) (A) (A) (A) (A) (A) (A) (A) (A) (A) (A)
                 (A) (A) (A) (A) (A) (A) (A) (A) (A) (A) (A) (A)
                 (A) (A) (A) (A) (A) (A) (A) (A) (A) (A) (A) (A)
                 (A) (A) (A) (A)
 The electronic state is 1-A.
 Alpha  occ. eigenvalues --  -77.08933 -38.55079 -38.55056 -38.55054  -6.48589
 Alpha  occ. eigenvalues --   -4.62142  -4.61954  -4.61952  -2.22627  -2.22608
 Alpha  occ. eigenvalues --   -2.22607  -1.13860  -1.13853  -1.13841  -1.13835
 Alpha  occ. eigenvalues --   -1.13834  -1.13830  -1.13733  -1.13704  -1.13695
 Alpha  occ. eigenvalues --   -0.43900  -0.13884  -0.13847  -0.13261
 Alpha virt. eigenvalues --   -0.04622  -0.02749  -0.02743   0.00075   0.00384
 Alpha virt. eigenvalues --    0.00412   0.01928   0.01941   0.01954   0.03316
 Alpha virt. eigenvalues --    0.03323   0.03376   0.04157   0.05932   0.05940
 Alpha virt. eigenvalues --    0.06127   0.06134   0.06164   0.08419   0.08436
 Alpha virt. eigenvalues --    0.09323   0.09638   0.12137   0.12145   0.13203
 Alpha virt. eigenvalues --    0.16002   0.16094   0.17022   0.17308   0.17329
 Alpha virt. eigenvalues --    0.18486   0.18521   0.19637   0.20553   0.21872
 Alpha virt. eigenvalues --    0.22503   0.22617   0.25398   0.25453   0.27492
 Alpha virt. eigenvalues --    0.27514   0.28386   0.28703   0.28708   0.28811
 Alpha virt. eigenvalues --    0.30734   0.30761   0.30883   0.31417   0.31437
 Alpha virt. eigenvalues --    0.33540   0.34614   0.37187   0.37223   0.41522
 Alpha virt. eigenvalues --    0.41556   0.41649   0.46965   0.47697   0.48160
 Alpha virt. eigenvalues --    0.48181   0.50345   0.50446   0.54370   0.54453
 Alpha virt. eigenvalues --    0.54833   0.55960   0.57505   0.57520   0.63263
 Alpha virt. eigenvalues --    0.63310   0.63502   0.63892   0.64640   0.64793
 Alpha virt. eigenvalues --    0.65667   0.65758   0.66903   0.68787   0.68843
 Alpha virt. eigenvalues --    0.69741   0.71052   0.71316   0.71391   0.71444
 Alpha virt. eigenvalues --    0.73379   0.73403   0.74935   0.75061   0.75467
 Alpha virt. eigenvalues --    0.76661   0.79702   0.79833   0.82870   0.85220
 Alpha virt. eigenvalues --    0.85353   1.00292   1.00296   1.00566   1.02865
 Alpha virt. eigenvalues --    1.03306   1.03312   1.03676   1.03767   1.05391
 Alpha virt. eigenvalues --    1.06953   1.07003   1.11137   1.14196   1.14345
 Alpha virt. eigenvalues --    1.18990   1.23032   1.26991   1.27085   1.27788
 Alpha virt. eigenvalues --    1.32461   1.32762   1.34652   1.53784   1.54026
 Alpha virt. eigenvalues --    1.54346   1.67064   1.67107   1.74743   2.41447
 Alpha virt. eigenvalues --    2.41481   2.41877   2.49785   2.49950   2.71782
 Alpha virt. eigenvalues --    2.72622   2.72647   2.73268   2.73316   2.73328
 Alpha virt. eigenvalues --    2.77919   2.79176   2.79243   2.85025   2.95034
 Alpha virt. eigenvalues --    2.95271   2.96229   3.04887   3.05102   3.08911
 Alpha virt. eigenvalues --    3.47623   3.47782   3.47793   3.48144   3.48307
 Alpha virt. eigenvalues --    3.48319   3.54680   3.54967   3.54974   3.56540
 Alpha virt. eigenvalues --    3.56569   3.56827   3.65850   3.66150   3.66213
 Alpha virt. eigenvalues --    3.87481   3.95844   3.95990   5.63777   5.79059
 Alpha virt. eigenvalues --    5.79293   5.88663   7.30502   7.30810   7.30841
 Alpha virt. eigenvalues --    7.36093   7.36173  14.11529  14.11801  14.11812
 Alpha virt. eigenvalues --   14.11965  14.11976  14.11999  14.14507  14.14863
 Alpha virt. eigenvalues --   14.14874  14.16097  14.16108  14.16342  14.24240
 Alpha virt. eigenvalues --   14.24258  14.24675  14.60774  14.60777  14.60789
 Alpha virt. eigenvalues --   14.60803  14.60811  14.60817  14.60871  14.60913
 Alpha virt. eigenvalues --   14.60926  14.60946  14.60955  14.60978  14.61003
 Alpha virt. eigenvalues --   14.61033  14.61039  14.61062  14.61069  14.61154
 Alpha virt. eigenvalues --   14.61326  14.61509  14.61520  17.82815  17.90589
 Alpha virt. eigenvalues --   17.90942  20.16082  21.04144  21.16693  21.16942
 Alpha virt. eigenvalues --   70.45700 126.32536 126.54206 126.54663 381.43058
          Condensed to atoms (all electrons):
               1          2          3          4
     1  P   14.843376   0.321408   0.321114   0.320192
     2  Na   0.321408  10.471749  -0.031085  -0.031511
     3  Na   0.321114  -0.031085  10.472695  -0.031818
     4  Na   0.320192  -0.031511  -0.031818  10.475580
 Mulliken charges:
               1
     1  P   -0.806090
     2  Na   0.269439
     3  Na   0.269094
     4  Na   0.267557
 Sum of Mulliken charges =  -0.00000
 Mulliken charges with hydrogens summed into heavy atoms:
               1
     1  P   -0.806090
     2  Na   0.269439
     3  Na   0.269094
     4  Na   0.267557
 Electronic spatial extent (au):  <R**2>=            729.2201
 Charge=             -0.0000 electrons
 Dipole moment (field-independent basis, Debye):
    X=              0.0238    Y=              0.0572    Z=             -5.5966  Tot=              5.5969
 Quadrupole moment (field-independent basis, Debye-Ang):
   XX=            -19.6266   YY=            -20.0115   ZZ=            -44.6136
   XY=             -0.0015   XZ=              0.0290   YZ=              0.0673
 Traceless Quadrupole moment (field-independent basis, Debye-Ang):
   XX=              8.4573   YY=              8.0724   ZZ=            -16.5297
   XY=             -0.0015   XZ=              0.0290   YZ=              0.0673
 Octapole moment (field-independent basis, Debye-Ang**2):
  XXX=            -14.5511  YYY=             30.0212  ZZZ=            -19.7160  XYY=             14.6608
  XXY=            -29.6971  XXZ=            -17.4707  XZZ=             -0.0084  YZZ=             -0.0162
  YYZ=            -17.1732  XYZ=              0.0062
 Hexadecapole moment (field-independent basis, Debye-Ang**3):
 XXXX=           -273.7900 YYYY=           -273.0754 ZZZZ=           -235.3938 XXXY=             -0.2821
 XXXZ=              6.2599 YYYX=              0.2765 YYYZ=            -11.5563 ZZZX=              0.1266
 ZZZY=              0.2927 XXYY=            -91.4672 XXZZ=           -102.1422 YYZZ=           -101.7466
 XXYZ=             12.3847 YYXZ=             -5.8924 ZZXY=             -0.0058
 N-N= 1.491902748664D+02 E-N=-2.282238691733D+03  KE= 8.253397591195D+02
   1 Symmetry operations used in ECPInt.
 ECPInt:  NShTT=    3403 NPrTT=   12395 LenC2=    3203 LenP2D=    8839.
 LDataN:  DoStor=T MaxTD1= 9 Len=  602
 Calling FoFJK, ICntrl=      2127 FMM=F ISym2X=0 I1Cent= 0 IOpClX= 0 NMat=1 NMatS=1 NMatT=0.
 ***** Axes restored to original set *****
 -------------------------------------------------------------------
 Center     Atomic                   Forces (Hartrees/Bohr)
 Number     Number              X              Y              Z
 -------------------------------------------------------------------
      1       15          -0.000480971    0.000177141   -0.004138389
      2       11          -0.000948526    0.002671118    0.001268016
      3       11          -0.001712226   -0.002330148    0.001324305
      4       11           0.003141723   -0.000518110    0.001546068
 -------------------------------------------------------------------
 Cartesian Forces:  Max     0.004138389 RMS     0.002034611

 GradGradGradGradGradGradGradGradGradGradGradGradGradGradGradGradGradGrad
 Berny optimization.
 FormGI is forming the generalized inverse of G from B-inverse, IUseBI=4.
 Internal  Forces:  Max     0.003531187 RMS     0.002217520
 Search for a local minimum.
 Step number   1 out of a maximum of   20
 All quantities printed in internal units (Hartrees-Bohrs-Radians)
 Mixed Optimization -- RFO/linear search
 Second derivative matrix not updated -- first step.
 The second derivative matrix:
                          R1        R2        R3        A1        A2
           R1           0.07348
           R2           0.00000   0.07330
           R3           0.00000   0.00000   0.07250
           A1           0.00000   0.00000   0.00000   0.25000
           A2           0.00000   0.00000   0.00000   0.00000   0.25000
           A3           0.00000   0.00000   0.00000   0.00000   0.00000
           D1           0.00000   0.00000   0.00000   0.00000   0.00000
                          A3        D1
           A3           0.25000
           D1           0.00000   0.00230
 ITU=  0
     Eigenvalues ---    0.07250   0.07330   0.07348   0.12186   0.25000
     Eigenvalues ---    0.25000
 RFO step:  Lambda=-4.50891957D-04 EMin= 7.24990975D-02
 Linear search not attempted -- first point.
 Iteration  1 RMS(Cart)=  0.03070377 RMS(Int)=  0.00004013
 Iteration  2 RMS(Cart)=  0.00006126 RMS(Int)=  0.00000600
 Iteration  3 RMS(Cart)=  0.00000000 RMS(Int)=  0.00000600
 Variable       Old X    -DE/DX   Delta X   Delta X   Delta X     New X
                                 (Linear)    (Quad)   (Total)
    R1        4.93628  -0.00309   0.00000  -0.04175  -0.04175   4.89452
    R2        4.93869  -0.00316   0.00000  -0.04290  -0.04290   4.89578
    R3        4.94919  -0.00353   0.00000  -0.04841  -0.04841   4.90079
    A1        1.70395  -0.00060   0.00000  -0.00574  -0.00575   1.69820
    A2        1.69179  -0.00091   0.00000  -0.00406  -0.00407   1.68772
    A3        1.68695  -0.00072   0.00000  -0.00335  -0.00335   1.68361
    D1       -1.72018   0.00084   0.00000   0.00686   0.00685  -1.71334
         Item               Value     Threshold  Converged?
 Maximum Force            0.003531     0.000450     NO 
 RMS     Force            0.002218     0.000300     NO 
 Maximum Displacement     0.046226     0.001800     NO 
 RMS     Displacement     0.030673     0.001200     NO 
 Predicted change in Energy=-2.267877D-04
 GradGradGradGradGradGradGradGradGradGradGradGradGradGradGradGradGradGrad

                          Input orientation:                          
 ---------------------------------------------------------------------
 Center     Atomic      Atomic             Coordinates (Angstroms)
 Number     Number       Type             X           Y           Z
 ---------------------------------------------------------------------
      1         15           0        9.922479    9.666372   10.154206
      2         11           0       10.718790    7.579358    8.843204
      3         11           0       11.304849   11.424103    8.846021
      4         11           0        7.705233   10.012395    8.854310
 ---------------------------------------------------------------------
                    Distance matrix (angstroms):
                    1          2          3          4
     1  P    0.000000
     2  Na   2.590071   0.000000
     3  Na   2.590736   3.889157   0.000000
     4  Na   2.593384   3.873154   3.866552   0.000000
 Stoichiometry    Na3P
 Framework group  C1[X(Na3P)]
 Deg. of freedom     6
 Full point group                 C1      NOp   1
 Largest Abelian subgroup         C1      NOp   1
 Largest concise Abelian subgroup C1      NOp   1
                         Standard orientation:                         
 ---------------------------------------------------------------------
 Center     Atomic      Atomic             Coordinates (Angstroms)
 Number     Number       Type             X           Y           Z
 ---------------------------------------------------------------------
      1         15           0       -0.003486   -0.008130    0.898131
      2         11           0       -2.084333   -0.822535   -0.411558
      3         11           0        1.765070   -1.377176   -0.409474
      4         11           0        0.324017    2.210798   -0.403692
 ---------------------------------------------------------------------
 Rotational constants (GHZ):           2.4296711           2.4020528           1.4630004
 Standard basis: def2QZVPP (5D, 7F)
 There are   290 symmetry adapted cartesian basis functions of A   symmetry.
 There are   244 symmetry adapted basis functions of A   symmetry.
   244 basis functions,   421 primitive gaussians,   290 cartesian basis functions
    24 alpha electrons       24 beta electrons
       nuclear repulsion energy       150.6374730847 Hartrees.
 NAtoms=    4 NActive=    4 NUniq=    4 SFac= 1.00D+00 NAtFMM=   60 NAOKFM=F Big=F
 Integral buffers will be    131072 words long.
 Raffenetti 2 integral format.
 Two-electron integral symmetry is turned on.
 One-electron integrals computed using PRISM.
   1 Symmetry operations used in ECPInt.
 ECPInt:  NShTT=    3403 NPrTT=   12395 LenC2=    3207 LenP2D=    8863.
 LDataN:  DoStor=T MaxTD1= 8 Len=  415
 NBasis=   244 RedAO= T EigKep=  3.17D-04  NBF=   244
 NBsUse=   244 1.00D-06 EigRej= -1.00D+00 NBFU=   244
 Initial guess from the checkpoint file:  "/data/hutter/SMG16/PBE0/Gau-87883.chk"
 B after Tr=     0.000000    0.000000    0.000000
         Rot=    0.999992    0.000443   -0.000169   -0.004086 Ang=   0.47 deg.
 ExpMin= 1.55D-02 ExpMax= 1.09D+06 ExpMxC= 1.24D+03 IAcc=3 IRadAn=         5 AccDes= 0.00D+00
 Harris functional with IExCor= 1009 and IRadAn=       5 diagonalized for initial guess.
 HarFok:  IExCor= 1009 AccDes= 0.00D+00 IRadAn=         5 IDoV= 1 UseB2=F ITyADJ=14
 ICtDFT=  3500011 ScaDFX=  1.000000  1.000000  1.000000  1.000000
 FoFCou: FMM=F IPFlag=           0 FMFlag=      100000 FMFlg1=           0
         NFxFlg=           0 DoJE=T BraDBF=F KetDBF=T FulRan=T
         wScrn=  0.000000 ICntrl=       500 IOpCl=  0 I1Cent=   200000004 NGrid=           0
         NMat0=    1 NMatS0=      1 NMatT0=    0 NMatD0=    1 NMtDS0=    0 NMtDT0=    0
 Petite list used in FoFCou.
 Keep R1 ints in memory in canonical form, NReq=459043149.
 Requested convergence on RMS density matrix=1.00D-08 within 128 cycles.
 Requested convergence on MAX density matrix=1.00D-06.
 Requested convergence on             energy=1.00D-06.
 No special actions if energy rises.
 SCF Done:  E(RPBE1PBE) =  -827.848406807     A.U. after    9 cycles
            NFock=  9  Conv=0.47D-08     -V/T= 2.0030
   1 Symmetry operations used in ECPInt.
 ECPInt:  NShTT=    3403 NPrTT=   12395 LenC2=    3207 LenP2D=    8863.
 LDataN:  DoStor=T MaxTD1= 9 Len=  602
 Calling FoFJK, ICntrl=      2127 FMM=F ISym2X=0 I1Cent= 0 IOpClX= 0 NMat=1 NMatS=1 NMatT=0.
 ***** Axes restored to original set *****
 -------------------------------------------------------------------
 Center     Atomic                   Forces (Hartrees/Bohr)
 Number     Number              X              Y              Z
 -------------------------------------------------------------------
      1       15          -0.000262064    0.000102442   -0.001787271
      2       11          -0.000370121    0.001143330    0.000529273
      3       11          -0.000686225   -0.001014021    0.000565669
      4       11           0.001318411   -0.000231752    0.000692329
 -------------------------------------------------------------------
 Cartesian Forces:  Max     0.001787271 RMS     0.000870258

 GradGradGradGradGradGradGradGradGradGradGradGradGradGradGradGradGradGrad
 Berny optimization.
 Using GEDIIS/GDIIS optimizer.
 FormGI is forming the generalized inverse of G from B-inverse, IUseBI=4.
 Internal  Forces:  Max     0.001505054 RMS     0.000937508
 Search for a local minimum.
 Step number   2 out of a maximum of   20
 All quantities printed in internal units (Hartrees-Bohrs-Radians)
 Mixed Optimization -- En-DIIS/RFO-DIIS
 Update second derivatives using D2CorX and points    1    2
 DE= -3.23D-04 DEPred=-2.27D-04 R= 1.42D+00
 TightC=F SS=  1.41D+00  RLast= 7.77D-02 DXNew= 5.0454D-01 2.3305D-01
 Trust test= 1.42D+00 RLast= 7.77D-02 DXMaxT set to 3.00D-01
 The second derivative matrix:
                          R1        R2        R3        A1        A2
           R1           0.06473
           R2          -0.00900   0.06405
           R3          -0.01010  -0.01039   0.06083
           A1          -0.00808  -0.00828  -0.00925   0.24564
           A2          -0.00279  -0.00287  -0.00322  -0.00266   0.24911
           A3          -0.00166  -0.00171  -0.00193  -0.00210  -0.00051
           D1          -0.00284  -0.00291  -0.00323  -0.00037  -0.00097
                          A3        D1
           A3           0.24979
           D1          -0.00095   0.00301
 ITU=  1  0
 Use linear search instead of GDIIS.
     Eigenvalues ---    0.04265   0.07285   0.07340   0.12116   0.24978
     Eigenvalues ---    0.25028
 RFO step:  Lambda=-6.20717737D-07 EMin= 4.26521497D-02
 Quartic linear search produced a step of  0.68967.
 Iteration  1 RMS(Cart)=  0.02110606 RMS(Int)=  0.00002171
 Iteration  2 RMS(Cart)=  0.00003027 RMS(Int)=  0.00000575
 Iteration  3 RMS(Cart)=  0.00000000 RMS(Int)=  0.00000575
 Variable       Old X    -DE/DX   Delta X   Delta X   Delta X     New X
                                 (Linear)    (Quad)   (Total)
    R1        4.89452  -0.00130  -0.02880   0.00009  -0.02871   4.86582
    R2        4.89578  -0.00134  -0.02959  -0.00000  -0.02959   4.86619
    R3        4.90079  -0.00151  -0.03338  -0.00022  -0.03360   4.86718
    A1        1.69820  -0.00035  -0.00397  -0.00104  -0.00501   1.69318
    A2        1.68772  -0.00030  -0.00280   0.00045  -0.00235   1.68537
    A3        1.68361  -0.00013  -0.00231   0.00109  -0.00122   1.68238
    D1       -1.71334   0.00041   0.00472   0.00085   0.00556  -1.70778
         Item               Value     Threshold  Converged?
 Maximum Force            0.001505     0.000450     NO 
 RMS     Force            0.000938     0.000300     NO 
 Maximum Displacement     0.031902     0.001800     NO 
 RMS     Displacement     0.021091     0.001200     NO 
 Predicted change in Energy=-7.042951D-05
 GradGradGradGradGradGradGradGradGradGradGradGradGradGradGradGradGradGrad

                          Input orientation:                          
 ---------------------------------------------------------------------
 Center     Atomic      Atomic             Coordinates (Angstroms)
 Number     Number       Type             X           Y           Z
 ---------------------------------------------------------------------
      1         15           0        9.920455    9.667233   10.151717
      2         11           0       10.713867    7.596239    8.843478
      3         11           0       11.296042   11.409508    8.846629
      4         11           0        7.720987   10.009248    8.855917
 ---------------------------------------------------------------------
                    Distance matrix (angstroms):
                    1          2          3          4
     1  P    0.000000
     2  Na   2.574880   0.000000
     3  Na   2.575077   3.857455   0.000000
     4  Na   2.575603   3.844489   3.839510   0.000000
 Stoichiometry    Na3P
 Framework group  C1[X(Na3P)]
 Deg. of freedom     6
 Full point group                 C1      NOp   1
 Largest Abelian subgroup         C1      NOp   1
 Largest concise Abelian subgroup C1      NOp   1
                         Standard orientation:                         
 ---------------------------------------------------------------------
 Center     Atomic      Atomic             Coordinates (Angstroms)
 Number     Number       Type             X           Y           Z
 ---------------------------------------------------------------------
      1         15           0       -0.002307   -0.005396    0.895855
      2         11           0       -2.061070   -0.834687   -0.409434
      3         11           0        1.761144   -1.354918   -0.408005
      4         11           0        0.303073    2.196962   -0.404181
 ---------------------------------------------------------------------
 Rotational constants (GHZ):           2.4595082           2.4370654           1.4852545
 Standard basis: def2QZVPP (5D, 7F)
 There are   290 symmetry adapted cartesian basis functions of A   symmetry.
 There are   244 symmetry adapted basis functions of A   symmetry.
   244 basis functions,   421 primitive gaussians,   290 cartesian basis functions
    24 alpha electrons       24 beta electrons
       nuclear repulsion energy       151.6489551298 Hartrees.
 NAtoms=    4 NActive=    4 NUniq=    4 SFac= 1.00D+00 NAtFMM=   60 NAOKFM=F Big=F
 Integral buffers will be    131072 words long.
 Raffenetti 2 integral format.
 Two-electron integral symmetry is turned on.
 One-electron integrals computed using PRISM.
   1 Symmetry operations used in ECPInt.
 ECPInt:  NShTT=    3403 NPrTT=   12395 LenC2=    3212 LenP2D=    8879.
 LDataN:  DoStor=T MaxTD1= 8 Len=  415
 NBasis=   244 RedAO= T EigKep=  3.07D-04  NBF=   244
 NBsUse=   244 1.00D-06 EigRej= -1.00D+00 NBFU=   244
 Initial guess from the checkpoint file:  "/data/hutter/SMG16/PBE0/Gau-87883.chk"
 B after Tr=    -0.000000    0.000000   -0.000000
         Rot=    0.999992    0.000536   -0.000215   -0.004029 Ang=   0.47 deg.
 ExpMin= 1.55D-02 ExpMax= 1.09D+06 ExpMxC= 1.24D+03 IAcc=3 IRadAn=         5 AccDes= 0.00D+00
 Harris functional with IExCor= 1009 and IRadAn=       5 diagonalized for initial guess.
 HarFok:  IExCor= 1009 AccDes= 0.00D+00 IRadAn=         5 IDoV= 1 UseB2=F ITyADJ=14
 ICtDFT=  3500011 ScaDFX=  1.000000  1.000000  1.000000  1.000000
 FoFCou: FMM=F IPFlag=           0 FMFlag=      100000 FMFlg1=           0
         NFxFlg=           0 DoJE=T BraDBF=F KetDBF=T FulRan=T
         wScrn=  0.000000 ICntrl=       500 IOpCl=  0 I1Cent=   200000004 NGrid=           0
         NMat0=    1 NMatS0=      1 NMatT0=    0 NMatD0=    1 NMtDS0=    0 NMtDT0=    0
 Petite list used in FoFCou.
 Keep R1 ints in memory in canonical form, NReq=459043149.
 Requested convergence on RMS density matrix=1.00D-08 within 128 cycles.
 Requested convergence on MAX density matrix=1.00D-06.
 Requested convergence on             energy=1.00D-06.
 No special actions if energy rises.
 SCF Done:  E(RPBE1PBE) =  -827.848473845     A.U. after    9 cycles
            NFock=  9  Conv=0.26D-08     -V/T= 2.0030
   1 Symmetry operations used in ECPInt.
 ECPInt:  NShTT=    3403 NPrTT=   12395 LenC2=    3212 LenP2D=    8879.
 LDataN:  DoStor=T MaxTD1= 9 Len=  602
 Calling FoFJK, ICntrl=      2127 FMM=F ISym2X=0 I1Cent= 0 IOpClX= 0 NMat=1 NMatS=1 NMatT=0.
 ***** Axes restored to original set *****
 -------------------------------------------------------------------
 Center     Atomic                   Forces (Hartrees/Bohr)
 Number     Number              X              Y              Z
 -------------------------------------------------------------------
      1       15          -0.000078212    0.000037100   -0.000027517
      2       11           0.000046423    0.000020796   -0.000015869
      3       11           0.000057487   -0.000041103    0.000000955
      4       11          -0.000025697   -0.000016792    0.000042431
 -------------------------------------------------------------------
 Cartesian Forces:  Max     0.000078212 RMS     0.000039611

 GradGradGradGradGradGradGradGradGradGradGradGradGradGradGradGradGradGrad
 Berny optimization.
 Using GEDIIS/GDIIS optimizer.
 FormGI is forming the generalized inverse of G from B-inverse, IUseBI=4.
 Internal  Forces:  Max     0.000252830 RMS     0.000121504
 Search for a local minimum.
 Step number   3 out of a maximum of   20
 All quantities printed in internal units (Hartrees-Bohrs-Radians)
 Mixed Optimization -- En-DIIS/RFO-DIIS
 Swapping is turned off.
 Update second derivatives using D2CorX and points    1    2    3
 DE= -6.70D-05 DEPred=-7.04D-05 R= 9.52D-01
 TightC=F SS=  1.41D+00  RLast= 5.38D-02 DXNew= 5.0454D-01 1.6133D-01
 Trust test= 9.52D-01 RLast= 5.38D-02 DXMaxT set to 3.00D-01
 The second derivative matrix:
                          R1        R2        R3        A1        A2
           R1           0.06572
           R2          -0.00802   0.06502
           R3          -0.00905  -0.00934   0.06197
           A1          -0.01025  -0.01052  -0.01176   0.24470
           A2          -0.00160  -0.00166  -0.00188  -0.00314   0.24975
           A3           0.00080   0.00081   0.00088  -0.00220   0.00047
           D1          -0.00313  -0.00319  -0.00354   0.00015  -0.00127
                          A3        D1
           A3           0.25099
           D1          -0.00157   0.00309
 ITU=  1  1  0
     Eigenvalues ---    0.04531   0.07285   0.07340   0.12089   0.24982
     Eigenvalues ---    0.25213
 En-DIIS/RFO-DIIS/Sim-DIIS IScMMF=       -3 using points:     3    2
 RFO step:  Lambda=-4.72560833D-07.
 DidBck=F Rises=F RFO-DIIS coefs:    1.00583   -0.00583
 Iteration  1 RMS(Cart)=  0.00148971 RMS(Int)=  0.00000063
 Iteration  2 RMS(Cart)=  0.00000055 RMS(Int)=  0.00000011
 Variable       Old X    -DE/DX   Delta X   Delta X   Delta X     New X
                                 (Linear)    (Quad)   (Total)
    R1        4.86582   0.00001  -0.00017   0.00011  -0.00006   4.86576
    R2        4.86619   0.00000  -0.00017   0.00007  -0.00011   4.86608
    R3        4.86718  -0.00000  -0.00020   0.00002  -0.00017   4.86701
    A1        1.69318  -0.00013  -0.00003  -0.00086  -0.00089   1.69230
    A2        1.68537   0.00012  -0.00001   0.00045   0.00043   1.68580
    A3        1.68238   0.00025  -0.00001   0.00097   0.00096   1.68334
    D1       -1.70778   0.00008   0.00003   0.00068   0.00072  -1.70706
         Item               Value     Threshold  Converged?
 Maximum Force            0.000253     0.000450     YES
 RMS     Force            0.000122     0.000300     YES
 Maximum Displacement     0.001820     0.001800     NO 
 RMS     Displacement     0.001490     0.001200     NO 
 Predicted change in Energy=-2.362507D-07
 GradGradGradGradGradGradGradGradGradGradGradGradGradGradGradGradGradGrad

                          Input orientation:                          
 ---------------------------------------------------------------------
 Center     Atomic      Atomic             Coordinates (Angstroms)
 Number     Number       Type             X           Y           Z
 ---------------------------------------------------------------------
      1         15           0        9.919806    9.667532   10.151485
      2         11           0       10.714540    7.597015    8.843354
      3         11           0       11.296981   11.408650    8.846635
      4         11           0        7.720024   10.009030    8.856266
 ---------------------------------------------------------------------
                    Distance matrix (angstroms):
                    1          2          3          4
     1  P    0.000000
     2  Na   2.574849   0.000000
     3  Na   2.575021   3.855879   0.000000
     4  Na   2.575511   3.845141   3.841048   0.000000
 Stoichiometry    Na3P
 Framework group  C1[X(Na3P)]
 Deg. of freedom     6
 Full point group                 C1      NOp   1
 Largest Abelian subgroup         C1      NOp   1
 Largest concise Abelian subgroup C1      NOp   1
                         Standard orientation:                         
 ---------------------------------------------------------------------
 Center     Atomic      Atomic             Coordinates (Angstroms)
 Number     Number       Type             X           Y           Z
 ---------------------------------------------------------------------
      1         15           0       -0.001910   -0.004500    0.895643
      2         11           0       -2.059697   -0.837186   -0.408961
      3         11           0        1.761302   -1.354652   -0.407779
      4         11           0        0.300999    2.197975   -0.404590
 ---------------------------------------------------------------------
 Rotational constants (GHZ):           2.4575440           2.4389869           1.4850996
 Standard basis: def2QZVPP (5D, 7F)
 There are   290 symmetry adapted cartesian basis functions of A   symmetry.
 There are   244 symmetry adapted basis functions of A   symmetry.
   244 basis functions,   421 primitive gaussians,   290 cartesian basis functions
    24 alpha electrons       24 beta electrons
       nuclear repulsion energy       151.6485890613 Hartrees.
 NAtoms=    4 NActive=    4 NUniq=    4 SFac= 1.00D+00 NAtFMM=   60 NAOKFM=F Big=F
 Integral buffers will be    131072 words long.
 Raffenetti 2 integral format.
 Two-electron integral symmetry is turned on.
 One-electron integrals computed using PRISM.
   1 Symmetry operations used in ECPInt.
 ECPInt:  NShTT=    3403 NPrTT=   12395 LenC2=    3212 LenP2D=    8879.
 LDataN:  DoStor=T MaxTD1= 8 Len=  415
 NBasis=   244 RedAO= T EigKep=  3.08D-04  NBF=   244
 NBsUse=   244 1.00D-06 EigRej= -1.00D+00 NBFU=   244
 Initial guess from the checkpoint file:  "/data/hutter/SMG16/PBE0/Gau-87883.chk"
 B after Tr=    -0.000000   -0.000000    0.000000
         Rot=    1.000000    0.000179   -0.000077   -0.000400 Ang=   0.05 deg.
 Keep R1 ints in memory in canonical form, NReq=459043149.
 Requested convergence on RMS density matrix=1.00D-08 within 128 cycles.
 Requested convergence on MAX density matrix=1.00D-06.
 Requested convergence on             energy=1.00D-06.
 No special actions if energy rises.
 SCF Done:  E(RPBE1PBE) =  -827.848474277     A.U. after    6 cycles
            NFock=  6  Conv=0.81D-08     -V/T= 2.0030
   1 Symmetry operations used in ECPInt.
 ECPInt:  NShTT=    3403 NPrTT=   12395 LenC2=    3212 LenP2D=    8879.
 LDataN:  DoStor=T MaxTD1= 9 Len=  602
 Calling FoFJK, ICntrl=      2127 FMM=F ISym2X=0 I1Cent= 0 IOpClX= 0 NMat=1 NMatS=1 NMatT=0.
 ***** Axes restored to original set *****
 -------------------------------------------------------------------
 Center     Atomic                   Forces (Hartrees/Bohr)
 Number     Number              X              Y              Z
 -------------------------------------------------------------------
      1       15          -0.000068828    0.000032152   -0.000018414
      2       11           0.000040328    0.000012508   -0.000015815
      3       11           0.000049889   -0.000030866   -0.000001246
      4       11          -0.000021390   -0.000013795    0.000035476
 -------------------------------------------------------------------
 Cartesian Forces:  Max     0.000068828 RMS     0.000033532

 GradGradGradGradGradGradGradGradGradGradGradGradGradGradGradGradGradGrad
 Berny optimization.
 Using GEDIIS/GDIIS optimizer.
 FormGI is forming the generalized inverse of G from B-inverse, IUseBI=4.
 Internal  Forces:  Max     0.000209738 RMS     0.000100847
 Search for a local minimum.
 Step number   4 out of a maximum of   20
 All quantities printed in internal units (Hartrees-Bohrs-Radians)
 Mixed Optimization -- En-DIIS/RFO-DIIS
 Swapping is turned off.
 Update second derivatives using D2CorX and points    1    2    3    4
 DE= -4.32D-07 DEPred=-2.36D-07 R= 1.83D+00
 Trust test= 1.83D+00 RLast= 1.57D-03 DXMaxT set to 3.00D-01
 The second derivative matrix:
                          R1        R2        R3        A1        A2
           R1           0.06605
           R2          -0.00770   0.06530
           R3          -0.00894  -0.00926   0.06197
           A1          -0.00654  -0.00846  -0.01250   0.15225
           A2          -0.00402  -0.00316  -0.00160   0.04223   0.22823
           A3          -0.00450  -0.00250   0.00147   0.09628  -0.04618
           D1          -0.00420  -0.00412  -0.00376  -0.00360   0.00209
                          A3        D1
           A3           0.14984
           D1           0.00583   0.00603
 ITU=  0  1  1  0
     Eigenvalues ---    0.03213   0.04736   0.07324   0.07380   0.15667
     Eigenvalues ---    0.24985
 En-DIIS/RFO-DIIS/Sim-DIIS IScMMF=       -3 using points:     4    3    2
 RFO step:  Lambda=-1.88988509D-06.
 DidBck=F Rises=F RFO-DIIS coefs:    2.99315   -2.00000    0.00685
 Iteration  1 RMS(Cart)=  0.00714285 RMS(Int)=  0.00001455
 Iteration  2 RMS(Cart)=  0.00001247 RMS(Int)=  0.00000246
 Iteration  3 RMS(Cart)=  0.00000000 RMS(Int)=  0.00000246
 Variable       Old X    -DE/DX   Delta X   Delta X   Delta X     New X
                                 (Linear)    (Quad)   (Total)
    R1        4.86576   0.00001   0.00008   0.00023   0.00031   4.86607
    R2        4.86608   0.00001  -0.00001  -0.00000  -0.00001   4.86608
    R3        4.86701  -0.00000  -0.00012  -0.00056  -0.00067   4.86634
    A1        1.69230  -0.00011  -0.00173  -0.00248  -0.00422   1.68808
    A2        1.68580   0.00010   0.00088   0.00126   0.00214   1.68794
    A3        1.68334   0.00021   0.00192   0.00273   0.00465   1.68799
    D1       -1.70706   0.00007   0.00139   0.00200   0.00338  -1.70368
         Item               Value     Threshold  Converged?
 Maximum Force            0.000210     0.000450     YES
 RMS     Force            0.000101     0.000300     YES
 Maximum Displacement     0.009013     0.001800     NO 
 RMS     Displacement     0.007144     0.001200     NO 
 Predicted change in Energy=-9.449684D-07
 GradGradGradGradGradGradGradGradGradGradGradGradGradGradGradGradGradGrad

                          Input orientation:                          
 ---------------------------------------------------------------------
 Center     Atomic      Atomic             Coordinates (Angstroms)
 Number     Number       Type             X           Y           Z
 ---------------------------------------------------------------------
      1         15           0        9.916635    9.668991   10.150396
      2         11           0       10.717856    7.600473    8.842736
      3         11           0       11.301606   11.404735    8.846649
      4         11           0        7.715255   10.008029    8.857959
 ---------------------------------------------------------------------
                    Distance matrix (angstroms):
                    1          2          3          4
     1  P    0.000000
     2  Na   2.575014   0.000000
     3  Na   2.575016   3.848791   0.000000
     4  Na   2.575154   3.848658   3.848744   0.000000
 Stoichiometry    Na3P
 Framework group  C1[X(Na3P)]
 Deg. of freedom     6
 Full point group                 C1      NOp   1
 Largest Abelian subgroup         C1      NOp   1
 Largest concise Abelian subgroup C1      NOp   1
                         Standard orientation:                         
 ---------------------------------------------------------------------
 Center     Atomic      Atomic             Coordinates (Angstroms)
 Number     Number       Type             X           Y           Z
 ---------------------------------------------------------------------
      1         15           0        0.000064   -0.000109    0.894639
      2         11           0       -1.432675   -1.698500   -0.406676
      3         11           0        2.187340   -0.391333   -0.406698
      4         11           0       -0.754753    2.089982   -0.406588
 ---------------------------------------------------------------------
 Rotational constants (GHZ):           2.4478458           2.4476832           1.4840462
 Standard basis: def2QZVPP (5D, 7F)
 There are   290 symmetry adapted cartesian basis functions of A   symmetry.
 There are   244 symmetry adapted basis functions of A   symmetry.
   244 basis functions,   421 primitive gaussians,   290 cartesian basis functions
    24 alpha electrons       24 beta electrons
       nuclear repulsion energy       151.6332079952 Hartrees.
 NAtoms=    4 NActive=    4 NUniq=    4 SFac= 1.00D+00 NAtFMM=   60 NAOKFM=F Big=F
 Integral buffers will be    131072 words long.
 Raffenetti 2 integral format.
 Two-electron integral symmetry is turned on.
 One-electron integrals computed using PRISM.
   1 Symmetry operations used in ECPInt.
 ECPInt:  NShTT=    3403 NPrTT=   12395 LenC2=    3212 LenP2D=    8879.
 LDataN:  DoStor=T MaxTD1= 8 Len=  415
 NBasis=   244 RedAO= T EigKep=  3.10D-04  NBF=   244
 NBsUse=   244 1.00D-06 EigRej= -1.00D+00 NBFU=   244
 Initial guess from the checkpoint file:  "/data/hutter/SMG16/PBE0/Gau-87883.chk"
 B after Tr=     0.000000    0.000000    0.000000
         Rot=    0.971128    0.000931   -0.000160   -0.238556 Ang=  27.60 deg.
 Keep R1 ints in memory in canonical form, NReq=459043149.
 Requested convergence on RMS density matrix=1.00D-08 within 128 cycles.
 Requested convergence on MAX density matrix=1.00D-06.
 Requested convergence on             energy=1.00D-06.
 No special actions if energy rises.
 SCF Done:  E(RPBE1PBE) =  -827.848475077     A.U. after    7 cycles
            NFock=  7  Conv=0.91D-08     -V/T= 2.0030
   1 Symmetry operations used in ECPInt.
 ECPInt:  NShTT=    3403 NPrTT=   12395 LenC2=    3212 LenP2D=    8879.
 LDataN:  DoStor=T MaxTD1= 9 Len=  602
 Calling FoFJK, ICntrl=      2127 FMM=F ISym2X=0 I1Cent= 0 IOpClX= 0 NMat=1 NMatS=1 NMatT=0.
 ***** Axes restored to original set *****
 -------------------------------------------------------------------
 Center     Atomic                   Forces (Hartrees/Bohr)
 Number     Number              X              Y              Z
 -------------------------------------------------------------------
      1       15          -0.000013182   -0.000000013    0.000001992
      2       11           0.000003190   -0.000004350   -0.000003116
      3       11           0.000003455    0.000004333   -0.000003335
      4       11           0.000006537    0.000000031    0.000004459
 -------------------------------------------------------------------
 Cartesian Forces:  Max     0.000013182 RMS     0.000005172

 GradGradGradGradGradGradGradGradGradGradGradGradGradGradGradGradGradGrad
 Berny optimization.
 Using GEDIIS/GDIIS optimizer.
 FormGI is forming the generalized inverse of G from B-inverse, IUseBI=4.
 Internal  Forces:  Max     0.000007808 RMS     0.000005029
 Search for a local minimum.
 Step number   5 out of a maximum of   20
 All quantities printed in internal units (Hartrees-Bohrs-Radians)
 Mixed Optimization -- En-DIIS/RFO-DIIS
 Swapping is turned off.
 Update second derivatives using D2CorX and points    1    2    3    4    5
 DE= -8.00D-07 DEPred=-9.45D-07 R= 8.47D-01
 Trust test= 8.47D-01 RLast= 7.48D-03 DXMaxT set to 3.00D-01
 The second derivative matrix:
                          R1        R2        R3        A1        A2
           R1           0.06566
           R2          -0.00801   0.06508
           R3          -0.00916  -0.00941   0.06198
           A1          -0.00547  -0.00732  -0.01212   0.15218
           A2          -0.00431  -0.00346  -0.00110   0.04286   0.22779
           A3          -0.00517  -0.00323   0.00241   0.09657  -0.04651
           D1          -0.00359  -0.00354  -0.00259  -0.00363   0.00214
                          A3        D1
           A3           0.15057
           D1           0.00617   0.00562
 ITU=  0  0  1  1  0
     Eigenvalues ---    0.03168   0.04658   0.07331   0.07413   0.15621
     Eigenvalues ---    0.24988
 En-DIIS/RFO-DIIS/Sim-DIIS IScMMF=       -3 using points:     5    4    3    2
 RFO step:  Lambda=-1.83721380D-09.
 DIIS inversion failure, remove point   4.
 DIIS inversion failure, remove point   3.
 RFO-DIIS uses    2 points instead of    4
 DidBck=F Rises=F RFO-DIIS coefs:    1.01436   -0.01436    0.00000    0.00000
 Iteration  1 RMS(Cart)=  0.00008848 RMS(Int)=  0.00000003
 Iteration  2 RMS(Cart)=  0.00000000 RMS(Int)=  0.00000003
 Variable       Old X    -DE/DX   Delta X   Delta X   Delta X     New X
                                 (Linear)    (Quad)   (Total)
    R1        4.86607   0.00001   0.00000   0.00009   0.00009   4.86616
    R2        4.86608   0.00001  -0.00000   0.00010   0.00010   4.86617
    R3        4.86634  -0.00001  -0.00001  -0.00010  -0.00011   4.86623
    A1        1.68808  -0.00000  -0.00006   0.00000  -0.00006   1.68802
    A2        1.68794   0.00001   0.00003   0.00002   0.00005   1.68799
    A3        1.68799  -0.00000   0.00007  -0.00002   0.00005   1.68804
    D1       -1.70368   0.00000   0.00005  -0.00000   0.00004  -1.70364
         Item               Value     Threshold  Converged?
 Maximum Force            0.000008     0.000450     YES
 RMS     Force            0.000005     0.000300     YES
 Maximum Displacement     0.000144     0.001800     YES
 RMS     Displacement     0.000088     0.001200     YES
 Predicted change in Energy=-1.184946D-09
 Optimization completed.
    -- Stationary point found.
                           ----------------------------
                           !   Optimized Parameters   !
                           ! (Angstroms and Degrees)  !
 --------------------------                            --------------------------
 ! Name  Definition              Value          Derivative Info.                !
 --------------------------------------------------------------------------------
 ! R1    R(1,2)                  2.575          -DE/DX =    0.0                 !
 ! R2    R(1,3)                  2.575          -DE/DX =    0.0                 !
 ! R3    R(1,4)                  2.5752         -DE/DX =    0.0                 !
 ! A1    A(2,1,3)               96.7199         -DE/DX =    0.0                 !
 ! A2    A(2,1,4)               96.712          -DE/DX =    0.0                 !
 ! A3    A(3,1,4)               96.7148         -DE/DX =    0.0                 !
 ! D1    D(2,1,4,3)            -97.6136         -DE/DX =    0.0                 !
 --------------------------------------------------------------------------------
 GradGradGradGradGradGradGradGradGradGradGradGradGradGradGradGradGradGrad

                          Input orientation:                          
 ---------------------------------------------------------------------
 Center     Atomic      Atomic             Coordinates (Angstroms)
 Number     Number       Type             X           Y           Z
 ---------------------------------------------------------------------
      1         15           0        9.916635    9.668991   10.150396
      2         11           0       10.717856    7.600473    8.842736
      3         11           0       11.301606   11.404735    8.846649
      4         11           0        7.715255   10.008029    8.857959
 ---------------------------------------------------------------------
                    Distance matrix (angstroms):
                    1          2          3          4
     1  P    0.000000
     2  Na   2.575014   0.000000
     3  Na   2.575016   3.848791   0.000000
     4  Na   2.575154   3.848658   3.848744   0.000000
 Stoichiometry    Na3P
 Framework group  C1[X(Na3P)]
 Deg. of freedom     6
 Full point group                 C1      NOp   1
 Largest Abelian subgroup         C1      NOp   1
 Largest concise Abelian subgroup C1      NOp   1
                         Standard orientation:                         
 ---------------------------------------------------------------------
 Center     Atomic      Atomic             Coordinates (Angstroms)
 Number     Number       Type             X           Y           Z
 ---------------------------------------------------------------------
      1         15           0        0.000064   -0.000109    0.894639
      2         11           0       -1.432675   -1.698500   -0.406676
      3         11           0        2.187340   -0.391333   -0.406698
      4         11           0       -0.754753    2.089982   -0.406588
 ---------------------------------------------------------------------
 Rotational constants (GHZ):           2.4478458           2.4476832           1.4840462

 **********************************************************************

            Population analysis using the SCF Density.

 **********************************************************************

 Orbital symmetries:
       Occupied  (A) (A) (A) (A) (A) (A) (A) (A) (A) (A) (A) (A)
                 (A) (A) (A) (A) (A) (A) (A) (A) (A) (A) (A) (A)
       Virtual   (A) (A) (A) (A) (A) (A) (A) (A) (A) (A) (A) (A)
                 (A) (A) (A) (A) (A) (A) (A) (A) (A) (A) (A) (A)
                 (A) (A) (A) (A) (A) (A) (A) (A) (A) (A) (A) (A)
                 (A) (A) (A) (A) (A) (A) (A) (A) (A) (A) (A) (A)
                 (A) (A) (A) (A) (A) (A) (A) (A) (A) (A) (A) (A)
                 (A) (A) (A) (A) (A) (A) (A) (A) (A) (A) (A) (A)
                 (A) (A) (A) (A) (A) (A) (A) (A) (A) (A) (A) (A)
                 (A) (A) (A) (A) (A) (A) (A) (A) (A) (A) (A) (A)
                 (A) (A) (A) (A) (A) (A) (A) (A) (A) (A) (A) (A)
                 (A) (A) (A) (A) (A) (A) (A) (A) (A) (A) (A) (A)
                 (A) (A) (A) (A) (A) (A) (A) (A) (A) (A) (A) (A)
                 (A) (A) (A) (A) (A) (A) (A) (A) (A) (A) (A) (A)
                 (A) (A) (A) (A) (A) (A) (A) (A) (A) (A) (A) (A)
                 (A) (A) (A) (A) (A) (A) (A) (A) (A) (A) (A) (A)
                 (A) (A) (A) (A) (A) (A) (A) (A) (A) (A) (A) (A)
                 (A) (A) (A) (A) (A) (A) (A) (A) (A) (A) (A) (A)
                 (A) (A) (A) (A) (A) (A) (A) (A) (A) (A) (A) (A)
                 (A) (A) (A) (A) (A) (A) (A) (A) (A) (A) (A) (A)
                 (A) (A) (A) (A)
 The electronic state is 1-A.
 Alpha  occ. eigenvalues --  -77.08732 -38.54848 -38.54847 -38.54847  -6.48442
 Alpha  occ. eigenvalues --   -4.61993  -4.61804  -4.61804  -2.22441  -2.22439
 Alpha  occ. eigenvalues --   -2.22439  -1.13671  -1.13671  -1.13666  -1.13660
 Alpha  occ. eigenvalues --   -1.13657  -1.13656  -1.13578  -1.13541  -1.13540
 Alpha  occ. eigenvalues --   -0.44013  -0.13957  -0.13957  -0.13386
 Alpha virt. eigenvalues --   -0.04604  -0.02659  -0.02659   0.00096   0.00445
 Alpha virt. eigenvalues --    0.00445   0.01947   0.01987   0.01987   0.03366
 Alpha virt. eigenvalues --    0.03366   0.03447   0.04210   0.05970   0.05971
 Alpha virt. eigenvalues --    0.06141   0.06164   0.06164   0.08508   0.08508
 Alpha virt. eigenvalues --    0.09399   0.09751   0.12263   0.12263   0.13257
 Alpha virt. eigenvalues --    0.16072   0.16073   0.17012   0.17406   0.17406
 Alpha virt. eigenvalues --    0.18646   0.18646   0.19775   0.20580   0.22119
 Alpha virt. eigenvalues --    0.22796   0.22796   0.25583   0.25584   0.27407
 Alpha virt. eigenvalues --    0.27407   0.28424   0.28614   0.28748   0.28748
 Alpha virt. eigenvalues --    0.30781   0.30781   0.30787   0.31811   0.31811
 Alpha virt. eigenvalues --    0.33898   0.35211   0.37603   0.37603   0.41838
 Alpha virt. eigenvalues --    0.41854   0.41855   0.47224   0.47888   0.48485
 Alpha virt. eigenvalues --    0.48485   0.50568   0.50569   0.54674   0.54675
 Alpha virt. eigenvalues --    0.55295   0.55835   0.57955   0.57955   0.63538
 Alpha virt. eigenvalues --    0.63538   0.64233   0.64296   0.65245   0.65246
 Alpha virt. eigenvalues --    0.66187   0.66188   0.67138   0.68766   0.68767
 Alpha virt. eigenvalues --    0.69535   0.71429   0.71553   0.71809   0.71809
 Alpha virt. eigenvalues --    0.73520   0.73520   0.75583   0.75584   0.75770
 Alpha virt. eigenvalues --    0.77112   0.80038   0.80039   0.83851   0.85944
 Alpha virt. eigenvalues --    0.85946   1.00634   1.00634   1.00804   1.02938
 Alpha virt. eigenvalues --    1.03091   1.03092   1.04300   1.04300   1.05101
 Alpha virt. eigenvalues --    1.07676   1.07677   1.11769   1.15237   1.15240
 Alpha virt. eigenvalues --    1.20440   1.22818   1.27939   1.27940   1.28432
 Alpha virt. eigenvalues --    1.34056   1.34058   1.34527   1.53263   1.53269
 Alpha virt. eigenvalues --    1.55022   1.69734   1.69737   1.77256   2.41474
 Alpha virt. eigenvalues --    2.41475   2.41903   2.50786   2.50789   2.71785
 Alpha virt. eigenvalues --    2.72740   2.72741   2.73413   2.73428   2.73428
 Alpha virt. eigenvalues --    2.78709   2.79730   2.79731   2.85516   2.96252
 Alpha virt. eigenvalues --    2.96255   2.97112   3.05798   3.05800   3.09667
 Alpha virt. eigenvalues --    3.47911   3.47991   3.47992   3.48384   3.48591
 Alpha virt. eigenvalues --    3.48592   3.55443   3.55659   3.55659   3.56923
 Alpha virt. eigenvalues --    3.56924   3.57401   3.67163   3.67704   3.67707
 Alpha virt. eigenvalues --    3.86601   3.94968   3.94969   5.65168   5.81705
 Alpha virt. eigenvalues --    5.81707   5.90773   7.30689   7.30952   7.30952
 Alpha virt. eigenvalues --    7.36658   7.36659  14.11775  14.12007  14.12008
 Alpha virt. eigenvalues --   14.12211  14.12238  14.12239  14.15016  14.15352
 Alpha virt. eigenvalues --   14.15352  14.16450  14.16451  14.16824  14.24553
 Alpha virt. eigenvalues --   14.24553  14.24798  14.60967  14.60969  14.60969
 Alpha virt. eigenvalues --   14.60992  14.60992  14.61003  14.61055  14.61106
 Alpha virt. eigenvalues --   14.61107  14.61141  14.61141  14.61166  14.61192
 Alpha virt. eigenvalues --   14.61232  14.61233  14.61246  14.61246  14.61333
 Alpha virt. eigenvalues --   14.61588  14.61799  14.61800  17.83651  17.91432
 Alpha virt. eigenvalues --   17.91435  20.17653  21.05348  21.18836  21.18837
 Alpha virt. eigenvalues --   70.47235 126.34138 126.57577 126.57579 381.45537
          Condensed to atoms (all electrons):
               1          2          3          4
     1  P   14.851413   0.324359   0.324363   0.324347
     2  Na   0.324359  10.467421  -0.033315  -0.033310
     3  Na   0.324363  -0.033315  10.467416  -0.033304
     4  Na   0.324347  -0.033310  -0.033304  10.467467
 Mulliken charges:
               1
     1  P   -0.824483
     2  Na   0.274844
     3  Na   0.274840
     4  Na   0.274799
 Sum of Mulliken charges =  -0.00000
 Mulliken charges with hydrogens summed into heavy atoms:
               1
     1  P   -0.824483
     2  Na   0.274844
     3  Na   0.274840
     4  Na   0.274799
 Electronic spatial extent (au):  <R**2>=            707.3558
 Charge=             -0.0000 electrons
 Dipole moment (field-independent basis, Debye):
    X=             -0.0004    Y=              0.0007    Z=             -5.6241  Tot=              5.6241
 Quadrupole moment (field-independent basis, Debye-Ang):
   XX=            -20.2288   YY=            -20.2310   ZZ=            -44.4461
   XY=              0.0001   XZ=             -0.0004   YZ=              0.0007
 Traceless Quadrupole moment (field-independent basis, Debye-Ang):
   XX=              8.0731   YY=              8.0710   ZZ=            -16.1441
   XY=              0.0001   XZ=             -0.0004   YZ=              0.0007
 Octapole moment (field-independent basis, Debye-Ang**2):
  XXX=             27.4870  YYY=             16.1549  ZZZ=            -19.8560  XYY=            -27.4894
  XXY=            -16.1483  XXZ=            -17.1388  XZZ=              0.0001  YZZ=             -0.0000
  YYZ=            -17.1364  XYZ=             -0.0005
 Hexadecapole moment (field-independent basis, Debye-Ang**3):
 XXXX=           -266.5203 YYYY=           -266.5155 ZZZZ=           -232.0556 XXXY=              0.0037
 XXXZ=            -11.1559 YYYX=             -0.0039 YYYZ=             -6.5468 ZZZX=             -0.0017
 ZZZY=              0.0030 XXYY=            -88.8393 XXZZ=            -99.1517 YYZZ=            -99.1503
 XXYZ=              6.5540 YYXZ=             11.1511 ZZXY=              0.0005
 N-N= 1.516332079952D+02 E-N=-2.287229976853D+03  KE= 8.253893386644D+02
 Unable to Open any file for archive entry.
 1\1\GINC-TCOPT10\FOpt\RPBE1PBE\def2QZVPP\Na3P1\HUTTER\01-Aug-2021\0\\#
 N RPBE1PBE/Def2QZVPP scf=tight Int(Grid=ultrafine) OPT FREQ\\Mol job 1
 \\0,1\P,9.9166348406,9.6689907916,10.1503961526\Na,10.7178556304,7.600
 4729094,8.8427363499\Na,11.3016059895,11.4047350366,8.8466490587\Na,7.
 7152545695,10.0080291224,8.8579585789\\Version=ES64L-G16RevC.01\State=
 1-A\HF=-827.8484751\RMSD=9.142e-09\RMSF=5.172e-06\Dipole=-0.0085967,0.
 0035611,-2.2126568\Quadrupole=6.0006076,6.0018288,-12.0024364,0.000747
 3,-0.0681112,0.0289615\PG=C01 [X(Na3P1)]\\@
 The archive entry for this job was punched.


 A SUCCESSFUL PURSUIT OF SCIENCE MAKES A MAN THE
 BENEFACTOR OF ALL MANKIND OF EVERY AGE.
   --  JOSEPH PRIESTLEY, "EXPERIMENTS AND
 OBSERVATIONS ON DIFFERENT KINDS OF AIR", 1774
 Job cpu time:       0 days  0 hours 29 minutes 14.8 seconds.
 Elapsed time:       0 days  0 hours  5 minutes 42.9 seconds.
 File lengths (MBytes):  RWF=     32 Int=      0 D2E=      0 Chk=      5 Scr=      1
 Normal termination of Gaussian 16 at Sun Aug  1 12:49:33 2021.
 Link1:  Proceeding to internal job step number  2.
 ----------------------------------------------------------------------
 #N Geom=AllCheck Guess=TCheck SCRF=Check GenChk RPBE1PBE/def2QZVPP Fre
 q
 ----------------------------------------------------------------------
 1/10=4,29=7,30=1,38=1,40=1/1,3;
 2/12=2,40=1/2;
 3/5=45,7=202,11=2,14=-4,25=1,30=1,70=2,71=2,74=-13,75=-5,116=1,140=1/1,2,3;
 4/5=101/1;
 5/5=2,32=2,38=6,98=1/2;
 8/6=4,10=90,11=11/1;
 11/6=1,8=1,9=11,15=111,16=1/1,2,10;
 10/6=1/2;
 6/7=2,8=2,9=2,10=2,28=1/1;
 7/8=1,10=1,25=1/1,2,3,16;
 1/10=4,30=1/3;
 99//99;
 Structure from the checkpoint file:  "/data/hutter/SMG16/PBE0/Gau-87883.chk"
 ---------
 Mol job 1
 ---------
 Charge =  0 Multiplicity = 1
 Redundant internal coordinates found in file.  (old form).
 P,0,9.9166348406,9.6689907916,10.1503961526
 Na,0,10.7178556304,7.6004729094,8.8427363499
 Na,0,11.3016059895,11.4047350366,8.8466490587
 Na,0,7.7152545695,10.0080291224,8.8579585789
 Recover connectivity data from disk.

 GradGradGradGradGradGradGradGradGradGradGradGradGradGradGradGradGradGrad
 Berny optimization.
 Initialization pass.
                           ----------------------------
                           !    Initial Parameters    !
                           ! (Angstroms and Degrees)  !
 --------------------------                            --------------------------
 ! Name  Definition              Value          Derivative Info.                !
 --------------------------------------------------------------------------------
 ! R1    R(1,2)                  2.575          calculate D2E/DX2 analytically  !
 ! R2    R(1,3)                  2.575          calculate D2E/DX2 analytically  !
 ! R3    R(1,4)                  2.5752         calculate D2E/DX2 analytically  !
 ! A1    A(2,1,3)               96.7199         calculate D2E/DX2 analytically  !
 ! A2    A(2,1,4)               96.712          calculate D2E/DX2 analytically  !
 ! A3    A(3,1,4)               96.7148         calculate D2E/DX2 analytically  !
 ! D1    D(2,1,4,3)            -97.6136         calculate D2E/DX2 analytically  !
 --------------------------------------------------------------------------------
 Trust Radius=3.00D-01 FncErr=1.00D-07 GrdErr=1.00D-07 EigMax=2.50D+02 EigMin=1.00D-04
 Number of steps in this run=      2 maximum allowed number of steps=      2.
 GradGradGradGradGradGradGradGradGradGradGradGradGradGradGradGradGradGrad

                          Input orientation:                          
 ---------------------------------------------------------------------
 Center     Atomic      Atomic             Coordinates (Angstroms)
 Number     Number       Type             X           Y           Z
 ---------------------------------------------------------------------
      1         15           0        9.916635    9.668991   10.150396
      2         11           0       10.717856    7.600473    8.842736
      3         11           0       11.301606   11.404735    8.846649
      4         11           0        7.715255   10.008029    8.857959
 ---------------------------------------------------------------------
                    Distance matrix (angstroms):
                    1          2          3          4
     1  P    0.000000
     2  Na   2.575014   0.000000
     3  Na   2.575016   3.848791   0.000000
     4  Na   2.575154   3.848658   3.848744   0.000000
 Stoichiometry    Na3P
 Framework group  C1[X(Na3P)]
 Deg. of freedom     6
 Full point group                 C1      NOp   1
 Largest Abelian subgroup         C1      NOp   1
 Largest concise Abelian subgroup C1      NOp   1
                         Standard orientation:                         
 ---------------------------------------------------------------------
 Center     Atomic      Atomic             Coordinates (Angstroms)
 Number     Number       Type             X           Y           Z
 ---------------------------------------------------------------------
      1         15           0        0.000064   -0.000109    0.894639
      2         11           0       -1.432675   -1.698500   -0.406676
      3         11           0        2.187340   -0.391333   -0.406698
      4         11           0       -0.754753    2.089982   -0.406588
 ---------------------------------------------------------------------
 Rotational constants (GHZ):           2.4478458           2.4476832           1.4840462
 Standard basis: def2QZVPP (5D, 7F)
 There are   290 symmetry adapted cartesian basis functions of A   symmetry.
 There are   244 symmetry adapted basis functions of A   symmetry.
   244 basis functions,   421 primitive gaussians,   290 cartesian basis functions
    24 alpha electrons       24 beta electrons
       nuclear repulsion energy       151.6332079952 Hartrees.
 NAtoms=    4 NActive=    4 NUniq=    4 SFac= 1.00D+00 NAtFMM=   60 NAOKFM=F Big=F
 Integral buffers will be    131072 words long.
 Raffenetti 2 integral format.
 Two-electron integral symmetry is turned on.
 One-electron integrals computed using PRISM.
   1 Symmetry operations used in ECPInt.
 ECPInt:  NShTT=    3403 NPrTT=   12395 LenC2=    3212 LenP2D=    8879.
 LDataN:  DoStor=T MaxTD1= 8 Len=  415
 NBasis=   244 RedAO= T EigKep=  3.10D-04  NBF=   244
 NBsUse=   244 1.00D-06 EigRej= -1.00D+00 NBFU=   244
 Initial guess from the checkpoint file:  "/data/hutter/SMG16/PBE0/Gau-87883.chk"
 B after Tr=    -0.000000    0.000000    0.000000
         Rot=    1.000000   -0.000000   -0.000000   -0.000000 Ang=   0.00 deg.
 Keep R1 ints in memory in canonical form, NReq=459043149.
 Requested convergence on RMS density matrix=1.00D-08 within 128 cycles.
 Requested convergence on MAX density matrix=1.00D-06.
 Requested convergence on             energy=1.00D-06.
 No special actions if energy rises.
 SCF Done:  E(RPBE1PBE) =  -827.848475077     A.U. after    1 cycles
            NFock=  1  Conv=0.36D-08     -V/T= 2.0030
 DoSCS=F DFT=T ScalE2(SS,OS)=  1.000000  1.000000
 Range of M.O.s used for correlation:     1   244
 NBasis=   244 NAE=    24 NBE=    24 NFC=     0 NFV=     0
 NROrb=    244 NOA=    24 NOB=    24 NVA=   220 NVB=   220

 **** Warning!!: The largest alpha MO coefficient is  0.17834194D+02


 **** Warning!!: The smallest alpha delta epsilon is  0.87817418D-01

   1 Symmetry operations used in ECPInt.
 ECPInt:  NShTT=    3403 NPrTT=   12395 LenC2=    3212 LenP2D=    8879.
 LDataN:  DoStor=T MaxTD1= 9 Len=  602
 Symmetrizing basis deriv contribution to polar:
 IMax=3 JMax=2 DiffMx= 0.00D+00
 G2DrvN: will do     5 centers at a time, making    1 passes.
 Calling FoFCou, ICntrl=  3107 FMM=F I1Cent=   0 AccDes= 0.00D+00.
 End of G2Drv F.D. properties file   721 does not exist.
 End of G2Drv F.D. properties file   722 does not exist.
 End of G2Drv F.D. properties file   788 does not exist.
          IDoAtm=1111
          Differentiating once with respect to electric field.
                with respect to dipole field.
          Differentiating once with respect to nuclear coordinates.
 Keep R1 ints in memory in canonical form, NReq=459045579.
          There are    15 degrees of freedom in the 1st order CPHF.  IDoFFX=6 NUNeed=     3.
     12 vectors produced by pass  0 Test12= 3.52D-14 6.67D-09 XBig12= 7.29D+02 1.94D+01.
 AX will form    12 AO Fock derivatives at one time.
     12 vectors produced by pass  1 Test12= 3.52D-14 6.67D-09 XBig12= 4.10D+02 7.45D+00.
     12 vectors produced by pass  2 Test12= 3.52D-14 6.67D-09 XBig12= 1.44D+01 1.69D+00.
     12 vectors produced by pass  3 Test12= 3.52D-14 6.67D-09 XBig12= 4.00D-01 1.84D-01.
     12 vectors produced by pass  4 Test12= 3.52D-14 6.67D-09 XBig12= 6.63D-03 1.42D-02.
     12 vectors produced by pass  5 Test12= 3.52D-14 6.67D-09 XBig12= 9.77D-05 2.23D-03.
     12 vectors produced by pass  6 Test12= 3.52D-14 6.67D-09 XBig12= 5.75D-07 2.16D-04.
      4 vectors produced by pass  7 Test12= 3.52D-14 6.67D-09 XBig12= 3.68D-09 1.55D-05.
      4 vectors produced by pass  8 Test12= 3.52D-14 6.67D-09 XBig12= 2.19D-11 1.44D-06.
      3 vectors produced by pass  9 Test12= 3.52D-14 6.67D-09 XBig12= 1.27D-13 7.83D-08.
 InvSVY:  IOpt=1 It=  1 EMax= 1.11D-15
 Solved reduced A of dimension    95 with    12 vectors.
 Isotropic polarizability for W=    0.000000      257.00 Bohr**3.
 End of Minotr F.D. properties file   721 does not exist.
 End of Minotr F.D. properties file   722 does not exist.
 End of Minotr F.D. properties file   788 does not exist.

 **********************************************************************

            Population analysis using the SCF Density.

 **********************************************************************

 Orbital symmetries:
       Occupied  (A) (A) (A) (A) (A) (A) (A) (A) (A) (A) (A) (A)
                 (A) (A) (A) (A) (A) (A) (A) (A) (A) (A) (A) (A)
       Virtual   (A) (A) (A) (A) (A) (A) (A) (A) (A) (A) (A) (A)
                 (A) (A) (A) (A) (A) (A) (A) (A) (A) (A) (A) (A)
                 (A) (A) (A) (A) (A) (A) (A) (A) (A) (A) (A) (A)
                 (A) (A) (A) (A) (A) (A) (A) (A) (A) (A) (A) (A)
                 (A) (A) (A) (A) (A) (A) (A) (A) (A) (A) (A) (A)
                 (A) (A) (A) (A) (A) (A) (A) (A) (A) (A) (A) (A)
                 (A) (A) (A) (A) (A) (A) (A) (A) (A) (A) (A) (A)
                 (A) (A) (A) (A) (A) (A) (A) (A) (A) (A) (A) (A)
                 (A) (A) (A) (A) (A) (A) (A) (A) (A) (A) (A) (A)
                 (A) (A) (A) (A) (A) (A) (A) (A) (A) (A) (A) (A)
                 (A) (A) (A) (A) (A) (A) (A) (A) (A) (A) (A) (A)
                 (A) (A) (A) (A) (A) (A) (A) (A) (A) (A) (A) (A)
                 (A) (A) (A) (A) (A) (A) (A) (A) (A) (A) (A) (A)
                 (A) (A) (A) (A) (A) (A) (A) (A) (A) (A) (A) (A)
                 (A) (A) (A) (A) (A) (A) (A) (A) (A) (A) (A) (A)
                 (A) (A) (A) (A) (A) (A) (A) (A) (A) (A) (A) (A)
                 (A) (A) (A) (A) (A) (A) (A) (A) (A) (A) (A) (A)
                 (A) (A) (A) (A) (A) (A) (A) (A) (A) (A) (A) (A)
                 (A) (A) (A) (A)
 The electronic state is 1-A.
 Alpha  occ. eigenvalues --  -77.08732 -38.54848 -38.54847 -38.54847  -6.48442
 Alpha  occ. eigenvalues --   -4.61993  -4.61804  -4.61804  -2.22441  -2.22440
 Alpha  occ. eigenvalues --   -2.22439  -1.13671  -1.13671  -1.13666  -1.13660
 Alpha  occ. eigenvalues --   -1.13657  -1.13656  -1.13578  -1.13541  -1.13540
 Alpha  occ. eigenvalues --   -0.44013  -0.13957  -0.13957  -0.13386
 Alpha virt. eigenvalues --   -0.04604  -0.02659  -0.02659   0.00096   0.00445
 Alpha virt. eigenvalues --    0.00445   0.01947   0.01987   0.01987   0.03366
 Alpha virt. eigenvalues --    0.03366   0.03447   0.04210   0.05970   0.05970
 Alpha virt. eigenvalues --    0.06141   0.06164   0.06164   0.08508   0.08508
 Alpha virt. eigenvalues --    0.09399   0.09751   0.12263   0.12263   0.13257
 Alpha virt. eigenvalues --    0.16072   0.16073   0.17012   0.17406   0.17406
 Alpha virt. eigenvalues --    0.18646   0.18646   0.19775   0.20580   0.22119
 Alpha virt. eigenvalues --    0.22796   0.22796   0.25583   0.25584   0.27407
 Alpha virt. eigenvalues --    0.27407   0.28424   0.28614   0.28748   0.28748
 Alpha virt. eigenvalues --    0.30781   0.30781   0.30787   0.31811   0.31811
 Alpha virt. eigenvalues --    0.33898   0.35211   0.37603   0.37603   0.41838
 Alpha virt. eigenvalues --    0.41854   0.41855   0.47224   0.47888   0.48485
 Alpha virt. eigenvalues --    0.48485   0.50568   0.50569   0.54674   0.54675
 Alpha virt. eigenvalues --    0.55295   0.55835   0.57955   0.57955   0.63538
 Alpha virt. eigenvalues --    0.63538   0.64233   0.64296   0.65245   0.65246
 Alpha virt. eigenvalues --    0.66187   0.66188   0.67138   0.68766   0.68767
 Alpha virt. eigenvalues --    0.69535   0.71429   0.71553   0.71809   0.71809
 Alpha virt. eigenvalues --    0.73520   0.73520   0.75583   0.75584   0.75770
 Alpha virt. eigenvalues --    0.77112   0.80038   0.80039   0.83851   0.85944
 Alpha virt. eigenvalues --    0.85946   1.00634   1.00634   1.00804   1.02938
 Alpha virt. eigenvalues --    1.03091   1.03092   1.04300   1.04300   1.05101
 Alpha virt. eigenvalues --    1.07676   1.07677   1.11769   1.15237   1.15240
 Alpha virt. eigenvalues --    1.20440   1.22818   1.27939   1.27940   1.28432
 Alpha virt. eigenvalues --    1.34056   1.34058   1.34527   1.53263   1.53269
 Alpha virt. eigenvalues --    1.55022   1.69734   1.69737   1.77256   2.41474
 Alpha virt. eigenvalues --    2.41475   2.41903   2.50786   2.50789   2.71785
 Alpha virt. eigenvalues --    2.72740   2.72741   2.73413   2.73428   2.73428
 Alpha virt. eigenvalues --    2.78709   2.79730   2.79731   2.85516   2.96252
 Alpha virt. eigenvalues --    2.96255   2.97112   3.05798   3.05800   3.09667
 Alpha virt. eigenvalues --    3.47911   3.47991   3.47992   3.48384   3.48591
 Alpha virt. eigenvalues --    3.48592   3.55443   3.55659   3.55659   3.56923
 Alpha virt. eigenvalues --    3.56924   3.57401   3.67163   3.67704   3.67707
 Alpha virt. eigenvalues --    3.86601   3.94968   3.94969   5.65168   5.81705
 Alpha virt. eigenvalues --    5.81707   5.90773   7.30689   7.30952   7.30952
 Alpha virt. eigenvalues --    7.36658   7.36659  14.11775  14.12007  14.12008
 Alpha virt. eigenvalues --   14.12211  14.12238  14.12239  14.15016  14.15352
 Alpha virt. eigenvalues --   14.15352  14.16450  14.16451  14.16824  14.24553
 Alpha virt. eigenvalues --   14.24553  14.24798  14.60967  14.60969  14.60969
 Alpha virt. eigenvalues --   14.60992  14.60992  14.61003  14.61055  14.61106
 Alpha virt. eigenvalues --   14.61107  14.61141  14.61141  14.61166  14.61192
 Alpha virt. eigenvalues --   14.61232  14.61233  14.61246  14.61246  14.61333
 Alpha virt. eigenvalues --   14.61588  14.61799  14.61800  17.83651  17.91432
 Alpha virt. eigenvalues --   17.91435  20.17653  21.05348  21.18836  21.18837
 Alpha virt. eigenvalues --   70.47235 126.34138 126.57577 126.57579 381.45537
          Condensed to atoms (all electrons):
               1          2          3          4
     1  P   14.851412   0.324359   0.324363   0.324348
     2  Na   0.324359  10.467422  -0.033315  -0.033310
     3  Na   0.324363  -0.033315  10.467417  -0.033304
     4  Na   0.324348  -0.033310  -0.033304  10.467467
 Mulliken charges:
               1
     1  P   -0.824482
     2  Na   0.274843
     3  Na   0.274839
     4  Na   0.274799
 Sum of Mulliken charges =  -0.00000
 Mulliken charges with hydrogens summed into heavy atoms:
               1
     1  P   -0.824482
     2  Na   0.274843
     3  Na   0.274839
     4  Na   0.274799
 APT charges:
               1
     1  P   -0.918118
     2  Na   0.306046
     3  Na   0.306062
     4  Na   0.306010
 Sum of APT charges =  -0.00000
 APT charges with hydrogens summed into heavy atoms:
               1
     1  P   -0.918118
     2  Na   0.306046
     3  Na   0.306062
     4  Na   0.306010
 Electronic spatial extent (au):  <R**2>=            707.3558
 Charge=             -0.0000 electrons
 Dipole moment (field-independent basis, Debye):
    X=             -0.0004    Y=              0.0007    Z=             -5.6240  Tot=              5.6240
 Quadrupole moment (field-independent basis, Debye-Ang):
   XX=            -20.2289   YY=            -20.2310   ZZ=            -44.4461
   XY=              0.0001   XZ=             -0.0004   YZ=              0.0007
 Traceless Quadrupole moment (field-independent basis, Debye-Ang):
   XX=              8.0731   YY=              8.0710   ZZ=            -16.1441
   XY=              0.0001   XZ=             -0.0004   YZ=              0.0007
 Octapole moment (field-independent basis, Debye-Ang**2):
  XXX=             27.4869  YYY=             16.1550  ZZZ=            -19.8560  XYY=            -27.4894
  XXY=            -16.1482  XXZ=            -17.1388  XZZ=              0.0001  YZZ=             -0.0000
  YYZ=            -17.1364  XYZ=             -0.0005
 Hexadecapole moment (field-independent basis, Debye-Ang**3):
 XXXX=           -266.5204 YYYY=           -266.5154 ZZZZ=           -232.0555 XXXY=              0.0036
 XXXZ=            -11.1559 YYYX=             -0.0040 YYYZ=             -6.5468 ZZZX=             -0.0017
 ZZZY=              0.0029 XXYY=            -88.8393 XXZZ=            -99.1517 YYZZ=            -99.1503
 XXYZ=              6.5540 YYXZ=             11.1511 ZZXY=              0.0005
 N-N= 1.516332079952D+02 E-N=-2.287229977359D+03  KE= 8.253893387194D+02
  Exact polarizability:     284.501      -0.003     284.499       0.003       0.001     201.997
 Approx polarizability:     355.727      -0.001     355.718       0.009      -0.016     352.395
   1 Symmetry operations used in ECPInt.
 ECPInt:  NShTT=    3403 NPrTT=   12395 LenC2=    3212 LenP2D=    8879.
 LDataN:  DoStor=T MaxTD1=10 Len=  848
 Calling FoFJK, ICntrl=    100127 FMM=F ISym2X=0 I1Cent= 0 IOpClX= 0 NMat=1 NMatS=1 NMatT=0.
 Full mass-weighted force constant matrix:
 Low frequencies ---   -2.3803   -1.6619   -0.0016    0.0014    0.0018    2.2274
 Low frequencies ---   75.4675   75.5520   87.3106
 Diagonal vibrational polarizability:
       22.4624255      22.4723909      86.1328476
 Harmonic frequencies (cm**-1), IR intensities (KM/Mole), Raman scattering
 activities (A**4/AMU), depolarization ratios for plane and unpolarized
 incident light, reduced masses (AMU), force constants (mDyne/A),
 and normal coordinates:
                      1                      2                      3
                      A                      A                      A
 Frequencies --     75.4675                75.5519                87.3106
 Red. masses --     23.7105                23.7097                25.2814
 Frc consts  --      0.0796                 0.0797                 0.1135
 IR Inten    --      2.6997                 2.6945                23.4952
  Atom  AN      X      Y      Z        X      Y      Z        X      Y      Z
     1  15    -0.16   0.26   0.00    -0.26  -0.16  -0.00    -0.00  -0.00   0.54
     2  11     0.56  -0.31  -0.05    -0.08  -0.42   0.15     0.27   0.32  -0.24
     3  11    -0.34  -0.44  -0.11    -0.21   0.48  -0.12    -0.42   0.08  -0.24
     4  11    -0.00   0.40   0.15     0.63   0.15  -0.03     0.15  -0.40  -0.24
                      4                      5                      6
                      A                      A                      A
 Frequencies --    277.4050               310.0219               310.0557
 Red. masses --     25.1869                26.0153                26.0164
 Frc consts  --      1.1420                 1.4732                 1.4736
 IR Inten    --      9.1216                34.7787                34.7857
  Atom  AN      X      Y      Z        X      Y      Z        X      Y      Z
     1  15     0.00   0.00   0.52     0.52  -0.33  -0.00     0.33   0.52  -0.00
     2  11    -0.28  -0.33  -0.24    -0.05  -0.06  -0.04    -0.36  -0.42  -0.32
     3  11     0.42  -0.08  -0.24    -0.51   0.09   0.30    -0.21   0.04   0.12
     4  11    -0.15   0.41  -0.24    -0.15   0.41  -0.26     0.12  -0.32   0.20

 -------------------
 - Thermochemistry -
 -------------------
 Temperature   298.150 Kelvin.  Pressure   1.00000 Atm.
 Atom     1 has atomic number 15 and mass  30.97376
 Atom     2 has atomic number 11 and mass  22.98977
 Atom     3 has atomic number 11 and mass  22.98977
 Atom     4 has atomic number 11 and mass  22.98977
 Molecular mass:    99.94307 amu.
 Principal axes and moments of inertia in atomic units:
                           1         2         3
     Eigenvalues --   737.27733 737.326301216.09499
           X            1.00000  -0.00000   0.00000
           Y            0.00000   1.00000  -0.00000
           Z           -0.00000   0.00000   1.00000
 This molecule is an asymmetric top.
 Rotational symmetry number  1.
 Warning -- assumption of classical behavior for rotation
           may cause significant error
 Rotational temperatures (Kelvin)      0.11748     0.11747     0.07122
 Rotational constants (GHZ):           2.44785     2.44768     1.48405
 Zero-point vibrational energy       6793.7 (Joules/Mol)
                                    1.62373 (Kcal/Mol)
 Warning -- explicit consideration of   6 degrees of freedom as
           vibrations may cause significant error
 Vibrational temperatures:    108.58   108.70   125.62   399.12   446.05
          (Kelvin)            446.10
 
 Zero-point correction=                           0.002588 (Hartree/Particle)
 Thermal correction to Energy=                    0.009009
 Thermal correction to Enthalpy=                  0.009953
 Thermal correction to Gibbs Free Energy=        -0.029816
 Sum of electronic and zero-point Energies=           -827.845888
 Sum of electronic and thermal Energies=              -827.839466
 Sum of electronic and thermal Enthalpies=            -827.838522
 Sum of electronic and thermal Free Energies=         -827.878291
 
                     E (Thermal)             CV                S
                      KCal/Mol        Cal/Mol-Kelvin    Cal/Mol-Kelvin
 Total                    5.653             16.875             83.701
 Electronic               0.000              0.000              0.000
 Translational            0.889              2.981             39.716
 Rotational               0.889              2.981             27.982
 Vibrational              3.876             10.913             16.002
 Vibration     1          0.599              1.965              4.005
 Vibration     2          0.599              1.965              4.003
 Vibration     3          0.601              1.958              3.719
 Vibration     4          0.678              1.715              1.550
 Vibration     5          0.699              1.655              1.362
 Vibration     6          0.699              1.655              1.362
                       Q            Log10(Q)             Ln(Q)
 Total Bot       0.517808D+14         13.714169         31.578041
 Total V=0       0.802358D+15         14.904368         34.318577
 Vib (Bot)       0.453014D+01          0.656112          1.510753
 Vib (Bot)    1  0.273076D+01          0.436284          1.004581
 Vib (Bot)    2  0.272768D+01          0.435793          1.003451
 Vib (Bot)    3  0.235595D+01          0.372167          0.856945
 Vib (Bot)    4  0.694017D+00         -0.158630         -0.365259
 Vib (Bot)    5  0.609926D+00         -0.214723         -0.494418
 Vib (Bot)    6  0.609847D+00         -0.214779         -0.494547
 Vib (V=0)       0.701958D+02          1.846311          4.251288
 Vib (V=0)    1  0.327616D+01          0.515365          1.186672
 Vib (V=0)    2  0.327313D+01          0.514963          1.185745
 Vib (V=0)    3  0.290843D+01          0.463658          1.067612
 Vib (V=0)    4  0.135537D+01          0.132058          0.304075
 Vib (V=0)    5  0.128868D+01          0.110144          0.253615
 Vib (V=0)    6  0.128861D+01          0.110123          0.253568
 Electronic      0.100000D+01          0.000000          0.000000
 Translational   0.392720D+08          7.594083         17.486022
 Rotational      0.291055D+06          5.463975         12.581267
 ***** Axes restored to original set *****
 -------------------------------------------------------------------
 Center     Atomic                   Forces (Hartrees/Bohr)
 Number     Number              X              Y              Z
 -------------------------------------------------------------------
      1       15          -0.000013210   -0.000000000    0.000002043
      2       11           0.000003198   -0.000004357   -0.000003133
      3       11           0.000003462    0.000004331   -0.000003352
      4       11           0.000006549    0.000000027    0.000004442
 -------------------------------------------------------------------
 Cartesian Forces:  Max     0.000013210 RMS     0.000005183
 FormGI is forming the generalized inverse of G from B-inverse, IUseBI=4.

 GradGradGradGradGradGradGradGradGradGradGradGradGradGradGradGradGradGrad
 Berny optimization.
 Internal  Forces:  Max     0.000007815 RMS     0.000005033
 Search for a local minimum.
 Step number   1 out of a maximum of    2
 All quantities printed in internal units (Hartrees-Bohrs-Radians)
 Second derivative matrix not updated -- analytic derivatives used.
 The second derivative matrix:
                          R1        R2        R3        A1        A2
           R1           0.04601
           R2          -0.00034   0.04602
           R3          -0.00034  -0.00034   0.04602
           A1           0.00244   0.00247  -0.00056   0.01132
           A2           0.00528  -0.00004   0.00559  -0.00413   0.04315
           A3          -0.00004   0.00524   0.00555  -0.00413  -0.00029
           D1          -0.00318  -0.00321  -0.00093  -0.01039  -0.00157
                          A3        D1
           A3           0.04320
           D1          -0.00157   0.01098
 ITU=  0
     Eigenvalues ---    0.01960   0.03606   0.03942   0.04706   0.05040
     Eigenvalues ---    0.05416
 Angle between quadratic step and forces=  14.70 degrees.
 Linear search not attempted -- first point.
 Iteration  1 RMS(Cart)=  0.00017212 RMS(Int)=  0.00000001
 Iteration  2 RMS(Cart)=  0.00000001 RMS(Int)=  0.00000000
 Variable       Old X    -DE/DX   Delta X   Delta X   Delta X     New X
                                 (Linear)    (Quad)   (Total)
    R1        4.86607   0.00001   0.00000   0.00012   0.00012   4.86619
    R2        4.86608   0.00001   0.00000   0.00016   0.00016   4.86623
    R3        4.86634  -0.00001   0.00000  -0.00018  -0.00018   4.86616
    A1        1.68808  -0.00000   0.00000  -0.00009  -0.00009   1.68799
    A2        1.68794   0.00001   0.00000   0.00013   0.00013   1.68808
    A3        1.68799  -0.00000   0.00000  -0.00003  -0.00003   1.68796
    D1       -1.70368   0.00000   0.00000   0.00008   0.00008  -1.70360
         Item               Value     Threshold  Converged?
 Maximum Force            0.000008     0.000450     YES
 RMS     Force            0.000005     0.000300     YES
 Maximum Displacement     0.000276     0.001800     YES
 RMS     Displacement     0.000172     0.001200     YES
 Predicted change in Energy=-2.101500D-09
 Optimization completed.
    -- Stationary point found.
                           ----------------------------
                           !   Optimized Parameters   !
                           ! (Angstroms and Degrees)  !
 --------------------------                            --------------------------
 ! Name  Definition              Value          Derivative Info.                !
 --------------------------------------------------------------------------------
 ! R1    R(1,2)                  2.575          -DE/DX =    0.0                 !
 ! R2    R(1,3)                  2.575          -DE/DX =    0.0                 !
 ! R3    R(1,4)                  2.5752         -DE/DX =    0.0                 !
 ! A1    A(2,1,3)               96.7199         -DE/DX =    0.0                 !
 ! A2    A(2,1,4)               96.712          -DE/DX =    0.0                 !
 ! A3    A(3,1,4)               96.7148         -DE/DX =    0.0                 !
 ! D1    D(2,1,4,3)            -97.6136         -DE/DX =    0.0                 !
 --------------------------------------------------------------------------------
 GradGradGradGradGradGradGradGradGradGradGradGradGradGradGradGradGradGrad


 ----------------------------------------------------------------------

 Electric dipole moment (input orientation):
 (Debye = 10**-18 statcoulomb cm , SI units = C m)
                  (au)            (Debye)         (10**-30 SI)
   Tot        0.221267D+01      0.562404D+01      0.187598D+02
   x         -0.860070D-02     -0.218608D-01     -0.729198D-01
   y          0.356290D-02      0.905600D-02      0.302076D-01
   z         -0.221265D+01     -0.562399D+01     -0.187596D+02

 Dipole polarizability, Alpha (input orientation).
 (esu units = cm**3 , SI units = C**2 m**2 J**-1)
 Alpha(0;0):
               (au)            (10**-24 esu)      (10**-40 SI)
   iso        0.256999D+03      0.380833D+02      0.423734D+02
   aniso      0.825023D+02      0.122256D+02      0.136028D+02
   xx         0.284500D+03      0.421586D+02      0.469078D+02
   yx         0.274660D-02      0.407004D-03      0.452854D-03
   yy         0.284498D+03      0.421582D+02      0.469073D+02
   zx        -0.308571D+00     -0.457255D-01     -0.508765D-01
   zy         0.135770D+00      0.201190D-01      0.223854D-01
   zz         0.201999D+03      0.299331D+02      0.333051D+02

 ----------------------------------------------------------------------

 Dipole orientation:
    15         18.66508070        -18.30266601        -19.22471909
    11         20.18875018        -14.38976446        -16.76580165
    11         21.29186391        -21.57878403        -16.76590746
    11         14.51460181        -18.93940900        -16.76518596

 Electric dipole moment (dipole orientation):
 (Debye = 10**-18 statcoulomb cm , SI units = C m)
                  (au)            (Debye)         (10**-30 SI)
   Tot        0.221267D+01      0.562404D+01      0.187598D+02
   x          0.000000D+00      0.000000D+00      0.000000D+00
   y          0.000000D+00      0.000000D+00      0.000000D+00
   z          0.221267D+01      0.562404D+01      0.187598D+02

 Dipole polarizability, Alpha (dipole orientation).
 (esu units = cm**3 , SI units = C**2 m**2 J**-1)
 Alpha(0;0):
               (au)            (10**-24 esu)      (10**-40 SI)
   iso        0.256999D+03      0.380833D+02      0.423734D+02
   aniso      0.825023D+02      0.122256D+02      0.136028D+02
   xx         0.284501D+03      0.421588D+02      0.469079D+02
   yx        -0.223834D-02     -0.331689D-03     -0.369053D-03
   yy         0.284498D+03      0.421582D+02      0.469074D+02
   zx        -0.121181D-01     -0.179572D-02     -0.199801D-02
   zy         0.293480D-02      0.434893D-03      0.483883D-03
   zz         0.201997D+03      0.299329D+02      0.333049D+02

 ----------------------------------------------------------------------
 Unable to Open any file for archive entry.
 1\1\GINC-TCOPT10\Freq\RPBE1PBE\def2QZVPP\Na3P1\HUTTER\01-Aug-2021\0\\#
 N Geom=AllCheck Guess=TCheck SCRF=Check GenChk RPBE1PBE/def2QZVPP Freq
 \\Mol job 1\\0,1\P,9.9166348406,9.6689907916,10.1503961526\Na,10.71785
 56304,7.6004729094,8.8427363499\Na,11.3016059895,11.4047350366,8.84664
 90587\Na,7.7152545695,10.0080291224,8.8579585789\\Version=ES64L-G16Rev
 C.01\State=1-A\HF=-827.8484751\RMSD=3.583e-09\RMSF=5.183e-06\ZeroPoint
 =0.0025876\Thermal=0.0090092\ETot=-827.8394659\HTot=-827.8385217\GTot=
 -827.8782906\Dipole=-0.0086007,0.0035629,-2.2126499\DipoleDeriv=-0.964
 3628,0.0000002,0.0005385,-0.0000291,-0.9644561,-0.0001954,0.000569,-0.
 0002428,-0.8255357,0.2417981,-0.0732309,0.0398349,-0.0735988,0.4014032
 ,-0.1018513,-0.0091428,0.0239979,0.2749371,0.2981635,0.1055281,0.06877
 01,0.1060854,0.3449461,0.0853818,-0.0156975,-0.0199618,0.2750771,0.424
 4012,-0.0322974,-0.1091435,-0.0324574,0.2181067,0.0166649,0.0242713,-0
 .0037934,0.2755215\Polar=284.5002726,0.0027466,284.4977109,-0.3085712,
 0.1357698,201.9987206\Quadrupole=6.0006085,6.0018189,-12.0024273,0.000
 7472,-0.0681094,0.0289606\PG=C01 [X(Na3P1)]\NImag=0\\0.05161712,-0.000
 01074,0.05164032,-0.00006366,0.00001748,0.03366888,-0.00528566,0.01082
 258,0.00609079,0.00649327,0.01083276,-0.02901634,-0.01571035,-0.011406
 65,0.03148589,0.00731428,-0.01885375,-0.01132716,-0.00675556,0.0174126
 1,0.01171700,-0.01360689,-0.01568677,0.01047656,-0.00010137,0.00048049
 ,0.00028118,0.01525934,-0.01570086,-0.02077193,0.01314548,-0.00099466,
 -0.00173648,0.00094384,0.01652963,0.02279727,0.01258562,0.01577719,-0.
 01126344,-0.00001661,-0.00098713,-0.00019573,-0.01161860,-0.01456675,0
 .01165315,-0.03272457,0.00487493,-0.01650370,-0.00110624,0.00009340,-0
 .00083990,-0.00155108,0.00016589,-0.00095041,0.03538188,0.00487884,-0.
 00185205,0.00254739,0.00157873,-0.00073307,0.00049729,-0.00132335,-0.0
 0028886,-0.00022331,-0.00513421,0.00287398,-0.01983625,0.00305907,-0.0
 1107829,0.00068138,-0.00071513,-0.00019411,0.00086085,0.00047743,-0.00
 019398,0.01829401,-0.00282137,0.01146638\\0.00001321,0.,-0.00000204,-0
 .00000320,0.00000436,0.00000313,-0.00000346,-0.00000433,0.00000335,-0.
 00000655,-0.00000003,-0.00000444\\\@
 The archive entry for this job was punched.


 FAULTILY FAULTLESS, ICILY REGULAR, SPLENDIDLY NULL...
           MAUDE BY TENNYSON
 Job cpu time:       0 days  0 hours 36 minutes 48.0 seconds.
 Elapsed time:       0 days  0 hours  4 minutes 57.8 seconds.
 File lengths (MBytes):  RWF=     36 Int=      0 D2E=      0 Chk=      6 Scr=      1
 Normal termination of Gaussian 16 at Sun Aug  1 12:54:32 2021.
