 Entering Gaussian System, Link 0=g16
 Initial command:
 /sw-ng/spack/opt/spack/linux-opensuse_leap15-sandybridge/pgi-18.10/gaussian-src-16-C.01-zldqaomctopxhethwccpmxmwefdscg3m/g16/l1.exe "/data/hutter/SMG16/PBE0/Gau-58536.inp" -scrdir="/data/hutter/SMG16/PBE0/"
 Entering Link 1 = /sw-ng/spack/opt/spack/linux-opensuse_leap15-sandybridge/pgi-18.10/gaussian-src-16-C.01-zldqaomctopxhethwccpmxmwefdscg3m/g16/l1.exe PID=     58547.
  
 Copyright (c) 1988-2019, Gaussian, Inc.  All Rights Reserved.
  
 This is part of the Gaussian(R) 16 program.  It is based on
 the Gaussian(R) 09 system (copyright 2009, Gaussian, Inc.),
 the Gaussian(R) 03 system (copyright 2003, Gaussian, Inc.),
 the Gaussian(R) 98 system (copyright 1998, Gaussian, Inc.),
 the Gaussian(R) 94 system (copyright 1995, Gaussian, Inc.),
 the Gaussian 92(TM) system (copyright 1992, Gaussian, Inc.),
 the Gaussian 90(TM) system (copyright 1990, Gaussian, Inc.),
 the Gaussian 88(TM) system (copyright 1988, Gaussian, Inc.),
 the Gaussian 86(TM) system (copyright 1986, Carnegie Mellon
 University), and the Gaussian 82(TM) system (copyright 1983,
 Carnegie Mellon University). Gaussian is a federally registered
 trademark of Gaussian, Inc.
  
 This software contains proprietary and confidential information,
 including trade secrets, belonging to Gaussian, Inc.
  
 This software is provided under written license and may be
 used, copied, transmitted, or stored only in accord with that
 written license.
  
 The following legend is applicable only to US Government
 contracts under FAR:
  
                    RESTRICTED RIGHTS LEGEND
  
 Use, reproduction and disclosure by the US Government is
 subject to restrictions as set forth in subparagraphs (a)
 and (c) of the Commercial Computer Software - Restricted
 Rights clause in FAR 52.227-19.
  
 Gaussian, Inc.
 340 Quinnipiac St., Bldg. 40, Wallingford CT 06492
  
  
 ---------------------------------------------------------------
 Warning -- This program may not be used in any manner that
 competes with the business of Gaussian, Inc. or will provide
 assistance to any competitor of Gaussian, Inc.  The licensee
 of this program is prohibited from giving any competitor of
 Gaussian, Inc. access to this program.  By using this program,
 the user acknowledges that Gaussian, Inc. is engaged in the
 business of creating and licensing software in the field of
 computational chemistry and represents and warrants to the
 licensee that it is not a competitor of Gaussian, Inc. and that
 it will not use this program in any manner prohibited above.
 ---------------------------------------------------------------
  

 Cite this work as:
 Gaussian 16, Revision C.01,
 M. J. Frisch, G. W. Trucks, H. B. Schlegel, G. E. Scuseria, 
 M. A. Robb, J. R. Cheeseman, G. Scalmani, V. Barone, 
 G. A. Petersson, H. Nakatsuji, X. Li, M. Caricato, A. V. Marenich, 
 J. Bloino, B. G. Janesko, R. Gomperts, B. Mennucci, H. P. Hratchian, 
 J. V. Ortiz, A. F. Izmaylov, J. L. Sonnenberg, D. Williams-Young, 
 F. Ding, F. Lipparini, F. Egidi, J. Goings, B. Peng, A. Petrone, 
 T. Henderson, D. Ranasinghe, V. G. Zakrzewski, J. Gao, N. Rega, 
 G. Zheng, W. Liang, M. Hada, M. Ehara, K. Toyota, R. Fukuda, 
 J. Hasegawa, M. Ishida, T. Nakajima, Y. Honda, O. Kitao, H. Nakai, 
 T. Vreven, K. Throssell, J. A. Montgomery, Jr., J. E. Peralta, 
 F. Ogliaro, M. J. Bearpark, J. J. Heyd, E. N. Brothers, K. N. Kudin, 
 V. N. Staroverov, T. A. Keith, R. Kobayashi, J. Normand, 
 K. Raghavachari, A. P. Rendell, J. C. Burant, S. S. Iyengar, 
 J. Tomasi, M. Cossi, J. M. Millam, M. Klene, C. Adamo, R. Cammi, 
 J. W. Ochterski, R. L. Martin, K. Morokuma, O. Farkas, 
 J. B. Foresman, and D. J. Fox, Gaussian, Inc., Wallingford CT, 2019.
 
 ******************************************
 Gaussian 16:  ES64L-G16RevC.01  3-Jul-2019
                 1-Aug-2021 
 ******************************************
 %mem=8GB
 %NProcShare=8
 Will use up to    8 processors via shared memory.
 ------------------------------------------------------------
 #N RPBE1PBE/Def2QZVPP scf=tight Int(Grid=ultrafine) OPT FREQ
 ------------------------------------------------------------
 1/18=20,19=15,26=4,38=1/1,3;
 2/9=110,12=2,17=6,18=5,40=1/2;
 3/5=45,7=202,11=2,25=1,30=1,71=1,74=-13,75=-5,116=1/1,2,3;
 4//1;
 5/5=2,32=2,38=5/2;
 6/7=2,8=2,9=2,10=2,28=1/1;
 7//1,2,3,16;
 1/18=20,19=15,26=4/3(2);
 2/9=110/2;
 99//99;
 2/9=110/2;
 3/5=45,7=202,11=2,25=1,30=1,71=1,74=-13,75=-5,116=1/1,2,3;
 4/5=5,16=3,69=1/1;
 5/5=2,32=2,38=5/2;
 7//1,2,3,16;
 1/18=20,19=15,26=4/3(-5);
 2/9=110/2;
 6/7=2,8=2,9=2,10=2,19=2,28=1/1;
 99/9=1/99;
 ---------
 Mol job 1
 ---------
 Symbolic Z-matrix:
 Charge =  0 Multiplicity = 1
 Hg                    8.5       8.5       8.5 
 F                     8.5       8.5       6.54351 
 F                     8.5       8.5       10.45649 
 

 GradGradGradGradGradGradGradGradGradGradGradGradGradGradGradGradGradGrad
 Berny optimization.
 Initialization pass.
                           ----------------------------
                           !    Initial Parameters    !
                           ! (Angstroms and Degrees)  !
 --------------------------                            --------------------------
 ! Name  Definition              Value          Derivative Info.                !
 --------------------------------------------------------------------------------
 ! R1    R(1,2)                  1.9565         estimate D2E/DX2                !
 ! R2    R(1,3)                  1.9565         estimate D2E/DX2                !
 ! A1    L(2,1,3,-1,-1)        180.0            estimate D2E/DX2                !
 ! A2    L(2,1,3,-2,-2)        180.0            estimate D2E/DX2                !
 --------------------------------------------------------------------------------
 Trust Radius=3.00D-01 FncErr=1.00D-07 GrdErr=1.00D-06 EigMax=2.50D+02 EigMin=1.00D-04
 Number of steps in this run=     20 maximum allowed number of steps=    100.
 GradGradGradGradGradGradGradGradGradGradGradGradGradGradGradGradGradGrad

                          Input orientation:                          
 ---------------------------------------------------------------------
 Center     Atomic      Atomic             Coordinates (Angstroms)
 Number     Number       Type             X           Y           Z
 ---------------------------------------------------------------------
      1         80           0        8.500000    8.500000    8.500000
      2          9           0        8.500000    8.500000    6.543507
      3          9           0        8.500000    8.500000   10.456493
 ---------------------------------------------------------------------
                    Distance matrix (angstroms):
                    1          2          3
     1  Hg   0.000000
     2  F    1.956493   0.000000
     3  F    1.956493   3.912985   0.000000
 Stoichiometry    F2Hg
 Framework group  D*H[O(Hg),C*(F.F)]
 Deg. of freedom     1
 Full point group                 D*H     NOp   8
 Largest Abelian subgroup         D2H     NOp   8
 Largest concise Abelian subgroup C2      NOp   2
                         Standard orientation:                         
 ---------------------------------------------------------------------
 Center     Atomic      Atomic             Coordinates (Angstroms)
 Number     Number       Type             X           Y           Z
 ---------------------------------------------------------------------
      1         80           0        0.000000    0.000000    0.000000
      2          9           0        0.000000    0.000000    1.956493
      3          9           0        0.000000    0.000000   -1.956493
 ---------------------------------------------------------------------
 Rotational constants (GHZ):           0.0000000           3.4746708           3.4746708
 Standard basis: def2QZVPP (5D, 7F)
 There are    63 symmetry adapted cartesian basis functions of AG  symmetry.
 There are    18 symmetry adapted cartesian basis functions of B1G symmetry.
 There are    26 symmetry adapted cartesian basis functions of B2G symmetry.
 There are    26 symmetry adapted cartesian basis functions of B3G symmetry.
 There are    12 symmetry adapted cartesian basis functions of AU  symmetry.
 There are    49 symmetry adapted cartesian basis functions of B1U symmetry.
 There are    33 symmetry adapted cartesian basis functions of B2U symmetry.
 There are    33 symmetry adapted cartesian basis functions of B3U symmetry.
 There are    45 symmetry adapted basis functions of AG  symmetry.
 There are    15 symmetry adapted basis functions of B1G symmetry.
 There are    21 symmetry adapted basis functions of B2G symmetry.
 There are    21 symmetry adapted basis functions of B3G symmetry.
 There are    11 symmetry adapted basis functions of AU  symmetry.
 There are    37 symmetry adapted basis functions of B1U symmetry.
 There are    26 symmetry adapted basis functions of B2U symmetry.
 There are    26 symmetry adapted basis functions of B3U symmetry.
   202 basis functions,   329 primitive gaussians,   260 cartesian basis functions
    19 alpha electrons       19 beta electrons
       nuclear repulsion energy       108.3241867226 Hartrees.
 NAtoms=    3 NActive=    3 NUniq=    2 SFac= 2.25D+00 NAtFMM=   60 NAOKFM=F Big=F
 Integral buffers will be    131072 words long.
 Raffenetti 2 integral format.
 Two-electron integral symmetry is turned on.
 One-electron integrals computed using PRISM.
   8 Symmetry operations used in ECPInt.
 ECPInt:  NShTT=    1596 NPrTT=    4009 LenC2=    1504 LenP2D=    3256.
 LDataN:  DoStor=T MaxTD1= 9 Len=  602
 NBasis=   202 RedAO= T EigKep=  1.23D-03  NBF=    45    15    21    21    11    37    26    26
 NBsUse=   202 1.00D-06 EigRej= -1.00D+00 NBFU=    45    15    21    21    11    37    26    26
 Defaulting to unpruned grid for atomic number  80.
 ExpMin= 3.61D-02 ExpMax= 1.33D+05 ExpMxC= 1.27D+03 IAcc=3 IRadAn=         5 AccDes= 0.00D+00
 Harris functional with IExCor= 1009 and IRadAn=       5 diagonalized for initial guess.
 HarFok:  IExCor= 1009 AccDes= 0.00D+00 IRadAn=         5 IDoV= 1 UseB2=F ITyADJ=14
 ICtDFT=  3500011 ScaDFX=  1.000000  1.000000  1.000000  1.000000
 Defaulting to unpruned grid for atomic number  80.
 FoFCou: FMM=F IPFlag=           0 FMFlag=      100000 FMFlg1=           0
         NFxFlg=           0 DoJE=T BraDBF=F KetDBF=T FulRan=T
         wScrn=  0.000000 ICntrl=       500 IOpCl=  0 I1Cent=   200000004 NGrid=           0
         NMat0=    1 NMatS0=      1 NMatT0=    0 NMatD0=    1 NMtDS0=    0 NMtDT0=    0
 Petite list used in FoFCou.
 Initial guess orbital symmetries:
       Occupied  (SGU) (SGG) (SGG) (SGU) (PIU) (PIU) (SGG) (SGU)
                 (SGG) (PIG) (PIG) (SGU) (PIU) (PIU) (DLTG) (DLTG)
                 (PIG) (PIG) (SGG)
       Virtual   (SGG) (PIU) (PIU) (SGU) (SGG) (PIU) (PIU) (DLTG)
                 (DLTG) (SGG) (SGU) (PIG) (PIG) (SGU) (PIU) (PIU)
                 (DLTU) (DLTU) (PHIU) (PHIU) (SGG) (PIG) (PIG)
                 (SGG) (PIU) (PIU) (SGU) (SGU) (PIG) (PIG) (DLTG)
                 (DLTG) (PIU) (PIU) (DLTU) (DLTU) (PHIU) (PHIU)
                 (SGG) (PIU) (PIU) (SGU) (SGG) (DLTG) (DLTG) (SGU)
                 (DLTU) (DLTU) (PIG) (PIG) (SGG) (PIU) (PIU) (PIG)
                 (PIG) (PIU) (PIU) (SGU) (SGG) (DLTU) (DLTU) (PHIU)
                 (PHIU) (SGU) (PIU) (PIU) (DLTG) (DLTG) (PHIG)
                 (PHIG) (SGU) (?A) (?A) (PIG) (PIG) (SGG) (DLTG)
                 (DLTG) (PIG) (PIG) (SGG) (SGG) (PHIG) (PHIG) (PHIU)
                 (PHIU) (SGU) (SGG) (DLTU) (DLTU) (DLTG) (DLTG)
                 (SGU) (PIU) (PIU) (PIG) (PIG) (SGG) (DLTG) (DLTG)
                 (DLTU) (DLTU) (PIG) (PIG) (PIU) (PIU) (SGU) (SGG)
                 (PIG) (PIG) (PIU) (PIU) (PHIU) (PHIU) (DLTU) (DLTU)
                 (PIU) (PIU) (SGU) (PHIG) (PHIG) (?A) (?A) (DLTG)
                 (DLTG) (SGG) (SGU) (PIG) (PIG) (SGG) (PHIG) (PHIG)
                 (PHIU) (PHIU) (?B) (?B) (?A) (?A) (DLTU) (DLTU)
                 (DLTG) (DLTG) (PIU) (PIU) (SGU) (PIG) (PIG) (SGG)
                 (PHIG) (PHIG) (PHIU) (PHIU) (DLTG) (DLTG) (DLTU)
                 (DLTU) (PIU) (PIU) (PIG) (PIG) (SGU) (SGG) (SGU)
                 (SGG) (DLTG) (DLTG) (DLTU) (DLTU) (PIG) (PIG)
                 (PIU) (PIU) (SGU) (SGG) (PIU) (PIU) (SGG) (SGU)
                 (SGG) (SGU) (SGG) (SGG) (SGU)
 The electronic state of the initial guess is 1-SGG.
 Keep R1 ints in memory in symmetry-blocked form, NReq=236901681.
 Requested convergence on RMS density matrix=1.00D-08 within 128 cycles.
 Requested convergence on MAX density matrix=1.00D-06.
 Requested convergence on             energy=1.00D-06.
 No special actions if energy rises.
 Defaulting to unpruned grid for atomic number  80.
 Defaulting to unpruned grid for atomic number  80.
 Defaulting to unpruned grid for atomic number  80.
 Defaulting to unpruned grid for atomic number  80.
 Defaulting to unpruned grid for atomic number  80.
 Defaulting to unpruned grid for atomic number  80.
 Defaulting to unpruned grid for atomic number  80.
 Defaulting to unpruned grid for atomic number  80.
 EnCoef did   100 forward-backward iterations
 SCF Done:  E(RPBE1PBE) =  -353.074475924     A.U. after   10 cycles
            NFock= 10  Conv=0.36D-08     -V/T= 2.4124

 **********************************************************************

            Population analysis using the SCF Density.

 **********************************************************************

 Orbital symmetries:
       Occupied  (SGU) (SGG) (SGG) (SGU) (PIU) (PIU) (SGG) (SGU)
                 (SGG) (PIG) (PIG) (DLTG) (DLTG) (SGU) (SGG) (PIU)
                 (PIU) (PIG) (PIG)
       Virtual   (SGG) (PIU) (PIU) (SGU) (SGG) (PIU) (PIU) (DLTG)
                 (DLTG) (SGU) (SGG) (PIG) (PIG) (SGU) (DLTU) (DLTU)
                 (PHIU) (PHIU) (PIU) (PIU) (SGG) (PIG) (PIG) (SGG)
                 (PIU) (PIU) (SGU) (SGU) (DLTG) (DLTG) (PIG) (PIG)
                 (PIU) (PIU) (DLTU) (DLTU) (PHIU) (PHIU) (SGG)
                 (PIU) (PIU) (SGU) (SGG) (SGU) (DLTG) (DLTG) (DLTU)
                 (DLTU) (PIG) (PIG) (SGG) (PIU) (PIU) (PIG) (PIG)
                 (PIU) (PIU) (SGU) (SGG) (DLTU) (DLTU) (PHIU) (PHIU)
                 (SGU) (PIU) (PIU) (?A) (?A) (PHIG) (PHIG) (DLTG)
                 (DLTG) (SGU) (SGG) (PIG) (PIG) (DLTG) (DLTG) (PIG)
                 (PIG) (SGG) (SGG) (PHIG) (PHIG) (PHIU) (PHIU)
                 (SGG) (DLTG) (DLTG) (DLTU) (DLTU) (SGU) (SGU)
                 (PIU) (PIU) (PIG) (PIG) (SGG) (DLTG) (DLTG) (DLTU)
                 (DLTU) (PIG) (PIG) (PIU) (PIU) (SGU) (SGG) (PHIU)
                 (PHIU) (DLTU) (DLTU) (PIU) (PIU) (PIG) (PIG) (PIU)
                 (PIU) (SGU) (?A) (PHIG) (PHIG) (?A) (DLTG) (DLTG)
                 (SGG) (PIG) (PIG) (SGU) (SGG) (DLTU) (DLTU) (PIU)
                 (PIU) (DLTG) (DLTG) (PHIG) (PHIG) (PHIU) (PHIU)
                 (?B) (?B) (?A) (?A) (SGU) (PIG) (PIG) (SGG) (PHIG)
                 (PHIG) (PHIU) (PHIU) (DLTG) (DLTG) (DLTU) (DLTU)
                 (PIU) (PIU) (PIG) (PIG) (SGU) (SGG) (SGU) (SGG)
                 (DLTG) (DLTG) (DLTU) (DLTU) (PIG) (PIG) (PIU)
                 (PIU) (SGU) (SGG) (PIU) (PIU) (SGG) (SGU) (SGG)
                 (SGU) (SGG) (SGG) (SGU)
 The electronic state is 1-SGG.
 Alpha  occ. eigenvalues --  -24.74155 -24.74155  -4.57951  -2.70969  -2.70365
 Alpha  occ. eigenvalues --   -2.70365  -1.16571  -1.15394  -0.57928  -0.54876
 Alpha  occ. eigenvalues --   -0.54876  -0.52546  -0.52546  -0.42943  -0.41482
 Alpha  occ. eigenvalues --   -0.41214  -0.41214  -0.37890  -0.37890
 Alpha virt. eigenvalues --   -0.10164  -0.02288  -0.02288   0.04436   0.07300
 Alpha virt. eigenvalues --    0.13161   0.13161   0.20792   0.20792   0.23453
 Alpha virt. eigenvalues --    0.25937   0.26275   0.26275   0.36733   0.39202
 Alpha virt. eigenvalues --    0.39202   0.39853   0.39853   0.42514   0.42514
 Alpha virt. eigenvalues --    0.46069   0.50033   0.50033   0.50411   0.58234
 Alpha virt. eigenvalues --    0.58234   0.72796   0.90109   0.90271   0.90272
 Alpha virt. eigenvalues --    0.91806   0.91806   1.02080   1.02080   1.02960
 Alpha virt. eigenvalues --    1.02960   1.03139   1.03139   1.09175   1.11835
 Alpha virt. eigenvalues --    1.11835   1.15056   1.23062   1.39328   1.39996
 Alpha virt. eigenvalues --    1.39996   1.50780   1.50780   1.59337   1.59337
 Alpha virt. eigenvalues --    1.72157   1.74835   1.74835   1.78936   1.78936
 Alpha virt. eigenvalues --    1.92297   1.92297   1.94916   2.07305   2.38731
 Alpha virt. eigenvalues --    2.38731   2.39098   2.39098   2.45080   2.59766
 Alpha virt. eigenvalues --    2.59766   2.63386   2.63393   2.63443   2.63443
 Alpha virt. eigenvalues --    2.64275   2.64276   2.70189   2.81609   2.82118
 Alpha virt. eigenvalues --    2.82118   3.00998   3.01001   3.13546   3.13546
 Alpha virt. eigenvalues --    3.17834   3.70307   4.18840   4.18840   4.19062
 Alpha virt. eigenvalues --    4.19062   4.21068   4.23393   4.23393   4.23442
 Alpha virt. eigenvalues --    4.23442   4.23455   4.36744   4.41241   4.41241
 Alpha virt. eigenvalues --    4.47731   4.47731   4.83975   5.00391   5.00391
 Alpha virt. eigenvalues --    5.05473   5.05473   5.29087   5.29087   5.36148
 Alpha virt. eigenvalues --    5.36148   5.42820   5.76601   6.11792   6.11792
 Alpha virt. eigenvalues --    6.13136   6.13141   6.23168   6.23168   6.27522
 Alpha virt. eigenvalues --    6.27522   6.28897   6.28897   6.43278   6.60916
 Alpha virt. eigenvalues --    6.60937   6.60937   6.60971   6.66454   6.66463
 Alpha virt. eigenvalues --    6.94659   7.07970   7.07970   7.16749   7.57769
 Alpha virt. eigenvalues --   11.43068  11.43068  11.43259  11.43259  11.43412
 Alpha virt. eigenvalues --   11.43412  11.43491  11.43491  11.43501  11.43501
 Alpha virt. eigenvalues --   11.45125  11.45125  11.45126  11.45126  11.48124
 Alpha virt. eigenvalues --   11.48969  11.48969  11.56752  14.60209  14.60209
 Alpha virt. eigenvalues --   14.60338  14.60338  14.61665  14.61665  14.61947
 Alpha virt. eigenvalues --   14.61947  14.71718  14.71718  14.77833  14.77833
 Alpha virt. eigenvalues --   14.80887  14.90053  15.21442  15.25194  15.80448
 Alpha virt. eigenvalues --   15.80448  15.83825  15.83825  15.99937  15.99937
 Alpha virt. eigenvalues --   16.05649  16.05649  16.23879  16.44420  32.75962
 Alpha virt. eigenvalues --   32.75962  36.50841  39.47058  54.16361  54.24406
 Alpha virt. eigenvalues --  124.89680 285.15796 285.24937
          Condensed to atoms (all electrons):
               1          2          3
     1  Hg  18.589236   0.185316   0.185316
     2  F    0.185316   9.337433  -0.002683
     3  F    0.185316  -0.002683   9.337433
 Mulliken charges:
               1
     1  Hg   1.040133
     2  F   -0.520066
     3  F   -0.520066
 Sum of Mulliken charges =  -0.00000
 Mulliken charges with hydrogens summed into heavy atoms:
               1
     1  Hg   1.040133
     2  F   -0.520066
     3  F   -0.520066
 Electronic spatial extent (au):  <R**2>=            325.6519
 Charge=              0.0000 electrons
 Dipole moment (field-independent basis, Debye):
    X=              0.0000    Y=              0.0000    Z=             -0.0000  Tot=              0.0000
 Quadrupole moment (field-independent basis, Debye-Ang):
   XX=            -30.7895   YY=            -30.7895   ZZ=            -45.4858
   XY=              0.0000   XZ=              0.0000   YZ=              0.0000
 Traceless Quadrupole moment (field-independent basis, Debye-Ang):
   XX=              4.8988   YY=              4.8988   ZZ=             -9.7975
   XY=              0.0000   XZ=              0.0000   YZ=              0.0000
 Octapole moment (field-independent basis, Debye-Ang**2):
  XXX=             -0.0000  YYY=             -0.0000  ZZZ=              0.0000  XYY=              0.0000
  XXY=              0.0000  XXZ=             -0.0000  XZZ=              0.0000  YZZ=             -0.0000
  YYZ=             -0.0000  XYZ=              0.0000
 Hexadecapole moment (field-independent basis, Debye-Ang**3):
 XXXX=            -25.9296 YYYY=            -25.9296 ZZZZ=           -317.6577 XXXY=              0.0000
 XXXZ=              0.0000 YYYX=              0.0000 YYYZ=              0.0000 ZZZX=              0.0000
 ZZZY=              0.0000 XXYY=             -8.6432 XXZZ=            -50.6407 YYZZ=            -50.6407
 XXYZ=              0.0000 YYXZ=              0.0000 ZZXY=              0.0000
 N-N= 1.083241867226D+02 E-N=-1.014817385785D+03  KE= 2.499856460324D+02
 Symmetry AG   KE= 1.022732519799D+02
 Symmetry B1G  KE= 5.665390846711D+00
 Symmetry B2G  KE= 1.213892756216D+01
 Symmetry B3G  KE= 1.213892756216D+01
 Symmetry AU   KE= 1.496584035510D-29
 Symmetry B1U  KE= 9.417024165064D+01
 Symmetry B2U  KE= 1.179945321538D+01
 Symmetry B3U  KE= 1.179945321538D+01
   8 Symmetry operations used in ECPInt.
 ECPInt:  NShTT=    1596 NPrTT=    4009 LenC2=    1504 LenP2D=    3256.
 LDataN:  DoStor=T MaxTD1=10 Len=  848
 Calling FoFJK, ICntrl=      2127 FMM=F ISym2X=1 I1Cent= 0 IOpClX= 0 NMat=1 NMatS=1 NMatT=0.
 Defaulting to unpruned grid for atomic number  80.
 Defaulting to unpruned grid for atomic number  80.
 Defaulting to unpruned grid for atomic number  80.
 Defaulting to unpruned grid for atomic number  80.
 Defaulting to unpruned grid for atomic number  80.
 Defaulting to unpruned grid for atomic number  80.
 Defaulting to unpruned grid for atomic number  80.
 Defaulting to unpruned grid for atomic number  80.
 ***** Axes restored to original set *****
 -------------------------------------------------------------------
 Center     Atomic                   Forces (Hartrees/Bohr)
 Number     Number              X              Y              Z
 -------------------------------------------------------------------
      1       80           0.000000000   -0.000000000    0.000000000
      2        9          -0.000000000    0.000000000    0.017353344
      3        9          -0.000000000    0.000000000   -0.017353344
 -------------------------------------------------------------------
 Cartesian Forces:  Max     0.017353344 RMS     0.008180445

 GradGradGradGradGradGradGradGradGradGradGradGradGradGradGradGradGradGrad
 Berny optimization.
 FormGI is forming the generalized inverse of G from B-inverse, IUseBI=4.
 Internal  Forces:  Max     0.017353344 RMS     0.012270667
 Search for a local minimum.
 Step number   1 out of a maximum of   20
 All quantities printed in internal units (Hartrees-Bohrs-Radians)
 Mixed Optimization -- RFO/linear search
 Second derivative matrix not updated -- first step.
 The second derivative matrix:
                          R1        R2        A1        A2
           R1           0.22398
           R2           0.00000   0.22398
           A1           0.00000   0.00000   0.00230
           A2           0.00000   0.00000   0.00000   0.00230
 ITU=  0
     Eigenvalues ---    0.00230   0.00230   0.22398   0.22398
 RFO step:  Lambda=-2.65741560D-03 EMin= 2.30000000D-03
 Linear search not attempted -- first point.
 Iteration  1 RMS(Cart)=  0.05414154 RMS(Int)=  0.00000000
 Iteration  2 RMS(Cart)=  0.00000000 RMS(Int)=  0.00000000
 ClnCor:  largest displacement from symmetrization is 1.44D-12 for atom     1.
 Variable       Old X    -DE/DX   Delta X   Delta X   Delta X     New X
                                 (Linear)    (Quad)   (Total)
    R1        3.69724  -0.01735   0.00000  -0.07657  -0.07657   3.62067
    R2        3.69724  -0.01735   0.00000  -0.07657  -0.07657   3.62067
    A1        3.14159   0.00000   0.00000   0.00000   0.00000   3.14159
    A2        3.14159   0.00000   0.00000   0.00000   0.00000   3.14159
         Item               Value     Threshold  Converged?
 Maximum Force            0.017353     0.000450     NO 
 RMS     Force            0.012271     0.000300     NO 
 Maximum Displacement     0.076568     0.001800     NO 
 RMS     Displacement     0.054142     0.001200     NO 
 Predicted change in Energy=-1.344285D-03
 GradGradGradGradGradGradGradGradGradGradGradGradGradGradGradGradGradGrad

                          Input orientation:                          
 ---------------------------------------------------------------------
 Center     Atomic      Atomic             Coordinates (Angstroms)
 Number     Number       Type             X           Y           Z
 ---------------------------------------------------------------------
      1         80           0        8.500000    8.500000    8.500000
      2          9           0        8.500000    8.500000    6.584025
      3          9           0        8.500000    8.500000   10.415975
 ---------------------------------------------------------------------
                    Distance matrix (angstroms):
                    1          2          3
     1  Hg   0.000000
     2  F    1.915975   0.000000
     3  F    1.915975   3.831949   0.000000
 Stoichiometry    F2Hg
 Framework group  D*H[O(Hg),C*(F.F)]
 Deg. of freedom     1
 Full point group                 D*H     NOp   8
 Largest Abelian subgroup         D2H     NOp   8
 Largest concise Abelian subgroup C2      NOp   2
                         Standard orientation:                         
 ---------------------------------------------------------------------
 Center     Atomic      Atomic             Coordinates (Angstroms)
 Number     Number       Type             X           Y           Z
 ---------------------------------------------------------------------
      1         80           0        0.000000    0.000000    0.000000
      2          9           0        0.000000    0.000000    1.915975
      3          9           0        0.000000    0.000000   -1.915975
 ---------------------------------------------------------------------
 Rotational constants (GHZ):           0.0000000           3.6231853           3.6231853
 Standard basis: def2QZVPP (5D, 7F)
 There are    63 symmetry adapted cartesian basis functions of AG  symmetry.
 There are    18 symmetry adapted cartesian basis functions of B1G symmetry.
 There are    26 symmetry adapted cartesian basis functions of B2G symmetry.
 There are    26 symmetry adapted cartesian basis functions of B3G symmetry.
 There are    12 symmetry adapted cartesian basis functions of AU  symmetry.
 There are    49 symmetry adapted cartesian basis functions of B1U symmetry.
 There are    33 symmetry adapted cartesian basis functions of B2U symmetry.
 There are    33 symmetry adapted cartesian basis functions of B3U symmetry.
 There are    45 symmetry adapted basis functions of AG  symmetry.
 There are    15 symmetry adapted basis functions of B1G symmetry.
 There are    21 symmetry adapted basis functions of B2G symmetry.
 There are    21 symmetry adapted basis functions of B3G symmetry.
 There are    11 symmetry adapted basis functions of AU  symmetry.
 There are    37 symmetry adapted basis functions of B1U symmetry.
 There are    26 symmetry adapted basis functions of B2U symmetry.
 There are    26 symmetry adapted basis functions of B3U symmetry.
   202 basis functions,   329 primitive gaussians,   260 cartesian basis functions
    19 alpha electrons       19 beta electrons
       nuclear repulsion energy       110.6149614187 Hartrees.
 NAtoms=    3 NActive=    3 NUniq=    2 SFac= 2.25D+00 NAtFMM=   60 NAOKFM=F Big=F
 Integral buffers will be    131072 words long.
 Raffenetti 2 integral format.
 Two-electron integral symmetry is turned on.
 One-electron integrals computed using PRISM.
   8 Symmetry operations used in ECPInt.
 ECPInt:  NShTT=    1596 NPrTT=    4009 LenC2=    1508 LenP2D=    3276.
 LDataN:  DoStor=T MaxTD1= 9 Len=  602
 NBasis=   202 RedAO= T EigKep=  1.12D-03  NBF=    45    15    21    21    11    37    26    26
 NBsUse=   202 1.00D-06 EigRej= -1.00D+00 NBFU=    45    15    21    21    11    37    26    26
 Defaulting to unpruned grid for atomic number  80.
 Initial guess from the checkpoint file:  "/data/hutter/SMG16/PBE0/Gau-58547.chk"
 B after Tr=     0.000000    0.000000    0.000000
         Rot=    1.000000    0.000000    0.000000    0.000000 Ang=   0.00 deg.
 Initial guess orbital symmetries:
       Occupied  (SGU) (SGG) (SGG) (SGU) (PIU) (PIU) (SGG) (SGU)
                 (SGG) (PIG) (PIG) (DLTG) (DLTG) (SGU) (SGG) (PIU)
                 (PIU) (PIG) (PIG)
       Virtual   (SGG) (PIU) (PIU) (SGU) (SGG) (PIU) (PIU) (DLTG)
                 (DLTG) (SGU) (SGG) (PIG) (PIG) (SGU) (DLTU) (DLTU)
                 (PHIU) (PHIU) (PIU) (PIU) (SGG) (PIG) (PIG) (SGG)
                 (PIU) (PIU) (SGU) (SGU) (DLTG) (DLTG) (PIG) (PIG)
                 (PIU) (PIU) (DLTU) (DLTU) (PHIU) (PHIU) (SGG)
                 (PIU) (PIU) (SGU) (SGG) (SGU) (DLTG) (DLTG) (DLTU)
                 (DLTU) (PIG) (PIG) (SGG) (PIU) (PIU) (PIG) (PIG)
                 (PIU) (PIU) (SGU) (SGG) (DLTU) (DLTU) (PHIU) (PHIU)
                 (SGU) (PIU) (PIU) (?A) (?A) (PHIG) (PHIG) (DLTG)
                 (DLTG) (SGU) (SGG) (PIG) (PIG) (DLTG) (DLTG) (PIG)
                 (PIG) (SGG) (SGG) (PHIG) (PHIG) (PHIU) (PHIU)
                 (SGG) (DLTG) (DLTG) (DLTU) (DLTU) (SGU) (SGU)
                 (PIU) (PIU) (PIG) (PIG) (SGG) (DLTG) (DLTG) (DLTU)
                 (DLTU) (PIG) (PIG) (PIU) (PIU) (SGU) (SGG) (PHIU)
                 (PHIU) (DLTU) (DLTU) (PIU) (PIU) (PIG) (PIG) (PIU)
                 (PIU) (SGU) (?A) (PHIG) (PHIG) (?A) (DLTG) (DLTG)
                 (SGG) (PIG) (PIG) (SGU) (SGG) (DLTU) (DLTU) (PIU)
                 (PIU) (DLTG) (DLTG) (PHIG) (PHIG) (PHIU) (PHIU)
                 (?B) (?B) (?A) (?A) (SGU) (PIG) (PIG) (SGG) (PHIG)
                 (PHIG) (PHIU) (PHIU) (DLTG) (DLTG) (DLTU) (DLTU)
                 (PIU) (PIU) (PIG) (PIG) (SGU) (SGG) (SGU) (SGG)
                 (DLTG) (DLTG) (DLTU) (DLTU) (PIG) (PIG) (PIU)
                 (PIU) (SGU) (SGG) (PIU) (PIU) (SGG) (SGU) (SGG)
                 (SGU) (SGG) (SGG) (SGU)
 ExpMin= 3.61D-02 ExpMax= 1.33D+05 ExpMxC= 1.27D+03 IAcc=3 IRadAn=         5 AccDes= 0.00D+00
 Harris functional with IExCor= 1009 and IRadAn=       5 diagonalized for initial guess.
 HarFok:  IExCor= 1009 AccDes= 0.00D+00 IRadAn=         5 IDoV= 1 UseB2=F ITyADJ=14
 ICtDFT=  3500011 ScaDFX=  1.000000  1.000000  1.000000  1.000000
 Defaulting to unpruned grid for atomic number  80.
 FoFCou: FMM=F IPFlag=           0 FMFlag=      100000 FMFlg1=           0
         NFxFlg=           0 DoJE=T BraDBF=F KetDBF=T FulRan=T
         wScrn=  0.000000 ICntrl=       500 IOpCl=  0 I1Cent=   200000004 NGrid=           0
         NMat0=    1 NMatS0=      1 NMatT0=    0 NMatD0=    1 NMtDS0=    0 NMtDT0=    0
 Petite list used in FoFCou.
 Keep R1 ints in memory in symmetry-blocked form, NReq=236901681.
 Requested convergence on RMS density matrix=1.00D-08 within 128 cycles.
 Requested convergence on MAX density matrix=1.00D-06.
 Requested convergence on             energy=1.00D-06.
 No special actions if energy rises.
 Defaulting to unpruned grid for atomic number  80.
 Defaulting to unpruned grid for atomic number  80.
 Defaulting to unpruned grid for atomic number  80.
 Defaulting to unpruned grid for atomic number  80.
 Defaulting to unpruned grid for atomic number  80.
 Defaulting to unpruned grid for atomic number  80.
 Defaulting to unpruned grid for atomic number  80.
 Defaulting to unpruned grid for atomic number  80.
 SCF Done:  E(RPBE1PBE) =  -353.075902704     A.U. after    8 cycles
            NFock=  8  Conv=0.43D-08     -V/T= 2.4120
   8 Symmetry operations used in ECPInt.
 ECPInt:  NShTT=    1596 NPrTT=    4009 LenC2=    1508 LenP2D=    3276.
 LDataN:  DoStor=T MaxTD1=10 Len=  848
 Calling FoFJK, ICntrl=      2127 FMM=F ISym2X=1 I1Cent= 0 IOpClX= 0 NMat=1 NMatS=1 NMatT=0.
 Defaulting to unpruned grid for atomic number  80.
 Defaulting to unpruned grid for atomic number  80.
 Defaulting to unpruned grid for atomic number  80.
 Defaulting to unpruned grid for atomic number  80.
 Defaulting to unpruned grid for atomic number  80.
 Defaulting to unpruned grid for atomic number  80.
 Defaulting to unpruned grid for atomic number  80.
 Defaulting to unpruned grid for atomic number  80.
 ***** Axes restored to original set *****
 -------------------------------------------------------------------
 Center     Atomic                   Forces (Hartrees/Bohr)
 Number     Number              X              Y              Z
 -------------------------------------------------------------------
      1       80           0.000000000   -0.000000000   -0.000000000
      2        9          -0.000000000    0.000000000    0.000631916
      3        9          -0.000000000    0.000000000   -0.000631916
 -------------------------------------------------------------------
 Cartesian Forces:  Max     0.000631916 RMS     0.000297888

 GradGradGradGradGradGradGradGradGradGradGradGradGradGradGradGradGradGrad
 Berny optimization.
 Using GEDIIS/GDIIS optimizer.
 Internal  Forces:  Max     0.000631916 RMS     0.000446832
 Search for a local minimum.
 Step number   2 out of a maximum of   20
 All quantities printed in internal units (Hartrees-Bohrs-Radians)
 Mixed Optimization -- En-DIIS/RFO-DIIS
 Update second derivatives using D2CorX and points    1    2
 DE= -1.43D-03 DEPred=-1.34D-03 R= 1.06D+00
 TightC=F SS=  1.41D+00  RLast= 1.08D-01 DXNew= 5.0454D-01 3.2485D-01
 Trust test= 1.06D+00 RLast= 1.08D-01 DXMaxT set to 3.25D-01
 The second derivative matrix:
                          R1        R2        A1        A2
           R1           0.22119
           R2          -0.00280   0.22119
           A1           0.00000   0.00000   0.00230
           A2           0.00000   0.00000   0.00000   0.00230
 ITU=  1  0
 Use linear search instead of GDIIS.
     Eigenvalues ---    0.00230   0.00230   0.21839   0.22398
 RFO step:  Lambda= 0.00000000D+00 EMin= 2.30000000D-03
 Quartic linear search produced a step of  0.03366.
 Iteration  1 RMS(Cart)=  0.00182220 RMS(Int)=  0.00000000
 Iteration  2 RMS(Cart)=  0.00000000 RMS(Int)=  0.00000000
 ClnCor:  largest displacement from symmetrization is 3.24D-12 for atom     1.
 Variable       Old X    -DE/DX   Delta X   Delta X   Delta X     New X
                                 (Linear)    (Quad)   (Total)
    R1        3.62067  -0.00063  -0.00258   0.00000  -0.00258   3.61809
    R2        3.62067  -0.00063  -0.00258  -0.00000  -0.00258   3.61809
    A1        3.14159   0.00000   0.00000   0.00000   0.00000   3.14159
    A2        3.14159   0.00000   0.00000   0.00000   0.00000   3.14159
         Item               Value     Threshold  Converged?
 Maximum Force            0.000632     0.000450     NO 
 RMS     Force            0.000447     0.000300     NO 
 Maximum Displacement     0.002577     0.001800     NO 
 RMS     Displacement     0.001822     0.001200     NO 
 Predicted change in Energy=-1.806599D-06
 GradGradGradGradGradGradGradGradGradGradGradGradGradGradGradGradGradGrad

                          Input orientation:                          
 ---------------------------------------------------------------------
 Center     Atomic      Atomic             Coordinates (Angstroms)
 Number     Number       Type             X           Y           Z
 ---------------------------------------------------------------------
      1         80           0        8.500000    8.500000    8.500000
      2          9           0        8.500000    8.500000    6.585389
      3          9           0        8.500000    8.500000   10.414611
 ---------------------------------------------------------------------
                    Distance matrix (angstroms):
                    1          2          3
     1  Hg   0.000000
     2  F    1.914611   0.000000
     3  F    1.914611   3.829222   0.000000
 Stoichiometry    F2Hg
 Framework group  D*H[O(Hg),C*(F.F)]
 Deg. of freedom     1
 Full point group                 D*H     NOp   8
 Largest Abelian subgroup         D2H     NOp   8
 Largest concise Abelian subgroup C2      NOp   2
                         Standard orientation:                         
 ---------------------------------------------------------------------
 Center     Atomic      Atomic             Coordinates (Angstroms)
 Number     Number       Type             X           Y           Z
 ---------------------------------------------------------------------
      1         80           0        0.000000    0.000000    0.000000
      2          9           0        0.000000    0.000000    1.914611
      3          9           0        0.000000    0.000000   -1.914611
 ---------------------------------------------------------------------
 Rotational constants (GHZ):           0.0000000           3.6283483           3.6283483
 Standard basis: def2QZVPP (5D, 7F)
 There are    63 symmetry adapted cartesian basis functions of AG  symmetry.
 There are    18 symmetry adapted cartesian basis functions of B1G symmetry.
 There are    26 symmetry adapted cartesian basis functions of B2G symmetry.
 There are    26 symmetry adapted cartesian basis functions of B3G symmetry.
 There are    12 symmetry adapted cartesian basis functions of AU  symmetry.
 There are    49 symmetry adapted cartesian basis functions of B1U symmetry.
 There are    33 symmetry adapted cartesian basis functions of B2U symmetry.
 There are    33 symmetry adapted cartesian basis functions of B3U symmetry.
 There are    45 symmetry adapted basis functions of AG  symmetry.
 There are    15 symmetry adapted basis functions of B1G symmetry.
 There are    21 symmetry adapted basis functions of B2G symmetry.
 There are    21 symmetry adapted basis functions of B3G symmetry.
 There are    11 symmetry adapted basis functions of AU  symmetry.
 There are    37 symmetry adapted basis functions of B1U symmetry.
 There are    26 symmetry adapted basis functions of B2U symmetry.
 There are    26 symmetry adapted basis functions of B3U symmetry.
   202 basis functions,   329 primitive gaussians,   260 cartesian basis functions
    19 alpha electrons       19 beta electrons
       nuclear repulsion energy       110.6937468851 Hartrees.
 NAtoms=    3 NActive=    3 NUniq=    2 SFac= 2.25D+00 NAtFMM=   60 NAOKFM=F Big=F
 Integral buffers will be    131072 words long.
 Raffenetti 2 integral format.
 Two-electron integral symmetry is turned on.
 One-electron integrals computed using PRISM.
   8 Symmetry operations used in ECPInt.
 ECPInt:  NShTT=    1596 NPrTT=    4009 LenC2=    1508 LenP2D=    3276.
 LDataN:  DoStor=T MaxTD1= 9 Len=  602
 NBasis=   202 RedAO= T EigKep=  1.12D-03  NBF=    45    15    21    21    11    37    26    26
 NBsUse=   202 1.00D-06 EigRej= -1.00D+00 NBFU=    45    15    21    21    11    37    26    26
 Defaulting to unpruned grid for atomic number  80.
 Initial guess from the checkpoint file:  "/data/hutter/SMG16/PBE0/Gau-58547.chk"
 B after Tr=     0.000000    0.000000    0.000000
         Rot=    1.000000    0.000000    0.000000    0.000000 Ang=   0.00 deg.
 Initial guess orbital symmetries:
       Occupied  (SGU) (SGG) (SGG) (SGU) (PIU) (PIU) (SGG) (SGU)
                 (SGG) (PIG) (PIG) (DLTG) (DLTG) (SGU) (PIU) (PIU)
                 (SGG) (PIG) (PIG)
       Virtual   (SGG) (PIU) (PIU) (SGU) (SGG) (PIU) (PIU) (DLTG)
                 (DLTG) (SGU) (SGG) (PIG) (PIG) (SGU) (DLTU) (DLTU)
                 (PHIU) (PHIU) (PIU) (PIU) (SGG) (PIG) (PIG) (SGG)
                 (PIU) (PIU) (SGU) (SGU) (DLTG) (DLTG) (PIG) (PIG)
                 (PIU) (PIU) (DLTU) (DLTU) (PHIU) (PHIU) (SGG)
                 (PIU) (PIU) (SGU) (SGG) (SGU) (DLTG) (DLTG) (DLTU)
                 (DLTU) (PIG) (PIG) (SGG) (PIU) (PIU) (PIG) (PIG)
                 (SGU) (PIU) (PIU) (SGG) (DLTU) (DLTU) (PHIU) (PHIU)
                 (SGU) (PIU) (PIU) (PHIG) (PHIG) (?A) (?A) (DLTG)
                 (DLTG) (SGU) (SGG) (PIG) (PIG) (DLTG) (DLTG) (PIG)
                 (PIG) (SGG) (SGG) (PHIG) (PHIG) (PHIU) (PHIU)
                 (SGG) (DLTU) (DLTU) (DLTG) (DLTG) (SGU) (SGU)
                 (PIU) (PIU) (PIG) (PIG) (SGG) (DLTG) (DLTG) (DLTU)
                 (DLTU) (PIG) (PIG) (PIU) (PIU) (SGU) (SGG) (PHIU)
                 (PHIU) (DLTU) (DLTU) (PIU) (PIU) (PIG) (PIG) (PIU)
                 (PIU) (SGU) (?A) (PHIG) (PHIG) (?A) (DLTG) (DLTG)
                 (SGG) (PIG) (PIG) (SGU) (SGG) (DLTU) (DLTU) (PHIU)
                 (PHIU) (PHIG) (PHIG) (PIU) (PIU) (DLTG) (DLTG)
                 (?B) (?B) (?A) (?A) (SGU) (PIG) (PIG) (SGG) (PHIG)
                 (PHIG) (PHIU) (PHIU) (DLTU) (DLTU) (DLTG) (DLTG)
                 (PIU) (PIU) (PIG) (PIG) (SGU) (SGG) (SGU) (SGG)
                 (DLTG) (DLTG) (DLTU) (DLTU) (PIG) (PIG) (PIU)
                 (PIU) (SGU) (SGG) (PIU) (PIU) (SGG) (SGU) (SGG)
                 (SGU) (SGG) (SGG) (SGU)
 Keep R1 ints in memory in symmetry-blocked form, NReq=236901681.
 Requested convergence on RMS density matrix=1.00D-08 within 128 cycles.
 Requested convergence on MAX density matrix=1.00D-06.
 Requested convergence on             energy=1.00D-06.
 No special actions if energy rises.
 Defaulting to unpruned grid for atomic number  80.
 Defaulting to unpruned grid for atomic number  80.
 Defaulting to unpruned grid for atomic number  80.
 Defaulting to unpruned grid for atomic number  80.
 Defaulting to unpruned grid for atomic number  80.
 Defaulting to unpruned grid for atomic number  80.
 Defaulting to unpruned grid for atomic number  80.
 Defaulting to unpruned grid for atomic number  80.
 SCF Done:  E(RPBE1PBE) =  -353.075904333     A.U. after    7 cycles
            NFock=  7  Conv=0.25D-08     -V/T= 2.4120
   8 Symmetry operations used in ECPInt.
 ECPInt:  NShTT=    1596 NPrTT=    4009 LenC2=    1508 LenP2D=    3276.
 LDataN:  DoStor=T MaxTD1=10 Len=  848
 Calling FoFJK, ICntrl=      2127 FMM=F ISym2X=1 I1Cent= 0 IOpClX= 0 NMat=1 NMatS=1 NMatT=0.
 Defaulting to unpruned grid for atomic number  80.
 Defaulting to unpruned grid for atomic number  80.
 Defaulting to unpruned grid for atomic number  80.
 Defaulting to unpruned grid for atomic number  80.
 Defaulting to unpruned grid for atomic number  80.
 Defaulting to unpruned grid for atomic number  80.
 Defaulting to unpruned grid for atomic number  80.
 Defaulting to unpruned grid for atomic number  80.
 ***** Axes restored to original set *****
 -------------------------------------------------------------------
 Center     Atomic                   Forces (Hartrees/Bohr)
 Number     Number              X              Y              Z
 -------------------------------------------------------------------
      1       80           0.000000000   -0.000000000   -0.000000000
      2        9          -0.000000000    0.000000000   -0.000000913
      3        9          -0.000000000    0.000000000    0.000000913
 -------------------------------------------------------------------
 Cartesian Forces:  Max     0.000000913 RMS     0.000000430

 GradGradGradGradGradGradGradGradGradGradGradGradGradGradGradGradGradGrad
 Berny optimization.
 Using GEDIIS/GDIIS optimizer.
 Internal  Forces:  Max     0.000000913 RMS     0.000000646
 Search for a local minimum.
 Step number   3 out of a maximum of   20
 All quantities printed in internal units (Hartrees-Bohrs-Radians)
 Mixed Optimization -- En-DIIS/RFO-DIIS
 Swapping is turned off.
 Update second derivatives using D2CorX and points    1    2    3
 DE= -1.63D-06 DEPred=-1.81D-06 R= 9.01D-01
 TightC=F SS=  1.41D+00  RLast= 3.64D-03 DXNew= 5.4633D-01 1.0933D-02
 Trust test= 9.01D-01 RLast= 3.64D-03 DXMaxT set to 3.25D-01
 The second derivative matrix:
                          R1        R2        A1        A2
           R1           0.23478
           R2           0.01079   0.23478
           A1           0.00000   0.00000   0.00230
           A2           0.00000   0.00000   0.00000   0.00230
 ITU=  1  1  0
     Eigenvalues ---    0.00230   0.00230   0.22398   0.24557
 En-DIIS/RFO-DIIS/Sim-DIIS IScMMF=       -3 using points:     3    2
 RFO step:  Lambda=-5.68497979D-12.
 DidBck=F Rises=F RFO-DIIS coefs:    0.99856    0.00144
 Iteration  1 RMS(Cart)=  0.00000263 RMS(Int)=  0.00000000
 Iteration  2 RMS(Cart)=  0.00000000 RMS(Int)=  0.00000000
 ClnCor:  largest displacement from symmetrization is 3.24D-12 for atom     1.
 Variable       Old X    -DE/DX   Delta X   Delta X   Delta X     New X
                                 (Linear)    (Quad)   (Total)
    R1        3.61809   0.00000   0.00000   0.00000   0.00000   3.61809
    R2        3.61809   0.00000   0.00000  -0.00000   0.00000   3.61809
    A1        3.14159   0.00000   0.00000   0.00000   0.00000   3.14159
    A2        3.14159   0.00000   0.00000   0.00000   0.00000   3.14159
         Item               Value     Threshold  Converged?
 Maximum Force            0.000001     0.000450     YES
 RMS     Force            0.000001     0.000300     YES
 Maximum Displacement     0.000004     0.001800     YES
 RMS     Displacement     0.000003     0.001200     YES
 Predicted change in Energy=-3.394621D-12
 Optimization completed.
    -- Stationary point found.
                           ----------------------------
                           !   Optimized Parameters   !
                           ! (Angstroms and Degrees)  !
 --------------------------                            --------------------------
 ! Name  Definition              Value          Derivative Info.                !
 --------------------------------------------------------------------------------
 ! R1    R(1,2)                  1.9146         -DE/DX =    0.0                 !
 ! R2    R(1,3)                  1.9146         -DE/DX =    0.0                 !
 ! A1    L(2,1,3,-1,-1)        180.0            -DE/DX =    0.0                 !
 ! A2    L(2,1,3,-2,-2)        180.0            -DE/DX =    0.0                 !
 --------------------------------------------------------------------------------
 GradGradGradGradGradGradGradGradGradGradGradGradGradGradGradGradGradGrad

                          Input orientation:                          
 ---------------------------------------------------------------------
 Center     Atomic      Atomic             Coordinates (Angstroms)
 Number     Number       Type             X           Y           Z
 ---------------------------------------------------------------------
      1         80           0        8.500000    8.500000    8.500000
      2          9           0        8.500000    8.500000    6.585389
      3          9           0        8.500000    8.500000   10.414611
 ---------------------------------------------------------------------
                    Distance matrix (angstroms):
                    1          2          3
     1  Hg   0.000000
     2  F    1.914611   0.000000
     3  F    1.914611   3.829222   0.000000
 Stoichiometry    F2Hg
 Framework group  D*H[O(Hg),C*(F.F)]
 Deg. of freedom     1
 Full point group                 D*H     NOp   8
 Largest Abelian subgroup         D2H     NOp   8
 Largest concise Abelian subgroup C2      NOp   2
                         Standard orientation:                         
 ---------------------------------------------------------------------
 Center     Atomic      Atomic             Coordinates (Angstroms)
 Number     Number       Type             X           Y           Z
 ---------------------------------------------------------------------
      1         80           0        0.000000    0.000000    0.000000
      2          9           0        0.000000    0.000000    1.914611
      3          9           0        0.000000    0.000000   -1.914611
 ---------------------------------------------------------------------
 Rotational constants (GHZ):           0.0000000           3.6283483           3.6283483

 **********************************************************************

            Population analysis using the SCF Density.

 **********************************************************************

 Orbital symmetries:
       Occupied  (SGU) (SGG) (SGG) (SGU) (PIU) (PIU) (SGG) (SGU)
                 (SGG) (PIG) (PIG) (DLTG) (DLTG) (SGU) (PIU) (PIU)
                 (SGG) (PIG) (PIG)
       Virtual   (SGG) (PIU) (PIU) (SGU) (SGG) (PIU) (PIU) (DLTG)
                 (DLTG) (SGU) (SGG) (PIG) (PIG) (SGU) (DLTU) (DLTU)
                 (PHIU) (PHIU) (PIU) (PIU) (SGG) (PIG) (PIG) (SGG)
                 (PIU) (PIU) (SGU) (SGU) (DLTG) (DLTG) (PIG) (PIG)
                 (PIU) (PIU) (DLTU) (DLTU) (PHIU) (PHIU) (SGG)
                 (PIU) (PIU) (SGU) (SGG) (SGU) (DLTG) (DLTG) (DLTU)
                 (DLTU) (PIG) (PIG) (SGG) (PIU) (PIU) (PIG) (PIG)
                 (SGU) (PIU) (PIU) (SGG) (DLTU) (DLTU) (PHIU) (PHIU)
                 (SGU) (PIU) (PIU) (PHIG) (PHIG) (?A) (?A) (DLTG)
                 (DLTG) (SGU) (SGG) (PIG) (PIG) (DLTG) (DLTG) (PIG)
                 (PIG) (SGG) (SGG) (PHIG) (PHIG) (PHIU) (PHIU)
                 (SGG) (DLTU) (DLTU) (DLTG) (DLTG) (SGU) (SGU)
                 (PIU) (PIU) (PIG) (PIG) (SGG) (DLTG) (DLTG) (DLTU)
                 (DLTU) (PIG) (PIG) (PIU) (PIU) (SGU) (SGG) (PHIU)
                 (PHIU) (DLTU) (DLTU) (PIU) (PIU) (PIG) (PIG) (PIU)
                 (PIU) (SGU) (?A) (PHIG) (PHIG) (?A) (DLTG) (DLTG)
                 (SGG) (PIG) (PIG) (SGU) (SGG) (DLTU) (DLTU) (PHIU)
                 (PHIU) (PHIG) (PHIG) (PIU) (PIU) (DLTG) (DLTG)
                 (?B) (?B) (?A) (?A) (SGU) (PIG) (PIG) (SGG) (PHIG)
                 (PHIG) (PHIU) (PHIU) (DLTU) (DLTU) (DLTG) (DLTG)
                 (PIU) (PIU) (PIG) (PIG) (SGU) (SGG) (SGU) (SGG)
                 (DLTG) (DLTG) (DLTU) (DLTU) (PIG) (PIG) (PIU)
                 (PIU) (SGU) (SGG) (PIU) (PIU) (SGG) (SGU) (SGG)
                 (SGU) (SGG) (SGG) (SGU)
 The electronic state is 1-SGG.
 Alpha  occ. eigenvalues --  -24.74272 -24.74272  -4.57741  -2.70879  -2.70100
 Alpha  occ. eigenvalues --   -2.70100  -1.17374  -1.15910  -0.58536  -0.55175
 Alpha  occ. eigenvalues --   -0.55175  -0.52249  -0.52249  -0.43393  -0.41687
 Alpha  occ. eigenvalues --   -0.41687  -0.41191  -0.37701  -0.37701
 Alpha virt. eigenvalues --   -0.08673  -0.02014  -0.02014   0.04509   0.07697
 Alpha virt. eigenvalues --    0.13330   0.13330   0.20926   0.20926   0.23890
 Alpha virt. eigenvalues --    0.26120   0.26477   0.26477   0.36871   0.39247
 Alpha virt. eigenvalues --    0.39247   0.40021   0.40021   0.42656   0.42656
 Alpha virt. eigenvalues --    0.46268   0.50429   0.50429   0.50536   0.59029
 Alpha virt. eigenvalues --    0.59029   0.73973   0.89363   0.90445   0.90446
 Alpha virt. eigenvalues --    0.92322   0.92322   1.02395   1.02395   1.03021
 Alpha virt. eigenvalues --    1.03021   1.03413   1.03413   1.10330   1.12128
 Alpha virt. eigenvalues --    1.12128   1.18022   1.24196   1.38406   1.39679
 Alpha virt. eigenvalues --    1.39679   1.51383   1.51383   1.60805   1.60805
 Alpha virt. eigenvalues --    1.72333   1.74664   1.74664   1.79334   1.79334
 Alpha virt. eigenvalues --    1.95975   1.96439   1.96439   2.12961   2.39105
 Alpha virt. eigenvalues --    2.39105   2.39385   2.39385   2.41046   2.60296
 Alpha virt. eigenvalues --    2.60296   2.63657   2.63657   2.63739   2.63746
 Alpha virt. eigenvalues --    2.64632   2.64632   2.76059   2.80830   2.83910
 Alpha virt. eigenvalues --    2.83910   3.01317   3.01320   3.14718   3.14718
 Alpha virt. eigenvalues --    3.20575   3.73211   4.18478   4.18478   4.18671
 Alpha virt. eigenvalues --    4.18671   4.23130   4.24059   4.24059   4.24806
 Alpha virt. eigenvalues --    4.24806   4.26401   4.38825   4.41023   4.41023
 Alpha virt. eigenvalues --    4.53142   4.53142   4.93556   5.00571   5.00571
 Alpha virt. eigenvalues --    5.05866   5.05867   5.32722   5.32722   5.37821
 Alpha virt. eigenvalues --    5.37821   5.47230   5.83535   6.12090   6.12090
 Alpha virt. eigenvalues --    6.13343   6.13346   6.23877   6.23877   6.28349
 Alpha virt. eigenvalues --    6.28349   6.29691   6.29691   6.51202   6.61224
 Alpha virt. eigenvalues --    6.61241   6.61241   6.61262   6.68151   6.68156
 Alpha virt. eigenvalues --    7.03611   7.13925   7.13925   7.18483   7.58832
 Alpha virt. eigenvalues --   11.42592  11.42593  11.43046  11.43046  11.43053
 Alpha virt. eigenvalues --   11.43053  11.43275  11.43275  11.43443  11.43443
 Alpha virt. eigenvalues --   11.44726  11.44726  11.44727  11.44727  11.50302
 Alpha virt. eigenvalues --   11.50973  11.50973  11.60041  14.59922  14.59922
 Alpha virt. eigenvalues --   14.60046  14.60046  14.62154  14.62154  14.62280
 Alpha virt. eigenvalues --   14.62280  14.72547  14.72547  14.81543  14.81543
 Alpha virt. eigenvalues --   14.85997  14.92458  15.25722  15.32193  15.80529
 Alpha virt. eigenvalues --   15.80529  15.84077  15.84077  16.01588  16.01588
 Alpha virt. eigenvalues --   16.07331  16.07331  16.26303  16.47720  32.83366
 Alpha virt. eigenvalues --   32.83366  36.53073  40.09958  54.18862  54.27133
 Alpha virt. eigenvalues --  124.90658 285.18834 285.28231
          Condensed to atoms (all electrons):
               1          2          3
     1  Hg  18.589970   0.182824   0.182824
     2  F    0.182824   9.342789  -0.003423
     3  F    0.182824  -0.003423   9.342789
 Mulliken charges:
               1
     1  Hg   1.044382
     2  F   -0.522191
     3  F   -0.522191
 Sum of Mulliken charges =   0.00000
 Mulliken charges with hydrogens summed into heavy atoms:
               1
     1  Hg   1.044382
     2  F   -0.522191
     3  F   -0.522191
 Electronic spatial extent (au):  <R**2>=            314.7068
 Charge=             -0.0000 electrons
 Dipole moment (field-independent basis, Debye):
    X=              0.0000    Y=              0.0000    Z=              0.0000  Tot=              0.0000
 Quadrupole moment (field-independent basis, Debye-Ang):
   XX=            -30.8053   YY=            -30.8053   ZZ=            -44.7499
   XY=             -0.0000   XZ=              0.0000   YZ=              0.0000
 Traceless Quadrupole moment (field-independent basis, Debye-Ang):
   XX=              4.6482   YY=              4.6482   ZZ=             -9.2964
   XY=             -0.0000   XZ=              0.0000   YZ=              0.0000
 Octapole moment (field-independent basis, Debye-Ang**2):
  XXX=              0.0000  YYY=              0.0000  ZZZ=             -0.0000  XYY=              0.0000
  XXY=              0.0000  XXZ=             -0.0000  XZZ=              0.0000  YZZ=              0.0000
  YYZ=              0.0000  XYZ=             -0.0000
 Hexadecapole moment (field-independent basis, Debye-Ang**3):
 XXXX=            -25.9974 YYYY=            -25.9974 ZZZZ=           -302.6615 XXXY=             -0.0000
 XXXZ=              0.0000 YYYX=             -0.0000 YYYZ=              0.0000 ZZZX=              0.0000
 ZZZY=              0.0000 XXYY=             -8.6658 XXZZ=            -48.6617 YYZZ=            -48.6617
 XXYZ=              0.0000 YYXZ=              0.0000 ZZXY=              0.0000
 N-N= 1.106937468851D+02 E-N=-1.019573141212D+03  KE= 2.500508366143D+02
 Symmetry AG   KE= 1.022464434601D+02
 Symmetry B1G  KE= 5.664343128044D+00
 Symmetry B2G  KE= 1.216729607893D+01
 Symmetry B3G  KE= 1.216729607893D+01
 Symmetry AU   KE=-3.374405634245D-29
 Symmetry B1U  KE= 9.422808087025D+01
 Symmetry B2U  KE= 1.178868849904D+01
 Symmetry B3U  KE= 1.178868849904D+01
 Unable to Open any file for archive entry.
 1\1\GINC-TCOPT10\FOpt\RPBE1PBE\def2QZVPP\F2Hg1\HUTTER\01-Aug-2021\0\\#
 N RPBE1PBE/Def2QZVPP scf=tight Int(Grid=ultrafine) OPT FREQ\\Mol job 1
 \\0,1\Hg,8.5,8.5,8.5\F,8.5,8.5,6.5853889317\F,8.5,8.5,10.4146110683\\V
 ersion=ES64L-G16RevC.01\State=1-SGG\HF=-353.0759043\RMSD=2.497e-09\RMS
 F=4.304e-07\Dipole=0.,0.,0.\Quadrupole=3.4558195,3.4558195,-6.9116391,
 0.,0.,0.\PG=D*H [O(Hg1),C*(F1.F1)]\\@
 The archive entry for this job was punched.


 THE MOST INCOMPREHENSIBLE THING ABOUT THE WORLD
 IS THAT IT IS COMPREHENSIBLE. -- A. EINSTEIN
 Job cpu time:       0 days  0 hours 13 minutes 30.4 seconds.
 Elapsed time:       0 days  0 hours  2 minutes 34.2 seconds.
 File lengths (MBytes):  RWF=     21 Int=      0 D2E=      0 Chk=      4 Scr=      1
 Normal termination of Gaussian 16 at Sun Aug  1 11:39:09 2021.
 Link1:  Proceeding to internal job step number  2.
 ----------------------------------------------------------------------
 #N Geom=AllCheck Guess=TCheck SCRF=Check GenChk RPBE1PBE/def2QZVPP Fre
 q
 ----------------------------------------------------------------------
 1/10=4,29=7,30=1,38=1,40=1/1,3;
 2/12=2,40=1/2;
 3/5=45,7=202,11=2,14=-4,25=1,30=1,70=2,71=2,74=-13,75=-5,116=1,140=1/1,2,3;
 4/5=101/1;
 5/5=2,32=2,38=6,98=1/2;
 8/6=4,10=90,11=11/1;
 11/6=1,8=1,9=11,15=111,16=1/1,2,10;
 10/6=1/2;
 6/7=2,8=2,9=2,10=2,28=1/1;
 7/8=1,10=1,25=1/1,2,3,16;
 1/10=4,30=1/3;
 99//99;
 Structure from the checkpoint file:  "/data/hutter/SMG16/PBE0/Gau-58547.chk"
 ---------
 Mol job 1
 ---------
 Charge =  0 Multiplicity = 1
 Redundant internal coordinates found in file.  (old form).
 Hg,0,8.5,8.5,8.5
 F,0,8.5,8.5,6.5853889317
 F,0,8.5,8.5,10.4146110683
 Recover connectivity data from disk.

 GradGradGradGradGradGradGradGradGradGradGradGradGradGradGradGradGradGrad
 Berny optimization.
 Initialization pass.
                           ----------------------------
                           !    Initial Parameters    !
                           ! (Angstroms and Degrees)  !
 --------------------------                            --------------------------
 ! Name  Definition              Value          Derivative Info.                !
 --------------------------------------------------------------------------------
 ! R1    R(1,2)                  1.9146         calculate D2E/DX2 analytically  !
 ! R2    R(1,3)                  1.9146         calculate D2E/DX2 analytically  !
 ! A1    L(2,1,3,-1,-1)        180.0            calculate D2E/DX2 analytically  !
 ! A2    L(2,1,3,-2,-2)        180.0            calculate D2E/DX2 analytically  !
 --------------------------------------------------------------------------------
 Trust Radius=3.00D-01 FncErr=1.00D-07 GrdErr=1.00D-07 EigMax=2.50D+02 EigMin=1.00D-04
 Number of steps in this run=      2 maximum allowed number of steps=      2.
 GradGradGradGradGradGradGradGradGradGradGradGradGradGradGradGradGradGrad

                          Input orientation:                          
 ---------------------------------------------------------------------
 Center     Atomic      Atomic             Coordinates (Angstroms)
 Number     Number       Type             X           Y           Z
 ---------------------------------------------------------------------
      1         80           0        8.500000    8.500000    8.500000
      2          9           0        8.500000    8.500000    6.585389
      3          9           0        8.500000    8.500000   10.414611
 ---------------------------------------------------------------------
                    Distance matrix (angstroms):
                    1          2          3
     1  Hg   0.000000
     2  F    1.914611   0.000000
     3  F    1.914611   3.829222   0.000000
 Stoichiometry    F2Hg
 Framework group  D*H[O(Hg),C*(F.F)]
 Deg. of freedom     1
 Full point group                 D*H     NOp   8
 Largest Abelian subgroup         D2H     NOp   8
 Largest concise Abelian subgroup C2      NOp   2
                         Standard orientation:                         
 ---------------------------------------------------------------------
 Center     Atomic      Atomic             Coordinates (Angstroms)
 Number     Number       Type             X           Y           Z
 ---------------------------------------------------------------------
      1         80           0        0.000000    0.000000    0.000000
      2          9           0        0.000000    0.000000    1.914611
      3          9           0        0.000000    0.000000   -1.914611
 ---------------------------------------------------------------------
 Rotational constants (GHZ):           0.0000000           3.6283483           3.6283483
 Standard basis: def2QZVPP (5D, 7F)
 There are    63 symmetry adapted cartesian basis functions of AG  symmetry.
 There are    18 symmetry adapted cartesian basis functions of B1G symmetry.
 There are    26 symmetry adapted cartesian basis functions of B2G symmetry.
 There are    26 symmetry adapted cartesian basis functions of B3G symmetry.
 There are    12 symmetry adapted cartesian basis functions of AU  symmetry.
 There are    49 symmetry adapted cartesian basis functions of B1U symmetry.
 There are    33 symmetry adapted cartesian basis functions of B2U symmetry.
 There are    33 symmetry adapted cartesian basis functions of B3U symmetry.
 There are    45 symmetry adapted basis functions of AG  symmetry.
 There are    15 symmetry adapted basis functions of B1G symmetry.
 There are    21 symmetry adapted basis functions of B2G symmetry.
 There are    21 symmetry adapted basis functions of B3G symmetry.
 There are    11 symmetry adapted basis functions of AU  symmetry.
 There are    37 symmetry adapted basis functions of B1U symmetry.
 There are    26 symmetry adapted basis functions of B2U symmetry.
 There are    26 symmetry adapted basis functions of B3U symmetry.
   202 basis functions,   329 primitive gaussians,   260 cartesian basis functions
    19 alpha electrons       19 beta electrons
       nuclear repulsion energy       110.6937468851 Hartrees.
 NAtoms=    3 NActive=    3 NUniq=    2 SFac= 2.25D+00 NAtFMM=   60 NAOKFM=F Big=F
 Integral buffers will be    131072 words long.
 Raffenetti 2 integral format.
 Two-electron integral symmetry is turned on.
 One-electron integrals computed using PRISM.
   8 Symmetry operations used in ECPInt.
 ECPInt:  NShTT=    1596 NPrTT=    4009 LenC2=    1508 LenP2D=    3276.
 LDataN:  DoStor=T MaxTD1= 9 Len=  602
 NBasis=   202 RedAO= T EigKep=  1.12D-03  NBF=    45    15    21    21    11    37    26    26
 NBsUse=   202 1.00D-06 EigRej= -1.00D+00 NBFU=    45    15    21    21    11    37    26    26
 Defaulting to unpruned grid for atomic number  80.
 Initial guess from the checkpoint file:  "/data/hutter/SMG16/PBE0/Gau-58547.chk"
 B after Tr=     0.000000    0.000000    0.000000
         Rot=    1.000000    0.000000    0.000000    0.000000 Ang=   0.00 deg.
 Initial guess orbital symmetries:
       Occupied  (SGU) (SGG) (SGG) (SGU) (PIU) (PIU) (SGG) (SGU)
                 (SGG) (PIG) (PIG) (DLTG) (DLTG) (SGU) (PIU) (PIU)
                 (SGG) (PIG) (PIG)
       Virtual   (SGG) (PIU) (PIU) (SGU) (SGG) (PIU) (PIU) (DLTG)
                 (DLTG) (SGU) (SGG) (PIG) (PIG) (SGU) (DLTU) (DLTU)
                 (PHIU) (PHIU) (PIU) (PIU) (SGG) (PIG) (PIG) (SGG)
                 (PIU) (PIU) (SGU) (SGU) (DLTG) (DLTG) (PIG) (PIG)
                 (PIU) (PIU) (DLTU) (DLTU) (PHIU) (PHIU) (SGG)
                 (PIU) (PIU) (SGU) (SGG) (SGU) (DLTG) (DLTG) (DLTU)
                 (DLTU) (PIG) (PIG) (SGG) (PIU) (PIU) (PIG) (PIG)
                 (SGU) (PIU) (PIU) (SGG) (DLTU) (DLTU) (PHIU) (PHIU)
                 (SGU) (PIU) (PIU) (PHIG) (PHIG) (?A) (?A) (DLTG)
                 (DLTG) (SGU) (SGG) (PIG) (PIG) (DLTG) (DLTG) (PIG)
                 (PIG) (SGG) (SGG) (PHIG) (PHIG) (PHIU) (PHIU)
                 (SGG) (DLTU) (DLTU) (DLTG) (DLTG) (SGU) (SGU)
                 (PIU) (PIU) (PIG) (PIG) (SGG) (DLTG) (DLTG) (DLTU)
                 (DLTU) (PIG) (PIG) (PIU) (PIU) (SGU) (SGG) (PHIU)
                 (PHIU) (DLTU) (DLTU) (PIU) (PIU) (PIG) (PIG) (PIU)
                 (PIU) (SGU) (?A) (PHIG) (PHIG) (?A) (DLTG) (DLTG)
                 (SGG) (PIG) (PIG) (SGU) (SGG) (DLTU) (DLTU) (PHIU)
                 (PHIU) (PHIG) (PHIG) (PIU) (PIU) (DLTG) (DLTG)
                 (?B) (?B) (?A) (?A) (SGU) (PIG) (PIG) (SGG) (PHIG)
                 (PHIG) (PHIU) (PHIU) (DLTU) (DLTU) (DLTG) (DLTG)
                 (PIU) (PIU) (PIG) (PIG) (SGU) (SGG) (SGU) (SGG)
                 (DLTG) (DLTG) (DLTU) (DLTU) (PIG) (PIG) (PIU)
                 (PIU) (SGU) (SGG) (PIU) (PIU) (SGG) (SGU) (SGG)
                 (SGU) (SGG) (SGG) (SGU)
 Keep R1 ints in memory in symmetry-blocked form, NReq=236901681.
 Requested convergence on RMS density matrix=1.00D-08 within 128 cycles.
 Requested convergence on MAX density matrix=1.00D-06.
 Requested convergence on             energy=1.00D-06.
 No special actions if energy rises.
 Defaulting to unpruned grid for atomic number  80.
 Defaulting to unpruned grid for atomic number  80.
 Defaulting to unpruned grid for atomic number  80.
 Defaulting to unpruned grid for atomic number  80.
 Defaulting to unpruned grid for atomic number  80.
 Defaulting to unpruned grid for atomic number  80.
 Defaulting to unpruned grid for atomic number  80.
 Defaulting to unpruned grid for atomic number  80.
 SCF Done:  E(RPBE1PBE) =  -353.075904333     A.U. after    1 cycles
            NFock=  1  Conv=0.19D-09     -V/T= 2.4120
 DoSCS=F DFT=T ScalE2(SS,OS)=  1.000000  1.000000
 Range of M.O.s used for correlation:     1   202
 NBasis=   202 NAE=    19 NBE=    19 NFC=     0 NFV=     0
 NROrb=    202 NOA=    19 NOB=    19 NVA=   183 NVB=   183
   8 Symmetry operations used in ECPInt.
 ECPInt:  NShTT=    1596 NPrTT=    4009 LenC2=    1508 LenP2D=    3276.
 LDataN:  DoStor=T MaxTD1=10 Len=  848
 Symmetrizing basis deriv contribution to polar:
 IMax=3 JMax=2 DiffMx= 0.00D+00
 G2DrvN: will do     4 centers at a time, making    1 passes.
 Calling FoFCou, ICntrl=  3107 FMM=F I1Cent=   0 AccDes= 0.00D+00.
 Defaulting to unpruned grid for atomic number  80.
 Defaulting to unpruned grid for atomic number  80.
 Defaulting to unpruned grid for atomic number  80.
 Defaulting to unpruned grid for atomic number  80.
 Defaulting to unpruned grid for atomic number  80.
 Defaulting to unpruned grid for atomic number  80.
 Defaulting to unpruned grid for atomic number  80.
 Defaulting to unpruned grid for atomic number  80.
 End of G2Drv F.D. properties file   721 does not exist.
 End of G2Drv F.D. properties file   722 does not exist.
 End of G2Drv F.D. properties file   788 does not exist.
          IDoAtm=111
          Differentiating once with respect to electric field.
                with respect to dipole field.
          Differentiating once with respect to nuclear coordinates.
 Defaulting to unpruned grid for atomic number  80.
 Keep R1 ints in memory in symmetry-blocked form, NReq=236903666.
 Defaulting to unpruned grid for atomic number  80.
 Defaulting to unpruned grid for atomic number  80.
 Defaulting to unpruned grid for atomic number  80.
 Defaulting to unpruned grid for atomic number  80.
 Defaulting to unpruned grid for atomic number  80.
 Defaulting to unpruned grid for atomic number  80.
 Defaulting to unpruned grid for atomic number  80.
 Defaulting to unpruned grid for atomic number  80.
          There are     9 degrees of freedom in the 1st order CPHF.  IDoFFX=4 NUNeed=     9.
      9 vectors produced by pass  0 Test12= 3.86D-14 1.11D-08 XBig12= 3.36D+01 4.81D+00.
 AX will form     9 AO Fock derivatives at one time.
      9 vectors produced by pass  1 Test12= 3.86D-14 1.11D-08 XBig12= 8.42D+00 9.55D-01.
      9 vectors produced by pass  2 Test12= 3.86D-14 1.11D-08 XBig12= 7.61D-02 8.18D-02.
      9 vectors produced by pass  3 Test12= 3.86D-14 1.11D-08 XBig12= 2.71D-03 1.25D-02.
      9 vectors produced by pass  4 Test12= 3.86D-14 1.11D-08 XBig12= 3.82D-05 1.80D-03.
      9 vectors produced by pass  5 Test12= 3.86D-14 1.11D-08 XBig12= 2.56D-07 2.14D-04.
      7 vectors produced by pass  6 Test12= 3.86D-14 1.11D-08 XBig12= 8.14D-09 2.98D-05.
      4 vectors produced by pass  7 Test12= 3.86D-14 1.11D-08 XBig12= 1.12D-10 2.98D-06.
      2 vectors produced by pass  8 Test12= 3.86D-14 1.11D-08 XBig12= 1.83D-12 4.00D-07.
      1 vectors produced by pass  9 Test12= 3.86D-14 1.11D-08 XBig12= 8.27D-15 2.46D-08.
 InvSVY:  IOpt=1 It=  1 EMax= 8.88D-16
 Solved reduced A of dimension    68 with     9 vectors.
 Isotropic polarizability for W=    0.000000       28.62 Bohr**3.
 End of Minotr F.D. properties file   721 does not exist.
 End of Minotr F.D. properties file   722 does not exist.
 End of Minotr F.D. properties file   788 does not exist.

 **********************************************************************

            Population analysis using the SCF Density.

 **********************************************************************

 Orbital symmetries:
       Occupied  (SGU) (SGG) (SGG) (SGU) (PIU) (PIU) (SGG) (SGU)
                 (SGG) (PIG) (PIG) (DLTG) (DLTG) (SGU) (PIU) (PIU)
                 (SGG) (PIG) (PIG)
       Virtual   (SGG) (PIU) (PIU) (SGU) (SGG) (PIU) (PIU) (DLTG)
                 (DLTG) (SGU) (SGG) (PIG) (PIG) (SGU) (DLTU) (DLTU)
                 (PHIU) (PHIU) (PIU) (PIU) (SGG) (PIG) (PIG) (SGG)
                 (PIU) (PIU) (SGU) (SGU) (DLTG) (DLTG) (PIG) (PIG)
                 (PIU) (PIU) (DLTU) (DLTU) (PHIU) (PHIU) (SGG)
                 (PIU) (PIU) (SGU) (SGG) (SGU) (DLTG) (DLTG) (DLTU)
                 (DLTU) (PIG) (PIG) (SGG) (PIU) (PIU) (PIG) (PIG)
                 (SGU) (PIU) (PIU) (SGG) (DLTU) (DLTU) (PHIU) (PHIU)
                 (SGU) (PIU) (PIU) (PHIG) (PHIG) (?A) (?A) (DLTG)
                 (DLTG) (SGU) (SGG) (PIG) (PIG) (DLTG) (DLTG) (PIG)
                 (PIG) (SGG) (SGG) (PHIG) (PHIG) (PHIU) (PHIU)
                 (SGG) (DLTU) (DLTU) (DLTG) (DLTG) (SGU) (SGU)
                 (PIU) (PIU) (PIG) (PIG) (SGG) (DLTG) (DLTG) (DLTU)
                 (DLTU) (PIG) (PIG) (PIU) (PIU) (SGU) (SGG) (PHIU)
                 (PHIU) (DLTU) (DLTU) (PIU) (PIU) (PIG) (PIG) (PIU)
                 (PIU) (SGU) (?A) (PHIG) (PHIG) (?A) (DLTG) (DLTG)
                 (SGG) (PIG) (PIG) (SGU) (SGG) (DLTU) (DLTU) (PHIU)
                 (PHIU) (PHIG) (PHIG) (PIU) (PIU) (DLTG) (DLTG)
                 (?B) (?B) (?A) (?A) (SGU) (PIG) (PIG) (SGG) (PHIG)
                 (PHIG) (PHIU) (PHIU) (DLTU) (DLTU) (DLTG) (DLTG)
                 (PIU) (PIU) (PIG) (PIG) (SGU) (SGG) (SGU) (SGG)
                 (DLTG) (DLTG) (DLTU) (DLTU) (PIG) (PIG) (PIU)
                 (PIU) (SGU) (SGG) (PIU) (PIU) (SGG) (SGU) (SGG)
                 (SGU) (SGG) (SGG) (SGU)
 The electronic state is 1-SGG.
 Alpha  occ. eigenvalues --  -24.74272 -24.74272  -4.57741  -2.70879  -2.70100
 Alpha  occ. eigenvalues --   -2.70100  -1.17374  -1.15910  -0.58536  -0.55175
 Alpha  occ. eigenvalues --   -0.55175  -0.52249  -0.52249  -0.43393  -0.41687
 Alpha  occ. eigenvalues --   -0.41687  -0.41191  -0.37701  -0.37701
 Alpha virt. eigenvalues --   -0.08673  -0.02014  -0.02014   0.04509   0.07697
 Alpha virt. eigenvalues --    0.13330   0.13330   0.20926   0.20926   0.23890
 Alpha virt. eigenvalues --    0.26120   0.26477   0.26477   0.36871   0.39247
 Alpha virt. eigenvalues --    0.39247   0.40021   0.40021   0.42656   0.42656
 Alpha virt. eigenvalues --    0.46268   0.50429   0.50429   0.50536   0.59029
 Alpha virt. eigenvalues --    0.59029   0.73973   0.89363   0.90445   0.90446
 Alpha virt. eigenvalues --    0.92322   0.92322   1.02395   1.02395   1.03021
 Alpha virt. eigenvalues --    1.03021   1.03413   1.03413   1.10330   1.12128
 Alpha virt. eigenvalues --    1.12128   1.18022   1.24196   1.38406   1.39679
 Alpha virt. eigenvalues --    1.39679   1.51383   1.51383   1.60805   1.60805
 Alpha virt. eigenvalues --    1.72333   1.74664   1.74664   1.79334   1.79334
 Alpha virt. eigenvalues --    1.95975   1.96439   1.96439   2.12961   2.39105
 Alpha virt. eigenvalues --    2.39105   2.39385   2.39385   2.41046   2.60296
 Alpha virt. eigenvalues --    2.60296   2.63657   2.63657   2.63739   2.63746
 Alpha virt. eigenvalues --    2.64632   2.64632   2.76059   2.80830   2.83910
 Alpha virt. eigenvalues --    2.83910   3.01317   3.01320   3.14718   3.14718
 Alpha virt. eigenvalues --    3.20575   3.73211   4.18478   4.18478   4.18671
 Alpha virt. eigenvalues --    4.18671   4.23130   4.24059   4.24059   4.24806
 Alpha virt. eigenvalues --    4.24806   4.26401   4.38825   4.41023   4.41023
 Alpha virt. eigenvalues --    4.53142   4.53142   4.93556   5.00571   5.00571
 Alpha virt. eigenvalues --    5.05866   5.05867   5.32722   5.32722   5.37821
 Alpha virt. eigenvalues --    5.37821   5.47230   5.83535   6.12090   6.12090
 Alpha virt. eigenvalues --    6.13343   6.13346   6.23877   6.23877   6.28349
 Alpha virt. eigenvalues --    6.28349   6.29691   6.29691   6.51202   6.61224
 Alpha virt. eigenvalues --    6.61241   6.61241   6.61262   6.68151   6.68156
 Alpha virt. eigenvalues --    7.03611   7.13925   7.13925   7.18483   7.58832
 Alpha virt. eigenvalues --   11.42592  11.42593  11.43046  11.43046  11.43053
 Alpha virt. eigenvalues --   11.43053  11.43275  11.43275  11.43443  11.43443
 Alpha virt. eigenvalues --   11.44726  11.44726  11.44727  11.44727  11.50302
 Alpha virt. eigenvalues --   11.50973  11.50973  11.60041  14.59922  14.59922
 Alpha virt. eigenvalues --   14.60046  14.60046  14.62154  14.62154  14.62280
 Alpha virt. eigenvalues --   14.62280  14.72547  14.72547  14.81543  14.81543
 Alpha virt. eigenvalues --   14.85997  14.92458  15.25722  15.32193  15.80529
 Alpha virt. eigenvalues --   15.80529  15.84077  15.84077  16.01588  16.01588
 Alpha virt. eigenvalues --   16.07331  16.07331  16.26303  16.47720  32.83366
 Alpha virt. eigenvalues --   32.83366  36.53073  40.09958  54.18862  54.27133
 Alpha virt. eigenvalues --  124.90658 285.18834 285.28231
          Condensed to atoms (all electrons):
               1          2          3
     1  Hg  18.589970   0.182824   0.182824
     2  F    0.182824   9.342789  -0.003423
     3  F    0.182824  -0.003423   9.342789
 Mulliken charges:
               1
     1  Hg   1.044382
     2  F   -0.522191
     3  F   -0.522191
 Sum of Mulliken charges =  -0.00000
 Mulliken charges with hydrogens summed into heavy atoms:
               1
     1  Hg   1.044382
     2  F   -0.522191
     3  F   -0.522191
 APT charges:
               1
     1  Hg   1.123499
     2  F   -0.561749
     3  F   -0.561749
 Sum of APT charges =   0.00000
 APT charges with hydrogens summed into heavy atoms:
               1
     1  Hg   1.123499
     2  F   -0.561749
     3  F   -0.561749
 Electronic spatial extent (au):  <R**2>=            314.7068
 Charge=              0.0000 electrons
 Dipole moment (field-independent basis, Debye):
    X=             -0.0000    Y=              0.0000    Z=              0.0000  Tot=              0.0000
 Quadrupole moment (field-independent basis, Debye-Ang):
   XX=            -30.8053   YY=            -30.8053   ZZ=            -44.7499
   XY=             -0.0000   XZ=              0.0000   YZ=              0.0000
 Traceless Quadrupole moment (field-independent basis, Debye-Ang):
   XX=              4.6482   YY=              4.6482   ZZ=             -9.2964
   XY=             -0.0000   XZ=              0.0000   YZ=              0.0000
 Octapole moment (field-independent basis, Debye-Ang**2):
  XXX=              0.0000  YYY=              0.0000  ZZZ=              0.0000  XYY=              0.0000
  XXY=              0.0000  XXZ=              0.0000  XZZ=             -0.0000  YZZ=              0.0000
  YYZ=              0.0000  XYZ=              0.0000
 Hexadecapole moment (field-independent basis, Debye-Ang**3):
 XXXX=            -25.9974 YYYY=            -25.9974 ZZZZ=           -302.6615 XXXY=             -0.0000
 XXXZ=              0.0000 YYYX=             -0.0000 YYYZ=              0.0000 ZZZX=              0.0000
 ZZZY=              0.0000 XXYY=             -8.6658 XXZZ=            -48.6617 YYZZ=            -48.6617
 XXYZ=              0.0000 YYXZ=              0.0000 ZZXY=             -0.0000
 N-N= 1.106937468851D+02 E-N=-1.019573141729D+03  KE= 2.500508369909D+02
 Symmetry AG   KE= 1.022464434581D+02
 Symmetry B1G  KE= 5.664343119515D+00
 Symmetry B2G  KE= 1.216729612926D+01
 Symmetry B3G  KE= 1.216729612926D+01
 Symmetry AU   KE= 1.954156668011D-33
 Symmetry B1U  KE= 9.422808093989D+01
 Symmetry B2U  KE= 1.178868860746D+01
 Symmetry B3U  KE= 1.178868860746D+01
  Exact polarizability:      23.069       0.000      23.069       0.000       0.000      39.709
 Approx polarizability:      34.983      -0.000      34.983      -0.000      -0.000      58.814
   8 Symmetry operations used in ECPInt.
 ECPInt:  NShTT=    1596 NPrTT=    4009 LenC2=    1508 LenP2D=    3276.
 LDataN:  DoStor=T MaxTD1=11 Len= 1166
 Calling FoFJK, ICntrl=    100127 FMM=F ISym2X=1 I1Cent= 0 IOpClX= 0 NMat=1 NMatS=1 NMatT=0.
 Defaulting to unpruned grid for atomic number  80.
 Defaulting to unpruned grid for atomic number  80.
 Defaulting to unpruned grid for atomic number  80.
 Defaulting to unpruned grid for atomic number  80.
 Defaulting to unpruned grid for atomic number  80.
 Defaulting to unpruned grid for atomic number  80.
 Defaulting to unpruned grid for atomic number  80.
 Defaulting to unpruned grid for atomic number  80.
 Full mass-weighted force constant matrix:
 Low frequencies ---    0.0006    0.0008    0.0008    7.3775    7.3775  178.9994
 Low frequencies ---  178.9994  585.5472  660.2700
 Diagonal vibrational polarizability:
       12.7351565      12.7351565       7.2286045
 Harmonic frequencies (cm**-1), IR intensities (KM/Mole), Raman scattering
 activities (A**4/AMU), depolarization ratios for plane and unpolarized
 incident light, reduced masses (AMU), force constants (mDyne/A),
 and normal coordinates:
                      1                      2                      3
                     PIU                    PIU                    SGG
 Frequencies --    178.9994               178.9994               585.5472
 Red. masses --     22.1801                22.1801                18.9984
 Frc consts  --      0.4187                 0.4187                 3.8379
 IR Inten    --     15.1626                15.1626                 0.0000
  Atom  AN      X      Y      Z        X      Y      Z        X      Y      Z
     1  80    -0.13   0.00   0.00    -0.00  -0.13   0.00    -0.00  -0.00  -0.00
     2   9     0.70  -0.00  -0.00     0.00   0.70  -0.00     0.00   0.00   0.71
     3   9     0.70  -0.00  -0.00     0.00   0.70   0.00     0.00   0.00  -0.71
                      4
                     SGU
 Frequencies --    660.2700
 Red. masses --     22.1801
 Frc consts  --      5.6971
 IR Inten    --    117.1020
  Atom  AN      X      Y      Z
     1  80    -0.00  -0.00  -0.13
     2   9     0.00   0.00   0.70
     3   9     0.00   0.00   0.70

 -------------------
 - Thermochemistry -
 -------------------
 Temperature   298.150 Kelvin.  Pressure   1.00000 Atm.
 Atom     1 has atomic number 80 and mass 201.97060
 Atom     2 has atomic number  9 and mass  18.99840
 Atom     3 has atomic number  9 and mass  18.99840
 Molecular mass:   239.96741 amu.
 Principal axes and moments of inertia in atomic units:
                           1         2         3
     Eigenvalues --     0.00000 497.40021 497.40021
           X            0.00000  -0.00000   1.00000
           Y            0.00000   1.00000   0.00000
           Z            1.00000   0.00000   0.00000
 This molecule is a prolate symmetric top.
 Rotational symmetry number  2.
 Warning -- assumption of classical behavior for rotation
           may cause significant error
 Rotational temperature (Kelvin)      0.17413
 Rotational constant (GHZ):           3.628348
 Zero-point vibrational energy       9593.0 (Joules/Mol)
                                    2.29277 (Kcal/Mol)
 Warning -- explicit consideration of   3 degrees of freedom as
           vibrations may cause significant error
 Vibrational temperatures:    257.54   257.54   842.47   949.98
          (Kelvin)
 
 Zero-point correction=                           0.003654 (Hartree/Particle)
 Thermal correction to Energy=                    0.007501
 Thermal correction to Enthalpy=                  0.008445
 Thermal correction to Gibbs Free Energy=        -0.021604
 Sum of electronic and zero-point Energies=           -353.072251
 Sum of electronic and thermal Energies=              -353.068404
 Sum of electronic and thermal Enthalpies=            -353.067459
 Sum of electronic and thermal Free Energies=         -353.097508
 
                     E (Thermal)             CV                S
                      KCal/Mol        Cal/Mol-Kelvin    Cal/Mol-Kelvin
 Total                    4.707             10.674             63.242
 Electronic               0.000              0.000              0.000
 Translational            0.889              2.981             42.327
 Rotational               0.592              1.987             15.406
 Vibrational              3.226              5.706              5.510
 Vibration     1          0.629              1.868              2.339
 Vibration     2          0.629              1.868              2.339
 Vibration     3          0.943              1.063              0.475
                       Q            Log10(Q)             Ln(Q)
 Total Bot       0.864847D+10          9.936940         22.880649
 Total V=0       0.414526D+12         11.617552         26.750402
 Vib (Bot)       0.691408D-01         -1.160266         -2.671611
 Vib (Bot)    1  0.112246D+01          0.050171          0.115522
 Vib (Bot)    2  0.112246D+01          0.050171          0.115522
 Vib (Bot)    3  0.258791D+00         -0.587051         -1.351734
 Vib (V=0)       0.331395D+01          0.520347          1.198142
 Vib (V=0)    1  0.172879D+01          0.237741          0.547420
 Vib (V=0)    2  0.172879D+01          0.237741          0.547420
 Vib (V=0)    3  0.106300D+01          0.026535          0.061098
 Electronic      0.100000D+01          0.000000          0.000000
 Translational   0.146111D+09          8.164682         18.799876
 Rotational      0.856097D+03          2.932523          6.752384
 ***** Axes restored to original set *****
 -------------------------------------------------------------------
 Center     Atomic                   Forces (Hartrees/Bohr)
 Number     Number              X              Y              Z
 -------------------------------------------------------------------
      1       80           0.000000000   -0.000000000   -0.000000000
      2        9          -0.000000000    0.000000000   -0.000000910
      3        9           0.000000000   -0.000000000    0.000000910
 -------------------------------------------------------------------
 Cartesian Forces:  Max     0.000000910 RMS     0.000000429
 FormGI is forming the generalized inverse of G from B-inverse, IUseBI=4.

 GradGradGradGradGradGradGradGradGradGradGradGradGradGradGradGradGradGrad
 Berny optimization.
 Internal  Forces:  Max     0.000000910 RMS     0.000000643
 Search for a local minimum.
 Step number   1 out of a maximum of    2
 All quantities printed in internal units (Hartrees-Bohrs-Radians)
 Second derivative matrix not updated -- analytic derivatives used.
 The second derivative matrix:
                          R1        R2        A1        A2
           R1           0.25516
           R2          -0.00865   0.25516
           A1          -0.00000   0.00000   0.12691
           A2          -0.00000   0.00000  -0.00000   0.12691
 ITU=  0
     Eigenvalues ---    0.12691   0.12691   0.24651   0.26381
 Angle between quadratic step and forces=   0.00 degrees.
 Linear search not attempted -- first point.
 Iteration  1 RMS(Cart)=  0.00000261 RMS(Int)=  0.00000000
 Iteration  2 RMS(Cart)=  0.00000000 RMS(Int)=  0.00000000
 ClnCor:  largest displacement from symmetrization is 3.53D-14 for atom     1.
 Variable       Old X    -DE/DX   Delta X   Delta X   Delta X     New X
                                 (Linear)    (Quad)   (Total)
    R1        3.61809   0.00000   0.00000   0.00000   0.00000   3.61809
    R2        3.61809   0.00000   0.00000   0.00000   0.00000   3.61809
    A1        3.14159   0.00000   0.00000   0.00000   0.00000   3.14159
    A2        3.14159   0.00000   0.00000   0.00000   0.00000   3.14159
         Item               Value     Threshold  Converged?
 Maximum Force            0.000001     0.000450     YES
 RMS     Force            0.000001     0.000300     YES
 Maximum Displacement     0.000004     0.001800     YES
 RMS     Displacement     0.000003     0.001200     YES
 Predicted change in Energy=-3.358784D-12
 Optimization completed.
    -- Stationary point found.
                           ----------------------------
                           !   Optimized Parameters   !
                           ! (Angstroms and Degrees)  !
 --------------------------                            --------------------------
 ! Name  Definition              Value          Derivative Info.                !
 --------------------------------------------------------------------------------
 ! R1    R(1,2)                  1.9146         -DE/DX =    0.0                 !
 ! R2    R(1,3)                  1.9146         -DE/DX =    0.0                 !
 ! A1    L(2,1,3,-1,-1)        180.0            -DE/DX =    0.0                 !
 ! A2    L(2,1,3,-2,-2)        180.0            -DE/DX =    0.0                 !
 --------------------------------------------------------------------------------
 GradGradGradGradGradGradGradGradGradGradGradGradGradGradGradGradGradGrad

 Dipole is zero, so no output in dipole orientation.

 ----------------------------------------------------------------------

 Electric dipole moment (input orientation):
 (Debye = 10**-18 statcoulomb cm , SI units = C m)
                  (au)            (Debye)         (10**-30 SI)
   Tot        0.000000D+00      0.000000D+00      0.000000D+00
   x          0.000000D+00      0.000000D+00      0.000000D+00
   y          0.000000D+00      0.000000D+00      0.000000D+00
   z          0.000000D+00      0.000000D+00      0.000000D+00

 Dipole polarizability, Alpha (input orientation).
 (esu units = cm**3 , SI units = C**2 m**2 J**-1)
 Alpha(0;0):
               (au)            (10**-24 esu)      (10**-40 SI)
   iso        0.286155D+02      0.424038D+01      0.471806D+01
   aniso      0.166400D+02      0.246580D+01      0.274357D+01
   xx         0.230688D+02      0.341845D+01      0.380354D+01
   yx         0.000000D+00      0.000000D+00      0.000000D+00
   yy         0.230688D+02      0.341845D+01      0.380354D+01
   zx         0.000000D+00      0.000000D+00      0.000000D+00
   zy         0.000000D+00      0.000000D+00      0.000000D+00
   zz         0.397089D+02      0.588425D+01      0.654711D+01

 ----------------------------------------------------------------------
 Unable to Open any file for archive entry.
 1\1\GINC-TCOPT10\Freq\RPBE1PBE\def2QZVPP\F2Hg1\HUTTER\01-Aug-2021\0\\#
 N Geom=AllCheck Guess=TCheck SCRF=Check GenChk RPBE1PBE/def2QZVPP Freq
 \\Mol job 1\\0,1\Hg,8.5,8.5,8.5\F,8.5,8.5,6.5853889317\F,8.5,8.5,10.41
 46110683\\Version=ES64L-G16RevC.01\State=1-SGG\HF=-353.0759043\RMSD=1.
 903e-10\RMSF=4.289e-07\ZeroPoint=0.0036538\Thermal=0.0075008\ETot=-353
 .0684036\HTot=-353.0674594\GTot=-353.0975079\Dipole=0.,0.,0.\DipoleDer
 iv=0.7052663,0.,0.,0.,0.7052663,0.,0.,0.,1.959964,-0.3526332,0.,0.,0.,
 -0.3526332,0.,0.,0.,-0.979982,-0.3526332,0.,0.,0.,-0.3526332,0.,0.,0.,
 -0.979982\Polar=23.0688332,0.,23.0688332,0.,0.,39.7088591\Quadrupole=3
 .4558198,3.4558198,-6.9116395,0.,0.,0.\PG=D*H [O(Hg1),C*(F1.F1)]\NImag
 =0\\0.03877732,0.,0.03877732,0.,0.,0.52761553,-0.01938866,0.,0.,0.0097
 1390,0.,-0.01938866,0.,0.,0.00971390,0.,0.,-0.26380776,0.,0.,0.2551582
 8,-0.01938866,0.,0.,0.00967477,0.,0.,0.00971390,0.,-0.01938866,0.,0.,0
 .00967477,0.,0.,0.00971390,0.,0.,-0.26380776,0.,0.,0.00864949,0.,0.,0.
 25515828\\0.,0.,0.,0.,0.,0.00000091,0.,0.,-0.00000091\\\@
 The archive entry for this job was punched.


 WE ARE REACHING THE STAGE WHERE THE PROBLEMS WE MUST SOLVE ARE 
 GOING TO BECOME INSOLUBLE WITHOUT COMPUTERS.
 I DO NOT FEAR COMPUTERS.  I FEAR THE LACK OF THEM.

                                   -- ISSAC ASIMOV
 Job cpu time:       0 days  0 hours 19 minutes 35.5 seconds.
 Elapsed time:       0 days  0 hours  2 minutes 58.5 seconds.
 File lengths (MBytes):  RWF=     21 Int=      0 D2E=      0 Chk=      4 Scr=      1
 Normal termination of Gaussian 16 at Sun Aug  1 11:42:08 2021.
