 Entering Gaussian System, Link 0=g16
 Initial command:
 /sw-ng/spack/opt/spack/linux-opensuse_leap15-sandybridge/pgi-18.10/gaussian-src-16-C.01-zldqaomctopxhethwccpmxmwefdscg3m/g16/l1.exe "/data/hutter/SMG16/PBE0/Gau-11194.inp" -scrdir="/data/hutter/SMG16/PBE0/"
 Entering Link 1 = /sw-ng/spack/opt/spack/linux-opensuse_leap15-sandybridge/pgi-18.10/gaussian-src-16-C.01-zldqaomctopxhethwccpmxmwefdscg3m/g16/l1.exe PID=     11201.
  
 Copyright (c) 1988-2019, Gaussian, Inc.  All Rights Reserved.
  
 This is part of the Gaussian(R) 16 program.  It is based on
 the Gaussian(R) 09 system (copyright 2009, Gaussian, Inc.),
 the Gaussian(R) 03 system (copyright 2003, Gaussian, Inc.),
 the Gaussian(R) 98 system (copyright 1998, Gaussian, Inc.),
 the Gaussian(R) 94 system (copyright 1995, Gaussian, Inc.),
 the Gaussian 92(TM) system (copyright 1992, Gaussian, Inc.),
 the Gaussian 90(TM) system (copyright 1990, Gaussian, Inc.),
 the Gaussian 88(TM) system (copyright 1988, Gaussian, Inc.),
 the Gaussian 86(TM) system (copyright 1986, Carnegie Mellon
 University), and the Gaussian 82(TM) system (copyright 1983,
 Carnegie Mellon University). Gaussian is a federally registered
 trademark of Gaussian, Inc.
  
 This software contains proprietary and confidential information,
 including trade secrets, belonging to Gaussian, Inc.
  
 This software is provided under written license and may be
 used, copied, transmitted, or stored only in accord with that
 written license.
  
 The following legend is applicable only to US Government
 contracts under FAR:
  
                    RESTRICTED RIGHTS LEGEND
  
 Use, reproduction and disclosure by the US Government is
 subject to restrictions as set forth in subparagraphs (a)
 and (c) of the Commercial Computer Software - Restricted
 Rights clause in FAR 52.227-19.
  
 Gaussian, Inc.
 340 Quinnipiac St., Bldg. 40, Wallingford CT 06492
  
  
 ---------------------------------------------------------------
 Warning -- This program may not be used in any manner that
 competes with the business of Gaussian, Inc. or will provide
 assistance to any competitor of Gaussian, Inc.  The licensee
 of this program is prohibited from giving any competitor of
 Gaussian, Inc. access to this program.  By using this program,
 the user acknowledges that Gaussian, Inc. is engaged in the
 business of creating and licensing software in the field of
 computational chemistry and represents and warrants to the
 licensee that it is not a competitor of Gaussian, Inc. and that
 it will not use this program in any manner prohibited above.
 ---------------------------------------------------------------
  

 Cite this work as:
 Gaussian 16, Revision C.01,
 M. J. Frisch, G. W. Trucks, H. B. Schlegel, G. E. Scuseria, 
 M. A. Robb, J. R. Cheeseman, G. Scalmani, V. Barone, 
 G. A. Petersson, H. Nakatsuji, X. Li, M. Caricato, A. V. Marenich, 
 J. Bloino, B. G. Janesko, R. Gomperts, B. Mennucci, H. P. Hratchian, 
 J. V. Ortiz, A. F. Izmaylov, J. L. Sonnenberg, D. Williams-Young, 
 F. Ding, F. Lipparini, F. Egidi, J. Goings, B. Peng, A. Petrone, 
 T. Henderson, D. Ranasinghe, V. G. Zakrzewski, J. Gao, N. Rega, 
 G. Zheng, W. Liang, M. Hada, M. Ehara, K. Toyota, R. Fukuda, 
 J. Hasegawa, M. Ishida, T. Nakajima, Y. Honda, O. Kitao, H. Nakai, 
 T. Vreven, K. Throssell, J. A. Montgomery, Jr., J. E. Peralta, 
 F. Ogliaro, M. J. Bearpark, J. J. Heyd, E. N. Brothers, K. N. Kudin, 
 V. N. Staroverov, T. A. Keith, R. Kobayashi, J. Normand, 
 K. Raghavachari, A. P. Rendell, J. C. Burant, S. S. Iyengar, 
 J. Tomasi, M. Cossi, J. M. Millam, M. Klene, C. Adamo, R. Cammi, 
 J. W. Ochterski, R. L. Martin, K. Morokuma, O. Farkas, 
 J. B. Foresman, and D. J. Fox, Gaussian, Inc., Wallingford CT, 2019.
 
 ******************************************
 Gaussian 16:  ES64L-G16RevC.01  3-Jul-2019
                 1-Aug-2021 
 ******************************************
 %mem=8GB
 %NProcShare=8
 Will use up to    8 processors via shared memory.
 --------------------------------------------------------------------
 #N RPBE1PBE/Def2QZVPP scf=tight scf=XQC Int(Grid=ultrafine) OPT FREQ
 --------------------------------------------------------------------
 1/18=20,19=15,26=4,38=1/1,3;
 2/9=110,12=2,17=6,18=5,40=1/2;
 3/5=45,7=202,11=2,25=1,30=1,71=1,74=-13,75=-5,116=1/1,2,3;
 4//1;
 5/5=2,8=3,13=1,32=2,38=5/2,8;
 6/7=2,8=2,9=2,10=2,28=1/1;
 7//1,2,3,16;
 1/18=20,19=15,26=4/3(2);
 2/9=110/2;
 99//99;
 2/9=110/2;
 3/5=45,7=202,11=2,25=1,30=1,71=1,74=-13,75=-5,116=1/1,2,3;
 4/5=5,16=3,69=1/1;
 5/5=2,8=3,13=1,32=2,38=5/2,8;
 7//1,2,3,16;
 1/18=20,19=15,26=4/3(-5);
 2/9=110/2;
 6/7=2,8=2,9=2,10=2,19=2,28=1/1;
 99/9=1/99;
 ---------
 Mol job 1
 ---------
 Symbolic Z-matrix:
 Charge =  0 Multiplicity = 1
 Bi                    8.        8.        6.97796 
 F                     8.        8.        9.02204 
 

 GradGradGradGradGradGradGradGradGradGradGradGradGradGradGradGradGradGrad
 Berny optimization.
 Initialization pass.
                           ----------------------------
                           !    Initial Parameters    !
                           ! (Angstroms and Degrees)  !
 --------------------------                            --------------------------
 ! Name  Definition              Value          Derivative Info.                !
 --------------------------------------------------------------------------------
 ! R1    R(1,2)                  2.0441         estimate D2E/DX2                !
 --------------------------------------------------------------------------------
 Trust Radius=3.00D-01 FncErr=1.00D-07 GrdErr=1.00D-06 EigMax=2.50D+02 EigMin=1.00D-04
 Number of steps in this run=     20 maximum allowed number of steps=    100.
 GradGradGradGradGradGradGradGradGradGradGradGradGradGradGradGradGradGrad

                          Input orientation:                          
 ---------------------------------------------------------------------
 Center     Atomic      Atomic             Coordinates (Angstroms)
 Number     Number       Type             X           Y           Z
 ---------------------------------------------------------------------
      1         83           0        8.000000    8.000000    6.977959
      2          9           0        8.000000    8.000000    9.022041
 ---------------------------------------------------------------------
 Stoichiometry    BiF
 Framework group  C*V[C*(FBi)]
 Deg. of freedom     1
 Full point group                 C*V     NOp   4
 Largest Abelian subgroup         C2V     NOp   4
 Largest concise Abelian subgroup C1      NOp   1
                         Standard orientation:                         
 ---------------------------------------------------------------------
 Center     Atomic      Atomic             Coordinates (Angstroms)
 Number     Number       Type             X           Y           Z
 ---------------------------------------------------------------------
      1         83           0        0.000000    0.000000    0.199965
      2          9           0        0.000000    0.000000   -1.844118
 ---------------------------------------------------------------------
 Rotational constants (GHZ):           0.0000000           6.9453212           6.9453212
 Standard basis: def2QZVPP (5D, 7F)
 There are    75 symmetry adapted cartesian basis functions of A1  symmetry.
 There are    19 symmetry adapted cartesian basis functions of A2  symmetry.
 There are    41 symmetry adapted cartesian basis functions of B1  symmetry.
 There are    41 symmetry adapted cartesian basis functions of B2  symmetry.
 There are    56 symmetry adapted basis functions of A1  symmetry.
 There are    17 symmetry adapted basis functions of A2  symmetry.
 There are    33 symmetry adapted basis functions of B1  symmetry.
 There are    33 symmetry adapted basis functions of B2  symmetry.
   139 basis functions,   266 primitive gaussians,   176 cartesian basis functions
    16 alpha electrons       16 beta electrons
       nuclear repulsion energy        53.5886898030 Hartrees.
 NAtoms=    2 NActive=    2 NUniq=    2 SFac= 1.00D+00 NAtFMM=   60 NAOKFM=F Big=F
 Integral buffers will be    131072 words long.
 Raffenetti 2 integral format.
 Two-electron integral symmetry is turned on.
 One-electron integrals computed using PRISM.
   4 Symmetry operations used in ECPInt.
 ECPInt:  NShTT=     780 NPrTT=    2973 LenC2=     781 LenP2D=    2672.
 LDataN:  DoStor=T MaxTD1= 9 Len=  602
 NBasis=   139 RedAO= T EigKep=  8.61D-04  NBF=    56    17    33    33
 NBsUse=   139 1.00D-06 EigRej= -1.00D+00 NBFU=    56    17    33    33
 Defaulting to unpruned grid for atomic number  83.
 ExpMin= 4.78D-02 ExpMax= 1.33D+05 ExpMxC= 1.27D+03 IAcc=3 IRadAn=         5 AccDes= 0.00D+00
 Harris functional with IExCor= 1009 and IRadAn=       5 diagonalized for initial guess.
 HarFok:  IExCor= 1009 AccDes= 0.00D+00 IRadAn=         5 IDoV= 1 UseB2=F ITyADJ=14
 ICtDFT=  3500011 ScaDFX=  1.000000  1.000000  1.000000  1.000000
 Defaulting to unpruned grid for atomic number  83.
 FoFCou: FMM=F IPFlag=           0 FMFlag=      100000 FMFlg1=           0
         NFxFlg=           0 DoJE=T BraDBF=F KetDBF=T FulRan=T
         wScrn=  0.000000 ICntrl=       500 IOpCl=  0 I1Cent=   200000004 NGrid=           0
         NMat0=    1 NMatS0=      1 NMatT0=    0 NMatD0=    1 NMtDS0=    0 NMtDT0=    0
 Petite list used in FoFCou.
 Initial guess orbital symmetries:
       Occupied  (SG) (SG) (SG) (PI) (PI) (SG) (PI) (PI) (DLTA)
                 (DLTA) (SG) (SG) (PI) (PI) (SG) (PI)
       Virtual   (PI) (SG) (SG) (PI) (PI) (SG) (DLTA) (DLTA) (PI)
                 (PI) (SG) (SG) (PI) (PI) (DLTA) (DLTA) (PHI) (PHI)
                 (PI) (PI) (SG) (SG) (PI) (PI) (SG) (DLTA) (DLTA)
                 (PI) (PI) (SG) (SG) (DLTA) (DLTA) (PHI) (PHI)
                 (SG) (PI) (PI) (DLTA) (DLTA) (PI) (PI) (PHI) (PHI)
                 (?A) (?A) (SG) (PI) (PI) (DLTA) (DLTA) (SG) (PI)
                 (PI) (SG) (SG) (DLTA) (DLTA) (PI) (PI) (PI) (PI)
                 (SG) (SG) (DLTA) (DLTA) (PHI) (PHI) (PI) (PI)
                 (SG) (SG) (PHI) (PHI) (DLTA) (DLTA) (PI) (PI)
                 (SG) (DLTA) (DLTA) (PI) (PI) (SG) (PI) (PI) (SG)
                 (PHI) (PHI) (DLTA) (DLTA) (PI) (PI) (SG) (PHI)
                 (PHI) (DLTA) (DLTA) (?A) (?A) (PI) (PI) (SG) (SG)
                 (PHI) (PHI) (DLTA) (DLTA) (PI) (PI) (SG) (SG)
                 (DLTA) (DLTA) (PI) (PI) (SG) (PI) (PI) (SG) (SG)
                 (SG) (SG)
 Keep R1 ints in memory in symmetry-blocked form, NReq=59379869.
 Requested convergence on RMS density matrix=1.00D-08 within  32 cycles.
 Requested convergence on MAX density matrix=1.00D-06.
 Requested convergence on             energy=1.00D-06.
 No special actions if energy rises.
 Defaulting to unpruned grid for atomic number  83.
 Defaulting to unpruned grid for atomic number  83.
 Defaulting to unpruned grid for atomic number  83.
 Defaulting to unpruned grid for atomic number  83.
 Defaulting to unpruned grid for atomic number  83.
 Defaulting to unpruned grid for atomic number  83.
 Defaulting to unpruned grid for atomic number  83.
 Defaulting to unpruned grid for atomic number  83.
 SCF Done:  E(RPBE1PBE) =  -314.399040279     A.U. after   12 cycles
            NFock= 12  Conv=0.42D-08     -V/T= 2.8662
 QCSCF skips out because SCF is already converged.

 **********************************************************************

            Population analysis using the SCF Density.

 **********************************************************************

 Orbital symmetries:
       Occupied  (SG) (SG) (PI) (SG) (PI) (?A) (PI) (?A) (?A) (PI)
                 (?A) (SG) (SG) (PI) (PI) (PI)
       Virtual   (PI) (SG) (?B) (PI) (PI) (?B) (?B) (?B) (PI) (PI)
                 (?B) (?C) (?D) (?D) (?C) (?C) (?D) (?D) (?D) (?C)
                 (?D) (SG) (?D) (?D) (?C) (?C) (PI) (?C) (PI) (?C)
                 (?A) (?A) (?A) (?E) (?E) (?E) (?A) (?E) (DLTA)
                 (DLTA) (?E) (?E) (?E) (?E) (?F) (?F) (?F) (?F)
                 (?F) (PI) (PI) (?F) (PI) (SG) (PI) (?A) (?A) (?A)
                 (PI) (PI) (PI) (PI) (?A) (?G) (?E) (?G) (?E) (?G)
                 (?E) (?E) (SG) (SG) (PHI) (PHI) (DLTA) (DLTA)
                 (PI) (PI) (SG) (DLTA) (DLTA) (PI) (PI) (SG) (PI)
                 (PI) (SG) (?H) (?E) (?E) (?H) (?E) (?E) (?H) (?I)
                 (?I) (?E) (?E) (?I) (?I) (?E) (?E) (?I) (SG) (PHI)
                 (PHI) (DLTA) (DLTA) (PI) (PI) (SG) (SG) (DLTA)
                 (DLTA) (PI) (PI) (SG) (PI) (PI) (SG) (SG) (SG)
                 (SG)
 Unable to determine electronic state:  an orbital has unidentified symmetry.
 Alpha  occ. eigenvalues --  -24.71968  -6.05305  -3.78695  -3.77693  -3.76063
 Alpha  occ. eigenvalues --   -1.17316  -1.12390  -1.11347  -1.10818  -1.09909
 Alpha  occ. eigenvalues --   -1.07979  -0.60725  -0.40268  -0.39800  -0.39629
 Alpha  occ. eigenvalues --   -0.19168
 Alpha virt. eigenvalues --   -0.15173  -0.06430   0.04626   0.09024   0.09754
 Alpha virt. eigenvalues --    0.12023   0.14095   0.14596   0.16788   0.17625
 Alpha virt. eigenvalues --    0.19709   0.37625   0.42915   0.43810   0.46602
 Alpha virt. eigenvalues --    0.46980   0.47093   0.47190   0.54067   0.55392
 Alpha virt. eigenvalues --    0.55759   0.56315   0.57751   0.59911   0.63953
 Alpha virt. eigenvalues --    0.68755   0.69081   0.69228   0.70736   0.81751
 Alpha virt. eigenvalues --    1.11139   1.15460   1.15642   1.16207   1.16271
 Alpha virt. eigenvalues --    1.18554   1.20367   1.20840   1.36478   1.36613
 Alpha virt. eigenvalues --    1.43720   1.45725   1.57204   1.57237   1.57242
 Alpha virt. eigenvalues --    1.57259   1.70927   1.70969   1.73567   1.76077
 Alpha virt. eigenvalues --    1.76640   1.80985   2.10942   2.12490   2.12621
 Alpha virt. eigenvalues --    2.24328   2.30314   2.30525   2.32988   2.35711
 Alpha virt. eigenvalues --    2.40680   2.43793   2.49510   2.83956   3.10443
 Alpha virt. eigenvalues --    3.10587   3.10646   3.10743   3.12059   3.14095
 Alpha virt. eigenvalues --    3.58068   4.08628   4.20214   4.20214   4.24802
 Alpha virt. eigenvalues --    4.24808   4.42730   4.43498   4.64924   5.04689
 Alpha virt. eigenvalues --    5.04693   5.36554   5.37250   5.67557   6.29642
 Alpha virt. eigenvalues --    6.30258   7.01622   8.70212   8.70215   8.70217
 Alpha virt. eigenvalues --    8.70240   8.76971   8.78928   9.00386  11.44548
 Alpha virt. eigenvalues --   11.44589  11.44902  11.44911  11.46261  11.46262
 Alpha virt. eigenvalues --   11.46341  11.46912  11.48034  12.43875  14.61650
 Alpha virt. eigenvalues --   14.61650  14.63519  14.63524  14.73301  14.73882
 Alpha virt. eigenvalues --   14.80847  15.10003  15.83618  15.83621  16.04319
 Alpha virt. eigenvalues --   16.04787  16.42284  35.37963  35.39021  35.53641
 Alpha virt. eigenvalues --   54.05884  77.84069 285.03147
          Condensed to atoms (all electrons):
               1          2
     1  Bi  22.376284   0.139399
     2  F    0.139399   9.344918
 Mulliken charges:
               1
     1  Bi   0.484317
     2  F   -0.484317
 Sum of Mulliken charges =  -0.00000
 Mulliken charges with hydrogens summed into heavy atoms:
               1
     1  Bi   0.484317
     2  F   -0.484317
 Electronic spatial extent (au):  <R**2>=            192.2311
 Charge=             -0.0000 electrons
 Dipole moment (field-independent basis, Debye):
    X=              0.0000    Y=              0.0000    Z=              3.0984  Tot=              3.0984
 Quadrupole moment (field-independent basis, Debye-Ang):
   XX=            -29.3349   YY=            -39.6683   ZZ=            -38.1255
   XY=              0.0000   XZ=              0.0000   YZ=              0.0000
 Traceless Quadrupole moment (field-independent basis, Debye-Ang):
   XX=              6.3747   YY=             -3.9587   ZZ=             -2.4159
   XY=              0.0000   XZ=              0.0000   YZ=              0.0000
 Octapole moment (field-independent basis, Debye-Ang**2):
  XXX=              0.0000  YYY=              0.0000  ZZZ=             24.7634  XYY=              0.0000
  XXY=              0.0000  XXZ=              4.5637  XZZ=              0.0000  YZZ=              0.0000
  YYZ=              1.0347  XYZ=              0.0000
 Hexadecapole moment (field-independent basis, Debye-Ang**3):
 XXXX=            -31.5752 YYYY=            -78.3244 ZZZZ=           -172.1698 XXXY=              0.0000
 XXXZ=              0.0000 YYYX=              0.0000 YYYZ=              0.0000 ZZZX=              0.0000
 ZZZY=              0.0000 XXYY=            -18.5920 XXZZ=            -30.9766 YYZZ=            -39.2532
 XXYZ=              0.0000 YYXZ=              0.0000 ZZXY=              0.0000
 N-N= 5.358868980295D+01 E-N=-7.881037910721D+02  KE= 1.684687704595D+02
 Symmetry A1   KE= 1.180931745568D+02
 Symmetry A2   KE= 7.660909307387D+00
 Symmetry B1   KE= 2.040620003252D+01
 Symmetry B2   KE= 2.230848656279D+01
   4 Symmetry operations used in ECPInt.
 ECPInt:  NShTT=     780 NPrTT=    2973 LenC2=     781 LenP2D=    2672.
 LDataN:  DoStor=T MaxTD1=10 Len=  848
 Calling FoFJK, ICntrl=      2127 FMM=F ISym2X=1 I1Cent= 0 IOpClX= 0 NMat=1 NMatS=1 NMatT=0.
 Defaulting to unpruned grid for atomic number  83.
 Defaulting to unpruned grid for atomic number  83.
 Defaulting to unpruned grid for atomic number  83.
 Defaulting to unpruned grid for atomic number  83.
 Defaulting to unpruned grid for atomic number  83.
 Defaulting to unpruned grid for atomic number  83.
 Defaulting to unpruned grid for atomic number  83.
 Defaulting to unpruned grid for atomic number  83.
 ***** Axes restored to original set *****
 -------------------------------------------------------------------
 Center     Atomic                   Forces (Hartrees/Bohr)
 Number     Number              X              Y              Z
 -------------------------------------------------------------------
      1       83          -0.000000000   -0.000000000    0.009999964
      2        9          -0.000000000   -0.000000000   -0.009999964
 -------------------------------------------------------------------
 Cartesian Forces:  Max     0.009999964 RMS     0.005773482

 GradGradGradGradGradGradGradGradGradGradGradGradGradGradGradGradGradGrad
 Berny optimization.
 FormGI is forming the generalized inverse of G from B-inverse, IUseBI=4.
 Internal  Forces:  Max     0.009999964 RMS     0.009999964
 Search for a local minimum.
 Step number   1 out of a maximum of   20
 All quantities printed in internal units (Hartrees-Bohrs-Radians)
 Mixed Optimization -- RFO/linear search
 Second derivative matrix not updated -- first step.
 The second derivative matrix:
                          R1
           R1           0.17600
 ITU=  0
     Eigenvalues ---    0.17600
 RFO step:  Lambda=-5.66341339D-04 EMin= 1.76004353D-01
 Linear search not attempted -- first point.
 Iteration  1 RMS(Cart)=  0.04004652 RMS(Int)=  0.00000000
 Iteration  2 RMS(Cart)=  0.00000000 RMS(Int)=  0.00000000
 ClnCor:  largest displacement from symmetrization is 0.00D+00 for atom     0.
 Variable       Old X    -DE/DX   Delta X   Delta X   Delta X     New X
                                 (Linear)    (Quad)   (Total)
    R1        3.86276  -0.01000   0.00000  -0.05663  -0.05663   3.80612
         Item               Value     Threshold  Converged?
 Maximum Force            0.010000     0.000450     NO 
 RMS     Force            0.010000     0.000300     NO 
 Maximum Displacement     0.028317     0.001800     NO 
 RMS     Displacement     0.040047     0.001200     NO 
 Predicted change in Energy=-2.840789D-04
 GradGradGradGradGradGradGradGradGradGradGradGradGradGradGradGradGradGrad

                          Input orientation:                          
 ---------------------------------------------------------------------
 Center     Atomic      Atomic             Coordinates (Angstroms)
 Number     Number       Type             X           Y           Z
 ---------------------------------------------------------------------
      1         83           0        8.000000    8.000000    6.992944
      2          9           0        8.000000    8.000000    9.007056
 ---------------------------------------------------------------------
 Stoichiometry    BiF
 Framework group  C*V[C*(FBi)]
 Deg. of freedom     1
 Full point group                 C*V     NOp   4
 Largest Abelian subgroup         C2V     NOp   4
 Largest concise Abelian subgroup C1      NOp   1
                         Standard orientation:                         
 ---------------------------------------------------------------------
 Center     Atomic      Atomic             Coordinates (Angstroms)
 Number     Number       Type             X           Y           Z
 ---------------------------------------------------------------------
      1         83           0        0.000000    0.000000    0.197033
      2          9           0        0.000000    0.000000   -1.817080
 ---------------------------------------------------------------------
 Rotational constants (GHZ):           0.0000000           7.1535490           7.1535490
 Standard basis: def2QZVPP (5D, 7F)
 There are    75 symmetry adapted cartesian basis functions of A1  symmetry.
 There are    19 symmetry adapted cartesian basis functions of A2  symmetry.
 There are    41 symmetry adapted cartesian basis functions of B1  symmetry.
 There are    41 symmetry adapted cartesian basis functions of B2  symmetry.
 There are    56 symmetry adapted basis functions of A1  symmetry.
 There are    17 symmetry adapted basis functions of A2  symmetry.
 There are    33 symmetry adapted basis functions of B1  symmetry.
 There are    33 symmetry adapted basis functions of B2  symmetry.
   139 basis functions,   266 primitive gaussians,   176 cartesian basis functions
    16 alpha electrons       16 beta electrons
       nuclear repulsion energy        54.3860790265 Hartrees.
 NAtoms=    2 NActive=    2 NUniq=    2 SFac= 1.00D+00 NAtFMM=   60 NAOKFM=F Big=F
 Integral buffers will be    131072 words long.
 Raffenetti 2 integral format.
 Two-electron integral symmetry is turned on.
 One-electron integrals computed using PRISM.
   4 Symmetry operations used in ECPInt.
 ECPInt:  NShTT=     780 NPrTT=    2973 LenC2=     781 LenP2D=    2678.
 LDataN:  DoStor=T MaxTD1= 9 Len=  602
 NBasis=   139 RedAO= T EigKep=  8.56D-04  NBF=    56    17    33    33
 NBsUse=   139 1.00D-06 EigRej= -1.00D+00 NBFU=    56    17    33    33
 Defaulting to unpruned grid for atomic number  83.
 Initial guess from the checkpoint file:  "/data/hutter/SMG16/PBE0/Gau-11201.chk"
 B after Tr=     0.000000    0.000000   -0.000000
         Rot=    1.000000    0.000000    0.000000    0.000000 Ang=   0.00 deg.
 Initial guess orbital symmetries:
       Occupied  (SG) (SG) (PI) (SG) (PI) (?A) (PI) (?A) (?A) (PI)
                 (?A) (SG) (SG) (PI) (PI) (PI)
       Virtual   (PI) (SG) (?B) (PI) (PI) (?B) (?B) (?B) (PI) (PI)
                 (?B) (?C) (?D) (?D) (?C) (?C) (?D) (?D) (?D) (?C)
                 (?D) (SG) (?D) (?D) (?C) (?C) (PI) (?C) (PI) (?C)
                 (?A) (?A) (?A) (?E) (?E) (?E) (?A) (?E) (DLTA)
                 (DLTA) (?E) (?E) (?E) (?E) (?F) (?F) (?F) (?F)
                 (?F) (PI) (PI) (?F) (PI) (SG) (PI) (?A) (?A) (?A)
                 (PI) (PI) (PI) (PI) (?A) (?G) (?E) (?G) (?E) (?G)
                 (?E) (?E) (SG) (SG) (PHI) (PHI) (DLTA) (DLTA)
                 (PI) (PI) (SG) (DLTA) (DLTA) (PI) (PI) (SG) (PI)
                 (PI) (SG) (?H) (?E) (?E) (?H) (?E) (?E) (?H) (?I)
                 (?I) (?E) (?E) (?I) (?I) (?E) (?E) (?I) (SG) (PHI)
                 (PHI) (DLTA) (DLTA) (PI) (PI) (SG) (SG) (DLTA)
                 (DLTA) (PI) (PI) (SG) (PI) (PI) (SG) (SG) (SG)
                 (SG)
 ExpMin= 4.78D-02 ExpMax= 1.33D+05 ExpMxC= 1.27D+03 IAcc=3 IRadAn=         5 AccDes= 0.00D+00
 Harris functional with IExCor= 1009 and IRadAn=       5 diagonalized for initial guess.
 HarFok:  IExCor= 1009 AccDes= 0.00D+00 IRadAn=         5 IDoV= 1 UseB2=F ITyADJ=14
 ICtDFT=  3500011 ScaDFX=  1.000000  1.000000  1.000000  1.000000
 Defaulting to unpruned grid for atomic number  83.
 FoFCou: FMM=F IPFlag=           0 FMFlag=      100000 FMFlg1=           0
         NFxFlg=           0 DoJE=T BraDBF=F KetDBF=T FulRan=T
         wScrn=  0.000000 ICntrl=       500 IOpCl=  0 I1Cent=   200000004 NGrid=           0
         NMat0=    1 NMatS0=      1 NMatT0=    0 NMatD0=    1 NMtDS0=    0 NMtDT0=    0
 Petite list used in FoFCou.
 Keep R1 ints in memory in symmetry-blocked form, NReq=59379869.
 Requested convergence on RMS density matrix=1.00D-08 within  32 cycles.
 Requested convergence on MAX density matrix=1.00D-06.
 Requested convergence on             energy=1.00D-06.
 No special actions if energy rises.
 Defaulting to unpruned grid for atomic number  83.
 Defaulting to unpruned grid for atomic number  83.
 Defaulting to unpruned grid for atomic number  83.
 Defaulting to unpruned grid for atomic number  83.
 Defaulting to unpruned grid for atomic number  83.
 Defaulting to unpruned grid for atomic number  83.
 Defaulting to unpruned grid for atomic number  83.
 Defaulting to unpruned grid for atomic number  83.
 SCF Done:  E(RPBE1PBE) =  -314.399298766     A.U. after    9 cycles
            NFock=  9  Conv=0.22D-08     -V/T= 2.8659
 QCSCF skips out because SCF is already converged.
   4 Symmetry operations used in ECPInt.
 ECPInt:  NShTT=     780 NPrTT=    2973 LenC2=     781 LenP2D=    2678.
 LDataN:  DoStor=T MaxTD1=10 Len=  848
 Calling FoFJK, ICntrl=      2127 FMM=F ISym2X=1 I1Cent= 0 IOpClX= 0 NMat=1 NMatS=1 NMatT=0.
 Defaulting to unpruned grid for atomic number  83.
 Defaulting to unpruned grid for atomic number  83.
 Defaulting to unpruned grid for atomic number  83.
 Defaulting to unpruned grid for atomic number  83.
 Defaulting to unpruned grid for atomic number  83.
 Defaulting to unpruned grid for atomic number  83.
 Defaulting to unpruned grid for atomic number  83.
 Defaulting to unpruned grid for atomic number  83.
 ***** Axes restored to original set *****
 -------------------------------------------------------------------
 Center     Atomic                   Forces (Hartrees/Bohr)
 Number     Number              X              Y              Z
 -------------------------------------------------------------------
      1       83          -0.000000000   -0.000000000   -0.001142516
      2        9          -0.000000000   -0.000000000    0.001142516
 -------------------------------------------------------------------
 Cartesian Forces:  Max     0.001142516 RMS     0.000659632

 GradGradGradGradGradGradGradGradGradGradGradGradGradGradGradGradGradGrad
 Berny optimization.
 Using GEDIIS/GDIIS optimizer.
 Internal  Forces:  Max     0.001142516 RMS     0.001142516
 Search for a local minimum.
 Step number   2 out of a maximum of   20
 All quantities printed in internal units (Hartrees-Bohrs-Radians)
 Mixed Optimization -- RFO/linear search
 Update second derivatives using D2CorX and points    1    2
 DE= -2.58D-04 DEPred=-2.84D-04 R= 9.10D-01
 TightC=F SS=  1.41D+00  RLast= 5.66D-02 DXNew= 5.0454D-01 1.6990D-01
 Trust test= 9.10D-01 RLast= 5.66D-02 DXMaxT set to 3.00D-01
 The second derivative matrix:
                          R1
           R1           0.19674
 ITU=  1  0
 Use linear search instead of GDIIS.
     Eigenvalues ---    0.19674
 RFO step:  Lambda= 0.00000000D+00 EMin= 1.96744249D-01
 Quartic linear search produced a step of -0.09614.
 Iteration  1 RMS(Cart)=  0.00384998 RMS(Int)=  0.00000000
 Iteration  2 RMS(Cart)=  0.00000000 RMS(Int)=  0.00000000
 ClnCor:  largest displacement from symmetrization is 0.00D+00 for atom     0.
 Variable       Old X    -DE/DX   Delta X   Delta X   Delta X     New X
                                 (Linear)    (Quad)   (Total)
    R1        3.80612   0.00114   0.00544   0.00000   0.00544   3.81157
         Item               Value     Threshold  Converged?
 Maximum Force            0.001143     0.000450     NO 
 RMS     Force            0.001143     0.000300     NO 
 Maximum Displacement     0.002722     0.001800     NO 
 RMS     Displacement     0.003850     0.001200     NO 
 Predicted change in Energy=-3.304438D-06
 GradGradGradGradGradGradGradGradGradGradGradGradGradGradGradGradGradGrad

                          Input orientation:                          
 ---------------------------------------------------------------------
 Center     Atomic      Atomic             Coordinates (Angstroms)
 Number     Number       Type             X           Y           Z
 ---------------------------------------------------------------------
      1         83           0        8.000000    8.000000    6.991503
      2          9           0        8.000000    8.000000    9.008497
 ---------------------------------------------------------------------
 Stoichiometry    BiF
 Framework group  C*V[C*(FBi)]
 Deg. of freedom     1
 Full point group                 C*V     NOp   4
 Largest Abelian subgroup         C2V     NOp   4
 Largest concise Abelian subgroup C1      NOp   1
                         Standard orientation:                         
 ---------------------------------------------------------------------
 Center     Atomic      Atomic             Coordinates (Angstroms)
 Number     Number       Type             X           Y           Z
 ---------------------------------------------------------------------
      1         83           0        0.000000    0.000000    0.197315
      2          9           0        0.000000    0.000000   -1.819679
 ---------------------------------------------------------------------
 Rotational constants (GHZ):           0.0000000           7.1331263           7.1331263
 Standard basis: def2QZVPP (5D, 7F)
 There are    75 symmetry adapted cartesian basis functions of A1  symmetry.
 There are    19 symmetry adapted cartesian basis functions of A2  symmetry.
 There are    41 symmetry adapted cartesian basis functions of B1  symmetry.
 There are    41 symmetry adapted cartesian basis functions of B2  symmetry.
 There are    56 symmetry adapted basis functions of A1  symmetry.
 There are    17 symmetry adapted basis functions of A2  symmetry.
 There are    33 symmetry adapted basis functions of B1  symmetry.
 There are    33 symmetry adapted basis functions of B2  symmetry.
   139 basis functions,   266 primitive gaussians,   176 cartesian basis functions
    16 alpha electrons       16 beta electrons
       nuclear repulsion energy        54.3083902395 Hartrees.
 NAtoms=    2 NActive=    2 NUniq=    2 SFac= 1.00D+00 NAtFMM=   60 NAOKFM=F Big=F
 Integral buffers will be    131072 words long.
 Raffenetti 2 integral format.
 Two-electron integral symmetry is turned on.
 One-electron integrals computed using PRISM.
   4 Symmetry operations used in ECPInt.
 ECPInt:  NShTT=     780 NPrTT=    2973 LenC2=     781 LenP2D=    2675.
 LDataN:  DoStor=T MaxTD1= 9 Len=  602
 NBasis=   139 RedAO= T EigKep=  8.57D-04  NBF=    56    17    33    33
 NBsUse=   139 1.00D-06 EigRej= -1.00D+00 NBFU=    56    17    33    33
 Defaulting to unpruned grid for atomic number  83.
 Initial guess from the checkpoint file:  "/data/hutter/SMG16/PBE0/Gau-11201.chk"
 B after Tr=     0.000000    0.000000   -0.000000
         Rot=    1.000000    0.000000    0.000000    0.000000 Ang=   0.00 deg.
 Initial guess orbital symmetries:
       Occupied  (SG) (SG) (PI) (SG) (PI) (?A) (PI) (?A) (?A) (PI)
                 (?A) (SG) (SG) (PI) (PI) (PI)
       Virtual   (PI) (SG) (?B) (PI) (PI) (?B) (?B) (?B) (PI) (PI)
                 (?B) (?C) (?D) (?D) (?C) (?C) (?D) (?D) (?D) (?C)
                 (?D) (SG) (?D) (?D) (?C) (?C) (PI) (?C) (PI) (?C)
                 (?A) (?A) (?A) (?E) (?E) (?E) (?A) (?E) (DLTA)
                 (DLTA) (?E) (?E) (?E) (?E) (?F) (?F) (?F) (?F)
                 (?F) (PI) (PI) (?F) (PI) (SG) (PI) (?A) (?A) (?A)
                 (PI) (PI) (PI) (PI) (?A) (?G) (?G) (?E) (?G) (?E)
                 (?E) (?E) (SG) (SG) (PHI) (PHI) (DLTA) (DLTA)
                 (PI) (PI) (SG) (DLTA) (DLTA) (PI) (PI) (SG) (PI)
                 (PI) (SG) (?E) (?E) (?H) (?H) (?E) (?E) (?H) (?I)
                 (?I) (?E) (?E) (?I) (?I) (?E) (?E) (?I) (SG) (PHI)
                 (PHI) (DLTA) (DLTA) (PI) (PI) (SG) (SG) (DLTA)
                 (DLTA) (PI) (PI) (SG) (PI) (PI) (SG) (SG) (SG)
                 (SG)
 Keep R1 ints in memory in symmetry-blocked form, NReq=59379869.
 Requested convergence on RMS density matrix=1.00D-08 within  32 cycles.
 Requested convergence on MAX density matrix=1.00D-06.
 Requested convergence on             energy=1.00D-06.
 No special actions if energy rises.
 Defaulting to unpruned grid for atomic number  83.
 Defaulting to unpruned grid for atomic number  83.
 Defaulting to unpruned grid for atomic number  83.
 Defaulting to unpruned grid for atomic number  83.
 Defaulting to unpruned grid for atomic number  83.
 Defaulting to unpruned grid for atomic number  83.
 Defaulting to unpruned grid for atomic number  83.
 Defaulting to unpruned grid for atomic number  83.
 SCF Done:  E(RPBE1PBE) =  -314.399301868     A.U. after    7 cycles
            NFock=  7  Conv=0.43D-08     -V/T= 2.8659
 QCSCF skips out because SCF is already converged.
   4 Symmetry operations used in ECPInt.
 ECPInt:  NShTT=     780 NPrTT=    2973 LenC2=     781 LenP2D=    2675.
 LDataN:  DoStor=T MaxTD1=10 Len=  848
 Calling FoFJK, ICntrl=      2127 FMM=F ISym2X=1 I1Cent= 0 IOpClX= 0 NMat=1 NMatS=1 NMatT=0.
 Defaulting to unpruned grid for atomic number  83.
 Defaulting to unpruned grid for atomic number  83.
 Defaulting to unpruned grid for atomic number  83.
 Defaulting to unpruned grid for atomic number  83.
 Defaulting to unpruned grid for atomic number  83.
 Defaulting to unpruned grid for atomic number  83.
 Defaulting to unpruned grid for atomic number  83.
 Defaulting to unpruned grid for atomic number  83.
 ***** Axes restored to original set *****
 -------------------------------------------------------------------
 Center     Atomic                   Forces (Hartrees/Bohr)
 Number     Number              X              Y              Z
 -------------------------------------------------------------------
      1       83          -0.000000000   -0.000000000    0.000000518
      2        9          -0.000000000   -0.000000000   -0.000000518
 -------------------------------------------------------------------
 Cartesian Forces:  Max     0.000000518 RMS     0.000000299

 GradGradGradGradGradGradGradGradGradGradGradGradGradGradGradGradGradGrad
 Berny optimization.
 Using GEDIIS/GDIIS optimizer.
 Internal  Forces:  Max     0.000000518 RMS     0.000000518
 Search for a local minimum.
 Step number   3 out of a maximum of   20
 All quantities printed in internal units (Hartrees-Bohrs-Radians)
 Mixed Optimization -- En-DIIS/RFO-DIIS
 Update second derivatives using D2CorX and points    2    3
 DE= -3.10D-06 DEPred=-3.30D-06 R= 9.39D-01
 TightC=F SS=  1.41D+00  RLast= 5.44D-03 DXNew= 5.0454D-01 1.6334D-02
 Trust test= 9.39D-01 RLast= 5.44D-03 DXMaxT set to 3.00D-01
 The second derivative matrix:
                          R1
           R1           0.20994
 ITU=  1  1
 Use linear search instead of GDIIS.
     Eigenvalues ---    0.20994
 RFO step:  Lambda= 0.00000000D+00 EMin= 2.09935194D-01
 Quartic linear search produced a step of -0.00046.
 Iteration  1 RMS(Cart)=  0.00000176 RMS(Int)=  0.00000000
 Iteration  2 RMS(Cart)=  0.00000000 RMS(Int)=  0.00000000
 ClnCor:  largest displacement from symmetrization is 0.00D+00 for atom     0.
 Variable       Old X    -DE/DX   Delta X   Delta X   Delta X     New X
                                 (Linear)    (Quad)   (Total)
    R1        3.81157  -0.00000  -0.00000   0.00000  -0.00000   3.81156
         Item               Value     Threshold  Converged?
 Maximum Force            0.000001     0.000450     YES
 RMS     Force            0.000001     0.000300     YES
 Maximum Displacement     0.000001     0.001800     YES
 RMS     Displacement     0.000002     0.001200     YES
 Predicted change in Energy=-6.400275D-13
 Optimization completed.
    -- Stationary point found.
                           ----------------------------
                           !   Optimized Parameters   !
                           ! (Angstroms and Degrees)  !
 --------------------------                            --------------------------
 ! Name  Definition              Value          Derivative Info.                !
 --------------------------------------------------------------------------------
 ! R1    R(1,2)                  2.017          -DE/DX =    0.0                 !
 --------------------------------------------------------------------------------
 GradGradGradGradGradGradGradGradGradGradGradGradGradGradGradGradGradGrad

                          Input orientation:                          
 ---------------------------------------------------------------------
 Center     Atomic      Atomic             Coordinates (Angstroms)
 Number     Number       Type             X           Y           Z
 ---------------------------------------------------------------------
      1         83           0        8.000000    8.000000    6.991503
      2          9           0        8.000000    8.000000    9.008497
 ---------------------------------------------------------------------
 Stoichiometry    BiF
 Framework group  C*V[C*(FBi)]
 Deg. of freedom     1
 Full point group                 C*V     NOp   4
 Largest Abelian subgroup         C2V     NOp   4
 Largest concise Abelian subgroup C1      NOp   1
                         Standard orientation:                         
 ---------------------------------------------------------------------
 Center     Atomic      Atomic             Coordinates (Angstroms)
 Number     Number       Type             X           Y           Z
 ---------------------------------------------------------------------
      1         83           0        0.000000    0.000000    0.197315
      2          9           0        0.000000    0.000000   -1.819679
 ---------------------------------------------------------------------
 Rotational constants (GHZ):           0.0000000           7.1331263           7.1331263

 **********************************************************************

            Population analysis using the SCF Density.

 **********************************************************************

 Orbital symmetries:
       Occupied  (SG) (SG) (PI) (SG) (PI) (?A) (PI) (?A) (?A) (PI)
                 (?A) (SG) (SG) (PI) (PI) (PI)
       Virtual   (PI) (SG) (?B) (PI) (PI) (?B) (?B) (?B) (PI) (PI)
                 (?B) (?C) (?D) (?D) (?C) (?C) (?D) (?D) (?D) (?C)
                 (?D) (SG) (?D) (?D) (?C) (?C) (PI) (?C) (PI) (?C)
                 (?A) (?A) (?A) (?E) (?E) (?E) (?A) (?E) (DLTA)
                 (DLTA) (?E) (?E) (?E) (?E) (?F) (?F) (?F) (?F)
                 (?F) (PI) (PI) (?F) (PI) (SG) (PI) (?A) (?A) (?A)
                 (PI) (PI) (PI) (PI) (?A) (?G) (?G) (?E) (?G) (?E)
                 (?E) (?E) (SG) (SG) (PHI) (PHI) (DLTA) (DLTA)
                 (PI) (PI) (SG) (DLTA) (DLTA) (PI) (PI) (SG) (PI)
                 (PI) (SG) (?E) (?E) (?H) (?H) (?E) (?E) (?H) (?I)
                 (?I) (?E) (?E) (?I) (?I) (?E) (?E) (?I) (SG) (PHI)
                 (PHI) (DLTA) (DLTA) (PI) (PI) (SG) (SG) (DLTA)
                 (DLTA) (PI) (PI) (SG) (PI) (PI) (SG) (SG) (SG)
                 (SG)
 Unable to determine electronic state:  an orbital has unidentified symmetry.
 Alpha  occ. eigenvalues --  -24.72307  -6.05115  -3.78512  -3.77499  -3.75888
 Alpha  occ. eigenvalues --   -1.18003  -1.12220  -1.11207  -1.10652  -1.09746
 Alpha  occ. eigenvalues --   -1.07774  -0.60720  -0.40542  -0.40333  -0.40149
 Alpha  occ. eigenvalues --   -0.19003
 Alpha virt. eigenvalues --   -0.15009  -0.06041   0.04676   0.09057   0.09787
 Alpha virt. eigenvalues --    0.12188   0.14148   0.14648   0.16896   0.17734
 Alpha virt. eigenvalues --    0.19808   0.37569   0.42959   0.43850   0.46643
 Alpha virt. eigenvalues --    0.47022   0.47179   0.47278   0.54234   0.55444
 Alpha virt. eigenvalues --    0.55943   0.56430   0.57930   0.60093   0.64103
 Alpha virt. eigenvalues --    0.68839   0.69160   0.69315   0.70821   0.82614
 Alpha virt. eigenvalues --    1.11795   1.15614   1.15825   1.16318   1.16391
 Alpha virt. eigenvalues --    1.18554   1.20381   1.20818   1.35992   1.36128
 Alpha virt. eigenvalues --    1.44867   1.46888   1.57308   1.57336   1.57359
 Alpha virt. eigenvalues --    1.57376   1.71829   1.71874   1.73474   1.75863
 Alpha virt. eigenvalues --    1.76444   1.82421   2.12549   2.12873   2.14239
 Alpha virt. eigenvalues --    2.24480   2.30457   2.30692   2.32794   2.35508
 Alpha virt. eigenvalues --    2.41105   2.44232   2.51080   2.84746   3.10624
 Alpha virt. eigenvalues --    3.10682   3.10781   3.10814   3.12506   3.14599
 Alpha virt. eigenvalues --    3.60009   4.10265   4.19768   4.19768   4.25015
 Alpha virt. eigenvalues --    4.25023   4.44263   4.45060   4.67747   5.04720
 Alpha virt. eigenvalues --    5.04725   5.38051   5.38765   5.68823   6.29843
 Alpha virt. eigenvalues --    6.30478   7.04211   8.70388   8.70388   8.70394
 Alpha virt. eigenvalues --    8.70428   8.77859   8.79815   9.00978  11.44094
 Alpha virt. eigenvalues --   11.44137  11.44370  11.44377  11.45761  11.45761
 Alpha virt. eigenvalues --   11.46086  11.46674  11.47536  12.44371  14.61223
 Alpha virt. eigenvalues --   14.61223  14.63433  14.63437  14.74083  14.74678
 Alpha virt. eigenvalues --   14.81033  15.11960  15.83508  15.83512  16.05148
 Alpha virt. eigenvalues --   16.05629  16.43535  35.38203  35.39258  35.54146
 Alpha virt. eigenvalues --   54.06894  77.84418 285.04456
          Condensed to atoms (all electrons):
               1          2
     1  Bi  22.385465   0.136214
     2  F    0.136214   9.342108
 Mulliken charges:
               1
     1  Bi   0.478322
     2  F   -0.478322
 Sum of Mulliken charges =  -0.00000
 Mulliken charges with hydrogens summed into heavy atoms:
               1
     1  Bi   0.478322
     2  F   -0.478322
 Electronic spatial extent (au):  <R**2>=            189.1247
 Charge=             -0.0000 electrons
 Dipole moment (field-independent basis, Debye):
    X=              0.0000    Y=              0.0000    Z=              2.9373  Tot=              2.9373
 Quadrupole moment (field-independent basis, Debye-Ang):
   XX=            -29.3446   YY=            -39.7143   ZZ=            -37.8786
   XY=              0.0000   XZ=              0.0000   YZ=              0.0000
 Traceless Quadrupole moment (field-independent basis, Debye-Ang):
   XX=              6.3012   YY=             -4.0685   ZZ=             -2.2327
   XY=              0.0000   XZ=              0.0000   YZ=              0.0000
 Octapole moment (field-independent basis, Debye-Ang**2):
  XXX=              0.0000  YYY=              0.0000  ZZZ=             23.7380  XYY=              0.0000
  XXY=              0.0000  XXZ=              4.4083  XZZ=              0.0000  YZZ=              0.0000
  YYZ=              0.8872  XYZ=              0.0000
 Hexadecapole moment (field-independent basis, Debye-Ang**3):
 XXXX=            -31.6593 YYYY=            -78.8041 ZZZZ=           -167.5656 XXXY=              0.0000
 XXXZ=              0.0000 YYYX=              0.0000 YYYZ=              0.0000 ZZZX=              0.0000
 ZZZY=              0.0000 XXYY=            -18.6869 XXZZ=            -30.4060 YYZZ=            -38.7125
 XXYZ=              0.0000 YYXZ=              0.0000 ZZXY=              0.0000
 N-N= 5.430839023950D+01 E-N=-7.895575042059D+02  KE= 1.684980864344D+02
 Symmetry A1   KE= 1.181217850993D+02
 Symmetry A2   KE= 7.660035632694D+00
 Symmetry B1   KE= 2.040334699325D+01
 Symmetry B2   KE= 2.231291870917D+01
 Unable to Open any file for archive entry.
 1\1\GINC-TCOPT10\FOpt\RPBE1PBE\def2QZVPP\Bi1F1\HUTTER\01-Aug-2021\0\\#
 N RPBE1PBE/Def2QZVPP scf=tight scf=XQC Int(Grid=ultrafine) OPT FREQ\\M
 ol job 1\\0,1\Bi,8.,8.,6.9915031344\F,8.,8.,9.0084968656\\Version=ES64
 L-G16RevC.01\HF=-314.3993019\RMSD=4.274e-09\RMSF=2.993e-07\Dipole=0.,0
 .,-1.1556266\Quadrupole=4.6847938,-3.0248018,-1.659992,0.,0.,0.\PG=C*V
  [C*(F1Bi1)]\\@
 The archive entry for this job was punched.


 HOW IS IT THAT THE SKY FEEDS THE STARS?

                           -- LUCRETIUS
 Job cpu time:       0 days  0 hours 14 minutes 26.0 seconds.
 Elapsed time:       0 days  0 hours  2 minutes 11.5 seconds.
 File lengths (MBytes):  RWF=     11 Int=      0 D2E=      0 Chk=      2 Scr=      1
 Normal termination of Gaussian 16 at Sun Aug  1 09:48:44 2021.
 Link1:  Proceeding to internal job step number  2.
 ----------------------------------------------------------------------
 #N Geom=AllCheck Guess=TCheck SCRF=Check GenChk RPBE1PBE/def2QZVPP Fre
 q
 ----------------------------------------------------------------------
 1/10=4,29=7,30=1,38=1,40=1/1,3;
 2/12=2,40=1/2;
 3/5=45,7=202,11=2,14=-4,25=1,30=1,70=2,71=2,74=-13,75=-5,116=1,140=1/1,2,3;
 4/5=101/1;
 5/5=2,8=3,13=1,32=2,38=6,98=1/2,8;
 8/6=4,10=90,11=11/1;
 11/6=1,8=1,9=11,15=111,16=1/1,2,10;
 10/6=1/2;
 6/7=2,8=2,9=2,10=2,28=1/1;
 7/8=1,10=1,25=1/1,2,3,16;
 1/10=4,30=1/3;
 99//99;
 Structure from the checkpoint file:  "/data/hutter/SMG16/PBE0/Gau-11201.chk"
 ---------
 Mol job 1
 ---------
 Charge =  0 Multiplicity = 1
 Redundant internal coordinates found in file.  (old form).
 Bi,0,8.,8.,6.9915031344
 F,0,8.,8.,9.0084968656
 Recover connectivity data from disk.

 GradGradGradGradGradGradGradGradGradGradGradGradGradGradGradGradGradGrad
 Berny optimization.
 Initialization pass.
                           ----------------------------
                           !    Initial Parameters    !
                           ! (Angstroms and Degrees)  !
 --------------------------                            --------------------------
 ! Name  Definition              Value          Derivative Info.                !
 --------------------------------------------------------------------------------
 ! R1    R(1,2)                  2.017          calculate D2E/DX2 analytically  !
 --------------------------------------------------------------------------------
 Trust Radius=3.00D-01 FncErr=1.00D-07 GrdErr=1.00D-07 EigMax=2.50D+02 EigMin=1.00D-04
 Number of steps in this run=      2 maximum allowed number of steps=      2.
 GradGradGradGradGradGradGradGradGradGradGradGradGradGradGradGradGradGrad

                          Input orientation:                          
 ---------------------------------------------------------------------
 Center     Atomic      Atomic             Coordinates (Angstroms)
 Number     Number       Type             X           Y           Z
 ---------------------------------------------------------------------
      1         83           0        8.000000    8.000000    6.991503
      2          9           0        8.000000    8.000000    9.008497
 ---------------------------------------------------------------------
 Stoichiometry    BiF
 Framework group  C*V[C*(FBi)]
 Deg. of freedom     1
 Full point group                 C*V     NOp   4
 Largest Abelian subgroup         C2V     NOp   4
 Largest concise Abelian subgroup C1      NOp   1
                         Standard orientation:                         
 ---------------------------------------------------------------------
 Center     Atomic      Atomic             Coordinates (Angstroms)
 Number     Number       Type             X           Y           Z
 ---------------------------------------------------------------------
      1         83           0        0.000000    0.000000    0.197315
      2          9           0        0.000000    0.000000   -1.819679
 ---------------------------------------------------------------------
 Rotational constants (GHZ):           0.0000000           7.1331263           7.1331263
 Standard basis: def2QZVPP (5D, 7F)
 There are    75 symmetry adapted cartesian basis functions of A1  symmetry.
 There are    19 symmetry adapted cartesian basis functions of A2  symmetry.
 There are    41 symmetry adapted cartesian basis functions of B1  symmetry.
 There are    41 symmetry adapted cartesian basis functions of B2  symmetry.
 There are    56 symmetry adapted basis functions of A1  symmetry.
 There are    17 symmetry adapted basis functions of A2  symmetry.
 There are    33 symmetry adapted basis functions of B1  symmetry.
 There are    33 symmetry adapted basis functions of B2  symmetry.
   139 basis functions,   266 primitive gaussians,   176 cartesian basis functions
    16 alpha electrons       16 beta electrons
       nuclear repulsion energy        54.3083902395 Hartrees.
 NAtoms=    2 NActive=    2 NUniq=    2 SFac= 1.00D+00 NAtFMM=   60 NAOKFM=F Big=F
 Integral buffers will be    131072 words long.
 Raffenetti 2 integral format.
 Two-electron integral symmetry is turned on.
 One-electron integrals computed using PRISM.
   4 Symmetry operations used in ECPInt.
 ECPInt:  NShTT=     780 NPrTT=    2973 LenC2=     781 LenP2D=    2675.
 LDataN:  DoStor=T MaxTD1= 9 Len=  602
 NBasis=   139 RedAO= T EigKep=  8.57D-04  NBF=    56    17    33    33
 NBsUse=   139 1.00D-06 EigRej= -1.00D+00 NBFU=    56    17    33    33
 Defaulting to unpruned grid for atomic number  83.
 Initial guess from the checkpoint file:  "/data/hutter/SMG16/PBE0/Gau-11201.chk"
 B after Tr=     0.000000    0.000000    0.000000
         Rot=    1.000000    0.000000    0.000000    0.000000 Ang=   0.00 deg.
 Initial guess orbital symmetries:
       Occupied  (SG) (SG) (PI) (SG) (PI) (?A) (PI) (?A) (?A) (PI)
                 (?A) (SG) (SG) (PI) (PI) (PI)
       Virtual   (PI) (SG) (?B) (PI) (PI) (?B) (?B) (?B) (PI) (PI)
                 (?B) (?C) (?D) (?D) (?C) (?C) (?D) (?D) (?D) (?C)
                 (?D) (SG) (?D) (?D) (?C) (?C) (PI) (?C) (PI) (?C)
                 (?A) (?A) (?A) (?E) (?E) (?E) (?A) (?E) (DLTA)
                 (DLTA) (?E) (?E) (?E) (?E) (?F) (?F) (?F) (?F)
                 (?F) (PI) (PI) (?F) (PI) (SG) (PI) (?A) (?A) (?A)
                 (PI) (PI) (PI) (PI) (?A) (?G) (?G) (?E) (?G) (?E)
                 (?E) (?E) (SG) (SG) (PHI) (PHI) (DLTA) (DLTA)
                 (PI) (PI) (SG) (DLTA) (DLTA) (PI) (PI) (SG) (PI)
                 (PI) (SG) (?E) (?E) (?H) (?H) (?E) (?E) (?H) (?I)
                 (?I) (?E) (?E) (?I) (?I) (?E) (?E) (?I) (SG) (PHI)
                 (PHI) (DLTA) (DLTA) (PI) (PI) (SG) (SG) (DLTA)
                 (DLTA) (PI) (PI) (SG) (PI) (PI) (SG) (SG) (SG)
                 (SG)
 Keep R1 ints in memory in symmetry-blocked form, NReq=59379869.
 Requested convergence on RMS density matrix=1.00D-08 within  32 cycles.
 Requested convergence on MAX density matrix=1.00D-06.
 Requested convergence on             energy=1.00D-06.
 No special actions if energy rises.
 Defaulting to unpruned grid for atomic number  83.
 Defaulting to unpruned grid for atomic number  83.
 Defaulting to unpruned grid for atomic number  83.
 Defaulting to unpruned grid for atomic number  83.
 Defaulting to unpruned grid for atomic number  83.
 Defaulting to unpruned grid for atomic number  83.
 Defaulting to unpruned grid for atomic number  83.
 Defaulting to unpruned grid for atomic number  83.
 SCF Done:  E(RPBE1PBE) =  -314.399301868     A.U. after    1 cycles
            NFock=  1  Conv=0.15D-08     -V/T= 2.8659
 QCSCF skips out because SCF is already converged.
 DoSCS=F DFT=T ScalE2(SS,OS)=  1.000000  1.000000
 Range of M.O.s used for correlation:     1   139
 NBasis=   139 NAE=    16 NBE=    16 NFC=     0 NFV=     0
 NROrb=    139 NOA=    16 NOB=    16 NVA=   123 NVB=   123

 **** Warning!!: The largest alpha MO coefficient is  0.13563998D+02


 **** Warning!!: The smallest alpha delta epsilon is  0.39940892D-01

   4 Symmetry operations used in ECPInt.
 ECPInt:  NShTT=     780 NPrTT=    2973 LenC2=     781 LenP2D=    2675.
 LDataN:  DoStor=T MaxTD1=10 Len=  848
 Symmetrizing basis deriv contribution to polar:
 IMax=3 JMax=2 DiffMx= 0.00D+00
 G2DrvN: will do     3 centers at a time, making    1 passes.
 Calling FoFCou, ICntrl=  3107 FMM=F I1Cent=   0 AccDes= 0.00D+00.
 Defaulting to unpruned grid for atomic number  83.
 Defaulting to unpruned grid for atomic number  83.
 Defaulting to unpruned grid for atomic number  83.
 Defaulting to unpruned grid for atomic number  83.
 Defaulting to unpruned grid for atomic number  83.
 Defaulting to unpruned grid for atomic number  83.
 Defaulting to unpruned grid for atomic number  83.
 Defaulting to unpruned grid for atomic number  83.
 End of G2Drv F.D. properties file   721 does not exist.
 End of G2Drv F.D. properties file   722 does not exist.
 End of G2Drv F.D. properties file   788 does not exist.
          IDoAtm=11
          Differentiating once with respect to electric field.
                with respect to dipole field.
          Differentiating once with respect to nuclear coordinates.
 Defaulting to unpruned grid for atomic number  83.
 Keep R1 ints in memory in symmetry-blocked form, NReq=59381254.
 Defaulting to unpruned grid for atomic number  83.
 Defaulting to unpruned grid for atomic number  83.
 Defaulting to unpruned grid for atomic number  83.
 Defaulting to unpruned grid for atomic number  83.
 Defaulting to unpruned grid for atomic number  83.
 Defaulting to unpruned grid for atomic number  83.
 Defaulting to unpruned grid for atomic number  83.
 Defaulting to unpruned grid for atomic number  83.
          There are     9 degrees of freedom in the 1st order CPHF.  IDoFFX=6 NUNeed=     3.
      6 vectors produced by pass  0 Test12= 2.19D-14 1.11D-08 XBig12= 5.32D+01 5.44D+00.
 AX will form     6 AO Fock derivatives at one time.
      6 vectors produced by pass  1 Test12= 2.19D-14 1.11D-08 XBig12= 1.23D+01 1.32D+00.
      6 vectors produced by pass  2 Test12= 2.19D-14 1.11D-08 XBig12= 2.48D-01 2.35D-01.
      6 vectors produced by pass  3 Test12= 2.19D-14 1.11D-08 XBig12= 1.93D-02 4.23D-02.
      6 vectors produced by pass  4 Test12= 2.19D-14 1.11D-08 XBig12= 1.13D-03 8.36D-03.
      6 vectors produced by pass  5 Test12= 2.19D-14 1.11D-08 XBig12= 2.27D-05 1.56D-03.
      6 vectors produced by pass  6 Test12= 2.19D-14 1.11D-08 XBig12= 1.45D-07 1.24D-04.
      4 vectors produced by pass  7 Test12= 2.19D-14 1.11D-08 XBig12= 1.34D-09 9.71D-06.
      3 vectors produced by pass  8 Test12= 2.19D-14 1.11D-08 XBig12= 5.34D-12 6.32D-07.
      1 vectors produced by pass  9 Test12= 2.19D-14 1.11D-08 XBig12= 2.25D-14 4.58D-08.
 InvSVY:  IOpt=1 It=  1 EMax= 4.44D-16
 Solved reduced A of dimension    50 with     6 vectors.
 Isotropic polarizability for W=    0.000000       45.32 Bohr**3.
 End of Minotr F.D. properties file   721 does not exist.
 End of Minotr F.D. properties file   722 does not exist.
 End of Minotr F.D. properties file   788 does not exist.

 **********************************************************************

            Population analysis using the SCF Density.

 **********************************************************************

 Orbital symmetries:
       Occupied  (SG) (SG) (PI) (SG) (PI) (?A) (PI) (?A) (?A) (PI)
                 (?A) (SG) (SG) (PI) (PI) (PI)
       Virtual   (PI) (SG) (?B) (PI) (PI) (?B) (?B) (?B) (PI) (PI)
                 (?B) (?C) (?D) (?D) (?C) (?C) (?D) (?D) (?D) (?C)
                 (?D) (SG) (?D) (?D) (?C) (?C) (PI) (?C) (PI) (?C)
                 (?A) (?A) (?A) (?E) (?E) (?E) (?A) (?E) (DLTA)
                 (DLTA) (?E) (?E) (?E) (?E) (?F) (?F) (?F) (?F)
                 (?F) (PI) (PI) (?F) (PI) (SG) (PI) (?A) (?A) (?A)
                 (PI) (PI) (PI) (PI) (?A) (?G) (?G) (?E) (?G) (?E)
                 (?E) (?E) (SG) (SG) (PHI) (PHI) (DLTA) (DLTA)
                 (PI) (PI) (SG) (DLTA) (DLTA) (PI) (PI) (SG) (PI)
                 (PI) (SG) (?E) (?E) (?H) (?H) (?E) (?E) (?H) (?I)
                 (?I) (?E) (?E) (?I) (?I) (?E) (?E) (?I) (SG) (PHI)
                 (PHI) (DLTA) (DLTA) (PI) (PI) (SG) (SG) (DLTA)
                 (DLTA) (PI) (PI) (SG) (PI) (PI) (SG) (SG) (SG)
                 (SG)
 Unable to determine electronic state:  an orbital has unidentified symmetry.
 Alpha  occ. eigenvalues --  -24.72307  -6.05115  -3.78512  -3.77499  -3.75888
 Alpha  occ. eigenvalues --   -1.18003  -1.12220  -1.11207  -1.10652  -1.09746
 Alpha  occ. eigenvalues --   -1.07774  -0.60720  -0.40542  -0.40333  -0.40149
 Alpha  occ. eigenvalues --   -0.19003
 Alpha virt. eigenvalues --   -0.15009  -0.06041   0.04676   0.09057   0.09787
 Alpha virt. eigenvalues --    0.12188   0.14148   0.14648   0.16896   0.17734
 Alpha virt. eigenvalues --    0.19808   0.37569   0.42959   0.43850   0.46643
 Alpha virt. eigenvalues --    0.47022   0.47179   0.47278   0.54234   0.55444
 Alpha virt. eigenvalues --    0.55943   0.56430   0.57930   0.60093   0.64103
 Alpha virt. eigenvalues --    0.68839   0.69160   0.69315   0.70821   0.82614
 Alpha virt. eigenvalues --    1.11795   1.15614   1.15825   1.16318   1.16391
 Alpha virt. eigenvalues --    1.18554   1.20381   1.20818   1.35992   1.36128
 Alpha virt. eigenvalues --    1.44867   1.46888   1.57308   1.57336   1.57359
 Alpha virt. eigenvalues --    1.57376   1.71829   1.71874   1.73474   1.75863
 Alpha virt. eigenvalues --    1.76444   1.82421   2.12549   2.12873   2.14239
 Alpha virt. eigenvalues --    2.24480   2.30457   2.30692   2.32794   2.35508
 Alpha virt. eigenvalues --    2.41105   2.44232   2.51080   2.84746   3.10624
 Alpha virt. eigenvalues --    3.10682   3.10781   3.10814   3.12506   3.14599
 Alpha virt. eigenvalues --    3.60009   4.10265   4.19768   4.19768   4.25015
 Alpha virt. eigenvalues --    4.25023   4.44263   4.45060   4.67747   5.04720
 Alpha virt. eigenvalues --    5.04725   5.38051   5.38765   5.68823   6.29843
 Alpha virt. eigenvalues --    6.30478   7.04211   8.70388   8.70388   8.70394
 Alpha virt. eigenvalues --    8.70428   8.77859   8.79815   9.00978  11.44094
 Alpha virt. eigenvalues --   11.44137  11.44370  11.44377  11.45761  11.45761
 Alpha virt. eigenvalues --   11.46086  11.46674  11.47536  12.44371  14.61223
 Alpha virt. eigenvalues --   14.61223  14.63433  14.63437  14.74083  14.74678
 Alpha virt. eigenvalues --   14.81033  15.11960  15.83508  15.83512  16.05148
 Alpha virt. eigenvalues --   16.05629  16.43535  35.38203  35.39258  35.54146
 Alpha virt. eigenvalues --   54.06894  77.84418 285.04456
          Condensed to atoms (all electrons):
               1          2
     1  Bi  22.385465   0.136214
     2  F    0.136214   9.342108
 Mulliken charges:
               1
     1  Bi   0.478322
     2  F   -0.478322
 Sum of Mulliken charges =  -0.00000
 Mulliken charges with hydrogens summed into heavy atoms:
               1
     1  Bi   0.478322
     2  F   -0.478322
 APT charges:
               1
     1  Bi   0.617137
     2  F   -0.617137
 Sum of APT charges =   0.00000
 APT charges with hydrogens summed into heavy atoms:
               1
     1  Bi   0.617137
     2  F   -0.617137
 Electronic spatial extent (au):  <R**2>=            189.1247
 Charge=             -0.0000 electrons
 Dipole moment (field-independent basis, Debye):
    X=              0.0000    Y=              0.0000    Z=              2.9373  Tot=              2.9373
 Quadrupole moment (field-independent basis, Debye-Ang):
   XX=            -29.3446   YY=            -39.7143   ZZ=            -37.8786
   XY=              0.0000   XZ=              0.0000   YZ=              0.0000
 Traceless Quadrupole moment (field-independent basis, Debye-Ang):
   XX=              6.3012   YY=             -4.0685   ZZ=             -2.2327
   XY=              0.0000   XZ=              0.0000   YZ=              0.0000
 Octapole moment (field-independent basis, Debye-Ang**2):
  XXX=              0.0000  YYY=              0.0000  ZZZ=             23.7380  XYY=              0.0000
  XXY=              0.0000  XXZ=              4.4083  XZZ=              0.0000  YZZ=              0.0000
  YYZ=              0.8872  XYZ=              0.0000
 Hexadecapole moment (field-independent basis, Debye-Ang**3):
 XXXX=            -31.6593 YYYY=            -78.8041 ZZZZ=           -167.5656 XXXY=              0.0000
 XXXZ=              0.0000 YYYX=              0.0000 YYYZ=              0.0000 ZZZX=              0.0000
 ZZZY=              0.0000 XXYY=            -18.6869 XXZZ=            -30.4060 YYZZ=            -38.7125
 XXYZ=              0.0000 YYXZ=              0.0000 ZZXY=              0.0000
 N-N= 5.430839023950D+01 E-N=-7.895574992912D+02  KE= 1.684980844423D+02
 Symmetry A1   KE= 1.181217840069D+02
 Symmetry A2   KE= 7.660035469587D+00
 Symmetry B1   KE= 2.040334684950D+01
 Symmetry B2   KE= 2.231291811632D+01
  Exact polarizability:      34.395       0.000      57.252       0.000       0.000      44.311
 Approx polarizability:      52.456      -0.000      68.189      -0.000      -0.000      69.256
   4 Symmetry operations used in ECPInt.
 ECPInt:  NShTT=     780 NPrTT=    2973 LenC2=     781 LenP2D=    2675.
 LDataN:  DoStor=T MaxTD1=11 Len= 1166
 Calling FoFJK, ICntrl=    100127 FMM=F ISym2X=1 I1Cent= 0 IOpClX= 0 NMat=1 NMatS=1 NMatT=0.
 Defaulting to unpruned grid for atomic number  83.
 Defaulting to unpruned grid for atomic number  83.
 Defaulting to unpruned grid for atomic number  83.
 Defaulting to unpruned grid for atomic number  83.
 Defaulting to unpruned grid for atomic number  83.
 Defaulting to unpruned grid for atomic number  83.
 Defaulting to unpruned grid for atomic number  83.
 Defaulting to unpruned grid for atomic number  83.
 Full mass-weighted force constant matrix:
 Low frequencies ---   -0.0002    0.0004    0.0006   11.9120   12.2936  562.4345
 Diagonal vibrational polarizability:
        0.0000000       0.0000000       7.3807632
 Harmonic frequencies (cm**-1), IR intensities (KM/Mole), Raman scattering
 activities (A**4/AMU), depolarization ratios for plane and unpolarized
 incident light, reduced masses (AMU), force constants (mDyne/A),
 and normal coordinates:
                      1
                     SG
 Frequencies --    562.4345
 Red. masses --     20.5557
 Frc consts  --      3.8311
 IR Inten    --     86.7585
  Atom  AN      X      Y      Z
     1  83    -0.00  -0.00  -0.09
     2   9    -0.00  -0.00   1.00

 -------------------
 - Thermochemistry -
 -------------------
 Temperature   298.150 Kelvin.  Pressure   1.00000 Atm.
 Atom     1 has atomic number 83 and mass 208.98040
 Atom     2 has atomic number  9 and mass  18.99840
 Molecular mass:   227.97880 amu.
 Principal axes and moments of inertia in atomic units:
                           1         2         3
     Eigenvalues --     0.00000 253.00845 253.00845
           X            0.00000  -0.00000   1.00000
           Y            0.00000   1.00000   0.00000
           Z            1.00000   0.00000   0.00000
 This molecule is a prolate symmetric top.
 Rotational symmetry number  1.
 Rotational temperature (Kelvin)      0.34234
 Rotational constant (GHZ):           7.133126
 Zero-point vibrational energy       3364.1 (Joules/Mol)
                                    0.80404 (Kcal/Mol)
 Warning -- explicit consideration of   1 degrees of freedom as
           vibrations may cause significant error
 Vibrational temperatures:    809.22
          (Kelvin)
 
 Zero-point correction=                           0.001281 (Hartree/Particle)
 Thermal correction to Energy=                    0.003824
 Thermal correction to Enthalpy=                  0.004768
 Thermal correction to Gibbs Free Energy=        -0.022853
 Sum of electronic and zero-point Energies=           -314.398021
 Sum of electronic and thermal Energies=              -314.395478
 Sum of electronic and thermal Enthalpies=            -314.394534
 Sum of electronic and thermal Free Energies=         -314.422155
 
                     E (Thermal)             CV                S
                      KCal/Mol        Cal/Mol-Kelvin    Cal/Mol-Kelvin
 Total                    2.399              6.081             58.133
 Electronic               0.000              0.000              0.000
 Translational            0.889              2.981             42.174
 Rotational               0.592              1.987             15.440
 Vibrational              0.918              1.113              0.519
 Vibration     1          0.918              1.113              0.519
                       Q            Log10(Q)             Ln(Q)
 Total Bot       0.324853D+11         10.511687         24.204054
 Total V=0       0.126198D+12         11.101053         25.561119
 Vib (Bot)       0.275683D+00         -0.559590         -1.288505
 Vib (Bot)    1  0.275683D+00         -0.559590         -1.288505
 Vib (V=0)       0.107096D+01          0.029775          0.068560
 Vib (V=0)    1  0.107096D+01          0.029775          0.068560
 Electronic      0.100000D+01          0.000000          0.000000
 Translational   0.135299D+09          8.131296         18.723000
 Rotational      0.870928D+03          2.939982          6.769559
 ***** Axes restored to original set *****
 -------------------------------------------------------------------
 Center     Atomic                   Forces (Hartrees/Bohr)
 Number     Number              X              Y              Z
 -------------------------------------------------------------------
      1       83          -0.000000000   -0.000000000    0.000000543
      2        9          -0.000000000   -0.000000000   -0.000000543
 -------------------------------------------------------------------
 Cartesian Forces:  Max     0.000000543 RMS     0.000000313
 FormGI is forming the generalized inverse of G from B-inverse, IUseBI=4.

 GradGradGradGradGradGradGradGradGradGradGradGradGradGradGradGradGradGrad
 Berny optimization.
 Internal  Forces:  Max     0.000000543 RMS     0.000000543
 Search for a local minimum.
 Step number   1 out of a maximum of    2
 All quantities printed in internal units (Hartrees-Bohrs-Radians)
 Second derivative matrix not updated -- analytic derivatives used.
 The second derivative matrix:
                          R1
           R1           0.20848
 ITU=  0
     Eigenvalues ---    0.20848
 Angle between quadratic step and forces=   0.00 degrees.
 Linear search not attempted -- first point.
 Iteration  1 RMS(Cart)=  0.00000184 RMS(Int)=  0.00000000
 Iteration  2 RMS(Cart)=  0.00000000 RMS(Int)=  0.00000000
 ClnCor:  largest displacement from symmetrization is 0.00D+00 for atom     0.
 Variable       Old X    -DE/DX   Delta X   Delta X   Delta X     New X
                                 (Linear)    (Quad)   (Total)
    R1        3.81157  -0.00000   0.00000  -0.00000  -0.00000   3.81156
         Item               Value     Threshold  Converged?
 Maximum Force            0.000001     0.000450     YES
 RMS     Force            0.000001     0.000300     YES
 Maximum Displacement     0.000001     0.001800     YES
 RMS     Displacement     0.000002     0.001200     YES
 Predicted change in Energy=-7.065645D-13
 Optimization completed.
    -- Stationary point found.
                           ----------------------------
                           !   Optimized Parameters   !
                           ! (Angstroms and Degrees)  !
 --------------------------                            --------------------------
 ! Name  Definition              Value          Derivative Info.                !
 --------------------------------------------------------------------------------
 ! R1    R(1,2)                  2.017          -DE/DX =    0.0                 !
 --------------------------------------------------------------------------------
 GradGradGradGradGradGradGradGradGradGradGradGradGradGradGradGradGradGrad


 ----------------------------------------------------------------------

 Electric dipole moment (input orientation):
 (Debye = 10**-18 statcoulomb cm , SI units = C m)
                  (au)            (Debye)         (10**-30 SI)
   Tot        0.115563D+01      0.293731D+01      0.979781D+01
   x          0.000000D+00      0.000000D+00      0.000000D+00
   y          0.000000D+00      0.000000D+00      0.000000D+00
   z         -0.115563D+01     -0.293731D+01     -0.979781D+01

 Dipole polarizability, Alpha (input orientation).
 (esu units = cm**3 , SI units = C**2 m**2 J**-1)
 Alpha(0;0):
               (au)            (10**-24 esu)      (10**-40 SI)
   iso        0.453194D+02      0.671565D+01      0.747217D+01
   aniso      0.198517D+02      0.294172D+01      0.327311D+01
   xx         0.343955D+02      0.509689D+01      0.567105D+01
   yx         0.000000D+00      0.000000D+00      0.000000D+00
   yy         0.572517D+02      0.848382D+01      0.943952D+01
   zx         0.000000D+00      0.000000D+00      0.000000D+00
   zy         0.000000D+00      0.000000D+00      0.000000D+00
   zz         0.443112D+02      0.656624D+01      0.730592D+01

 ----------------------------------------------------------------------

 Dipole orientation:
    83         15.11780900        -15.11780900        -13.21202612
     9         15.11780900        -15.11780900        -17.02359187

 Electric dipole moment (dipole orientation):
 (Debye = 10**-18 statcoulomb cm , SI units = C m)
                  (au)            (Debye)         (10**-30 SI)
   Tot        0.115563D+01      0.293731D+01      0.979781D+01
   x          0.000000D+00      0.000000D+00      0.000000D+00
   y          0.000000D+00      0.000000D+00      0.000000D+00
   z          0.115563D+01      0.293731D+01      0.979781D+01

 Dipole polarizability, Alpha (dipole orientation).
 (esu units = cm**3 , SI units = C**2 m**2 J**-1)
 Alpha(0;0):
               (au)            (10**-24 esu)      (10**-40 SI)
   iso        0.453194D+02      0.671565D+01      0.747217D+01
   aniso      0.198517D+02      0.294172D+01      0.327311D+01
   xx         0.343955D+02      0.509689D+01      0.567105D+01
   yx         0.000000D+00      0.000000D+00      0.000000D+00
   yy         0.572517D+02      0.848382D+01      0.943952D+01
   zx         0.000000D+00      0.000000D+00      0.000000D+00
   zy         0.000000D+00      0.000000D+00      0.000000D+00
   zz         0.443112D+02      0.656624D+01      0.730592D+01

 ----------------------------------------------------------------------
 Unable to Open any file for archive entry.
 1\1\GINC-TCOPT10\Freq\RPBE1PBE\def2QZVPP\Bi1F1\HUTTER\01-Aug-2021\0\\#
 N Geom=AllCheck Guess=TCheck SCRF=Check GenChk RPBE1PBE/def2QZVPP Freq
 \\Mol job 1\\0,1\Bi,8.,8.,6.9915031344\F,8.,8.,9.0084968656\\Version=E
 S64L-G16RevC.01\HF=-314.3993019\RMSD=1.490e-09\RMSF=3.134e-07\ZeroPoin
 t=0.0012813\Thermal=0.0038236\ETot=-314.3954782\HTot=-314.394534\GTot=
 -314.422155\Dipole=0.,0.,-1.155626\DipoleDeriv=0.3031894,0.,0.,0.,0.30
 32922,0.,0.,0.,1.2449286,-0.3031894,0.,0.,0.,-0.3032922,0.,0.,0.,-1.24
 49286\Polar=34.3954929,0.,57.2516651,0.,0.,44.311151\Quadrupole=4.6847
 944,-3.0248018,-1.6599927,0.,0.,0.\PG=C*V [C*(F1Bi1)]\NImag=0\\0.00009
 352,0.,0.00009960,0.,0.,0.20847955,-0.00009352,0.,0.,0.00009352,0.,-0.
 00009960,0.,0.,0.00009960,0.,0.,-0.20847955,0.,0.,0.20847955\\0.,0.,-0
 .00000054,0.,0.,0.00000054\\\@
 The archive entry for this job was punched.


 ... THE UNIVERSE IS NOT ONLY QUEERER THAN WE SUPPOSE,
 BUT QUEERER THAN WE CAN SUPPOSE ... 

                                   -- J. B. S. HALDANE
 Job cpu time:       0 days  0 hours 12 minutes 53.1 seconds.
 Elapsed time:       0 days  0 hours  1 minutes 42.0 seconds.
 File lengths (MBytes):  RWF=     11 Int=      0 D2E=      0 Chk=      3 Scr=      1
 Normal termination of Gaussian 16 at Sun Aug  1 09:50:26 2021.
