 Entering Gaussian System, Link 0=g16
 Initial command:
 /sw-ng/spack/opt/spack/linux-opensuse_leap15-sandybridge/pgi-18.10/gaussian-src-16-C.01-zldqaomctopxhethwccpmxmwefdscg3m/g16/l1.exe "/data/hutter/SMG16/PBE0/Gau-62500.inp" -scrdir="/data/hutter/SMG16/PBE0/"
 Entering Link 1 = /sw-ng/spack/opt/spack/linux-opensuse_leap15-sandybridge/pgi-18.10/gaussian-src-16-C.01-zldqaomctopxhethwccpmxmwefdscg3m/g16/l1.exe PID=     62501.
  
 Copyright (c) 1988-2019, Gaussian, Inc.  All Rights Reserved.
  
 This is part of the Gaussian(R) 16 program.  It is based on
 the Gaussian(R) 09 system (copyright 2009, Gaussian, Inc.),
 the Gaussian(R) 03 system (copyright 2003, Gaussian, Inc.),
 the Gaussian(R) 98 system (copyright 1998, Gaussian, Inc.),
 the Gaussian(R) 94 system (copyright 1995, Gaussian, Inc.),
 the Gaussian 92(TM) system (copyright 1992, Gaussian, Inc.),
 the Gaussian 90(TM) system (copyright 1990, Gaussian, Inc.),
 the Gaussian 88(TM) system (copyright 1988, Gaussian, Inc.),
 the Gaussian 86(TM) system (copyright 1986, Carnegie Mellon
 University), and the Gaussian 82(TM) system (copyright 1983,
 Carnegie Mellon University). Gaussian is a federally registered
 trademark of Gaussian, Inc.
  
 This software contains proprietary and confidential information,
 including trade secrets, belonging to Gaussian, Inc.
  
 This software is provided under written license and may be
 used, copied, transmitted, or stored only in accord with that
 written license.
  
 The following legend is applicable only to US Government
 contracts under FAR:
  
                    RESTRICTED RIGHTS LEGEND
  
 Use, reproduction and disclosure by the US Government is
 subject to restrictions as set forth in subparagraphs (a)
 and (c) of the Commercial Computer Software - Restricted
 Rights clause in FAR 52.227-19.
  
 Gaussian, Inc.
 340 Quinnipiac St., Bldg. 40, Wallingford CT 06492
  
  
 ---------------------------------------------------------------
 Warning -- This program may not be used in any manner that
 competes with the business of Gaussian, Inc. or will provide
 assistance to any competitor of Gaussian, Inc.  The licensee
 of this program is prohibited from giving any competitor of
 Gaussian, Inc. access to this program.  By using this program,
 the user acknowledges that Gaussian, Inc. is engaged in the
 business of creating and licensing software in the field of
 computational chemistry and represents and warrants to the
 licensee that it is not a competitor of Gaussian, Inc. and that
 it will not use this program in any manner prohibited above.
 ---------------------------------------------------------------
  

 Cite this work as:
 Gaussian 16, Revision C.01,
 M. J. Frisch, G. W. Trucks, H. B. Schlegel, G. E. Scuseria, 
 M. A. Robb, J. R. Cheeseman, G. Scalmani, V. Barone, 
 G. A. Petersson, H. Nakatsuji, X. Li, M. Caricato, A. V. Marenich, 
 J. Bloino, B. G. Janesko, R. Gomperts, B. Mennucci, H. P. Hratchian, 
 J. V. Ortiz, A. F. Izmaylov, J. L. Sonnenberg, D. Williams-Young, 
 F. Ding, F. Lipparini, F. Egidi, J. Goings, B. Peng, A. Petrone, 
 T. Henderson, D. Ranasinghe, V. G. Zakrzewski, J. Gao, N. Rega, 
 G. Zheng, W. Liang, M. Hada, M. Ehara, K. Toyota, R. Fukuda, 
 J. Hasegawa, M. Ishida, T. Nakajima, Y. Honda, O. Kitao, H. Nakai, 
 T. Vreven, K. Throssell, J. A. Montgomery, Jr., J. E. Peralta, 
 F. Ogliaro, M. J. Bearpark, J. J. Heyd, E. N. Brothers, K. N. Kudin, 
 V. N. Staroverov, T. A. Keith, R. Kobayashi, J. Normand, 
 K. Raghavachari, A. P. Rendell, J. C. Burant, S. S. Iyengar, 
 J. Tomasi, M. Cossi, J. M. Millam, M. Klene, C. Adamo, R. Cammi, 
 J. W. Ochterski, R. L. Martin, K. Morokuma, O. Farkas, 
 J. B. Foresman, and D. J. Fox, Gaussian, Inc., Wallingford CT, 2019.
 
 ******************************************
 Gaussian 16:  ES64L-G16RevC.01  3-Jul-2019
                 1-Aug-2021 
 ******************************************
 %mem=8GB
 %NProcShare=8
 Will use up to    8 processors via shared memory.
 ------------------------------------------------------------
 #N RPBE1PBE/Def2QZVPP scf=tight Int(Grid=ultrafine) OPT FREQ
 ------------------------------------------------------------
 1/18=20,19=15,26=4,38=1/1,3;
 2/9=110,12=2,17=6,18=5,40=1/2;
 3/5=45,7=202,11=2,25=1,30=1,71=1,74=-13,75=-5,116=1/1,2,3;
 4//1;
 5/5=2,32=2,38=5/2;
 6/7=2,8=2,9=2,10=2,28=1/1;
 7//1,2,3,16;
 1/18=20,19=15,26=4/3(2);
 2/9=110/2;
 99//99;
 2/9=110/2;
 3/5=45,7=202,11=2,25=1,30=1,71=1,74=-13,75=-5,116=1/1,2,3;
 4/5=5,16=3,69=1/1;
 5/5=2,32=2,38=5/2;
 7//1,2,3,16;
 1/18=20,19=15,26=4/3(-5);
 2/9=110/2;
 6/7=2,8=2,9=2,10=2,19=2,28=1/1;
 99/9=1/99;
 ---------
 Mol job 1
 ---------
 Symbolic Z-matrix:
 Charge =  0 Multiplicity = 1
 Sn                    8.5       8.5       8.50065 
 O                     6.64015   8.5       8.49935 
 O                     10.35985   8.5       8.49935 
 

 GradGradGradGradGradGradGradGradGradGradGradGradGradGradGradGradGradGrad
 Berny optimization.
 Initialization pass.
                           ----------------------------
                           !    Initial Parameters    !
                           ! (Angstroms and Degrees)  !
 --------------------------                            --------------------------
 ! Name  Definition              Value          Derivative Info.                !
 --------------------------------------------------------------------------------
 ! R1    R(1,2)                  1.8599         estimate D2E/DX2                !
 ! R2    R(1,3)                  1.8599         estimate D2E/DX2                !
 ! A1    L(2,1,3,-2,-1)        179.92           estimate D2E/DX2                !
 ! A2    L(2,1,3,-3,-2)        180.0            estimate D2E/DX2                !
 --------------------------------------------------------------------------------
 Trust Radius=3.00D-01 FncErr=1.00D-07 GrdErr=1.00D-06 EigMax=2.50D+02 EigMin=1.00D-04
 Number of steps in this run=     20 maximum allowed number of steps=    100.
 GradGradGradGradGradGradGradGradGradGradGradGradGradGradGradGradGradGrad

                          Input orientation:                          
 ---------------------------------------------------------------------
 Center     Atomic      Atomic             Coordinates (Angstroms)
 Number     Number       Type             X           Y           Z
 ---------------------------------------------------------------------
      1         50           0        8.500000    8.500000    8.500649
      2          8           0        6.640149    8.500000    8.499351
      3          8           0       10.359851    8.500000    8.499351
 ---------------------------------------------------------------------
                    Distance matrix (angstroms):
                    1          2          3
     1  Sn   0.000000
     2  O    1.859851   0.000000
     3  O    1.859851   3.719701   0.000000
 This structure is nearly, but not quite of a higher symmetry.
 Consider Symm=Loose if the higher symmetry is desired.
 Stoichiometry    O2Sn
 Framework group  C2V[C2(Sn),SGV(O2)]
 Deg. of freedom     2
 Full point group                 C2V     NOp   4
 Largest Abelian subgroup         C2V     NOp   4
 Largest concise Abelian subgroup C2      NOp   2
                         Standard orientation:                         
 ---------------------------------------------------------------------
 Center     Atomic      Atomic             Coordinates (Angstroms)
 Number     Number       Type             X           Y           Z
 ---------------------------------------------------------------------
      1         50           0        0.000000    0.000000    0.000315
      2          8           0       -0.000000    1.859851   -0.000983
      3          8           0       -0.000000   -1.859851   -0.000983
 ---------------------------------------------------------------------
 Rotational constants (GHZ):    11917331.2863164           4.5671905           4.5671887
 Standard basis: def2QZVPP (5D, 7F)
 There are    91 symmetry adapted cartesian basis functions of A1  symmetry.
 There are    35 symmetry adapted cartesian basis functions of A2  symmetry.
 There are    49 symmetry adapted cartesian basis functions of B1  symmetry.
 There are    73 symmetry adapted cartesian basis functions of B2  symmetry.
 There are    69 symmetry adapted basis functions of A1  symmetry.
 There are    30 symmetry adapted basis functions of A2  symmetry.
 There are    40 symmetry adapted basis functions of B1  symmetry.
 There are    57 symmetry adapted basis functions of B2  symmetry.
   196 basis functions,   364 primitive gaussians,   248 cartesian basis functions
    19 alpha electrons       19 beta electrons
       nuclear repulsion energy       109.2582361012 Hartrees.
 NAtoms=    3 NActive=    3 NUniq=    2 SFac= 2.25D+00 NAtFMM=   60 NAOKFM=F Big=F
 Integral buffers will be    131072 words long.
 Raffenetti 2 integral format.
 Two-electron integral symmetry is turned on.
 One-electron integrals computed using PRISM.
   4 Symmetry operations used in ECPInt.
 ECPInt:  NShTT=    1596 NPrTT=    5734 LenC2=    1542 LenP2D=    4789.
 LDataN:  DoStor=T MaxTD1= 8 Len=  415
 NBasis=   196 RedAO= T EigKep=  3.25D-04  NBF=    69    30    40    57
 NBsUse=   196 1.00D-06 EigRej= -1.00D+00 NBFU=    69    30    40    57
 Defaulting to unpruned grid for atomic number  50.
 ExpMin= 3.74D-02 ExpMax= 1.17D+05 ExpMxC= 1.13D+03 IAcc=3 IRadAn=         5 AccDes= 0.00D+00
 Harris functional with IExCor= 1009 and IRadAn=       5 diagonalized for initial guess.
 HarFok:  IExCor= 1009 AccDes= 0.00D+00 IRadAn=         5 IDoV= 1 UseB2=F ITyADJ=14
 ICtDFT=  3500011 ScaDFX=  1.000000  1.000000  1.000000  1.000000
 Defaulting to unpruned grid for atomic number  50.
 FoFCou: FMM=F IPFlag=           0 FMFlag=      100000 FMFlg1=           0
         NFxFlg=           0 DoJE=T BraDBF=F KetDBF=T FulRan=T
         wScrn=  0.000000 ICntrl=       500 IOpCl=  0 I1Cent=   200000004 NGrid=           0
         NMat0=    1 NMatS0=      1 NMatT0=    0 NMatD0=    1 NMtDS0=    0 NMtDT0=    0
 Petite list used in FoFCou.
 Initial guess orbital symmetries:
       Occupied  (A1) (B2) (A1) (B2) (A1) (B1) (A1) (B2) (A2) (B1)
                 (A1) (B2) (A1) (A1) (B2) (B1) (A1) (A2) (B2)
       Virtual   (A1) (B1) (A1) (B2) (A1) (B1) (A1) (B1) (A1) (B2)
                 (A2) (B2) (A1) (B2) (A1) (B1) (A1) (B2) (A2) (B2)
                 (B1) (A1) (B2) (A2) (A1) (B1) (A1) (B1) (A1) (A2)
                 (B2) (A1) (B1) (A1) (B2) (B2) (A1) (B1) (A1) (A2)
                 (B2) (B2) (A1) (B1) (B2) (A2) (A1) (B1) (A2) (B2)
                 (A1) (B1) (A1) (B2) (A2) (B2) (A1) (B1) (B2) (A2)
                 (A1) (B1) (A1) (A1) (B1) (B2) (A2) (A1) (B1) (B1)
                 (A1) (B2) (A1) (B2) (A2) (B2) (A1) (B2) (A2) (A1)
                 (B1) (A1) (B1) (A1) (B2) (A1) (B1) (B2) (A2) (B2)
                 (A2) (A1) (B1) (A1) (B2) (A2) (B2) (B1) (A1) (A2)
                 (B2) (B1) (A1) (A1) (B2) (B1) (A1) (B2) (A2) (B2)
                 (A1) (B2) (A2) (A1) (B1) (A1) (B2) (B2) (A2) (B1)
                 (A1) (A2) (B2) (B2) (A2) (A1) (B1) (B1) (A1) (A1)
                 (B1) (B2) (A2) (B2) (A1) (B1) (A1) (B2) (A2) (B1)
                 (A1) (B2) (A1) (B1) (B2) (A2) (B2) (A2) (A1) (B1)
                 (B1) (A1) (B2) (A1) (B2) (A2) (B1) (A1) (A2) (B2)
                 (B2) (A2) (A1) (B1) (A1) (A1) (B2) (B2) (A1) (B1)
                 (A1) (B2) (B2) (A1) (A1) (B2) (A1)
 The electronic state of the initial guess is 1-A1.
 Keep R1 ints in memory in symmetry-blocked form, NReq=233379308.
 Requested convergence on RMS density matrix=1.00D-08 within 128 cycles.
 Requested convergence on MAX density matrix=1.00D-06.
 Requested convergence on             energy=1.00D-06.
 No special actions if energy rises.
 Defaulting to unpruned grid for atomic number  50.
 Defaulting to unpruned grid for atomic number  50.
 Defaulting to unpruned grid for atomic number  50.
 Defaulting to unpruned grid for atomic number  50.
 Defaulting to unpruned grid for atomic number  50.
 Defaulting to unpruned grid for atomic number  50.
 Defaulting to unpruned grid for atomic number  50.
 Defaulting to unpruned grid for atomic number  50.
 SCF Done:  E(RPBE1PBE) =  -364.588082136     A.U. after   11 cycles
            NFock= 11  Conv=0.82D-09     -V/T= 2.5715

 **********************************************************************

            Population analysis using the SCF Density.

 **********************************************************************

 Orbital symmetries:
       Occupied  (B2) (A1) (A1) (B1) (A1) (B2) (A1) (B1) (A1) (B2)
                 (A2) (B2) (A1) (A1) (B2) (B1) (A1) (A2) (B2)
       Virtual   (A1) (B1) (A1) (B2) (A1) (B1) (A1) (B1) (A1) (B2)
                 (A2) (B2) (A1) (B2) (A1) (B1) (A1) (B1) (A1) (B2)
                 (A2) (B2) (B2) (A2) (A1) (B1) (B1) (A1) (A1) (A2)
                 (B2) (A1) (B1) (A1) (B2) (B2) (A1) (B1) (A1) (A1)
                 (B1) (A2) (B2) (A1) (B1) (B2) (B2) (A2) (B2) (A2)
                 (A1) (B1) (A1) (B2) (B1) (A1) (A1) (B1) (B2) (A2)
                 (A2) (B2) (A1) (A1) (B1) (B2) (A2) (A1) (B1) (A1)
                 (B1) (B2) (A1) (B2) (A2) (A1) (B2) (B2) (A2) (A1)
                 (B1) (A1) (B1) (A1) (B2) (A1) (B1) (B2) (A2) (B2)
                 (A2) (A1) (B1) (A1) (B2) (B1) (A1) (B2) (A2) (B2)
                 (A2) (A1) (B1) (B2) (A1) (B1) (A1) (B2) (A2) (B2)
                 (A1) (B2) (A2) (A1) (B1) (A1) (B2) (B2) (A2) (B1)
                 (A1) (B1) (A1) (A2) (B2) (B2) (A2) (A1) (B1) (A1)
                 (B1) (B2) (A2) (B2) (A1) (B1) (A1) (B2) (A2) (B1)
                 (A1) (B2) (A1) (B1) (B2) (A2) (B2) (A2) (A1) (B1)
                 (B1) (A1) (B2) (A1) (B2) (A2) (B1) (A1) (A2) (B2)
                 (A1) (B2) (A2) (A1) (B1) (A1) (B2) (B2) (A1) (B1)
                 (A1) (B2) (B2) (A1) (A1) (B2) (A1)
 The electronic state is 1-A1.
 Alpha  occ. eigenvalues --  -19.22941 -19.22940  -5.21632  -3.55337  -3.55337
 Alpha  occ. eigenvalues --   -3.53887  -1.14399  -1.11859  -1.11858  -1.10723
 Alpha  occ. eigenvalues --   -1.10723  -0.94249  -0.91177  -0.48138  -0.37086
 Alpha  occ. eigenvalues --   -0.35108  -0.35108  -0.31661  -0.31661
 Alpha virt. eigenvalues --   -0.13271  -0.08313  -0.08313   0.03890   0.06604
 Alpha virt. eigenvalues --    0.06604   0.07232   0.10891   0.10891   0.17759
 Alpha virt. eigenvalues --    0.19520   0.19520   0.20601   0.33700   0.36037
 Alpha virt. eigenvalues --    0.36037   0.38501   0.38501   0.40130   0.41471
 Alpha virt. eigenvalues --    0.41471   0.41993   0.43809   0.43809   0.44894
 Alpha virt. eigenvalues --    0.44894   0.51876   0.51876   0.51958   0.58128
 Alpha virt. eigenvalues --    0.58128   0.65995   0.65995   0.85126   0.91289
 Alpha virt. eigenvalues --    0.93065   0.95492   1.03017   1.03017   1.13615
 Alpha virt. eigenvalues --    1.13615   1.13954   1.13954   1.20046   1.20046
 Alpha virt. eigenvalues --    1.20173   1.23766   1.23766   1.32582   1.32582
 Alpha virt. eigenvalues --    1.35371   1.40615   1.40615   1.42866   1.43297
 Alpha virt. eigenvalues --    1.43297   1.46761   1.46761   1.47084   1.47084
 Alpha virt. eigenvalues --    1.50941   1.50941   1.66175   1.66831   1.66831
 Alpha virt. eigenvalues --    1.71230   1.71230   1.73392   1.73392   1.82377
 Alpha virt. eigenvalues --    1.82377   1.90267   1.97281   2.36896   2.36896
 Alpha virt. eigenvalues --    2.46094   2.48058   2.76991   2.76991   2.78784
 Alpha virt. eigenvalues --    2.82599   2.82599   2.84656   2.84656   3.07230
 Alpha virt. eigenvalues --    3.13770   3.13770   3.17622   3.17622   3.27733
 Alpha virt. eigenvalues --    3.27733   3.44882   3.45002   3.45002   3.55505
 Alpha virt. eigenvalues --    3.76697   3.76697   3.79336   3.79336   3.88973
 Alpha virt. eigenvalues --    3.88973   3.91471   3.91471   4.16013   4.18078
 Alpha virt. eigenvalues --    4.31644   4.31644   4.51975   4.51976   4.54630
 Alpha virt. eigenvalues --    4.78505   5.16834   5.16834   5.19348   5.19348
 Alpha virt. eigenvalues --    5.81310   5.95826   8.81821   8.81822   8.86954
 Alpha virt. eigenvalues --    8.86954   8.87385   8.87385   8.88460   8.88460
 Alpha virt. eigenvalues --    8.89642   8.89642   8.89678   8.89678   8.91425
 Alpha virt. eigenvalues --    8.91425   8.94147   8.95832   8.95832   8.98899
 Alpha virt. eigenvalues --    9.03200   9.03200   9.11183   9.11185   9.28897
 Alpha virt. eigenvalues --    9.28897   9.46058  10.95447  10.95447  10.96695
 Alpha virt. eigenvalues --   10.96695  10.99385  10.99385  11.11019  11.11019
 Alpha virt. eigenvalues --   11.25363  11.25363  11.33106  11.38969  11.43617
 Alpha virt. eigenvalues --   11.43617  12.00214  12.00214  12.02049  12.02049
 Alpha virt. eigenvalues --   12.21546  12.28035  12.28035  12.30345  12.30345
 Alpha virt. eigenvalues --   12.48157  12.51222  13.17760  13.27082  34.52665
 Alpha virt. eigenvalues --   34.52665  34.88060  47.47638  47.47755  72.62173
 Alpha virt. eigenvalues --  252.53006 252.55304
          Condensed to atoms (all electrons):
               1          2          3
     1  Sn  19.749059   0.522289   0.522289
     2  O    0.522289   8.091856  -0.010963
     3  O    0.522289  -0.010963   8.091856
 Mulliken charges:
               1
     1  Sn   1.206364
     2  O   -0.603182
     3  O   -0.603182
 Sum of Mulliken charges =  -0.00000
 Mulliken charges with hydrogens summed into heavy atoms:
               1
     1  Sn   1.206364
     2  O   -0.603182
     3  O   -0.603182
 Electronic spatial extent (au):  <R**2>=            280.4770
 Charge=              0.0000 electrons
 Dipole moment (field-independent basis, Debye):
    X=             -0.0000    Y=             -0.0000    Z=              0.0064  Tot=              0.0064
 Quadrupole moment (field-independent basis, Debye-Ang):
   XX=            -31.0107   YY=            -49.3977   ZZ=            -31.0107
   XY=              0.0000   XZ=              0.0000   YZ=             -0.0000
 Traceless Quadrupole moment (field-independent basis, Debye-Ang):
   XX=              6.1290   YY=            -12.2580   ZZ=              6.1290
   XY=              0.0000   XZ=              0.0000   YZ=             -0.0000
 Octapole moment (field-independent basis, Debye-Ang**2):
  XXX=             -0.0000  YYY=              0.0000  ZZZ=              0.0208  XYY=             -0.0000
  XXY=             -0.0000  XXZ=              0.0069  XZZ=             -0.0000  YZZ=              0.0000
  YYZ=              0.0125  XYZ=             -0.0000
 Hexadecapole moment (field-independent basis, Debye-Ang**3):
 XXXX=            -31.8366 YYYY=           -325.7232 ZZZZ=            -31.8367 XXXY=              0.0000
 XXXZ=              0.0000 YYYX=              0.0000 YYYZ=             -0.0000 ZZZX=              0.0000
 ZZZY=             -0.0000 XXYY=            -56.3304 XXZZ=            -10.6122 YYZZ=            -56.3304
 XXYZ=             -0.0000 YYXZ=              0.0000 ZZXY=              0.0000
 N-N= 1.092582361012D+02 E-N=-1.032996516923D+03  KE= 2.320057306529D+02
 Symmetry A1   KE= 1.042922730019D+02
 Symmetry A2   KE= 1.495131616119D+01
 Symmetry B1   KE= 2.163234376068D+01
 Symmetry B2   KE= 9.112979772918D+01
   4 Symmetry operations used in ECPInt.
 ECPInt:  NShTT=    1596 NPrTT=    5734 LenC2=    1542 LenP2D=    4789.
 LDataN:  DoStor=T MaxTD1= 9 Len=  602
 Calling FoFJK, ICntrl=      2127 FMM=F ISym2X=1 I1Cent= 0 IOpClX= 0 NMat=1 NMatS=1 NMatT=0.
 Defaulting to unpruned grid for atomic number  50.
 Defaulting to unpruned grid for atomic number  50.
 Defaulting to unpruned grid for atomic number  50.
 Defaulting to unpruned grid for atomic number  50.
 Defaulting to unpruned grid for atomic number  50.
 Defaulting to unpruned grid for atomic number  50.
 Defaulting to unpruned grid for atomic number  50.
 Defaulting to unpruned grid for atomic number  50.
 ***** Axes restored to original set *****
 -------------------------------------------------------------------
 Center     Atomic                   Forces (Hartrees/Bohr)
 Number     Number              X              Y              Z
 -------------------------------------------------------------------
      1       50          -0.000000000   -0.000000000   -0.000105461
      2        8           0.039288078    0.000000000    0.000052730
      3        8          -0.039288078   -0.000000000    0.000052730
 -------------------------------------------------------------------
 Cartesian Forces:  Max     0.039288078 RMS     0.018520627

 GradGradGradGradGradGradGradGradGradGradGradGradGradGradGradGradGradGrad
 Berny optimization.
 FormGI is forming the generalized inverse of G from B-inverse, IUseBI=4.
 Internal  Forces:  Max     0.039288127 RMS     0.027780917
 Search for a local minimum.
 Step number   1 out of a maximum of   20
 All quantities printed in internal units (Hartrees-Bohrs-Radians)
 Mixed Optimization -- RFO/linear search
 Second derivative matrix not updated -- first step.
 The second derivative matrix:
                          R1        R2        A1        A2
           R1           0.26960
           R2           0.00000   0.26960
           A1           0.00000   0.00000   0.00230
           A2           0.00000   0.00000   0.00000   0.00230
 ITU=  0
     Eigenvalues ---    0.00230   0.26960   0.26960
 RFO step:  Lambda=-1.10019272D-02 EMin= 2.30000000D-03
 Linear search not attempted -- first point.
 Iteration  1 RMS(Cart)=  0.09900607 RMS(Int)=  0.00000449
 Iteration  2 RMS(Cart)=  0.00000618 RMS(Int)=  0.00000000
 Iteration  3 RMS(Cart)=  0.00000000 RMS(Int)=  0.00000000
 ClnCor:  largest displacement from symmetrization is 1.78D-14 for atom     1.
 Variable       Old X    -DE/DX   Delta X   Delta X   Delta X     New X
                                 (Linear)    (Quad)   (Total)
    R1        3.51461  -0.03929   0.00000  -0.14002  -0.14002   3.37459
    R2        3.51461  -0.03929   0.00000  -0.14002  -0.14002   3.37459
    A1        3.14020   0.00006   0.00000   0.00022   0.00022   3.14041
    A2        3.14159  -0.00000   0.00000  -0.00000   0.00000   3.14159
         Item               Value     Threshold  Converged?
 Maximum Force            0.039288     0.000450     NO 
 RMS     Force            0.027781     0.000300     NO 
 Maximum Displacement     0.140015     0.001800     NO 
 RMS     Displacement     0.099006     0.001200     NO 
 Predicted change in Energy=-5.716650D-03
 GradGradGradGradGradGradGradGradGradGradGradGradGradGradGradGradGradGrad

                          Input orientation:                          
 ---------------------------------------------------------------------
 Center     Atomic      Atomic             Coordinates (Angstroms)
 Number     Number       Type             X           Y           Z
 ---------------------------------------------------------------------
      1         50           0        8.500000    8.500000    8.500486
      2          8           0        6.714242    8.500000    8.499433
      3          8           0       10.285758    8.500000    8.499433
 ---------------------------------------------------------------------
                    Distance matrix (angstroms):
                    1          2          3
     1  Sn   0.000000
     2  O    1.785758   0.000000
     3  O    1.785758   3.571515   0.000000
 Stoichiometry    O2Sn
 Framework group  C2V[C2(Sn),SGV(O2)]
 Deg. of freedom     2
 Full point group                 C2V     NOp   4
 Largest Abelian subgroup         C2V     NOp   4
 Largest concise Abelian subgroup C2      NOp   2
                         Standard orientation:                         
 ---------------------------------------------------------------------
 Center     Atomic      Atomic             Coordinates (Angstroms)
 Number     Number       Type             X           Y           Z
 ---------------------------------------------------------------------
      1         50           0        0.000000    0.000000    0.000255
      2          8           0       -0.000000    1.785758   -0.000798
      3          8           0       -0.000000   -1.785758   -0.000798
 ---------------------------------------------------------------------
 Rotational constants (GHZ):    18101147.6176781           4.9540482           4.9540469
 Standard basis: def2QZVPP (5D, 7F)
 There are    91 symmetry adapted cartesian basis functions of A1  symmetry.
 There are    35 symmetry adapted cartesian basis functions of A2  symmetry.
 There are    49 symmetry adapted cartesian basis functions of B1  symmetry.
 There are    73 symmetry adapted cartesian basis functions of B2  symmetry.
 There are    69 symmetry adapted basis functions of A1  symmetry.
 There are    30 symmetry adapted basis functions of A2  symmetry.
 There are    40 symmetry adapted basis functions of B1  symmetry.
 There are    57 symmetry adapted basis functions of B2  symmetry.
   196 basis functions,   364 primitive gaussians,   248 cartesian basis functions
    19 alpha electrons       19 beta electrons
       nuclear repulsion energy       113.7914847466 Hartrees.
 NAtoms=    3 NActive=    3 NUniq=    2 SFac= 2.25D+00 NAtFMM=   60 NAOKFM=F Big=F
 Integral buffers will be    131072 words long.
 Raffenetti 2 integral format.
 Two-electron integral symmetry is turned on.
 One-electron integrals computed using PRISM.
   4 Symmetry operations used in ECPInt.
 ECPInt:  NShTT=    1596 NPrTT=    5734 LenC2=    1550 LenP2D=    4839.
 LDataN:  DoStor=T MaxTD1= 8 Len=  415
 NBasis=   196 RedAO= T EigKep=  2.35D-04  NBF=    69    30    40    57
 NBsUse=   196 1.00D-06 EigRej= -1.00D+00 NBFU=    69    30    40    57
 Defaulting to unpruned grid for atomic number  50.
 Initial guess from the checkpoint file:  "/data/hutter/SMG16/PBE0/Gau-62501.chk"
 B after Tr=     0.000000   -0.000000   -0.000000
         Rot=    1.000000    0.000000    0.000000    0.000000 Ang=   0.00 deg.
 Initial guess orbital symmetries:
       Occupied  (B2) (A1) (A1) (B1) (A1) (B2) (A1) (B1) (A1) (B2)
                 (A2) (B2) (A1) (A1) (B2) (B1) (A1) (A2) (B2)
       Virtual   (A1) (B1) (A1) (B2) (A1) (B1) (A1) (B1) (A1) (B2)
                 (A2) (B2) (A1) (B2) (A1) (B1) (A1) (B1) (A1) (B2)
                 (A2) (B2) (B2) (A2) (A1) (B1) (B1) (A1) (A1) (A2)
                 (B2) (A1) (B1) (A1) (B2) (B2) (A1) (B1) (A1) (A1)
                 (B1) (A2) (B2) (A1) (B1) (B2) (B2) (A2) (B2) (A2)
                 (A1) (B1) (A1) (B2) (B1) (A1) (A1) (B1) (B2) (A2)
                 (A2) (B2) (A1) (A1) (B1) (B2) (A2) (A1) (B1) (A1)
                 (B1) (B2) (A1) (B2) (A2) (A1) (B2) (B2) (A2) (A1)
                 (B1) (A1) (B1) (A1) (B2) (A1) (B1) (B2) (A2) (B2)
                 (A2) (A1) (B1) (A1) (B2) (B1) (A1) (B2) (A2) (B2)
                 (A2) (A1) (B1) (B2) (A1) (B1) (A1) (B2) (A2) (B2)
                 (A1) (B2) (A2) (A1) (B1) (A1) (B2) (B2) (A2) (B1)
                 (A1) (B1) (A1) (A2) (B2) (B2) (A2) (A1) (B1) (A1)
                 (B1) (B2) (A2) (B2) (A1) (B1) (A1) (B2) (A2) (B1)
                 (A1) (B2) (A1) (B1) (B2) (A2) (B2) (A2) (A1) (B1)
                 (B1) (A1) (B2) (A1) (B2) (A2) (B1) (A1) (A2) (B2)
                 (A1) (B2) (A2) (A1) (B1) (A1) (B2) (B2) (A1) (B1)
                 (A1) (B2) (B2) (A1) (A1) (B2) (A1)
 ExpMin= 3.74D-02 ExpMax= 1.17D+05 ExpMxC= 1.13D+03 IAcc=3 IRadAn=         5 AccDes= 0.00D+00
 Harris functional with IExCor= 1009 and IRadAn=       5 diagonalized for initial guess.
 HarFok:  IExCor= 1009 AccDes= 0.00D+00 IRadAn=         5 IDoV= 1 UseB2=F ITyADJ=14
 ICtDFT=  3500011 ScaDFX=  1.000000  1.000000  1.000000  1.000000
 Defaulting to unpruned grid for atomic number  50.
 FoFCou: FMM=F IPFlag=           0 FMFlag=      100000 FMFlg1=           0
         NFxFlg=           0 DoJE=T BraDBF=F KetDBF=T FulRan=T
         wScrn=  0.000000 ICntrl=       500 IOpCl=  0 I1Cent=   200000004 NGrid=           0
         NMat0=    1 NMatS0=      1 NMatT0=    0 NMatD0=    1 NMtDS0=    0 NMtDT0=    0
 Petite list used in FoFCou.
 Keep R1 ints in memory in symmetry-blocked form, NReq=233379308.
 Requested convergence on RMS density matrix=1.00D-08 within 128 cycles.
 Requested convergence on MAX density matrix=1.00D-06.
 Requested convergence on             energy=1.00D-06.
 No special actions if energy rises.
 Defaulting to unpruned grid for atomic number  50.
 Defaulting to unpruned grid for atomic number  50.
 Defaulting to unpruned grid for atomic number  50.
 Defaulting to unpruned grid for atomic number  50.
 Defaulting to unpruned grid for atomic number  50.
 Defaulting to unpruned grid for atomic number  50.
 Defaulting to unpruned grid for atomic number  50.
 Defaulting to unpruned grid for atomic number  50.
 SCF Done:  E(RPBE1PBE) =  -364.592892618     A.U. after    9 cycles
            NFock=  9  Conv=0.62D-08     -V/T= 2.5699
   4 Symmetry operations used in ECPInt.
 ECPInt:  NShTT=    1596 NPrTT=    5734 LenC2=    1550 LenP2D=    4839.
 LDataN:  DoStor=T MaxTD1= 9 Len=  602
 Calling FoFJK, ICntrl=      2127 FMM=F ISym2X=1 I1Cent= 0 IOpClX= 0 NMat=1 NMatS=1 NMatT=0.
 Defaulting to unpruned grid for atomic number  50.
 Defaulting to unpruned grid for atomic number  50.
 Defaulting to unpruned grid for atomic number  50.
 Defaulting to unpruned grid for atomic number  50.
 Defaulting to unpruned grid for atomic number  50.
 Defaulting to unpruned grid for atomic number  50.
 Defaulting to unpruned grid for atomic number  50.
 Defaulting to unpruned grid for atomic number  50.
 ***** Axes restored to original set *****
 -------------------------------------------------------------------
 Center     Atomic                   Forces (Hartrees/Bohr)
 Number     Number              X              Y              Z
 -------------------------------------------------------------------
      1       50           0.000000000   -0.000000000   -0.000042657
      2        8          -0.008288834    0.000000000    0.000021328
      3        8           0.008288834   -0.000000000    0.000021328
 -------------------------------------------------------------------
 Cartesian Forces:  Max     0.008288834 RMS     0.003907432

 GradGradGradGradGradGradGradGradGradGradGradGradGradGradGradGradGradGrad
 Berny optimization.
 Using GEDIIS/GDIIS optimizer.
 Internal  Forces:  Max     0.008288733 RMS     0.005861023
 Search for a local minimum.
 Step number   2 out of a maximum of   20
 All quantities printed in internal units (Hartrees-Bohrs-Radians)
 Mixed Optimization -- RFO/linear search
 Update second derivatives using D2CorX and points    1    2
 DE= -4.81D-03 DEPred=-5.72D-03 R= 8.41D-01
 TightC=F SS=  1.41D+00  RLast= 1.98D-01 DXNew= 5.0454D-01 5.9404D-01
 Trust test= 8.41D-01 RLast= 1.98D-01 DXMaxT set to 5.05D-01
 The second derivative matrix:
                          R1        R2        A1        A2
           R1           0.30470
           R2           0.03510   0.30470
           A1          -0.00026  -0.00026   0.00230
           A2          -0.00000  -0.00000   0.00000   0.00230
 ITU=  1  0
 Use linear search instead of GDIIS.
     Eigenvalues ---    0.00230   0.26960   0.33980
 RFO step:  Lambda= 0.00000000D+00 EMin= 2.30000000D-03
 Quartic linear search produced a step of -0.14701.
 Iteration  1 RMS(Cart)=  0.01455469 RMS(Int)=  0.00000010
 Iteration  2 RMS(Cart)=  0.00000013 RMS(Int)=  0.00000001
 ClnCor:  largest displacement from symmetrization is 2.49D-14 for atom     3.
 Variable       Old X    -DE/DX   Delta X   Delta X   Delta X     New X
                                 (Linear)    (Quad)   (Total)
    R1        3.37459   0.00829   0.02058  -0.00000   0.02058   3.39518
    R2        3.37459   0.00829   0.02058   0.00000   0.02058   3.39518
    A1        3.14041  -0.00001  -0.00003   0.00000  -0.00003   3.14038
    A2        3.14159  -0.00000   0.00000  -0.00000   0.00000   3.14159
         Item               Value     Threshold  Converged?
 Maximum Force            0.008289     0.000450     NO 
 RMS     Force            0.005861     0.000300     NO 
 Maximum Displacement     0.020583     0.001800     NO 
 RMS     Displacement     0.014555     0.001200     NO 
 Predicted change in Energy=-1.972572D-04
 GradGradGradGradGradGradGradGradGradGradGradGradGradGradGradGradGradGrad

                          Input orientation:                          
 ---------------------------------------------------------------------
 Center     Atomic      Atomic             Coordinates (Angstroms)
 Number     Number       Type             X           Y           Z
 ---------------------------------------------------------------------
      1         50           0        8.500000    8.500000    8.500509
      2          8           0        6.703350    8.500000    8.499421
      3          8           0       10.296650    8.500000    8.499421
 ---------------------------------------------------------------------
                    Distance matrix (angstroms):
                    1          2          3
     1  Sn   0.000000
     2  O    1.796650   0.000000
     3  O    1.796650   3.593300   0.000000
 Stoichiometry    O2Sn
 Framework group  C2V[C2(Sn),SGV(O2)]
 Deg. of freedom     2
 Full point group                 C2V     NOp   4
 Largest Abelian subgroup         C2V     NOp   4
 Largest concise Abelian subgroup C2      NOp   2
                         Standard orientation:                         
 ---------------------------------------------------------------------
 Center     Atomic      Atomic             Coordinates (Angstroms)
 Number     Number       Type             X           Y           Z
 ---------------------------------------------------------------------
      1         50           0        0.000000    0.000000    0.000264
      2          8           0       -0.000000    1.796650   -0.000825
      3          8           0       -0.000000   -1.796650   -0.000825
 ---------------------------------------------------------------------
 Rotational constants (GHZ):    16956026.3256815           4.8941620           4.8941606
 Standard basis: def2QZVPP (5D, 7F)
 There are    91 symmetry adapted cartesian basis functions of A1  symmetry.
 There are    35 symmetry adapted cartesian basis functions of A2  symmetry.
 There are    49 symmetry adapted cartesian basis functions of B1  symmetry.
 There are    73 symmetry adapted cartesian basis functions of B2  symmetry.
 There are    69 symmetry adapted basis functions of A1  symmetry.
 There are    30 symmetry adapted basis functions of A2  symmetry.
 There are    40 symmetry adapted basis functions of B1  symmetry.
 There are    57 symmetry adapted basis functions of B2  symmetry.
   196 basis functions,   364 primitive gaussians,   248 cartesian basis functions
    19 alpha electrons       19 beta electrons
       nuclear repulsion energy       113.1016180643 Hartrees.
 NAtoms=    3 NActive=    3 NUniq=    2 SFac= 2.25D+00 NAtFMM=   60 NAOKFM=F Big=F
 Integral buffers will be    131072 words long.
 Raffenetti 2 integral format.
 Two-electron integral symmetry is turned on.
 One-electron integrals computed using PRISM.
   4 Symmetry operations used in ECPInt.
 ECPInt:  NShTT=    1596 NPrTT=    5734 LenC2=    1548 LenP2D=    4831.
 LDataN:  DoStor=T MaxTD1= 8 Len=  415
 NBasis=   196 RedAO= T EigKep=  2.46D-04  NBF=    69    30    40    57
 NBsUse=   196 1.00D-06 EigRej= -1.00D+00 NBFU=    69    30    40    57
 Defaulting to unpruned grid for atomic number  50.
 Initial guess from the checkpoint file:  "/data/hutter/SMG16/PBE0/Gau-62501.chk"
 B after Tr=    -0.000000    0.000000    0.000000
         Rot=    1.000000   -0.000000    0.000000   -0.000000 Ang=   0.00 deg.
 Initial guess orbital symmetries:
       Occupied  (B2) (A1) (A1) (B1) (A1) (B2) (A1) (A1) (B1) (B2)
                 (A2) (B2) (A1) (A1) (B2) (B1) (A1) (A2) (B2)
       Virtual   (A1) (B1) (A1) (B2) (A1) (B1) (A1) (B1) (A1) (B2)
                 (A2) (B2) (A1) (B2) (A1) (B1) (A1) (B1) (A1) (B2)
                 (A2) (B2) (A2) (B2) (B1) (A1) (B1) (A1) (A1) (A2)
                 (B2) (A1) (B1) (A1) (B2) (B2) (A1) (B1) (A1) (A1)
                 (B1) (A2) (B2) (A1) (B1) (B2) (B2) (A2) (B2) (A2)
                 (A1) (B1) (A1) (B1) (A1) (B2) (A1) (B1) (B2) (A2)
                 (A2) (B2) (A1) (B1) (A1) (B2) (A2) (B1) (A1) (A1)
                 (B1) (B2) (A1) (B2) (A2) (B2) (A1) (B2) (A2) (A1)
                 (B1) (A1) (B1) (A1) (B2) (A1) (B1) (B2) (A2) (B2)
                 (A2) (A1) (A1) (B1) (B2) (B1) (A1) (B2) (A2) (B2)
                 (A2) (A1) (B1) (A1) (B2) (B1) (A1) (B2) (A2) (B2)
                 (A1) (B2) (A2) (B1) (A1) (B2) (A1) (B2) (A2) (B1)
                 (A1) (B2) (A2) (B2) (A2) (B2) (B1) (A1) (A1) (B1)
                 (B1) (A1) (B2) (A2) (A1) (B1) (A1) (B2) (A2) (B1)
                 (A1) (B2) (A1) (B1) (B2) (A2) (B2) (A2) (A1) (B1)
                 (B1) (A1) (A1) (B2) (B2) (A2) (B1) (A1) (A2) (B2)
                 (B2) (A2) (A1) (A1) (B1) (A1) (B2) (B2) (A1) (B1)
                 (A1) (B2) (A1) (B2) (A1) (A1) (B2)
 ExpMin= 3.74D-02 ExpMax= 1.17D+05 ExpMxC= 1.13D+03 IAcc=3 IRadAn=         5 AccDes= 0.00D+00
 Harris functional with IExCor= 1009 and IRadAn=       5 diagonalized for initial guess.
 HarFok:  IExCor= 1009 AccDes= 0.00D+00 IRadAn=         5 IDoV= 1 UseB2=F ITyADJ=14
 ICtDFT=  3500011 ScaDFX=  1.000000  1.000000  1.000000  1.000000
 Defaulting to unpruned grid for atomic number  50.
 FoFCou: FMM=F IPFlag=           0 FMFlag=      100000 FMFlg1=           0
         NFxFlg=           0 DoJE=T BraDBF=F KetDBF=T FulRan=T
         wScrn=  0.000000 ICntrl=       500 IOpCl=  0 I1Cent=   200000004 NGrid=           0
         NMat0=    1 NMatS0=      1 NMatT0=    0 NMatD0=    1 NMtDS0=    0 NMtDT0=    0
 Petite list used in FoFCou.
 Keep R1 ints in memory in symmetry-blocked form, NReq=233379308.
 Requested convergence on RMS density matrix=1.00D-08 within 128 cycles.
 Requested convergence on MAX density matrix=1.00D-06.
 Requested convergence on             energy=1.00D-06.
 No special actions if energy rises.
 Defaulting to unpruned grid for atomic number  50.
 Defaulting to unpruned grid for atomic number  50.
 Defaulting to unpruned grid for atomic number  50.
 Defaulting to unpruned grid for atomic number  50.
 Defaulting to unpruned grid for atomic number  50.
 Defaulting to unpruned grid for atomic number  50.
 Defaulting to unpruned grid for atomic number  50.
 Defaulting to unpruned grid for atomic number  50.
 SCF Done:  E(RPBE1PBE) =  -364.593061052     A.U. after    8 cycles
            NFock=  8  Conv=0.56D-08     -V/T= 2.5702
   4 Symmetry operations used in ECPInt.
 ECPInt:  NShTT=    1596 NPrTT=    5734 LenC2=    1548 LenP2D=    4831.
 LDataN:  DoStor=T MaxTD1= 9 Len=  602
 Calling FoFJK, ICntrl=      2127 FMM=F ISym2X=1 I1Cent= 0 IOpClX= 0 NMat=1 NMatS=1 NMatT=0.
 Defaulting to unpruned grid for atomic number  50.
 Defaulting to unpruned grid for atomic number  50.
 Defaulting to unpruned grid for atomic number  50.
 Defaulting to unpruned grid for atomic number  50.
 Defaulting to unpruned grid for atomic number  50.
 Defaulting to unpruned grid for atomic number  50.
 Defaulting to unpruned grid for atomic number  50.
 Defaulting to unpruned grid for atomic number  50.
 ***** Axes restored to original set *****
 -------------------------------------------------------------------
 Center     Atomic                   Forces (Hartrees/Bohr)
 Number     Number              X              Y              Z
 -------------------------------------------------------------------
      1       50           0.000000000   -0.000000000   -0.000052207
      2        8           0.000021538    0.000000000    0.000026103
      3        8          -0.000021538   -0.000000000    0.000026103
 -------------------------------------------------------------------
 Cartesian Forces:  Max     0.000052207 RMS     0.000023608

 GradGradGradGradGradGradGradGradGradGradGradGradGradGradGradGradGradGrad
 Berny optimization.
 Using GEDIIS/GDIIS optimizer.
 Internal  Forces:  Max     0.000021627 RMS     0.000015293
 Search for a local minimum.
 Step number   3 out of a maximum of   20
 All quantities printed in internal units (Hartrees-Bohrs-Radians)
 Mixed Optimization -- En-DIIS/RFO-DIIS
 Update second derivatives using D2CorX and points    1    2    3
 DE= -1.68D-04 DEPred=-1.97D-04 R= 8.54D-01
 TightC=F SS=  1.41D+00  RLast= 2.91D-02 DXNew= 8.4853D-01 8.7328D-02
 Trust test= 8.54D-01 RLast= 2.91D-02 DXMaxT set to 5.05D-01
 The second derivative matrix:
                          R1        R2        A1        A2
           R1           0.33667
           R2           0.06707   0.33667
           A1          -0.00031  -0.00031   0.00230
           A2          -0.00000  -0.00000   0.00000   0.00230
 ITU=  1  1  0
 Use linear search instead of GDIIS.
     Eigenvalues ---    0.00230   0.26960   0.40374
 RFO step:  Lambda= 0.00000000D+00 EMin= 2.30000000D-03
 Quartic linear search produced a step of -0.00268.
 Iteration  1 RMS(Cart)=  0.00003905 RMS(Int)=  0.00000000
 Iteration  2 RMS(Cart)=  0.00000000 RMS(Int)=  0.00000000
 ClnCor:  largest displacement from symmetrization is 1.78D-14 for atom     3.
 Variable       Old X    -DE/DX   Delta X   Delta X   Delta X     New X
                                 (Linear)    (Quad)   (Total)
    R1        3.39518  -0.00002  -0.00006   0.00000  -0.00006   3.39512
    R2        3.39518  -0.00002  -0.00006  -0.00000  -0.00006   3.39512
    A1        3.14038   0.00000   0.00000   0.00000   0.00000   3.14038
    A2        3.14159  -0.00000   0.00000  -0.00000   0.00000   3.14159
         Item               Value     Threshold  Converged?
 Maximum Force            0.000022     0.000450     YES
 RMS     Force            0.000015     0.000300     YES
 Maximum Displacement     0.000055     0.001800     YES
 RMS     Displacement     0.000039     0.001200     YES
 Predicted change in Energy=-1.157393D-09
 Optimization completed.
    -- Stationary point found.
                           ----------------------------
                           !   Optimized Parameters   !
                           ! (Angstroms and Degrees)  !
 --------------------------                            --------------------------
 ! Name  Definition              Value          Derivative Info.                !
 --------------------------------------------------------------------------------
 ! R1    R(1,2)                  1.7967         -DE/DX =    0.0                 !
 ! R2    R(1,3)                  1.7967         -DE/DX =    0.0                 !
 ! A1    L(2,1,3,-2,-1)        179.9306         -DE/DX =    0.0                 !
 ! A2    L(2,1,3,-3,-2)        180.0            -DE/DX =    0.0                 !
 --------------------------------------------------------------------------------
 GradGradGradGradGradGradGradGradGradGradGradGradGradGradGradGradGradGrad

                          Input orientation:                          
 ---------------------------------------------------------------------
 Center     Atomic      Atomic             Coordinates (Angstroms)
 Number     Number       Type             X           Y           Z
 ---------------------------------------------------------------------
      1         50           0        8.500000    8.500000    8.500509
      2          8           0        6.703350    8.500000    8.499421
      3          8           0       10.296650    8.500000    8.499421
 ---------------------------------------------------------------------
                    Distance matrix (angstroms):
                    1          2          3
     1  Sn   0.000000
     2  O    1.796650   0.000000
     3  O    1.796650   3.593300   0.000000
 Stoichiometry    O2Sn
 Framework group  C2V[C2(Sn),SGV(O2)]
 Deg. of freedom     2
 Full point group                 C2V     NOp   4
 Largest Abelian subgroup         C2V     NOp   4
 Largest concise Abelian subgroup C2      NOp   2
                         Standard orientation:                         
 ---------------------------------------------------------------------
 Center     Atomic      Atomic             Coordinates (Angstroms)
 Number     Number       Type             X           Y           Z
 ---------------------------------------------------------------------
      1         50           0        0.000000    0.000000    0.000264
      2          8           0       -0.000000    1.796650   -0.000825
      3          8           0       -0.000000   -1.796650   -0.000825
 ---------------------------------------------------------------------
 Rotational constants (GHZ):    16956026.3256815           4.8941620           4.8941606

 **********************************************************************

            Population analysis using the SCF Density.

 **********************************************************************

 Orbital symmetries:
       Occupied  (B2) (A1) (A1) (B1) (A1) (B2) (A1) (A1) (B1) (B2)
                 (A2) (B2) (A1) (A1) (B2) (B1) (A1) (A2) (B2)
       Virtual   (A1) (B1) (A1) (B2) (A1) (B1) (A1) (B1) (A1) (B2)
                 (A2) (B2) (A1) (B2) (A1) (B1) (A1) (B1) (A1) (B2)
                 (A2) (B2) (B2) (A2) (B1) (A1) (B1) (A1) (A1) (A2)
                 (B2) (A1) (B1) (A1) (B2) (B2) (A1) (B1) (A1) (A1)
                 (B1) (A2) (B2) (A1) (B1) (B2) (B2) (A2) (B2) (A2)
                 (A1) (B1) (A1) (B1) (A1) (B2) (A1) (B1) (B2) (A2)
                 (A2) (B2) (A1) (B1) (A1) (B2) (A2) (B1) (A1) (A1)
                 (B1) (B2) (A1) (B2) (A2) (B2) (A1) (B2) (A2) (A1)
                 (B1) (A1) (B1) (A1) (B2) (A1) (B1) (B2) (A2) (B2)
                 (A2) (A1) (B1) (A1) (B2) (B1) (A1) (B2) (A2) (B2)
                 (A2) (A1) (B1) (A1) (B2) (B1) (A1) (B2) (A2) (B2)
                 (A1) (B2) (A2) (B1) (A1) (B2) (A1) (B2) (A2) (B1)
                 (A1) (A2) (B2) (B2) (A2) (B2) (B1) (A1) (B1) (A1)
                 (A1) (B1) (B2) (A2) (A1) (B1) (A1) (B2) (A2) (B1)
                 (A1) (B2) (A1) (B1) (B2) (A2) (B2) (A2) (A1) (B1)
                 (B1) (A1) (A1) (B2) (B2) (A2) (B1) (A1) (A2) (B2)
                 (B2) (A2) (A1) (A1) (B1) (A1) (B2) (B2) (A1) (B1)
                 (A1) (B2) (A1) (B2) (A1) (A1) (B2)
 The electronic state is 1-A1.
 Alpha  occ. eigenvalues --  -19.22367 -19.22367  -5.21004  -3.54703  -3.54703
 Alpha  occ. eigenvalues --   -3.53361  -1.15467  -1.11251  -1.11251  -1.10280
 Alpha  occ. eigenvalues --   -1.10280  -0.95031  -0.90756  -0.47690  -0.37294
 Alpha  occ. eigenvalues --   -0.35803  -0.35803  -0.31810  -0.31810
 Alpha virt. eigenvalues --   -0.11701  -0.07334  -0.07334   0.04094   0.06757
 Alpha virt. eigenvalues --    0.06757   0.08035   0.11065   0.11065   0.18364
 Alpha virt. eigenvalues --    0.19874   0.19874   0.20816   0.33971   0.36215
 Alpha virt. eigenvalues --    0.36215   0.38667   0.38667   0.40680   0.42320
 Alpha virt. eigenvalues --    0.42320   0.43735   0.43876   0.43876   0.45165
 Alpha virt. eigenvalues --    0.45165   0.52104   0.52104   0.52115   0.58961
 Alpha virt. eigenvalues --    0.58961   0.68358   0.68358   0.86789   0.90851
 Alpha virt. eigenvalues --    0.95873   0.96246   1.03520   1.03520   1.14057
 Alpha virt. eigenvalues --    1.14057   1.14621   1.14621   1.19609   1.19609
 Alpha virt. eigenvalues --    1.19787   1.25029   1.25029   1.33934   1.33934
 Alpha virt. eigenvalues --    1.37008   1.42069   1.42069   1.43442   1.43442
 Alpha virt. eigenvalues --    1.46023   1.47150   1.47150   1.47229   1.47229
 Alpha virt. eigenvalues --    1.53857   1.53857   1.67402   1.67402   1.69370
 Alpha virt. eigenvalues --    1.72288   1.72288   1.76769   1.76769   1.88209
 Alpha virt. eigenvalues --    1.88209   1.93772   1.98734   2.41128   2.41129
 Alpha virt. eigenvalues --    2.46750   2.56764   2.76492   2.76492   2.78800
 Alpha virt. eigenvalues --    2.83118   2.83118   2.90263   2.90263   3.06607
 Alpha virt. eigenvalues --    3.13513   3.13513   3.18757   3.18757   3.31366
 Alpha virt. eigenvalues --    3.31366   3.47593   3.49490   3.49490   3.62581
 Alpha virt. eigenvalues --    3.82214   3.82214   3.86231   3.86231   3.90615
 Alpha virt. eigenvalues --    3.90615   3.94721   3.94721   4.23333   4.26409
 Alpha virt. eigenvalues --    4.36828   4.36828   4.59164   4.59165   4.61831
 Alpha virt. eigenvalues --    4.87123   5.17324   5.17324   5.22632   5.22632
 Alpha virt. eigenvalues --    5.88907   5.90675   8.81805   8.81805   8.86337
 Alpha virt. eigenvalues --    8.86337   8.88476   8.88476   8.88983   8.89306
 Alpha virt. eigenvalues --    8.89306   8.89365   8.89365   8.91493   8.91493
 Alpha virt. eigenvalues --    8.91963   8.91963   8.96039   8.96039   8.98366
 Alpha virt. eigenvalues --    9.04036   9.04036   9.12669   9.12669   9.26957
 Alpha virt. eigenvalues --    9.26957   9.49776  10.95484  10.95484  10.97269
 Alpha virt. eigenvalues --   10.97269  11.00938  11.00938  11.14892  11.14893
 Alpha virt. eigenvalues --   11.30248  11.30248  11.40001  11.43342  11.51199
 Alpha virt. eigenvalues --   11.51199  12.01294  12.01294  12.03399  12.03399
 Alpha virt. eigenvalues --   12.29663  12.29663  12.31132  12.33587  12.33587
 Alpha virt. eigenvalues --   12.50394  12.50894  13.32388  13.33794  34.53706
 Alpha virt. eigenvalues --   34.53706  35.01923  47.54014  47.61122  72.66935
 Alpha virt. eigenvalues --  252.62584 252.68018
          Condensed to atoms (all electrons):
               1          2          3
     1  Sn  19.670837   0.559373   0.559373
     2  O    0.559373   8.058866  -0.013030
     3  O    0.559373  -0.013030   8.058866
 Mulliken charges:
               1
     1  Sn   1.210417
     2  O   -0.605208
     3  O   -0.605208
 Sum of Mulliken charges =  -0.00000
 Mulliken charges with hydrogens summed into heavy atoms:
               1
     1  Sn   1.210417
     2  O   -0.605208
     3  O   -0.605208
 Electronic spatial extent (au):  <R**2>=            266.4515
 Charge=             -0.0000 electrons
 Dipole moment (field-independent basis, Debye):
    X=             -0.0000    Y=             -0.0000    Z=              0.0055  Tot=              0.0055
 Quadrupole moment (field-independent basis, Debye-Ang):
   XX=            -30.7754   YY=            -48.7633   ZZ=            -30.7754
   XY=              0.0000   XZ=              0.0000   YZ=             -0.0000
 Traceless Quadrupole moment (field-independent basis, Debye-Ang):
   XX=              5.9960   YY=            -11.9919   ZZ=              5.9960
   XY=              0.0000   XZ=              0.0000   YZ=             -0.0000
 Octapole moment (field-independent basis, Debye-Ang**2):
  XXX=             -0.0000  YYY=              0.0000  ZZZ=              0.0172  XYY=             -0.0000
  XXY=             -0.0000  XXZ=              0.0057  XZZ=             -0.0000  YZZ=             -0.0000
  YYZ=              0.0108  XYZ=             -0.0000
 Hexadecapole moment (field-independent basis, Debye-Ang**3):
 XXXX=            -31.1668 YYYY=           -306.9278 ZZZZ=            -31.1668 XXXY=              0.0000
 XXXZ=              0.0000 YYYX=              0.0000 YYYZ=             -0.0000 ZZZX=              0.0000
 ZZZY=             -0.0000 XXYY=            -52.9514 XXZZ=            -10.3889 YYZZ=            -52.9514
 XXYZ=             -0.0000 YYXZ=              0.0000 ZZXY=              0.0000
 N-N= 1.131016180643D+02 E-N=-1.040910345877D+03  KE= 2.321967755090D+02
 Symmetry A1   KE= 1.043480911353D+02
 Symmetry A2   KE= 1.496872137724D+01
 Symmetry B1   KE= 2.160835249483D+01
 Symmetry B2   KE= 9.127161050155D+01
 Unable to Open any file for archive entry.
 1\1\GINC-TCOPT10\FOpt\RPBE1PBE\def2QZVPP\O2Sn1\HUTTER\01-Aug-2021\0\\#
 N RPBE1PBE/Def2QZVPP scf=tight Int(Grid=ultrafine) OPT FREQ\\Mol job 1
 \\0,1\Sn,8.5,8.5,8.5005092008\O,6.7033500644,8.5,8.4994208496\O,10.296
 6499356,8.5,8.4994208496\\Version=ES64L-G16RevC.01\State=1-A1\HF=-364.
 5930611\RMSD=5.612e-09\RMSF=2.361e-05\Dipole=0.,0.,0.0021454\Quadrupol
 e=-8.9157037,4.4578525,4.4578512,0.,0.,0.\PG=C02V [C2(Sn1),SGV(O2)]\\@
 The archive entry for this job was punched.


                                                                                    A
                                                                                  AA
                                                                                 AAA
                                                                                AAAA
                                                                               AAAAA
                                                                              AAAAAA   KKKKKKKK
                                                                             AAAAAAA   KKKKKKKK
                                                                            AAAAAAAA   KKKKKKKK
                                       ZZZZZZZZZZZZZZZZZZZZ                AAAA  AAA   KKKKKKKK
                                       ZZZZZZZZZZZZZZZZZZZ                AAAA   AAA   KKKKKKKK          K
                                       ZZZZZZZZZZZZZZZZZZ                AAAA    AAA   KKKKKKKK         KKK
                                       ZZZZZZZZZZZZZZZZZ                AAAA     AAA   KKKKKKKK        KKKKK
                                       ZZZZZZZZZZZZZZZZ                AAAA      AAA   KKKKKKKK       KKKKKKK
                                                ZZZZZZ                AAAA       AAA   KKKKKKKK      KKKKKKK
                                               ZZZZZZ                AAAA        AAA   KKKKKKKK     KKKKKKK
                                              ZZZZZZ                AAAA         AAA   KKKKKKKK    KKKKKKK
                                             ZZZZZZ                AAAA          AAA   KKKKKKKK   KKKKKKK
                                            ZZZZZZ                AAAAAAAAAAAAAAAAAA   KKKKKKKK  KKKKKKK
                                           ZZZZZZ                AAAAAAAAAAAAAAAAAAA   KKKKKKKK KKKKKKK
                                          ZZZZZZ                AAAAAAAAAAAAAAAAAAAA   KKKKKKKKKKKKKKK
                                         ZZZZZZ                AAAAAAAAAAAAAAAAAAAAA   KKKKKKKKKKKKKK
                                        ZZZZZZ                AAAAAA        AAAAAAAA   KKKKKKKKKKKKK
                                       ZZZZZZ                AAAAAA         AAAAAAAA   KKKKKKKKKKKK
                                      ZZZZZZ                AAAAAA          AAAAAAAA   KKKKKKKKKKK
                                     ZZZZZZ                AAAAAA           AAAAAAAA   KKKKKKKKKKKK
                                    ZZZZZZ                AAAAAA            AAAAAAAA   KKKKKKKKKKKKK
                                   ZZZZZZ                AAAAAA             AAAAAAAA   KKKKKKKKKKKKKK
                                  ZZZZZZ                AAAAAA              AAAAAAAA   KKKKKKKKKKKKKKK
                                 ZZZZZZ                AAAAAA               AAAAAAAA   KKKKK KKKKKKKKKK
                                ZZZZZZ                AAAAAA                AAAAAAAA   KKKKK  KKKKKKKKKK
                               ZZZZZZ                AAAAAA                            KKKKK   KKKKKKKKKK
                              ZZZZZZ                AAAAAA                             KKKKK    KKKKKKKKKK
                             ZZZZZZ                                                    KKKKK     KKKKKKKKKK
                            ZZZZZZ                                                     KKKKK      KKKKKKKKKK
                           ZZZZZZ                                                      KKKKK       KKKKKKKKKK
                          ZZZZZZ                                                       KKKKK        KKKKKKKKKK
                         ZZZZZZZZZZZZZZZZZZZZZZZZZZZZZZZZZZZZZZZZ                      KKKKK         KKKKKKKKKK
                        ZZZZZZZZZZZZZZZZZZZZZZZZZZZZZZZZZZZZZZZZZ                      KKKKK          KKKKKKKKKK
                       ZZZZZZZZZZZZZZZZZZZZZZZZZZZZZZZZZZZZZZZZZZ                      KKKKK           KKKKKKKKKK
                       ZZZZZZZZZZZZZZZZZZZZZZZZZZZZZZZZZZZZZZZZZZ                      KKKKK            KKKKKKKKKK
                       ZZZZZZZZZZZZZZZZZZZZZZZZZZZZZZZZZZZZZZZZZZ                      KKKKK             KKKKKKKKKK
                       ZZZZZZZZZZZZZZZZZZZZZZZZZZZZZZZZZZZZZZZZZZ                      KKKKK              KKKKKKKKKK
                       ZZZZZZZZZZZZZZZZZZZZZZZZZZZZZZZZZZZZZZZZZZ                      KKKKK               KKKKKKKKKK
                       ZZZZZZZZZZZZZZZZZZZZZZZZZZZZZZZZZZZZZZZZZZ                      KKKKK                KKKKKKKKKK
                       ZZZZZZZZZZZZZZZZZZZZZZZZZZZZZZZZZZZZZZZZZZ                      KKKKK
                                                                                       KKKKK
                                                                                          (J.P.)
 Job cpu time:       0 days  0 hours  7 minutes 53.9 seconds.
 Elapsed time:       0 days  0 hours  1 minutes  0.4 seconds.
 File lengths (MBytes):  RWF=     21 Int=      0 D2E=      0 Chk=      4 Scr=      1
 Normal termination of Gaussian 16 at Sun Aug  1 17:17:03 2021.
 Link1:  Proceeding to internal job step number  2.
 ----------------------------------------------------------------------
 #N Geom=AllCheck Guess=TCheck SCRF=Check GenChk RPBE1PBE/def2QZVPP Fre
 q
 ----------------------------------------------------------------------
 1/10=4,29=7,30=1,38=1,40=1/1,3;
 2/12=2,40=1/2;
 3/5=45,7=202,11=2,14=-4,25=1,30=1,70=2,71=2,74=-13,75=-5,116=1,140=1/1,2,3;
 4/5=101/1;
 5/5=2,32=2,38=6,98=1/2;
 8/6=4,10=90,11=11/1;
 11/6=1,8=1,9=11,15=111,16=1/1,2,10;
 10/6=1/2;
 6/7=2,8=2,9=2,10=2,28=1/1;
 7/8=1,10=1,25=1/1,2,3,16;
 1/10=4,30=1/3;
 99//99;
 Structure from the checkpoint file:  "/data/hutter/SMG16/PBE0/Gau-62501.chk"
 ---------
 Mol job 1
 ---------
 Charge =  0 Multiplicity = 1
 Redundant internal coordinates found in file.  (old form).
 Sn,0,8.5,8.5,8.5005092008
 O,0,6.7033500644,8.5,8.4994208496
 O,0,10.2966499356,8.5,8.4994208496
 Recover connectivity data from disk.

 GradGradGradGradGradGradGradGradGradGradGradGradGradGradGradGradGradGrad
 Berny optimization.
 Initialization pass.
                           ----------------------------
                           !    Initial Parameters    !
                           ! (Angstroms and Degrees)  !
 --------------------------                            --------------------------
 ! Name  Definition              Value          Derivative Info.                !
 --------------------------------------------------------------------------------
 ! R1    R(1,2)                  1.7967         calculate D2E/DX2 analytically  !
 ! R2    R(1,3)                  1.7967         calculate D2E/DX2 analytically  !
 ! A1    L(2,1,3,-2,-1)        179.9306         calculate D2E/DX2 analytically  !
 ! A2    L(2,1,3,-3,-2)        180.0            calculate D2E/DX2 analytically  !
 --------------------------------------------------------------------------------
 Trust Radius=3.00D-01 FncErr=1.00D-07 GrdErr=1.00D-07 EigMax=2.50D+02 EigMin=1.00D-04
 Number of steps in this run=      2 maximum allowed number of steps=      2.
 GradGradGradGradGradGradGradGradGradGradGradGradGradGradGradGradGradGrad

                          Input orientation:                          
 ---------------------------------------------------------------------
 Center     Atomic      Atomic             Coordinates (Angstroms)
 Number     Number       Type             X           Y           Z
 ---------------------------------------------------------------------
      1         50           0        8.500000    8.500000    8.500509
      2          8           0        6.703350    8.500000    8.499421
      3          8           0       10.296650    8.500000    8.499421
 ---------------------------------------------------------------------
                    Distance matrix (angstroms):
                    1          2          3
     1  Sn   0.000000
     2  O    1.796650   0.000000
     3  O    1.796650   3.593300   0.000000
 Stoichiometry    O2Sn
 Framework group  C2V[C2(Sn),SGV(O2)]
 Deg. of freedom     2
 Full point group                 C2V     NOp   4
 Largest Abelian subgroup         C2V     NOp   4
 Largest concise Abelian subgroup C2      NOp   2
                         Standard orientation:                         
 ---------------------------------------------------------------------
 Center     Atomic      Atomic             Coordinates (Angstroms)
 Number     Number       Type             X           Y           Z
 ---------------------------------------------------------------------
      1         50           0        0.000000    0.000000    0.000264
      2          8           0       -0.000000    1.796650   -0.000825
      3          8           0       -0.000000   -1.796650   -0.000825
 ---------------------------------------------------------------------
 Rotational constants (GHZ):    16956026.3256815           4.8941620           4.8941606
 Standard basis: def2QZVPP (5D, 7F)
 There are    91 symmetry adapted cartesian basis functions of A1  symmetry.
 There are    35 symmetry adapted cartesian basis functions of A2  symmetry.
 There are    49 symmetry adapted cartesian basis functions of B1  symmetry.
 There are    73 symmetry adapted cartesian basis functions of B2  symmetry.
 There are    69 symmetry adapted basis functions of A1  symmetry.
 There are    30 symmetry adapted basis functions of A2  symmetry.
 There are    40 symmetry adapted basis functions of B1  symmetry.
 There are    57 symmetry adapted basis functions of B2  symmetry.
   196 basis functions,   364 primitive gaussians,   248 cartesian basis functions
    19 alpha electrons       19 beta electrons
       nuclear repulsion energy       113.1016180643 Hartrees.
 NAtoms=    3 NActive=    3 NUniq=    2 SFac= 2.25D+00 NAtFMM=   60 NAOKFM=F Big=F
 Integral buffers will be    131072 words long.
 Raffenetti 2 integral format.
 Two-electron integral symmetry is turned on.
 One-electron integrals computed using PRISM.
   4 Symmetry operations used in ECPInt.
 ECPInt:  NShTT=    1596 NPrTT=    5734 LenC2=    1548 LenP2D=    4831.
 LDataN:  DoStor=T MaxTD1= 8 Len=  415
 NBasis=   196 RedAO= T EigKep=  2.46D-04  NBF=    69    30    40    57
 NBsUse=   196 1.00D-06 EigRej= -1.00D+00 NBFU=    69    30    40    57
 Defaulting to unpruned grid for atomic number  50.
 Initial guess from the checkpoint file:  "/data/hutter/SMG16/PBE0/Gau-62501.chk"
 B after Tr=     0.000000    0.000000    0.000000
         Rot=    1.000000    0.000000    0.000000    0.000000 Ang=   0.00 deg.
 Initial guess orbital symmetries:
       Occupied  (B2) (A1) (A1) (B1) (A1) (B2) (A1) (A1) (B1) (B2)
                 (A2) (B2) (A1) (A1) (B2) (B1) (A1) (A2) (B2)
       Virtual   (A1) (B1) (A1) (B2) (A1) (B1) (A1) (B1) (A1) (B2)
                 (A2) (B2) (A1) (B2) (A1) (B1) (A1) (B1) (A1) (B2)
                 (A2) (B2) (B2) (A2) (B1) (A1) (B1) (A1) (A1) (A2)
                 (B2) (A1) (B1) (A1) (B2) (B2) (A1) (B1) (A1) (A1)
                 (B1) (A2) (B2) (A1) (B1) (B2) (B2) (A2) (B2) (A2)
                 (A1) (B1) (A1) (B1) (A1) (B2) (A1) (B1) (B2) (A2)
                 (A2) (B2) (A1) (B1) (A1) (B2) (A2) (B1) (A1) (A1)
                 (B1) (B2) (A1) (B2) (A2) (B2) (A1) (B2) (A2) (A1)
                 (B1) (A1) (B1) (A1) (B2) (A1) (B1) (B2) (A2) (B2)
                 (A2) (A1) (B1) (A1) (B2) (B1) (A1) (B2) (A2) (B2)
                 (A2) (A1) (B1) (A1) (B2) (B1) (A1) (B2) (A2) (B2)
                 (A1) (B2) (A2) (B1) (A1) (B2) (A1) (B2) (A2) (B1)
                 (A1) (A2) (B2) (B2) (A2) (B2) (B1) (A1) (B1) (A1)
                 (A1) (B1) (B2) (A2) (A1) (B1) (A1) (B2) (A2) (B1)
                 (A1) (B2) (A1) (B1) (B2) (A2) (B2) (A2) (A1) (B1)
                 (B1) (A1) (A1) (B2) (B2) (A2) (B1) (A1) (A2) (B2)
                 (B2) (A2) (A1) (A1) (B1) (A1) (B2) (B2) (A1) (B1)
                 (A1) (B2) (A1) (B2) (A1) (A1) (B2)
 Keep R1 ints in memory in symmetry-blocked form, NReq=233379308.
 Requested convergence on RMS density matrix=1.00D-08 within 128 cycles.
 Requested convergence on MAX density matrix=1.00D-06.
 Requested convergence on             energy=1.00D-06.
 No special actions if energy rises.
 Defaulting to unpruned grid for atomic number  50.
 Defaulting to unpruned grid for atomic number  50.
 Defaulting to unpruned grid for atomic number  50.
 Defaulting to unpruned grid for atomic number  50.
 Defaulting to unpruned grid for atomic number  50.
 Defaulting to unpruned grid for atomic number  50.
 Defaulting to unpruned grid for atomic number  50.
 Defaulting to unpruned grid for atomic number  50.
 SCF Done:  E(RPBE1PBE) =  -364.593061052     A.U. after    1 cycles
            NFock=  1  Conv=0.26D-09     -V/T= 2.5702
 DoSCS=F DFT=T ScalE2(SS,OS)=  1.000000  1.000000
 Range of M.O.s used for correlation:     1   196
 NBasis=   196 NAE=    19 NBE=    19 NFC=     0 NFV=     0
 NROrb=    196 NOA=    19 NOB=    19 NVA=   177 NVB=   177

 **** Warning!!: The largest alpha MO coefficient is  0.17903240D+02

   4 Symmetry operations used in ECPInt.
 ECPInt:  NShTT=    1596 NPrTT=    5734 LenC2=    1548 LenP2D=    4831.
 LDataN:  DoStor=T MaxTD1= 9 Len=  602
 Symmetrizing basis deriv contribution to polar:
 IMax=3 JMax=2 DiffMx= 0.00D+00
 G2DrvN: will do     4 centers at a time, making    1 passes.
 Calling FoFCou, ICntrl=  3107 FMM=F I1Cent=   0 AccDes= 0.00D+00.
 Defaulting to unpruned grid for atomic number  50.
 Defaulting to unpruned grid for atomic number  50.
 Defaulting to unpruned grid for atomic number  50.
 Defaulting to unpruned grid for atomic number  50.
 Defaulting to unpruned grid for atomic number  50.
 Defaulting to unpruned grid for atomic number  50.
 Defaulting to unpruned grid for atomic number  50.
 Defaulting to unpruned grid for atomic number  50.
 End of G2Drv F.D. properties file   721 does not exist.
 End of G2Drv F.D. properties file   722 does not exist.
 End of G2Drv F.D. properties file   788 does not exist.
          IDoAtm=111
          Differentiating once with respect to electric field.
                with respect to dipole field.
          Differentiating once with respect to nuclear coordinates.
 Defaulting to unpruned grid for atomic number  50.
 Keep R1 ints in memory in symmetry-blocked form, NReq=233381263.
 Defaulting to unpruned grid for atomic number  50.
 Defaulting to unpruned grid for atomic number  50.
 Defaulting to unpruned grid for atomic number  50.
 Defaulting to unpruned grid for atomic number  50.
 Defaulting to unpruned grid for atomic number  50.
 Defaulting to unpruned grid for atomic number  50.
 Defaulting to unpruned grid for atomic number  50.
 Defaulting to unpruned grid for atomic number  50.
          There are     9 degrees of freedom in the 1st order CPHF.  IDoFFX=4 NUNeed=     9.
      9 vectors produced by pass  0 Test12= 3.74D-14 1.11D-08 XBig12= 1.24D+02 8.06D+00.
 AX will form     9 AO Fock derivatives at one time.
      9 vectors produced by pass  1 Test12= 3.74D-14 1.11D-08 XBig12= 7.97D+01 3.51D+00.
      9 vectors produced by pass  2 Test12= 3.74D-14 1.11D-08 XBig12= 1.71D+00 3.68D-01.
      9 vectors produced by pass  3 Test12= 3.74D-14 1.11D-08 XBig12= 1.60D-01 9.11D-02.
      9 vectors produced by pass  4 Test12= 3.74D-14 1.11D-08 XBig12= 7.37D-03 2.29D-02.
      9 vectors produced by pass  5 Test12= 3.74D-14 1.11D-08 XBig12= 5.10D-05 1.52D-03.
      8 vectors produced by pass  6 Test12= 3.74D-14 1.11D-08 XBig12= 1.30D-07 8.36D-05.
      4 vectors produced by pass  7 Test12= 3.74D-14 1.11D-08 XBig12= 1.68D-10 5.06D-06.
      3 vectors produced by pass  8 Test12= 3.74D-14 1.11D-08 XBig12= 2.45D-13 1.73D-07.
 InvSVY:  IOpt=1 It=  1 EMax= 1.78D-15
 Solved reduced A of dimension    69 with     9 vectors.
 Isotropic polarizability for W=    0.000000       40.13 Bohr**3.
 End of Minotr F.D. properties file   721 does not exist.
 End of Minotr F.D. properties file   722 does not exist.
 End of Minotr F.D. properties file   788 does not exist.

 **********************************************************************

            Population analysis using the SCF Density.

 **********************************************************************

 Orbital symmetries:
       Occupied  (B2) (A1) (A1) (B1) (A1) (B2) (A1) (A1) (B1) (B2)
                 (A2) (B2) (A1) (A1) (B2) (B1) (A1) (A2) (B2)
       Virtual   (A1) (B1) (A1) (B2) (A1) (B1) (A1) (B1) (A1) (B2)
                 (A2) (B2) (A1) (B2) (A1) (B1) (A1) (B1) (A1) (B2)
                 (A2) (B2) (B2) (A2) (B1) (A1) (B1) (A1) (A1) (A2)
                 (B2) (A1) (B1) (A1) (B2) (B2) (A1) (B1) (A1) (A1)
                 (B1) (A2) (B2) (A1) (B1) (B2) (B2) (A2) (B2) (A2)
                 (A1) (B1) (A1) (B1) (A1) (B2) (A1) (B1) (B2) (A2)
                 (A2) (B2) (A1) (B1) (A1) (B2) (A2) (B1) (A1) (A1)
                 (B1) (B2) (A1) (B2) (A2) (B2) (A1) (B2) (A2) (A1)
                 (B1) (A1) (B1) (A1) (B2) (A1) (B1) (B2) (A2) (B2)
                 (A2) (A1) (B1) (A1) (B2) (B1) (A1) (B2) (A2) (B2)
                 (A2) (A1) (B1) (A1) (B2) (B1) (A1) (B2) (A2) (B2)
                 (A1) (B2) (A2) (B1) (A1) (B2) (A1) (B2) (A2) (B1)
                 (A1) (A2) (B2) (B2) (A2) (B2) (B1) (A1) (B1) (A1)
                 (A1) (B1) (B2) (A2) (A1) (B1) (A1) (B2) (A2) (B1)
                 (A1) (B2) (A1) (B1) (B2) (A2) (B2) (A2) (A1) (B1)
                 (B1) (A1) (A1) (B2) (B2) (A2) (B1) (A1) (A2) (B2)
                 (B2) (A2) (A1) (A1) (B1) (A1) (B2) (B2) (A1) (B1)
                 (A1) (B2) (A1) (B2) (A1) (A1) (B2)
 The electronic state is 1-A1.
 Alpha  occ. eigenvalues --  -19.22367 -19.22367  -5.21004  -3.54703  -3.54703
 Alpha  occ. eigenvalues --   -3.53361  -1.15467  -1.11251  -1.11251  -1.10280
 Alpha  occ. eigenvalues --   -1.10280  -0.95031  -0.90756  -0.47690  -0.37294
 Alpha  occ. eigenvalues --   -0.35803  -0.35803  -0.31810  -0.31810
 Alpha virt. eigenvalues --   -0.11701  -0.07334  -0.07334   0.04094   0.06757
 Alpha virt. eigenvalues --    0.06757   0.08035   0.11065   0.11065   0.18364
 Alpha virt. eigenvalues --    0.19874   0.19874   0.20816   0.33971   0.36215
 Alpha virt. eigenvalues --    0.36215   0.38667   0.38667   0.40680   0.42320
 Alpha virt. eigenvalues --    0.42320   0.43735   0.43876   0.43876   0.45165
 Alpha virt. eigenvalues --    0.45165   0.52104   0.52104   0.52115   0.58961
 Alpha virt. eigenvalues --    0.58961   0.68358   0.68358   0.86789   0.90851
 Alpha virt. eigenvalues --    0.95873   0.96246   1.03520   1.03520   1.14057
 Alpha virt. eigenvalues --    1.14057   1.14621   1.14621   1.19609   1.19609
 Alpha virt. eigenvalues --    1.19787   1.25029   1.25029   1.33934   1.33934
 Alpha virt. eigenvalues --    1.37008   1.42069   1.42069   1.43442   1.43442
 Alpha virt. eigenvalues --    1.46023   1.47150   1.47150   1.47229   1.47229
 Alpha virt. eigenvalues --    1.53857   1.53857   1.67402   1.67402   1.69370
 Alpha virt. eigenvalues --    1.72288   1.72288   1.76769   1.76769   1.88209
 Alpha virt. eigenvalues --    1.88209   1.93772   1.98734   2.41128   2.41129
 Alpha virt. eigenvalues --    2.46750   2.56764   2.76492   2.76492   2.78800
 Alpha virt. eigenvalues --    2.83118   2.83118   2.90263   2.90263   3.06607
 Alpha virt. eigenvalues --    3.13513   3.13513   3.18757   3.18757   3.31366
 Alpha virt. eigenvalues --    3.31366   3.47593   3.49490   3.49490   3.62581
 Alpha virt. eigenvalues --    3.82214   3.82214   3.86231   3.86231   3.90615
 Alpha virt. eigenvalues --    3.90615   3.94721   3.94721   4.23333   4.26409
 Alpha virt. eigenvalues --    4.36828   4.36828   4.59164   4.59165   4.61831
 Alpha virt. eigenvalues --    4.87123   5.17324   5.17324   5.22632   5.22632
 Alpha virt. eigenvalues --    5.88907   5.90675   8.81805   8.81805   8.86337
 Alpha virt. eigenvalues --    8.86337   8.88476   8.88476   8.88983   8.89306
 Alpha virt. eigenvalues --    8.89306   8.89365   8.89365   8.91493   8.91493
 Alpha virt. eigenvalues --    8.91963   8.91963   8.96039   8.96039   8.98366
 Alpha virt. eigenvalues --    9.04036   9.04036   9.12669   9.12669   9.26957
 Alpha virt. eigenvalues --    9.26957   9.49776  10.95484  10.95484  10.97269
 Alpha virt. eigenvalues --   10.97269  11.00938  11.00938  11.14892  11.14893
 Alpha virt. eigenvalues --   11.30248  11.30248  11.40001  11.43342  11.51199
 Alpha virt. eigenvalues --   11.51199  12.01294  12.01294  12.03399  12.03399
 Alpha virt. eigenvalues --   12.29663  12.29663  12.31132  12.33587  12.33587
 Alpha virt. eigenvalues --   12.50394  12.50894  13.32388  13.33794  34.53706
 Alpha virt. eigenvalues --   34.53706  35.01923  47.54014  47.61122  72.66935
 Alpha virt. eigenvalues --  252.62584 252.68018
          Condensed to atoms (all electrons):
               1          2          3
     1  Sn  19.670837   0.559373   0.559373
     2  O    0.559373   8.058866  -0.013030
     3  O    0.559373  -0.013030   8.058866
 Mulliken charges:
               1
     1  Sn   1.210417
     2  O   -0.605208
     3  O   -0.605208
 Sum of Mulliken charges =  -0.00000
 Mulliken charges with hydrogens summed into heavy atoms:
               1
     1  Sn   1.210417
     2  O   -0.605208
     3  O   -0.605208
 APT charges:
               1
     1  Sn   1.198348
     2  O   -0.599174
     3  O   -0.599174
 Sum of APT charges =  -0.00000
 APT charges with hydrogens summed into heavy atoms:
               1
     1  Sn   1.198348
     2  O   -0.599174
     3  O   -0.599174
 Electronic spatial extent (au):  <R**2>=            266.4515
 Charge=             -0.0000 electrons
 Dipole moment (field-independent basis, Debye):
    X=             -0.0000    Y=             -0.0000    Z=              0.0055  Tot=              0.0055
 Quadrupole moment (field-independent basis, Debye-Ang):
   XX=            -30.7754   YY=            -48.7633   ZZ=            -30.7754
   XY=              0.0000   XZ=              0.0000   YZ=             -0.0000
 Traceless Quadrupole moment (field-independent basis, Debye-Ang):
   XX=              5.9960   YY=            -11.9919   ZZ=              5.9960
   XY=              0.0000   XZ=              0.0000   YZ=             -0.0000
 Octapole moment (field-independent basis, Debye-Ang**2):
  XXX=             -0.0000  YYY=             -0.0000  ZZZ=              0.0172  XYY=             -0.0000
  XXY=             -0.0000  XXZ=              0.0057  XZZ=             -0.0000  YZZ=             -0.0000
  YYZ=              0.0108  XYZ=             -0.0000
 Hexadecapole moment (field-independent basis, Debye-Ang**3):
 XXXX=            -31.1668 YYYY=           -306.9278 ZZZZ=            -31.1668 XXXY=              0.0000
 XXXZ=              0.0000 YYYX=              0.0000 YYYZ=             -0.0000 ZZZX=              0.0000
 ZZZY=             -0.0000 XXYY=            -52.9514 XXZZ=            -10.3889 YYZZ=            -52.9514
 XXYZ=             -0.0000 YYXZ=              0.0000 ZZXY=              0.0000
 N-N= 1.131016180643D+02 E-N=-1.040910345410D+03  KE= 2.321967752669D+02
 Symmetry A1   KE= 1.043480910096D+02
 Symmetry A2   KE= 1.496872136067D+01
 Symmetry B1   KE= 2.160835245061D+01
 Symmetry B2   KE= 9.127161044603D+01
  Exact polarizability:      30.752       0.000      58.874      -0.000      -0.000      30.752
 Approx polarizability:      41.728      -0.000     136.605      -0.000       0.000      41.728
   4 Symmetry operations used in ECPInt.
 ECPInt:  NShTT=    1596 NPrTT=    5734 LenC2=    1548 LenP2D=    4831.
 LDataN:  DoStor=T MaxTD1=10 Len=  848
 Calling FoFJK, ICntrl=    100127 FMM=F ISym2X=1 I1Cent= 0 IOpClX= 0 NMat=1 NMatS=1 NMatT=0.
 Defaulting to unpruned grid for atomic number  50.
 Defaulting to unpruned grid for atomic number  50.
 Defaulting to unpruned grid for atomic number  50.
 Defaulting to unpruned grid for atomic number  50.
 Defaulting to unpruned grid for atomic number  50.
 Defaulting to unpruned grid for atomic number  50.
 Defaulting to unpruned grid for atomic number  50.
 Defaulting to unpruned grid for atomic number  50.
 Full mass-weighted force constant matrix:
 Low frequencies ---  -14.6653  -14.6626   -0.0004   -0.0003   -0.0002  163.2776
 Low frequencies ---  163.2779  804.3148  918.2569
 Diagonal vibrational polarizability:
        0.0000000       2.8144593      42.5593971
 Harmonic frequencies (cm**-1), IR intensities (KM/Mole), Raman scattering
 activities (A**4/AMU), depolarization ratios for plane and unpolarized
 incident light, reduced masses (AMU), force constants (mDyne/A),
 and normal coordinates:
                      1                      2                      3
                     A1                     A1                     B2
 Frequencies --    163.2779               804.3148               918.2569
 Red. masses --     19.6128                15.9949                19.6128
 Frc consts  --      0.3081                 6.0966                 9.7436
 IR Inten    --     42.1616                 0.0000                88.1841
  Atom  AN      X      Y      Z        X      Y      Z        X      Y      Z
     1  50     0.00  -0.00  -0.19    -0.00   0.00   0.00     0.00  -0.19   0.00
     2   8    -0.00   0.00   0.69    -0.00   0.71  -0.00    -0.00   0.69  -0.00
     3   8    -0.00  -0.00   0.69     0.00  -0.71  -0.00    -0.00   0.69   0.00

 -------------------
 - Thermochemistry -
 -------------------
 Temperature   298.150 Kelvin.  Pressure   1.00000 Atm.
 Atom     1 has atomic number 50 and mass 117.90180
 Atom     2 has atomic number  8 and mass  15.99491
 Atom     3 has atomic number  8 and mass  15.99491
 Molecular mass:   149.89163 amu.
 Principal axes and moments of inertia in atomic units:
                           1         2         3
     Eigenvalues --     0.00011 368.75387 368.75398
           X           -0.00000  -0.00000   1.00000
           Y            1.00000  -0.00000   0.00000
           Z            0.00000   1.00000   0.00000
 This molecule is an asymmetric top.
 Rotational symmetry number  2.
 Rotational temperatures (Kelvin) 813760.96560     0.23488     0.23488
 Rotational constants (GHZ):      ************     4.89416     4.89416
 Zero-point vibrational energy      11279.9 (Joules/Mol)
                                    2.69596 (Kcal/Mol)
 Warning -- explicit consideration of   1 degrees of freedom as
           vibrations may cause significant error
 Vibrational temperatures:    234.92  1157.23  1321.17
          (Kelvin)
 
 Zero-point correction=                           0.004296 (Hartree/Particle)
 Thermal correction to Energy=                    0.007877
 Thermal correction to Enthalpy=                  0.008821
 Thermal correction to Gibbs Free Energy=        -0.016290
 Sum of electronic and zero-point Energies=           -364.588765
 Sum of electronic and thermal Energies=              -364.585184
 Sum of electronic and thermal Enthalpies=            -364.584240
 Sum of electronic and thermal Free Energies=         -364.609351
 
                     E (Thermal)             CV                S
                      KCal/Mol        Cal/Mol-Kelvin    Cal/Mol-Kelvin
 Total                    4.943              8.968             52.850
 Electronic               0.000              0.000              0.000
 Translational            0.889              2.981             40.924
 Rotational               0.889              2.981              9.081
 Vibrational              3.165              3.007              2.845
 Vibration     1          0.623              1.888              2.511
                       Q            Log10(Q)             Ln(Q)
 Total Bot       0.310992D+08          7.492750         17.252694
 Total V=0       0.294374D+10          9.468900         21.802948
 Vib (Bot)       0.200231D-01         -1.698468         -3.910867
 Vib (Bot)    1  0.123691D+01          0.092337          0.212615
 Vib (V=0)       0.189532D+01          0.277683          0.639388
 Vib (V=0)    1  0.183414D+01          0.263433          0.606578
 Electronic      0.100000D+01          0.000000          0.000000
 Translational   0.721307D+08          7.858120         18.093990
 Rotational      0.215327D+02          1.333098          3.069571
 ***** Axes restored to original set *****
 -------------------------------------------------------------------
 Center     Atomic                   Forces (Hartrees/Bohr)
 Number     Number              X              Y              Z
 -------------------------------------------------------------------
      1       50          -0.000000000   -0.000000000   -0.000052216
      2        8           0.000021542   -0.000000000    0.000026108
      3        8          -0.000021542    0.000000000    0.000026108
 -------------------------------------------------------------------
 Cartesian Forces:  Max     0.000052216 RMS     0.000023612
 FormGI is forming the generalized inverse of G from B-inverse, IUseBI=4.

 GradGradGradGradGradGradGradGradGradGradGradGradGradGradGradGradGradGrad
 Berny optimization.
 Internal  Forces:  Max     0.000021624 RMS     0.000015290
 Search for a local minimum.
 Step number   1 out of a maximum of    2
 All quantities printed in internal units (Hartrees-Bohrs-Radians)
 Second derivative matrix not updated -- analytic derivatives used.
 The second derivative matrix:
                          R1        R2        A1        A2
           R1           0.39652
           R2          -0.00494   0.39652
           A1          -0.00029  -0.00029   0.00000
           A2          -0.00000   0.00000  -0.00000   0.07312
 ITU=  0
     Eigenvalues ---    0.07312   0.39158   0.40146
 Angle between quadratic step and forces=   0.00 degrees.
 Linear search not attempted -- first point.
 Iteration  1 RMS(Cart)=  0.00003905 RMS(Int)=  0.00000000
 Iteration  2 RMS(Cart)=  0.00000000 RMS(Int)=  0.00000000
 ClnCor:  largest displacement from symmetrization is 4.62D-14 for atom     1.
 Variable       Old X    -DE/DX   Delta X   Delta X   Delta X     New X
                                 (Linear)    (Quad)   (Total)
    R1        3.39518  -0.00002   0.00000  -0.00006  -0.00006   3.39512
    R2        3.39518  -0.00002   0.00000  -0.00006  -0.00006   3.39512
    A1        3.14038   0.00000   0.00000   0.00000   0.00000   3.14038
    A2        3.14159  -0.00000   0.00000  -0.00000   0.00000   3.14159
         Item               Value     Threshold  Converged?
 Maximum Force            0.000022     0.000450     YES
 RMS     Force            0.000015     0.000300     YES
 Maximum Displacement     0.000055     0.001800     YES
 RMS     Displacement     0.000039     0.001200     YES
 Predicted change in Energy=-1.194121D-09
 Optimization completed.
    -- Stationary point found.
                           ----------------------------
                           !   Optimized Parameters   !
                           ! (Angstroms and Degrees)  !
 --------------------------                            --------------------------
 ! Name  Definition              Value          Derivative Info.                !
 --------------------------------------------------------------------------------
 ! R1    R(1,2)                  1.7967         -DE/DX =    0.0                 !
 ! R2    R(1,3)                  1.7967         -DE/DX =    0.0                 !
 ! A1    L(2,1,3,-2,-1)        179.9306         -DE/DX =    0.0                 !
 ! A2    L(2,1,3,-3,-2)        180.0            -DE/DX =    0.0                 !
 --------------------------------------------------------------------------------
 GradGradGradGradGradGradGradGradGradGradGradGradGradGradGradGradGradGrad


 ----------------------------------------------------------------------

 Electric dipole moment (input orientation):
 (Debye = 10**-18 statcoulomb cm , SI units = C m)
                  (au)            (Debye)         (10**-30 SI)
   Tot        0.214567D-02      0.545375D-02      0.181918D-01
   x          0.000000D+00      0.000000D+00      0.000000D+00
   y          0.000000D+00      0.000000D+00      0.000000D+00
   z          0.214567D-02      0.545375D-02      0.181918D-01

 Dipole polarizability, Alpha (input orientation).
 (esu units = cm**3 , SI units = C**2 m**2 J**-1)
 Alpha(0;0):
               (au)            (10**-24 esu)      (10**-40 SI)
   iso        0.401257D+02      0.594601D+01      0.661583D+01
   aniso      0.281223D+02      0.416730D+01      0.463675D+01
   xx         0.588739D+02      0.872421D+01      0.970700D+01
   yx         0.000000D+00      0.000000D+00      0.000000D+00
   yy         0.307515D+02      0.455691D+01      0.507025D+01
   zx         0.000000D+00      0.000000D+00      0.000000D+00
   zy         0.000000D+00      0.000000D+00      0.000000D+00
   zz         0.307516D+02      0.455691D+01      0.507025D+01

 ----------------------------------------------------------------------

 Dipole orientation:
    50         16.06267206         16.06267206         16.06363431
     8         12.66749574         16.06267206         16.06157762
     8         19.45784838         16.06267206         16.06157762

 Electric dipole moment (dipole orientation):
 (Debye = 10**-18 statcoulomb cm , SI units = C m)
                  (au)            (Debye)         (10**-30 SI)
   Tot        0.214567D-02      0.545375D-02      0.181918D-01
   x          0.000000D+00      0.000000D+00      0.000000D+00
   y          0.000000D+00      0.000000D+00      0.000000D+00
   z          0.214567D-02      0.545375D-02      0.181918D-01

 Dipole polarizability, Alpha (dipole orientation).
 (esu units = cm**3 , SI units = C**2 m**2 J**-1)
 Alpha(0;0):
               (au)            (10**-24 esu)      (10**-40 SI)
   iso        0.401257D+02      0.594601D+01      0.661583D+01
   aniso      0.281223D+02      0.416730D+01      0.463675D+01
   xx         0.588739D+02      0.872421D+01      0.970700D+01
   yx         0.000000D+00      0.000000D+00      0.000000D+00
   yy         0.307515D+02      0.455691D+01      0.507025D+01
   zx         0.000000D+00      0.000000D+00      0.000000D+00
   zy         0.000000D+00      0.000000D+00      0.000000D+00
   zz         0.307516D+02      0.455691D+01      0.507025D+01

 ----------------------------------------------------------------------
 Unable to Open any file for archive entry.
 1\1\GINC-TCOPT10\Freq\RPBE1PBE\def2QZVPP\O2Sn1\HUTTER\01-Aug-2021\0\\#
 N Geom=AllCheck Guess=TCheck SCRF=Check GenChk RPBE1PBE/def2QZVPP Freq
 \\Mol job 1\\0,1\Sn,8.5,8.5,8.5005092008\O,6.7033500644,8.5,8.49942084
 96\O,10.2966499356,8.5,8.4994208496\\Version=ES64L-G16RevC.01\State=1-
 A1\HF=-364.5930611\RMSD=2.580e-10\RMSF=2.361e-05\ZeroPoint=0.0042963\T
 hermal=0.007877\ETot=-364.5851841\HTot=-364.5842399\GTot=-364.6093508\
 Dipole=0.,0.,0.0021457\DipoleDeriv=1.5086796,0.,0.,0.,1.0431831,0.,0.,
 0.,1.0431826,-0.7543398,0.,0.0002122,0.,-0.5215915,0.,-0.0001409,0.,-0
 .5215913,-0.7543398,0.,-0.0002122,0.,-0.5215915,0.,0.0001409,0.,-0.521
 5913\Polar=58.8739051,0.,30.7515499,0.,0.,30.7515649\Quadrupole=-8.915
 7037,4.4578525,4.4578512,0.,0.,0.\PG=C02V [C2(Sn1),SGV(O2)]\NImag=0\\0
 .80292451,0.,0.02538633,0.,0.,0.02538659,-0.40146225,0.,-0.00018859,0.
 39652330,0.,-0.01269316,0.,0.,0.00628149,-0.00023467,0.,-0.01269329,0.
 00021163,0.,0.00628165,-0.40146225,0.,0.00018859,0.00493896,0.,0.00002
 304,0.39652330,0.,-0.01269316,0.,0.,0.00641167,0.,0.,0.00628149,0.0002
 3467,0.,-0.01269329,-0.00002304,0.,0.00641165,-0.00021163,0.,0.0062816
 5\\0.,0.,0.00005222,-0.00002154,0.,-0.00002611,0.00002154,0.,-0.000026
 11\\\@
 The archive entry for this job was punched.


 IF YOU DON'T HAVE THE LAW - ARGUE THE FACTS.
 IF YOU DON'T HAVE THE FACTS - ARGUE THE LAW.
 IF YOU DON'T HAVE EITHER - POUND THE TABLE.
 Job cpu time:       0 days  0 hours 10 minutes 54.8 seconds.
 Elapsed time:       0 days  0 hours  1 minutes 22.2 seconds.
 File lengths (MBytes):  RWF=     21 Int=      0 D2E=      0 Chk=      4 Scr=      1
 Normal termination of Gaussian 16 at Sun Aug  1 17:18:25 2021.
