       4
 i =        1, E =       -74.8544884146
 Al         7.4166214814        7.0000000199        7.0000000183
  F         8.2315124431        5.5753283294        6.9999999833
  F         8.2315124219        8.4246716735        7.0000000507
  F         5.7759722285        6.9999999786        6.9999999482
       4
 i =        2, E =       -74.8541364622
 Al         7.4063330462        6.9999999859        6.9999999502
  F         8.1811517192        5.6111041782        6.9999999109
  F         8.1811516391        8.3888958635        7.0000003631
  F         5.8167399552        6.9999998710        6.9999996693
       4
 i =        3, E =       -74.8557700864
 Al         7.4099621747        6.9999999443        6.9999999847
  F         8.2036412901        5.5907827510        6.9999998781
  F         8.2036411435        8.4092173233        7.0000004837
  F         5.7935928593        6.9999998124        6.9999995259
       4
 i =        4, E =       -74.8557073312
 Al         7.4026467412        6.9999999496        6.9999999767
  F         8.2267686973        5.6026045856        6.9999996826
  F         8.2267686578        8.3973954048        7.0000012860
  F         5.7793749947        6.9999995191        6.9999988705
       4
 i =        5, E =       -74.8559055640
 Al         7.4044209848        6.9999999214        6.9999999626
  F         8.2136003649        5.6000117435        6.9999994541
  F         8.2136002564        8.3999882448        7.0000022250
  F         5.7870991766        6.9999992053        6.9999981199
       4
 i =        6, E =       -74.8559060287
 Al         7.4042355767        6.9999998695        6.9999999431
  F         8.2131146373        5.6000299320        6.9999986799
  F         8.2131144995        8.3999699870        7.0000054193
  F         5.7871719145        6.9999980617        6.9999953817
       4
 i =        7, E =       -74.8559060287
 Al         7.4042355767        6.9999998695        6.9999999431
  F         8.2131146373        5.6000299320        6.9999986799
  F         8.2131144995        8.3999699870        7.0000054193
  F         5.7871719145        6.9999980617        6.9999953817
