       6
 i =        1, E =       -31.6358103885
 Be         7.9999999932        8.0000000000        6.9909760974
 Be         8.0000000097        8.0000000000        9.0090298022
  H         9.0868544396        8.0000000000        8.0000001041
  H         6.9131455689        8.0000000000        8.0000001157
  H         8.0000000056        8.0000000000        5.6525074457
  H         7.9999999830        8.0000000000       10.3474945822
       6
 i =        2, E =       -31.6358836886
 Be         7.9999999998        8.0000000000        6.9996288424
 Be         8.0000000034        8.0000000000        9.0003726507
  H         9.0831412570        8.0000000000        8.0000016633
  H         6.9168587485        8.0000000000        8.0000016654
  H         8.0000000027        8.0000000000        5.6665004707
  H         7.9999999879        8.0000000000       10.3335021684
       6
 i =        3, E =       -31.6358840874
 Be         8.0000000004        8.0000000000        6.9990093509
 Be         8.0000000020        8.0000000000        9.0009930867
  H         9.0828182510        8.0000000000        8.0000011000
  H         6.9171817537        8.0000000000        8.0000011004
  H         8.0000000026        8.0000000000        5.6657409065
  H         7.9999999893        8.0000000000       10.3342618474
       6
 i =        4, E =       -31.6358840874
 Be         8.0000000004        8.0000000000        6.9990093509
 Be         8.0000000020        8.0000000000        9.0009930867
  H         9.0828182510        8.0000000000        8.0000011000
  H         6.9171817537        8.0000000000        8.0000011004
  H         8.0000000026        8.0000000000        5.6657409065
  H         7.9999999893        8.0000000000       10.3342618474
