       6
 i =        1, E =       -22.9514317251
  N         7.7030927086        6.5298028164        7.0000000700
  C         6.3270126682        6.6101798495        6.3637627419
  C         6.3270126212        6.6101797912        7.6362372309
  H         8.1067554926        7.4769292061        6.9999999870
  H         5.9036019853        6.5473850656        5.3753050377
  H         5.9036020022        6.5473850867        8.6246949325
       6
 i =        2, E =       -22.9515926055
  N         7.7027742852        6.5250915353        6.9999998939
  C         6.3332645673        6.6125573352        6.3666461110
  C         6.3332647221        6.6125577337        7.6333539146
  H         8.0899486922        7.4730373597        7.0000001381
  H         5.9059364021        6.5492431936        5.3869001111
  H         5.9059363985        6.5492432005        8.6130998324
       6
 i =        3, E =       -22.9516161547
  N         7.7004962851        6.5281204428        7.0000000966
  C         6.3324927256        6.6102097267        6.3659218962
  C         6.3324926873        6.6102096119        7.6340780550
  H         8.0938760924        7.4731191551        6.9999999591
  H         5.9058894733        6.5500112179        5.3848515055
  H         5.9058895121        6.5500113245        8.6151484875
       6
 i =        4, E =       -22.9516195964
  N         7.6994494674        6.5282151971        6.9999999556
  C         6.3328489344        6.6095318879        6.3656730926
  C         6.3328490095        6.6095320257        7.6343269235
  H         8.0935454463        7.4731989847        7.0000000508
  H         5.9062378900        6.5505424348        5.3840217358
  H         5.9062378687        6.5505424999        8.6159782426
       6
 i =        5, E =       -22.9516195964
  N         7.6994494674        6.5282151971        6.9999999556
  C         6.3328489344        6.6095318879        6.3656730926
  C         6.3328490095        6.6095320257        7.6343269235
  H         8.0935454463        7.4731989847        7.0000000508
  H         5.9062378900        6.5505424348        5.3840217358
  H         5.9062378687        6.5505424999        8.6159782426
