       3
 i =        1, E =       -31.7241846954
 Ca         7.4999999991        7.4999999996        7.5000000135
  H         7.5000000006        7.5000000003        9.3897935500
  H         7.5000000003        7.5000000001        5.6102064365
       3
 i =        2, E =       -32.7918799079
 Ca         7.5000000029        7.5000000013        7.5000000452
  H         7.4999999983        7.4999999992        9.1397935500
  H         7.4999999988        7.4999999994        5.8602064049
       3
 i =        3, E =       -33.4396707372
 Ca         7.4999999440        7.4999999738        7.4999992253
  H         7.5000000288        7.5000000135        8.8897943701
  H         7.5000000273        7.5000000127        6.1102064049
       3
 i =        4, E =       -33.6103546027
 Ca         7.5000004026        7.5000001881        7.5000319324
  H         7.4999997984        7.4999999057        8.6982464272
  H         7.4999998000        7.4999999067        6.3017215390
       3
 i =        5, E =       -33.6090488897
 Ca         7.5000004842        7.5000002258        7.4991629041
  H         7.4999997570        7.4999998866        8.7059276850
  H         7.4999997598        7.4999998881        6.2949132933
       3
 i =        6, E =       -33.6011824289
 Ca         7.5000006119        7.5000002843        7.5265470824
  H         7.4999997020        7.4999998614        8.7013241281
  H         7.4999996870        7.4999998546        6.2720136424
       3
 i =        7, E =       -33.6088185901
 Ca         7.5000005208        7.5000002423        7.4999142720
  H         7.4999997370        7.4999998775        8.7066343154
  H         7.4999997432        7.4999998807        6.2933545736
       3
 i =        8, E =       -33.6088024990
 Ca         7.5000005326        7.5000002475        7.4999603800
  H         7.4999997307        7.4999998748        8.7066817785
  H         7.4999997377        7.4999998782        6.2932502987
       3
 i =        9, E =       -33.6088024990
 Ca         7.5000005326        7.5000002475        7.4999603800
  H         7.4999997307        7.4999998748        8.7066817785
  H         7.4999997377        7.4999998782        6.2932502987
