       2
 i =        1, E =       -20.7251930613
 Cs         6.9999999843        7.0000000037        5.7170069733
  H         7.0000000157        6.9999999963        8.2829930262
       2
 i =        2, E =       -20.7255606767
 Cs         6.9999999846        7.0000000037        5.7713216952
  H         7.0000000154        6.9999999963        8.2286786280
       2
 i =        3, E =       -20.7255925666
 Cs         6.9999999844        7.0000000038        5.7584502343
  H         7.0000000156        6.9999999962        8.2415500342
       2
 i =        4, E =       -20.7255929548
 Cs         6.9999999845        7.0000000038        5.7597312190
  H         7.0000000155        6.9999999962        8.2402691339
       2
 i =        5, E =       -20.7255929548
 Cs         6.9999999845        7.0000000038        5.7597312190
  H         7.0000000155        6.9999999962        8.2402691339
