       3
 i =        1, E =       -16.1467688670
  H         6.5000000080        6.5000000091        5.4145275307
  N         6.5000000229        6.5000000100        6.4161829666
  C         6.4999999691        6.4999999809        7.5833257792
       3
 i =        2, E =       -16.1467807880
  H         6.5000000125        6.5000000110        5.4170606563
  N         6.5000000145        6.5000000064        6.4154912458
  C         6.4999999732        6.4999999828        7.5816372245
       3
 i =        3, E =       -16.1467809292
  H         6.5000000150        6.5000000119        5.4172435755
  N         6.5000000098        6.5000000045        6.4154015449
  C         6.4999999755        6.4999999838        7.5817120952
       3
 i =        4, E =       -16.1467809292
  H         6.5000000150        6.5000000119        5.4172435755
  N         6.5000000098        6.5000000045        6.4154015449
  C         6.4999999755        6.4999999838        7.5817120952
