       8
 i =        1, E =       -32.2782667415
 Li         7.3811475996        7.3811476016        7.3811481501
 Li         5.6188523638        7.3811476681        5.6188522166
 Li         5.6188519413        5.6188519425        7.3811478347
 Li         7.3811476618        5.6188523728        5.6188521990
  H         5.5279896668        7.4720100484        7.4720102355
  H         5.5279896079        5.5279896107        5.5279897602
  H         7.4720100729        5.5279896774        7.4720102495
  H         7.4720103665        7.4720103591        5.5279898840
       8
 i =        2, E =       -32.2787114977
 Li         7.3673471479        7.3673471461        7.3673475628
 Li         5.6326529822        7.3673474706        5.6326529759
 Li         5.6326525205        5.6326529734        7.3673472578
 Li         7.3673469847        5.6326530101        5.6326529936
  H         5.5430879970        7.4569111864        7.4569116551
  H         5.5430885208        5.5430880393        5.5430883495
  H         7.4569114388        5.5430880062        7.4569114173
  H         7.4569116882        7.4569114480        5.5430883180
       8
 i =        3, E =       -32.2787351225
 Li         7.3694205553        7.3694204853        7.3694209142
 Li         5.6305793027        7.3694207363        5.6305792914
 Li         5.6305789505        5.6305790042        7.3694207915
 Li         7.3694208278        5.6305790846        5.6305791337
  H         5.5448211394        7.4551786520        7.4551788184
  H         5.5448211371        5.5448212647        5.5448212354
  H         7.4551785616        5.5448211824        7.4551788478
  H         7.4551788053        7.4551788710        5.5448214983
       8
 i =        4, E =       -32.2787399409
 Li         7.3706398192        7.3706397813        7.3706401678
 Li         5.6293597341        7.3706399505        5.6293597769
 Li         5.6293595147        5.6293592318        7.3706402415
 Li         7.3706405699        5.6293593562        5.6293594316
  H         5.5466400682        7.4533602783        7.4533601699
  H         5.5466395292        5.5466402115        5.5466398557
  H         7.4533598984        5.5466400480        7.4533604657
  H         7.4533601454        7.4533604219        5.5466404217
       8
 i =        5, E =       -32.2787398834
 Li         7.3706458040        7.3706458147        7.3706461736
 Li         5.6293536946        7.3706459597        5.6293537708
 Li         5.6293535148        5.6293532053        7.3706462661
 Li         7.3706466243        5.6293533462        5.6293534078
  H         5.5467463554        7.4532540454        7.4532539109
  H         5.5467457384        5.5467464734        5.5467460753
  H         7.4532536466        5.5467462774        7.4532542407
  H         7.4532539006        7.4532541553        5.5467466851
       8
 i =        6, E =       -32.2787398834
 Li         7.3706458040        7.3706458147        7.3706461736
 Li         5.6293536946        7.3706459597        5.6293537708
 Li         5.6293535148        5.6293532053        7.3706462661
 Li         7.3706466243        5.6293533462        5.6293534078
  H         5.5467463554        7.4532540454        7.4532539109
  H         5.5467457384        5.5467464734        5.5467460753
  H         7.4532536466        5.5467462774        7.4532542407
  H         7.4532539006        7.4532541553        5.5467466851
