       2
 i =        1, E =       -87.5677799044
 Mg         6.5000000022        6.4999999978        5.5227854839
  F         6.4999999969        6.5000000012        7.3132815888
       2
 i =        2, E =       -87.5673043707
 Mg         6.4999999970        6.5000000029        5.5703563156
  F         6.4999999989        6.5000000004        7.3475524545
       2
 i =        3, E =       -87.5686041893
 Mg         6.4999999894        6.5000000102        5.6008421400
  F         6.5000000006        6.5000000001        7.3645936704
       2
 i =        4, E =       -87.5682318486
 Mg         6.5000000815        6.4999999216        5.5847731902
  F         6.5000000003        6.5000000000        7.3506720429
       2
 i =        5, E =       -87.5686731023
 Mg         6.4999999188        6.5000000781        5.5952488730
  F         6.5000000001        6.4999999997        7.3573077248
       2
 i =        6, E =       -87.5686805519
 Mg         6.5000020980        6.4999979825        5.5981238417
  F         6.4999999975        6.5000000025        7.3574678977
       2
 i =        7, E =       -87.5686898399
 Mg         6.4999767085        6.5000223986        5.5967710493
  F         6.5000000214        6.4999999794        7.3559029315
       2
 i =        8, E =       -87.5686887770
 Mg         6.5005019617        6.4995172807        5.5967206448
  F         6.4999995966        6.5000003880        7.3551428970
       2
 i =        9, E =       -87.5686901337
 Mg         6.4998632827        6.5001314474        5.5966436271
  F         6.4999999567        6.5000000421        7.3530280611
       2
 i =       10, E =       -87.5686905207
 Mg         6.4999060775        6.5000906255        5.5967957052
  F         6.5000005614        6.4999994598        7.3552657467
       2
 i =       11, E =       -87.5686908722
 Mg         6.5000300585        6.4999660624        5.5967491043
  F         6.4999998967        6.5000001030        7.3547876373
       2
 i =       12, E =       -87.5686908722
 Mg         6.5000300585        6.4999660624        5.5967491043
  F         6.4999998967        6.5000001030        7.3547876373
