       3
 i =        1, E =      -111.8592711980
 Mg         7.5000000117        7.4999999602        7.5000000013
  F         7.4999999964        7.5000000035        9.2522940746
  F         7.4999999951        7.5000000317        5.7477059168
       3
 i =        2, E =      -111.8592823745
 Mg         7.4999999325        7.5000002250        7.5000000228
  F         7.4999999913        7.5000000045        9.2493555458
  F         7.4999999874        7.5000000912        5.7506444896
       3
 i =        3, E =      -111.8592824371
 Mg         7.5000002434        7.4999991924        7.5000002470
  F         7.4999999724        7.5000000273        9.2490801119
  F         7.4999999624        7.5000002506        5.7509202934
       3
 i =        4, E =      -111.8592824371
 Mg         7.5000002434        7.4999991924        7.5000002470
  F         7.4999999724        7.5000000273        9.2490801119
  F         7.4999999624        7.5000002506        5.7509202934
