      11
 i =        1, E =      -200.0360555786
 Os         9.2829863917        8.4999999474        8.4999999957
  C        10.2507095476        6.8239957027        8.5000003266
  C        10.2507095180       10.1760043672        8.4999999358
  C         7.3475988415        8.4999999809        8.5000000595
  C         9.2830607045        8.5000001721       10.4467192819
  C         9.2830606514        8.4999999197        6.5532806699
  O        10.8248043180        5.8340102522        8.4999998311
  O        10.8248043839       11.1659897566        8.5000000514
  O         6.2031487179        8.4999999620        8.4999999934
  O         9.2805904965        8.4999999098       11.5841157899
  O         9.2805905433        8.5000000294        5.4158840646
      11
 i =        2, E =      -200.0360935825
 Os         9.2824991262        8.5000000763        8.5000002027
  C        10.2517342022        6.8237683382        8.5000000247
  C        10.2517342788       10.1762317333        8.4999998818
  C         7.3453570005        8.4999999360        8.4999999608
  C         9.2817411899        8.4999999721       10.4539123769
  C         9.2817412267        8.4999998689        6.5460875694
  O        10.8240858876        5.8333918497        8.5000000013
  O        10.8240859507       11.1666082117        8.5000000400
  O         6.2012470053        8.4999999882        8.5000000315
  O         9.2790151921        8.5000000336       11.5914005481
  O         9.2790152060        8.5000000197        5.4085993821
      11
 i =        3, E =      -200.0360977435
 Os         9.2819221338        8.4999999337        8.5000000142
  C        10.2513608394        6.8238709494        8.5000001744
  C        10.2513607824       10.1761290664        8.5000001197
  C         7.3445601998        8.5000000475        8.5000001478
  C         9.2805111999        8.5000001354       10.4534086113
  C         9.2805112136        8.5000000796        6.5465912111
  O        10.8236113698        5.8333547233        8.4999999660
  O        10.8236114306       11.1666452403        8.4999999464
  O         6.2003581577        8.4999999469        8.4999999600
  O         9.2776605267        8.4999999718       11.5908706144
  O         9.2776605535        8.4999999251        5.4091292238
      11
 i =        4, E =      -200.0360977435
 Os         9.2819221338        8.4999999337        8.5000000142
  C        10.2513608394        6.8238709494        8.5000001744
  C        10.2513607824       10.1761290664        8.5000001197
  C         7.3445601998        8.5000000475        8.5000001478
  C         9.2805111999        8.5000001354       10.4534086113
  C         9.2805112136        8.5000000796        6.5465912111
  O        10.8236113698        5.8333547233        8.4999999660
  O        10.8236114306       11.1666452403        8.4999999464
  O         6.2003581577        8.4999999469        8.4999999600
  O         9.2776605267        8.4999999718       11.5908706144
  O         9.2776605535        8.4999999251        5.4091292238
