       4
 i =        1, E =       -28.9738465200
  P         6.5409828812        7.6191680941        6.9999999798
 Li         8.3563697646        6.3319225375        7.0000000041
 Li         5.6330340577        6.3331534547        8.5731656717
 Li         5.6330340628        6.3331534594        5.4268343444
       4
 i =        2, E =       -28.9740339512
  P         6.5409915221        7.5918367443        7.0000000023
 Li         8.3591446796        6.3410542487        7.0000000036
 Li         5.6316367443        6.3422797934        8.5754922424
 Li         5.6316367372        6.3422797812        5.4245077517
       4
 i =        3, E =       -28.9741614611
  P         6.5409816562        7.5724287911        6.9999999994
 Li         8.3711819213        6.3475289089        7.0000000035
 Li         5.6256133413        6.3487712576        8.5857888776
 Li         5.6256133363        6.3487712476        5.4142111195
       4
 i =        4, E =       -28.9743867311
  P         6.5410685912        7.5271099170        7.0000000020
 Li         8.4111921063        6.3626901734        7.0000000017
 Li         5.6055302288        6.3638857232        8.6200871113
 Li         5.6055302240        6.3638857093        5.3799128851
       4
 i =        5, E =       -28.9744096691
  P         6.5411411185        7.5151690911        6.9999999981
 Li         8.4253614079        6.3666853906        7.0000000009
 Li         5.5983823485        6.3678434073        8.6322982593
 Li         5.5983823476        6.3678433963        5.3677017418
       4
 i =        6, E =       -28.9744102351
  P         6.5411178622        7.5150806765        6.9999999934
 Li         8.4265222781        6.3666882161        7.0000000019
 Li         5.5978120191        6.3678652192        8.6332976812
 Li         5.5978120197        6.3678652144        5.3667023235
       4
 i =        7, E =       -28.9744102351
  P         6.5411178622        7.5150806765        6.9999999934
 Li         8.4265222781        6.3666882161        7.0000000019
 Li         5.5978120191        6.3678652192        8.6332976812
 Li         5.5978120197        6.3678652144        5.3667023235
