       2
 i =        1, E =      -117.8608929043
 Ru         6.5001217769        6.5000724523        5.5478877314
  F         6.4998757553        6.4999304112        7.4552218266
       2
 i =        2, E =      -117.8609111749
 Ru         6.5002014702        6.5001384828        5.5573894093
  F         6.5001268463        6.5000813384        7.4634071825
       2
 i =        3, E =      -117.8609134416
 Ru         6.5002066879        6.5001416650        5.5592396192
  F         6.5000853830        6.5000576396        7.4629594253
       2
 i =        4, E =      -117.8609134509
 Ru         6.5002075353        6.5001358629        5.5593313964
  F         6.4999793697        6.4999980536        7.4630173070
       2
 i =        5, E =      -117.8609134529
 Ru         6.5002075273        6.5001359208        5.5593306607
  F         6.4999804185        6.4999986431        7.4630166786
