       4
 i =        1, E =       -48.4207397613
 Sc         7.4534719534        7.0000005243        7.0000001492
  H         8.3596065904        5.4303429703        6.9999999529
  H         8.3596063306        8.5696564638        6.9999999487
  H         5.6409095959        7.0000000415        6.9999999492
       4
 i =        2, E =       -48.4207397613
 Sc         7.4534719534        7.0000005243        7.0000001492
  H         8.3596065904        5.4303429703        6.9999999529
  H         8.3596063306        8.5696564638        6.9999999487
  H         5.6409095959        7.0000000415        6.9999999492
