       3
 i =        1, E =       -77.8204476091
 Ti         7.0000000087        7.0000001593        7.5699853010
  S         5.2776994611        6.9999999286        6.4225202871
  S         8.7223005302        6.9999999122        6.4225202878
       3
 i =        2, E =       -77.8204720332
 Ti         6.9999999791        7.0000001621        7.5744989224
  S         5.2766066371        6.9999999276        6.4202845731
  S         8.7233933838        6.9999999112        6.4202845476
       3
 i =        3, E =       -77.8204721472
 Ti         7.0000000691        7.0000001619        7.5747075637
  S         5.2769474618        6.9999999281        6.4202197091
  S         8.7230524690        6.9999999118        6.4202197672
       3
 i =        4, E =       -77.8204721473
 Ti         7.0000000691        7.0000001619        7.5747075637
  S         5.2769474618        6.9999999281        6.4202197091
  S         8.7230524690        6.9999999118        6.4202197672
