       6
 i =        1, E =      -127.9965335599
 Xe         6.9999998228        6.9999998624        6.1603047460
  O         7.0000003032        7.0000002447        7.9303246203
  F         8.3729834205        5.6270165710        6.0487765857
  F         8.3729834020        8.3729833765        6.0487766432
  F         5.6270165381        8.3729834608        6.0487765757
  F         5.6270165102        5.6270164812        6.0487765237
       6
 i =        2, E =      -127.9969271230
 Xe         7.0000001040        7.0000001222        6.1466477040
  O         7.0000001908        7.0000001513        7.9064343444
  F         8.3747842331        5.6252156145        6.0418266947
  F         8.3747842837        8.3747842428        6.0418265976
  F         5.6252155700        8.3747842925        6.0418267220
  F         5.6252156092        5.6252155626        6.0418268254
       6
 i =        3, E =      -127.9970792544
 Xe         6.9999993472        6.9999992217        6.1196041744
  O         7.0000006938        7.0000006392        7.8746292334
  F         8.3780211282        5.6219787512        6.0332682886
  F         8.3780211337        8.3780213530        6.0332685627
  F         5.6219785537        8.3780210253        6.0332683021
  F         5.6219786361        5.6219785024        6.0332680443
       6
 i =        4, E =      -127.9970892101
 Xe         7.0000004028        7.0000004594        6.1228480834
  O         7.0000002360        7.0000001271        7.8794503635
  F         8.3774787771        5.6225205101        6.0367447172
  F         8.3774790010        8.3774792908        6.0367441076
  F         5.6225202212        8.3774785964        6.0367446886
  F         5.6225208337        5.6225205866        6.0367452814
       6
 i =        5, E =      -127.9970872575
 Xe         7.0000001873        6.9999999358        6.1248375812
  O         7.0000005392        7.0000004394        7.8818195387
  F         8.3771044799        5.6228941167        6.0355709117
  F         8.3771045426        8.3771056683        6.0355711372
  F         5.6228940276        8.3771036676        6.0355708970
  F         5.6228949947        5.6228951240        6.0355705883
       6
 i =        6, E =      -127.9970894706
 Xe         7.0000001362        6.9999998415        6.1235734975
  O         7.0000007006        7.0000004666        7.8802960046
  F         8.3772836748        5.6227142492        6.0356274812
  F         8.3772837293        8.3772854799        6.0356273923
  F         5.6227139542        8.3772824698        6.0356274156
  F         5.6227155358        5.6227156543        6.0356275376
       6
 i =        7, E =      -127.9970894706
 Xe         7.0000001362        6.9999998415        6.1235734975
  O         7.0000007006        7.0000004666        7.8802960046
  F         8.3772836748        5.6227142492        6.0356274812
  F         8.3772837293        8.3772854799        6.0356273923
  F         5.6227139542        8.3772824698        6.0356274156
  F         5.6227155358        5.6227156543        6.0356275376
