       3
 i =        1, E =       -91.2730952983
 Zn         7.4999999920        7.4999999894        7.4999999901
 Cl         7.4999999990        7.5000000010        9.5771082256
 Cl         7.5000000090        7.5000000096        5.4228917843
       3
 i =        2, E =       -91.2731238441
 Zn         7.4999999939        7.4999999916        7.5000000181
 Cl         7.4999999976        7.4999999993        9.5699401072
 Cl         7.5000000075        7.5000000078        5.4300598736
       3
 i =        3, E =       -91.2731239607
 Zn         7.4999999947        7.4999999927        7.4999997656
 Cl         7.4999999968        7.4999999983        9.5704543116
 Cl         7.5000000068        7.5000000068        5.4295459233
       3
 i =        4, E =       -91.2731239607
 Zn         7.4999999947        7.4999999927        7.4999997656
 Cl         7.4999999968        7.4999999983        9.5704543116
 Cl         7.5000000068        7.5000000068        5.4295459233
