       2
 i =        1, E =       -35.5965917017
 Ba         7.0000000100        6.9999999927        5.7306193979
  S         6.9999999898        7.0000000070        8.2691804811
       2
 i =        2, E =       -35.5966972940
 Ba         7.0000000098        6.9999999933        5.7201649970
  S         6.9999999897        7.0000000071        8.2796826139
       2
 i =        3, E =       -35.5966973558
 Ba         7.0000000089        6.9999999943        5.7204564305
  S         6.9999999897        7.0000000071        8.2794894583
       2
 i =        4, E =       -35.5966973558
 Ba         7.0000000089        6.9999999943        5.7204564305
  S         6.9999999897        7.0000000071        8.2794894583
