       5
 i =        1, E =       -77.2648909265
 Br         6.5000000765        6.4999998427        6.4999999779
  O         7.4566886701        5.5433113865        7.4566887960
  O         5.5433114422        7.4566886485        7.4566885171
  O         5.5433112133        5.5433114508        5.5433113465
  O         7.4566885813        7.4566886797        5.5433113680
       5
 i =        2, E =       -77.2649129636
 Br         6.4999998376        6.5000003076        6.5000000482
  O         7.4583411048        5.5416587109        7.4583408725
  O         5.5416586097        7.4583412597        7.4583415153
  O         5.5416590963        5.5416585537        5.5416588657
  O         7.4583414607        7.4583409705        5.5416586671
       5
 i =        3, E =       -77.2649129641
 Br         6.5000004052        6.4999994948        6.4999998930
  O         7.4583331821        5.5416669319        7.4583336082
  O         5.5416671590        7.4583329485        7.4583325969
  O         5.5416664637        5.5416672521        5.5416668944
  O         7.4583327237        7.4583335017        5.5416670297
       5
 i =        4, E =       -77.2649129641
 Br         6.5000004052        6.4999994948        6.4999998930
  O         7.4583331821        5.5416669319        7.4583336082
  O         5.5416671590        7.4583329485        7.4583325969
  O         5.5416664637        5.5416672521        5.5416668944
  O         7.4583327237        7.4583335017        5.5416670297
