       9
 i =        1, E =       -60.9259610976
 Cd         8.0261523291        7.9414602839        7.9913632972
  C         8.0355614914        7.9420577152       10.1353069916
  C         8.0345220733        7.9423086328        5.8475381441
  H         8.5819058127        8.8197770605       10.5062740844
  H         8.5299618084        7.0350894280       10.5088534461
  H         7.0115097430        7.9718534785       10.5319221445
  H         7.2216369818        7.3101871150        5.4651349388
  H         8.9900974949        7.5541187863        5.4697103083
  H         7.8949844297        8.9638536957        5.4685808032
       9
 i =        2, E =       -60.9260615848
 Cd         8.0259762053        7.9412482320        7.9919350128
  C         8.0359972988        7.9420154653       10.1385407906
  C         8.0342319275        7.9421957680        5.8452846376
  H         8.5792541649        8.8147178483       10.5101926524
  H         8.5267045999        7.0402460201       10.5136240017
  H         7.0162120571        7.9720565002       10.5307941201
  H         7.2261200739        7.3134925491        5.4626893959
  H         8.9848906189        7.5559167902        5.4683536319
  H         7.8960922540        8.9581318297        5.4664134238
       9
 i =        3, E =       -60.9260691418
 Cd         8.0265577482        7.9410535327        7.9920652640
  C         8.0363252908        7.9420226977       10.1413620441
  C         8.0341371011        7.9420399670        5.8428097729
  H         8.5794807332        8.8155927098       10.5121541222
  H         8.5269323401        7.0394545370       10.5155931674
  H         7.0149983809        7.9724665282       10.5305641899
  H         7.2253824727        7.3127905214        5.4615859476
  H         8.9858056071        7.5552612231        5.4679890693
  H         7.8960641216        8.9588969652        5.4654880845
       9
 i =        4, E =       -60.9260746807
 Cd         8.0277121163        7.9407744638        7.9923894845
  C         8.0367782524        7.9421249471       10.1429448631
  C         8.0340588227        7.9416936662        5.8418143396
  H         8.5791112481        8.8158046864       10.5157560635
  H         8.5264726409        7.0394511700       10.5192061917
  H         7.0144904623        7.9729459895       10.5305574441
  H         7.2253376164        7.3124702567        5.4595509861
  H         8.9859833548        7.5547119039        5.4669425369
  H         7.8963381036        8.9586559397        5.4637238296
       9
 i =        5, E =       -60.9260777842
 Cd         8.0295972109        7.9404684734        7.9929967536
  C         8.0372361613        7.9423713203       10.1445040767
  C         8.0342146403        7.9410672706        5.8414768299
  H         8.5784456200        8.8156594599       10.5202773048
  H         8.5255546675        7.0399239634       10.5235805296
  H         7.0141274812        7.9734118678       10.5302764564
  H         7.2258177336        7.3122512635        5.4574565372
  H         8.9858187032        7.5540156594        5.4656221719
  H         7.8969932687        8.9576565294        5.4618605710
       9
 i =        6, E =       -60.9260784636
 Cd         8.0305477081        7.9404154340        7.9932933300
  C         8.0372895670        7.9425066607       10.1447940452
  C         8.0345805111        7.9407030677        5.8417722312
  H         8.5781288346        8.8156048109       10.5214179017
  H         8.5250936754        7.0401028495       10.5245117113
  H         7.0139677212        7.9735134104       10.5299250051
  H         7.2261175270        7.3120847899        5.4575745626
  H         8.9859034810        7.5535782227        5.4654021668
  H         7.8974039761        8.9571545092        5.4618258846
       9
 i =        7, E =       -60.9260784636
 Cd         8.0305477081        7.9404154340        7.9932933300
  C         8.0372895670        7.9425066607       10.1447940452
  C         8.0345805111        7.9407030677        5.8417722312
  H         8.5781288346        8.8156048109       10.5214179017
  H         8.5250936754        7.0401028495       10.5245117113
  H         7.0139677212        7.9735134104       10.5299250051
  H         7.2261175270        7.3120847899        5.4575745626
  H         8.9859034810        7.5535782227        5.4654021668
  H         7.8974039761        8.9571545092        5.4618258846
