       2
 i =        1, E =       -21.6672819704
  C         5.9999999465        6.0000000562        5.4326789875
  O         6.0000000566        5.9999999443        6.5686550198
       2
 i =        2, E =       -21.6672827216
  C         5.9999999467        6.0000000562        5.4324359845
  O         6.0000000190        5.9999999800        6.5679042255
       2
 i =        3, E =       -21.6672827216
  C         5.9999999467        6.0000000562        5.4324359845
  O         6.0000000190        5.9999999800        6.5679042255
