       2
 i =        1, E =       -44.3955774964
  F         7.0000000808        7.0000003390        5.8345207134
 Cs         6.9999999992        6.9999999992        8.1947399538
       2
 i =        2, E =       -44.3956921084
  F         7.0000020351        7.0000034953        5.9117547384
 Cs         6.9999999942        6.9999999879        8.2711183663
       2
 i =        3, E =       -44.3958091579
  F         7.0000062870        7.0000109088        5.9131043732
 Cs         6.9999999803        6.9999999636        8.2996866153
       2
 i =        4, E =       -44.3958121245
  F         7.0000109842        7.0000189956        5.9110938713
 Cs         6.9999999793        6.9999999619        8.2986877291
       2
 i =        5, E =       -44.3961162888
  F         7.0204418629        7.0355716536        5.9106992675
 Cs         6.9999954180        6.9999922488        8.2946888475
       2
 i =        6, E =       -44.3961716551
  F         7.0304855253        7.0303792639        5.9099160466
 Cs         6.9999834946        6.9999719728        8.2959311785
       2
 i =        7, E =       -44.3961725791
  F         7.0312682921        7.0310549028        5.9107894688
 Cs         6.9999780722        6.9999663868        8.2963117011
       2
 i =        8, E =       -44.3961729003
  F         7.0311492323        7.0314476960        5.9107448495
 Cs         6.9999608093        6.9999491987        8.2975056467
       2
 i =        9, E =       -44.3961729003
  F         7.0311480976        7.0314517385        5.9107444868
 Cs         6.9999606344        6.9999490245        8.2975177485
