       5
 i =        1, E =        -6.3217308480
 Ge         6.5000000008        6.5000000015        6.4999999983
  H         7.3697401396        5.6302598582        7.3697401404
  H         5.6302598590        7.3697401398        7.3697401437
  H         5.6302598583        5.6302598585        5.6302598591
  H         7.3697401423        7.3697401421        5.6302598586
       5
 i =        2, E =        -6.3219505133
 Ge         6.4999999998        6.4999999999        6.5000000002
  H         7.3609964315        5.6390035677        7.3609964307
  H         5.6390035688        7.3609964312        7.3609964329
  H         5.6390035681        5.6390035690        5.6390035678
  H         7.3609964318        7.3609964322        5.6390035685
       5
 i =        3, E =        -6.3219560232
 Ge         6.5000000000        6.5000000001        6.4999999999
  H         7.3622179753        5.6377820238        7.3622179745
  H         5.6377820250        7.3622179749        7.3622179766
  H         5.6377820242        5.6377820253        5.6377820241
  H         7.3622179755        7.3622179760        5.6377820248
       5
 i =        4, E =        -6.3219560364
 Ge         6.5000000000        6.5000000000        6.5000000000
  H         7.3621613804        5.6378386187        7.3621613795
  H         5.6378386201        7.3621613799        7.3621613815
  H         5.6378386192        5.6378386204        5.6378386191
  H         7.3621613804        7.3621613809        5.6378386199
       5
 i =        5, E =        -6.3219560364
 Ge         6.5000000000        6.5000000000        6.5000000000
  H         7.3621613804        5.6378386187        7.3621613795
  H         5.6378386201        7.3621613799        7.3621613815
  H         5.6378386192        5.6378386204        5.6378386191
  H         7.3621613804        7.3621613809        5.6378386199
