       3
 i =        1, E =       -12.7812841160
  P         7.0000000026        6.9999999863        5.6872045586
  H         6.9999999999        6.9999999909        8.3123122723
  C         6.9999999974        7.0000000228        7.2330120716
       3
 i =        2, E =       -12.7813733720
  P         7.0000000014        6.9999999977        5.6945892862
  H         6.9999999984        7.0000000059        8.3056966012
  C         7.0000000002        6.9999999976        7.2320723759
       3
 i =        3, E =       -12.7813743677
  P         7.0000000015        6.9999999966        5.6943198341
  H         6.9999999986        7.0000000043        8.3062196151
  C         6.9999999999        7.0000000001        7.2316709865
       3
 i =        4, E =       -12.7813743677
  P         7.0000000015        6.9999999966        5.6943198341
  H         6.9999999986        7.0000000043        8.3062196151
  C         6.9999999999        7.0000000001        7.2316709865
