       3
 i =        1, E =       -81.4751789812
 Hf         6.9999999801        6.9999999049        7.4938228691
  O         8.4327270914        7.0000001518        6.4911278746
  O         5.5672729232        6.9999999524        6.4911278127
       3
 i =        2, E =       -81.4762163420
 Hf         6.9999999052        6.9999998942        7.5141515231
  O         8.4004473464        7.0000002698        6.4720928315
  O         5.5995527524        6.9999999196        6.4720928029
       3
 i =        3, E =       -81.4762210440
 Hf         6.9999999551        6.9999999051        7.5206573596
  O         8.3895378642        7.0000005716        6.4673517837
  O         5.6104620697        6.9999998421        6.4673518241
       3
 i =        4, E =       -81.4762430277
 Hf         6.9999999584        6.9999999124        7.5199399010
  O         8.3941990816        7.0000007908        6.4705183673
  O         5.6058008756        6.9999997806        6.4705183794
       3
 i =        5, E =       -81.4762436481
 Hf         6.9999999744        6.9999999036        7.5209008527
  O         8.3943604317        7.0000014719        6.4714194157
  O         5.6056395262        6.9999995919        6.4714194039
       3
 i =        6, E =       -81.4762436481
 Hf         6.9999999744        6.9999999036        7.5209008527
  O         8.3943604317        7.0000014719        6.4714194157
  O         5.6056395262        6.9999995919        6.4714194039
