       4
 i =        1, E =       -39.5520489073
  N         6.5161115788        6.5161102223        6.5161062927
  N         5.4839033034        6.5160879477        5.4838977320
  N         5.4838877485        5.4838863704        6.5160994776
  N         6.5160940712        5.4838971953        5.4838931562
       4
 i =        2, E =       -39.5520800570
  N         6.5173368783        6.5173339848        6.5173368445
  N         5.4826620949        6.5173336113        5.4826619698
  N         5.4826617917        5.4826588870        6.5173366877
  N         6.5173366619        5.4826590570        5.4826619641
       4
 i =        3, E =       -39.5520800670
  N         6.5173592031        6.5173565128        6.5173592653
  N         5.4826395883        6.5173565316        5.4826395560
  N         5.4826395612        5.4826368605        6.5173592315
  N         6.5173592897        5.4826368415        5.4826396271
       4
 i =        4, E =       -39.5520800670
  N         6.5173592031        6.5173565128        6.5173592653
  N         5.4826395883        6.5173565316        5.4826395560
  N         5.4826395612        5.4826368605        6.5173592315
  N         6.5173592897        5.4826368415        5.4826396271
