       2
 i =        1, E =       -13.1053377035
  P         6.4999999960        6.5000000068        7.4468550035
  P         6.5000000040        6.4999999932        5.5531449965
       2
 i =        2, E =       -13.1053378782
  P         6.4999999959        6.5000000068        7.4471268794
  P         6.5000000041        6.4999999932        5.5528731206
       2
 i =        3, E =       -13.1053378782
  P         6.4999999959        6.5000000068        7.4471268794
  P         6.5000000041        6.4999999932        5.5528731206
