       9
 i =        1, E =      -206.3031241566
 Pt         7.5000000151        7.4999999845        7.4999998921
  C         8.6439440199        6.3560559847        8.6439440100
  C         6.3560559205        8.6439440789        8.6439440243
  C         6.3560560858        6.3560560725        6.3560560872
  C         8.6439439819        8.6439439740        6.3560559659
  O         9.3078797975        5.6921201564        9.3078798461
  O         5.6921201766        9.3078797786        9.3078797512
  O         5.6921202158        5.6921201773        5.6921202121
  O         9.3078797781        9.3078797861        5.6921202110
       9
 i =        2, E =      -206.3031323504
 Pt         7.5000000336        7.4999999913        7.4999999763
  C         8.6449936115        6.3550064318        8.6449936378
  C         6.3550064008        8.6449936417        8.6449935771
  C         6.3550063657        6.3550063933        6.3550063915
  C         8.6449935938        8.6449936357        6.3550063925
  O         9.3091318713        5.6908680904        9.3091318807
  O         5.6908681109        9.3091318580        9.3091318239
  O         5.6908681999        5.6908681668        5.6908681784
  O         9.3091318354        9.3091318216        5.6908681496
       9
 i =        3, E =      -206.3031325100
 Pt         7.4999999627        7.4999998778        7.4999997894
  C         8.6451812868        6.3548187187        8.6451812922
  C         6.3548186725        8.6451813337        8.6451813021
  C         6.3548189271        6.3548189069        6.3548189262
  C         8.6451812147        8.6451812066        6.3548187746
  O         9.3093152159        5.6906847931        9.3093151989
  O         5.6906847583        9.3093151981        9.3093151836
  O         5.6906847607        5.6906847583        5.6906847420
  O         9.3093152186        9.3093152422        5.6906847589
       9
 i =        4, E =      -206.3031325100
 Pt         7.4999999627        7.4999998778        7.4999997894
  C         8.6451812868        6.3548187187        8.6451812922
  C         6.3548186725        8.6451813337        8.6451813021
  C         6.3548189271        6.3548189069        6.3548189262
  C         8.6451812147        8.6451812066        6.3548187746
  O         9.3093152159        5.6906847931        9.3093151989
  O         5.6906847583        9.3093151981        9.3093151836
  O         5.6906847607        5.6906847583        5.6906847420
  O         9.3093152186        9.3093152422        5.6906847589
