       2
 i =        1, E =      -123.2878051930
 Rh         6.4999997625        6.5000087276        5.6277354714
  O         6.5000002535        6.4999912872        7.3676819471
       2
 i =        2, E =      -123.2878643298
 Rh         6.4999791088        6.5002910120        5.6225661558
  O         6.5000203128        6.4997166042        7.3680490130
       2
 i =        3, E =      -123.2878532225
 Rh         6.5000681057        6.5002194085        5.6204486364
  O         6.4999118050        6.5000909634        7.3666316644
       2
 i =        4, E =      -123.2878005488
 Rh         6.5015559060        6.4995453150        5.5758777037
  O         6.4984889997        6.5052620090        7.3325415758
       2
 i =        5, E =      -123.2879614904
 Rh         6.5004668130        6.4999189697        5.6122277500
  O         6.4996290274        6.5010177020        7.3598774822
       2
 i =        6, E =      -123.2878770483
 Rh         6.5010299947        6.4993535609        5.6043890822
  O         6.4992995166        6.5017747517        7.3530888856
       2
 i =        7, E =      -123.2878097708
 Rh         6.5055829645        6.4931334113        5.5464101311
  O         6.4981793232        6.5058681560        7.3005401818
       2
 i =        8, E =      -123.2877254826
 Rh         6.5143749512        6.4812682687        5.4455417706
  O         6.4959490638        6.5117237836        7.2055458412
       2
 i =        9, E =      -123.2878370521
 Rh         6.5089880357        6.4885507598        5.5148159903
  O         6.4977505927        6.5063751845        7.2684720362
       2
 i =       10, E =      -123.2877525106
 Rh         6.4884971929        6.5159488184        5.7648159903
  O         6.5044034535        6.4842420985        7.5001053107
       2
 i =       11, E =      -123.2877800496
 Rh         6.4847441674        6.5215229612        5.7958098582
  O         6.5041260766        6.4847964796        7.5312161792
       2
 i =       12, E =      -123.2879012195
 Rh         6.4831258045        6.5254559414        5.7700264573
  O         6.5005366348        6.4958909138        7.5144040822
       2
 i =       13, E =      -123.2878093232
 Rh         6.4795078282        6.5317418204        5.7811032285
  O         6.4989559493        6.5033510316        7.5298616983
       2
 i =       14, E =      -123.2891841485
 Rh         6.4819699755        6.5283749129        5.7767614291
  O         6.4996482808        6.4992128818        7.5228818727
       2
 i =       15, E =      -123.2879176789
 Rh         6.4803159092        6.5278391494        5.7764964213
  O         6.5021663300        6.4995390377        7.5221983171
       2
 i =       16, E =      -123.2878996009
 Rh         6.4800863721        6.5283376109        5.7769827158
  O         6.5007415135        6.5002387553        7.5230700127
       2
 i =       17, E =      -123.2878987706
 Rh         6.4800799409        6.5281162384        5.7775501705
  O         6.4999662869        6.5000233575        7.5233235404
       2
 i =       18, E =      -123.2879007377
 Rh         6.4800799409        6.5281162384        5.7775501705
  O         6.4999662869        6.5000233575        7.5233235404
