       5
 i =        1, E =      -101.0993981860
 Si         6.5000000607        6.4999999656        6.5000000324
  F         7.4122373492        5.5877626873        7.4122376160
  F         5.5877626602        7.4122373678        7.4122373464
  F         5.5877626918        5.5877626601        5.5877625535
  F         7.4122374121        7.4122374396        5.5877627000
       5
 i =        2, E =      -101.1002746548
 Si         6.4999999167        6.4999998341        6.5000000471
  F         7.3961506842        5.6038504471        7.3961501397
  F         5.6038501679        7.3961498682        7.3961504365
  F         5.6038500653        5.6038494928        5.6038499442
  F         7.3961498547        7.3961498413        5.6038498345
       5
 i =        3, E =      -101.1008086071
 Si         6.5000001444        6.5000000686        6.5000000734
  F         7.4024428461        5.5975565261        7.4024432063
  F         5.5975566989        7.4024431332        7.4024429021
  F         5.5975568261        5.5975570654        5.5975570326
  F         7.4024431966        7.4024432415        5.5975569216
       5
 i =        4, E =      -101.1008093270
 Si         6.4999997076        6.4999999202        6.4999998950
  F         7.4022139459        5.5977874807        7.4022132840
  F         5.5977871273        7.4022134578        7.4022138538
  F         5.5977867641        5.5977862998        5.5977862838
  F         7.4022131782        7.4022133143        5.5977867375
       5
 i =        5, E =      -101.1008093270
 Si         6.4999997076        6.4999999202        6.4999998950
  F         7.4022139459        5.5977874807        7.4022132840
  F         5.5977871273        7.4022134578        7.4022138538
  F         5.5977867641        5.5977862998        5.5977862838
  F         7.4022131782        7.4022133143        5.5977867375
