       4
 i =        1, E =       -76.2415160503
 Sn         7.4659373325        6.9999998801        7.3010396523
  F         8.3026306692        5.4457431298        6.6309982351
  F         8.3026306223        8.5542568850        6.6309983149
  F         5.7125677989        7.0000000969        6.6237705105
       4
 i =        2, E =       -76.2427297168
 Sn         7.4656167795        6.9999999035        7.3069727983
  F         8.2631017086        5.4947888410        6.6513710306
  F         8.2631014772        8.5052112499        6.6513715509
  F         5.7920069438        7.0000005516        6.6045117714
       4
 i =        3, E =       -76.2441573489
 Sn         7.4640497976        6.9999999808        7.3166495659
  F         8.2891739810        5.4761743892        6.6535243769
  F         8.2891738078        8.5238256495        6.6535242591
  F         5.7622550070        7.0000011140        6.5928404317
       4
 i =        4, E =       -76.2443394011
 Sn         7.4606809698        7.0000000519        7.3322384007
  F         8.2772170515        5.4787363870        6.6590291061
  F         8.2772170996        8.5212636257        6.6590291159
  F         5.7659901348        7.0000038611        6.5939806724
       4
 i =        5, E =       -76.2443825782
 Sn         7.4627279956        7.0000003495        7.3421076844
  F         8.2758923193        5.4820279743        6.6553021178
  F         8.2758929022        8.5179721705        6.6553022389
  F         5.7756547419        7.0000154337        6.5966611367
       4
 i =        6, E =       -76.2443402129
 Sn         7.4682442886        7.0000013117        7.3494670872
  F         8.2787192134        5.4819888122        6.6592230625
  F         8.2787209083        8.5180118951        6.6592233855
  F         5.7905747883        7.0000558769        6.5941912783
       4
 i =        7, E =       -76.2444051378
 Sn         7.4662410664        7.0000020511        7.3416606484
  F         8.2792678271        5.4793996473        6.6590603370
  F         8.2792705915        8.5206014127        6.6590608780
  F         5.7788484230        7.0000860351        6.5964928977
       4
 i =        8, E =       -76.2444023984
 Sn         7.4671711983        7.0000062886        7.3416922290
  F         8.2769205892        5.4793242657        6.6565355389
  F         8.2769292812        8.5206785704        6.6565369639
  F         5.7798696080        7.0002633831        6.5927073452
       4
 i =        9, E =       -76.2444108551
 Sn         7.4681707366        7.0000133458        7.3424722361
  F         8.2782148822        5.4796188729        6.6576273819
  F         8.2782321954        8.5203876765        6.6576302895
  F         5.7809470540        7.0005549254        6.5957850993
       4
 i =       10, E =       -76.2444120416
 Sn         7.4679967821        7.0000428008        7.3421014658
  F         8.2784965170        5.4796523164        6.6579921062
  F         8.2785540385        8.5203680633        6.6580017808
  F         5.7807703746        7.0017573154        6.5952438971
       4
 i =       11, E =       -76.2371501325
 Sn         7.4578143455        7.0101792024        7.3786585974
  F         8.2058643583        5.4631732195        6.5544455425
  F         8.2117614249        8.5359118015        6.5576908623
  F         5.8232738682        7.2517573154        6.7361552418
       4
 i =       12, E =       -76.2431686426
 Sn         7.4398340018        7.0070432291        7.3063088484
  F         8.2886731643        5.4809638457        6.6638729823
  F         8.2958883276        8.5202472924        6.6663683214
  F         5.7717358800        7.2233506360        6.5774060184
       4
 i =       13, E =       -76.2435930104
 Sn         7.4701970183        6.9996269206        7.3299924793
  F         8.2937557370        5.4848018680        6.6793447047
  F         8.2969421800        8.5162347041        6.6797473088
  F         5.7699741284        6.9733506360        6.5629448283
       4
 i =       14, E =       -76.2436442507
 Sn         7.4868826667        6.9951073140        7.3433269008
  F         8.2649950720        5.4749128755        6.6287365614
  F         8.2647280684        8.5219834405        6.6328595611
  F         5.7868730028        6.9419770177        6.6130042864
       4
 i =       15, E =       -76.2442707823
 Sn         7.4710286122        6.9992894445        7.3305521405
  F         8.2795055103        5.4797308631        6.6424838513
  F         8.2833797830        8.5213013807        6.6499727632
  F         5.7802343417        6.9965444851        6.5896857894
       4
 i =       16, E =       -76.2438374452
 Sn         7.4665579683        6.9950443274        7.3331181323
  F         8.2936196938        5.4773332806        6.6731131869
  F         8.2835815721        8.5213861205        6.6739120932
  F         5.7753493565        6.9437678771        6.5703055105
       4
 i =       17, E =       -76.2444035217
 Sn         7.4680088908        6.9970102911        7.3381488687
  F         8.2828293619        5.4791138964        6.6572110873
  F         8.2749290422        8.5199083116        6.6586872443
  F         5.7808024879        6.9942454643        6.5930082198
       4
 i =       18, E =       -76.2444888838
 Sn         7.4716967202        6.9980305915        7.3397867332
  F         8.2756495587        5.4795938317        6.6481161501
  F         8.2805744666        8.5185275510        6.6505513362
  F         5.7821566145        6.9698540780        6.5985729302
       4
 i =       19, E =       -76.2445673903
 Sn         7.4686035715        6.9976647170        7.3406242265
  F         8.2799663897        5.4789827954        6.6579504907
  F         8.2788325665        8.5198955830        6.6572815523
  F         5.7809748799        6.9690847808        6.5928361958
       4
 i =       20, E =       -76.2445541083
 Sn         7.4673549692        6.9976678344        7.3415781417
  F         8.2793938290        5.4787575151        6.6582383319
  F         8.2764150639        8.5201265285        6.6585210313
  F         5.7797531676        6.9759428667        6.5963946655
       4
 i =       21, E =       -76.2445652860
 Sn         7.4673597234        6.9968729542        7.3421016258
  F         8.2801438029        5.4791505792        6.6569543100
  F         8.2748625654        8.5198028155        6.6580836647
  F         5.7794166298        6.9679264828        6.5974131667
       4
 i =       22, E =       -76.2445654511
 Sn         7.4673827803        6.9981440794        7.3411367697
  F         8.2777930193        5.4783859339        6.6586721012
  F         8.2802746302        8.5191820138        6.6574851065
  F         5.7800766480        6.9691360904        6.5936262389
       4
 i =       23, E =       -76.2445729012
 Sn         7.4674194976        6.9976769465        7.3416268413
  F         8.2795290940        5.4791851383        6.6577911637
  F         8.2774110629        8.5198146664        6.6576891490
  F         5.7798343494        6.9704793296        6.5953095748
       4
 i =       24, E =       -76.2445730891
 Sn         7.4673007563        6.9975290490        7.3416884009
  F         8.2791866156        5.4788046376        6.6578249117
  F         8.2772815127        8.5196654512        6.6579569574
  F         5.7797271736        6.9697882881        6.5955522791
       4
 i =       25, E =       -76.2445730891
 Sn         7.4673007563        6.9975290490        7.3416884009
  F         8.2791866156        5.4788046376        6.6578249117
  F         8.2772815127        8.5196654512        6.6579569574
  F         5.7797271736        6.9697882881        6.5955522791
