       2
 i =        1, E =       -40.8107110096
 Sr         6.5000000530        6.4999999846        5.2949454637
  S         6.4999999743        6.4999999935        7.7045563626
       2
 i =        2, E =       -40.8108066576
 Sr         6.5000000761        6.4999999787        5.2849443223
  S         6.4999999740        6.4999999936        7.7144513335
       2
 i =        3, E =       -40.8108068526
 Sr         6.5000002436        6.5000000107        5.2850306234
  S         6.4999999742        6.4999999933        7.7138219400
       2
 i =        4, E =       -40.8108068526
 Sr         6.5000002436        6.5000000107        5.2850306234
  S         6.4999999742        6.4999999933        7.7138219400
