       5
 i =        1, E =      -151.9630896025
 Tc         7.4017011837        6.9999999844        6.3473241497
  F         7.4142831909        6.9999999244        8.2001258553
  O         8.2079629345        5.6088430274        5.7896835538
  O         8.2079629403        8.3911569743        5.7896835619
  O         5.7942247479        7.0000000010        5.7890187422
       5
 i =        2, E =      -151.9632686649
 Tc         7.4039910854        6.9999999862        6.3563240474
  F         7.3992397180        6.9999996765        8.2104294434
  O         8.2064770675        5.6113148908        5.7862873058
  O         8.2064770749        8.3886851071        5.7862873162
  O         5.7998617545        6.9999999981        5.7871633904
       5
 i =        3, E =      -151.9632439472
 Tc         7.4049601028        6.9999999709        6.3635518627
  F         7.4096876723        6.9999991250        8.2190266871
  O         8.2061976039        5.6133249660        5.7848557171
  O         8.2061976188        8.3866750285        5.7848557689
  O         5.8038657566        6.9999999832        5.7840397355
       5
 i =        4, E =      -151.9632928258
 Tc         7.4057855320        6.9999999597        6.3591667923
  F         7.4046205506        6.9999983500        8.2132201722
  O         8.2078434005        5.6116413060        5.7868943046
  O         8.2078434747        8.3883587233        5.7868943713
  O         5.8027185239        6.9999999347        5.7864759845
       5
 i =        5, E =      -151.9632934339
 Tc         7.4066760654        6.9999997293        6.3592996653
  F         7.4045319110        6.9999951676        8.2132031791
  O         8.2082560980        5.6113747484        5.7869743558
  O         8.2082558548        8.3886250692        5.7869748041
  O         5.8036884261        6.9999999826        5.7864738137
       5
 i =        6, E =      -151.9632934339
 Tc         7.4066760654        6.9999997293        6.3592996653
  F         7.4045319110        6.9999951676        8.2132031791
  O         8.2082560980        5.6113747484        5.7869743558
  O         8.2082558548        8.3886250692        5.7869748041
  O         5.8036884261        6.9999999826        5.7864738137
