       4
 i =        1, E =       -94.9804477703
 Tl         6.9017249079        7.4999999049        7.4966261027
 Cl         5.7028992721        9.5762641261        7.5045233517
 Cl         5.7028993048        5.4237359555        7.5045233471
 Cl         9.2993308611        7.5000000134        7.5045231797
       4
 i =        2, E =       -94.9804489697
 Tl         6.9017693999        7.4999999887        7.4978754062
 Cl         5.7032009565        9.5756158751        7.5041088829
 Cl         5.7032009343        5.4243841191        7.5041088781
 Cl         9.2986674611        7.5000000173        7.5041084722
       4
 i =        3, E =       -94.9804489697
 Tl         6.9017693999        7.4999999887        7.4978754062
 Cl         5.7032009565        9.5756158751        7.5041088829
 Cl         5.7032009343        5.4243841191        7.5041088781
 Cl         9.2986674611        7.5000000173        7.5041084722
