       2
 i =        1, E =       -50.4948785778
 Tl         6.5000000031        6.4999999941        5.5344650696
  H         6.4999999942        6.5000000076        7.4618176260
       2
 i =        2, E =       -50.4948821670
 Tl         6.5000000038        6.4999999926        5.5329117649
  H         6.4999999889        6.5000000146        7.4590795803
       2
 i =        3, E =       -50.4948886078
 Tl         6.5000000079        6.4999999850        5.5202843007
  H         6.4999999525        6.5000000627        7.4451701814
       2
 i =        4, E =       -50.4948894732
 Tl         6.5000000086        6.4999999840        5.5175134675
  H         6.4999999471        6.5000000698        7.4440340017
       2
 i =        5, E =       -50.4948897242
 Tl         6.5000000093        6.4999999825        5.5146151941
  H         6.4999999399        6.5000000793        7.4422649593
       2
 i =        6, E =       -50.4948897682
 Tl         6.5000000093        6.4999999824        5.5134885313
  H         6.4999999362        6.5000000842        7.4412243444
       2
 i =        7, E =       -50.4948897682
 Tl         6.5000000093        6.4999999824        5.5134885313
  H         6.4999999362        6.5000000842        7.4412243444
