       2
 i =        1, E =       -65.8693288479
 Tl         6.4999999882        6.4999998949        5.4949933613
  O         6.5000000139        6.5000001031        7.5056769090
       2
 i =        2, E =       -65.8697147501
 Tl         6.5000000000        6.4999998714        5.4842156051
  O         6.4999999813        6.4999999689        7.5237817486
       2
 i =        3, E =       -65.8697327245
 Tl         6.5000000017        6.4999998677        5.4803363798
  O         6.5000000100        6.5000000151        7.5274044316
       2
 i =        4, E =       -65.8697341931
 Tl         6.4999999991        6.4999998706        5.4784099231
  O         6.5000000005        6.4999999925        7.5263318290
       2
 i =        5, E =       -65.8697357019
 Tl         6.4999999856        6.4999998853        5.4739537555
  O         6.5000000103        6.4999999985        7.5228770073
       2
 i =        6, E =       -65.8697357159
 Tl         6.4999999822        6.4999998897        5.4742583665
  O         6.5000000003        6.4999999939        7.5229806458
       2
 i =        7, E =       -65.8697357159
 Tl         6.4999999822        6.4999998897        5.4742583665
  O         6.5000000003        6.4999999939        7.5229806458
