      13
 i =        1, E =      -198.1385338322
  W         8.5000000092        8.5000000470        8.5000000582
  C         8.4999999439       10.5568845376        8.4999999443
  C         8.4999999360        8.5000000277       10.5568845119
  C        10.5568844625        8.5000000051        8.5000000927
  C         8.5000000170        8.4999999386        6.4431154148
  C         6.4431154546        8.5000000220        8.5000000519
  C         8.4999999401        6.4431155085        8.5000000425
  O         8.5000000260       11.7102936795        8.5000000757
  O         8.5000000376        8.4999999796       11.7102936907
  O        11.7102938318        8.5000000380        8.4999999525
  O         8.4999999625        8.5000000427        5.2897061785
  O         5.2897063491        8.5000000006        8.4999999915
  O         8.5000000285        5.2897061759        8.4999999990
      13
 i =        2, E =      -198.1386183222
  W         8.4999998865        8.4999998592        8.4999998978
  C         8.5000001297       10.5515336849        8.5000000682
  C         8.5000000991        8.5000000912       10.5515337210
  C        10.5515338010        8.5000000819        8.5000000124
  C         8.5000000939        8.5000000732        6.4484662527
  C         6.4484663417        8.5000000703        8.4999999962
  C         8.5000001232        6.4484662138        8.5000000794
  O         8.4999999874       11.7034703981        8.4999999765
  O         8.4999999972        8.4999999898       11.7034704041
  O        11.7034703089        8.5000000008        8.5000000330
  O         8.5000000153        8.4999999715        5.2965294310
  O         5.2965293368        8.5000000007        8.5000000260
  O         8.4999999878        5.2965294235        8.4999999993
      13
 i =        3, E =      -198.1386184925
  W         8.5000002111        8.5000001509        8.5000000546
  C         8.4999999658       10.5513923265        8.4999999116
  C         8.4999999773        8.4999998766       10.5513923402
  C        10.5513924384        8.4999998824        8.4999999525
  C         8.4999999848        8.4999998639        6.4486077108
  C         6.4486078074        8.4999998803        8.4999999477
  C         8.4999999674        6.4486076899        8.4999999257
  O         8.5000000968       11.7032120295        8.5000000629
  O         8.5000000826        8.5000000866       11.7032119982
  O        11.7032117682        8.5000000836        8.5000000429
  O         8.5000000856        8.5000000753        5.2967877879
  O         5.2967875591        8.5000000796        8.5000000360
  O         8.5000000948        5.2967878159        8.5000000720
      13
 i =        4, E =      -198.1386184925
  W         8.5000002111        8.5000001509        8.5000000546
  C         8.4999999658       10.5513923265        8.4999999116
  C         8.4999999773        8.4999998766       10.5513923402
  C        10.5513924384        8.4999998824        8.4999999525
  C         8.4999999848        8.4999998639        6.4486077108
  C         6.4486078074        8.4999998803        8.4999999477
  C         8.4999999674        6.4486076899        8.4999999257
  O         8.5000000968       11.7032120295        8.5000000629
  O         8.5000000826        8.5000000866       11.7032119982
  O        11.7032117682        8.5000000836        8.5000000429
  O         8.5000000856        8.5000000753        5.2967877879
  O         5.2967875591        8.5000000796        8.5000000360
  O         8.5000000948        5.2967878159        8.5000000720
