       3
 i =        1, E =       -63.9048669517
 Xe         7.4999999988        7.4999999959        7.5000000666
  F         7.5000000133        7.4999999997        9.5406178830
  F         7.4999998469        7.4999995178        5.4593822942
       3
 i =        2, E =       -63.9049330194
 Xe         7.4999999761        7.4999999180        7.5000002397
  F         7.5000000256        7.4999998909        9.5465534388
  F         7.4999992762        7.4999979051        5.4534470843
       3
 i =        3, E =       -63.8791475116
 Xe         7.4999971591        7.4999908492        7.5000025130
  F         7.4999994028        7.4999966020        9.7965534388
  F         7.4999297718        7.4998417621        5.2034593233
       3
 i =        4, E =       -63.9048952667
 Xe         7.4999984838        7.4999962604        7.5000009517
  F         7.5000000373        7.4999988777        9.5677364734
  F         7.4999673260        7.4999265712        5.4322663726
       3
 i =        5, E =       -63.9043292831
 Xe         7.4999942608        7.4999871387        7.4999963859
  F         7.5000041062        7.5000057135        9.5019255333
  F         7.4999276440        7.4998359371        5.4980623035
       3
 i =        6, E =       -63.9049267671
 Xe         7.4999888967        7.4999744138        7.5000006233
  F         7.5000100790        7.5000145736        9.5460491946
  F         7.4998134317        7.4995798121        5.4539538055
       3
 i =        7, E =       -63.9050389990
 Xe         7.4999485122        7.4998816422        7.5000033082
  F         7.5000778362        7.5001279470        9.5572225582
  F         7.4989283115        7.4975959806        5.4427840728
       3
 i =        8, E =       -63.9051080044
 Xe         7.4996943506        7.4992996147        7.5000568118
  F         7.5005377609        7.5009523442        9.5624407761
  F         7.4942642417        7.4872359964        5.4377160326
       3
 i =        9, E =       -63.8702542011
 Xe         7.4904056936        7.4782930457        7.5012957086
  F         7.5213540718        7.5405654370        9.3422766097
  F         7.3544299470        7.2372359964        5.6783552544
       3
 i =       10, E =       -63.8831454157
 Xe         7.4834608269        7.4624986575        7.5019298418
  F         7.5354622406        7.5654312735        9.3694587685
  F         7.2351977745        6.9872359964        5.6592360008
       3
 i =       11, E =       -63.8873524319
 Xe         7.4726062162        7.4390994869        7.5008054723
  F         7.5486779337        7.6009543280        9.3825886671
  F         7.1133832697        6.7372359964        5.6638164867
       3
 i =       12, E =       -63.8919049490
 Xe         7.3467230048        7.1927873252        7.4221376852
  F         7.5663843696        7.7408411186        9.5949289946
  F         7.0641366921        6.6544594643        5.5779100238
       3
 i =       13, E =       -63.9027891427
 Xe         7.3647772761        7.2487197929        7.4699884548
  F         7.5680981761        7.7072248513        9.5184983699
  F         7.0441272724        6.6563694830        5.5953961097
       3
 i =       14, E =       -63.9041204933
 Xe         7.3644873255        7.2846197657        7.5374264168
  F         7.6000786662        7.7494066988        9.4439081433
  F         7.0435267699        6.7725723910        5.5961450938
       3
 i =       15, E =       -63.9049237143
 Xe         7.3478847526        7.2746610250        7.5340749377
  F         7.5868535152        7.7670663685        9.4821909503
  F         7.0697908181        6.8696285524        5.5812811376
       3
 i =       16, E =       -63.9025090737
 Xe         7.2903275350        7.2089354052        7.5025737765
  F         7.6105054112        7.8138364347        9.5381571338
  F         6.9851340006        6.6803439382        5.5653333857
       3
 i =       17, E =       -63.9043081777
 Xe         7.2911308944        7.2153821902        7.5103296531
  F         7.5845965287        7.8108528675        9.5087751286
  F         6.9311893242        6.6112366691        5.5727243270
       3
 i =       18, E =       -63.9032246852
 Xe         7.2791880224        7.2352328376        7.5277106617
  F         7.6202159070        7.7878741717        9.4189372757
  F         6.8340672014        6.5361244406        5.5874786141
       3
 i =       19, E =       -63.9052519328
 Xe         7.2872971498        7.2447564659        7.5280453063
  F         7.6113741852        7.7771080588        9.4440876306
  F         6.9371869529        6.6567657987        5.5825962932
       3
 i =       20, E =       -63.9052445057
 Xe         7.2832219755        7.2375090194        7.5159285298
  F         7.5858474990        7.8094187643        9.4815235048
  F         6.9731557013        6.7747884799        5.5562109871
       3
 i =       21, E =       -63.9041058189
 Xe         7.3048683244        7.3001042278        7.5331848228
  F         7.5881110663        7.8140344016        9.4765271157
  F         7.0662024443        7.0136800269        5.5487063732
       3
 i =       22, E =       -63.9044604076
 Xe         7.3135575987        7.3462589909        7.5368695266
  F         7.6000915247        7.8152693315        9.4904308325
  F         7.0746164720        7.0617796277        5.5589327415
       3
 i =       23, E =       -63.9049263961
 Xe         7.3175438186        7.4326006918        7.5345156533
  F         7.6189489656        7.8127908693        9.5348676186
  F         7.0373642843        6.9746073349        5.5952927975
       3
 i =       24, E =       -63.9056435232
 Xe         7.3161718622        7.4070711882        7.5470231772
  F         7.6112290001        7.8292711175        9.5221958812
  F         7.0374508506        6.9813998952        5.5875759853
       3
 i =       25, E =       -63.8971955060
 Xe         7.2862192700        7.2162323782        7.6131707211
  F         7.5758994200        7.9532188554        9.3961034294
  F         6.9330539543        6.8173709739        5.5420333533
       3
 i =       26, E =       -63.9047103824
 Xe         7.2983568526        7.3349921824        7.5777486616
  F         7.6079977066        7.8984708042        9.4870527820
  F         6.9697834045        6.8819765994        5.5775055607
       3
 i =       27, E =       -63.8986785917
 Xe         7.3315082051        7.5552560380        7.4936632821
  F         7.5974365562        7.8005487035        9.6156368352
  F         7.1511446154        7.1319765994        5.5996769701
       3
 i =       28, E =       -63.9053618741
 Xe         7.3082946633        7.4209474962        7.5546398305
  F         7.5942430595        7.8797849247        9.5423864765
  F         7.0543526798        6.9868461016        5.5844720708
       3
 i =       29, E =       -63.9010467204
 Xe         7.2825978124        7.2736392598        7.6284641846
  F         7.6022143191        7.9558857755        9.4651575632
  F         6.8720380158        6.7368461016        5.5910637467
       3
 i =       30, E =       -63.9039919157
 Xe         7.2762204549        7.3051810670        7.6070911120
  F         7.5960482075        7.9323473180        9.4963028091
  F         6.9127139437        6.7882719110        5.5945406487
       3
 i =       31, E =       -63.8684647483
 Xe         7.1703551458        7.2242208729        7.3570911120
  F         7.5733942014        8.0270381097        9.5925602130
  F         6.8635731352        6.6717267443        5.6127311730
       3
 i =       32, E =       -63.9019185979
 Xe         7.2215143590        7.3954595704        7.5403682769
  F         7.5701571028        7.8429928950        9.6104387472
  F         7.0289815511        6.9217267443        5.6125109994
       3
 i =       33, E =       -63.9040949081
 Xe         7.2670543596        7.4982265703        7.6358378042
  F         7.5529456557        7.6623080553        9.6504554085
  F         7.2213296888        7.1717267443        5.6068907023
       3
 i =       34, E =       -63.9044711732
 Xe         7.3334402559        7.3261888085        7.6163086739
  F         7.5656724066        7.7561565488        9.5452488390
  F         7.0527510324        6.9217267443        5.6157974838
       3
 i =       35, E =       -63.9029792770
 Xe         7.3645137101        7.1853965794        7.5880629910
  F         7.5853701936        7.8816114051        9.4665168231
  F         6.8811675124        6.6717267443        5.6289798732
       3
 i =       36, E =       -63.9027276792
 Xe         7.3359154432        7.1060551516        7.5315513304
  F         7.6122085838        7.9661102165        9.3851674411
  F         6.7699635976        6.4726548081        5.6308647862
       3
 i =       37, E =       -63.9050993271
 Xe         7.2604919195        7.2209426387        7.5023968592
  F         7.6063772190        7.8861146046        9.4335195253
  F         6.8716457575        6.5879296156        5.6283270938
       3
 i =       38, E =       -63.9057593182
 Xe         7.2593882756        7.2630205806        7.5334294776
  F         7.5873318269        7.8977709715        9.4577135473
  F         6.9045310349        6.6872239360        5.6143248148
       3
 i =       39, E =       -63.9058439891
 Xe         7.2596736658        7.2604383213        7.5337752408
  F         7.5935069652        7.9098445047        9.4433347836
  F         6.8955230394        6.6522688012        5.6192987502
       3
 i =       40, E =       -63.9059270890
 Xe         7.2589594863        7.2929681192        7.5432227425
  F         7.5969339178        7.9003962716        9.4516880401
  F         6.9289542475        6.6770983312        5.6212069538
       3
 i =       41, E =       -63.9061326532
 Xe         7.2532854346        7.2792378702        7.5313235767
  F         7.5935481363        7.8976120703        9.4457043873
  F         6.9113613509        6.6645832879        5.6184323947
       3
 i =       42, E =       -63.9060933009
 Xe         7.2518441517        7.2802071602        7.5290448049
  F         7.5918206115        7.9097769936        9.4416538078
  F         6.9140632879        6.6691408340        5.6134727461
       3
 i =       43, E =       -63.9061466464
 Xe         7.2531113237        7.2830615489        7.5319025153
  F         7.5928304007        7.9019763552        9.4450592189
  F         6.9145817195        6.6663396274        5.6175425147
       3
 i =       44, E =       -63.9061472001
 Xe         7.2528155984        7.2823969408        7.5310732469
  F         7.5926506366        7.9009045022        9.4448209606
  F         6.9126465372        6.6666510913        5.6170316013
       3
 i =       45, E =       -63.9061479320
 Xe         7.2528332172        7.2831200502        7.5311468125
  F         7.5927280615        7.9014447336        9.4448551926
  F         6.9134259297        6.6664429118        5.6170520091
       3
 i =       46, E =       -63.9061479320
 Xe         7.2528332172        7.2831200502        7.5311468125
  F         7.5927280615        7.9014447336        9.4448551926
  F         6.9134259297        6.6664429118        5.6170520091
