       3
 i =        1, E =       -78.6012519572
 Zr         7.0000000192        7.0000000176        7.5215083129
  O         5.5552873527        6.9999999934        6.4802966946
  O         8.4447126377        6.9999999894        6.4802966950
       3
 i =        2, E =       -78.6013107972
 Zr         6.9999999799        7.0000000184        7.5230789806
  O         5.5580742990        6.9999999945        6.4725994080
  O         8.4419257376        6.9999999880        6.4725993931
       3
 i =        3, E =       -78.6013117211
 Zr         7.0000000540        7.0000000186        7.5216312836
  O         5.5577722809        6.9999999957        6.4716907090
  O         8.4422276705        6.9999999793        6.4716907388
       3
 i =        4, E =       -78.6013117211
 Zr         7.0000000540        7.0000000186        7.5216312836
  O         5.5577722809        6.9999999957        6.4716907090
  O         8.4422276705        6.9999999793        6.4716907388
