       4
 i =        1, E =       -47.2258250632
 Al         8.0239090320        7.4999999949        7.4999999962
 Cl         9.0558702084        5.7126212718        7.5000000081
 Cl         9.0558701725        9.2873787237        7.5000000005
 Cl         5.9600070790        7.5000000095        7.4999999952
       4
 i =        2, E =       -47.2258536146
 Al         8.0239047555        7.4999999941        7.4999999988
 Cl         9.0530552833        5.7175113489        7.5000000072
 Cl         9.0530552568        9.2824886529        7.4999999994
 Cl         5.9656422886        7.5000000041        7.4999999946
       4
 i =        3, E =       -47.2258538109
 Al         8.0239026526        7.4999999955        7.4999999994
 Cl         9.0532745917        5.7171385982        7.5000000070
 Cl         9.0532745692        9.2828614051        7.4999999990
 Cl         5.9652066546        7.5000000012        7.4999999946
       4
 i =        4, E =       -47.2258538109
 Al         8.0239026526        7.4999999955        7.4999999994
 Cl         9.0532745917        5.7171385982        7.5000000070
 Cl         9.0532745692        9.2828614051        7.4999999990
 Cl         5.9652066546        7.5000000012        7.4999999946
