       7
 i =        1, E =       -95.6600839872
 Bi         7.9999999289        7.9999999971        7.9999999493
 Cl         7.9999999105       10.4903319677        7.9999999577
 Cl         8.0000001416        8.0000000362       10.4903318708
 Cl         7.9999999244        5.5096679869        7.9999999488
 Cl         8.0000000483        7.9999998953        5.5096681408
 Cl        10.4903316303        8.0000001179        8.0000000227
 Cl         5.5096684160        7.9999999989        8.0000001099
       7
 i =        2, E =       -95.6600842457
 Bi         8.0000000422        7.9999999844        8.0000000234
 Cl         7.9999999049       10.4897907741        7.9999999460
 Cl         8.0000001254        8.0000000278       10.4897907561
 Cl         7.9999999324        5.5102092103        7.9999999567
 Cl         8.0000000318        7.9999999047        5.5102092111
 Cl        10.4897907374        8.0000001033        8.0000000090
 Cl         5.5102092258        7.9999999962        8.0000000981
       7
 i =        3, E =       -95.6600842457
 Bi         8.0000000422        7.9999999844        8.0000000234
 Cl         7.9999999049       10.4897907741        7.9999999460
 Cl         8.0000001254        8.0000000278       10.4897907561
 Cl         7.9999999324        5.5102092103        7.9999999567
 Cl         8.0000000318        7.9999999047        5.5102092111
 Cl        10.4897907374        8.0000001033        8.0000000090
 Cl         5.5102092258        7.9999999962        8.0000000981
