       2
 i =        1, E =       -28.4384671252
 Br         6.4999999831        6.5000001593        5.4403418525
 Cl         6.5000000169        6.4999998407        7.5596579672
       2
 i =        2, E =       -28.4384711835
 Br         6.4999999828        6.5000001603        5.4383159985
 Cl         6.5000000171        6.4999998397        7.5616839551
       2
 i =        3, E =       -28.4384713282
 Br         6.4999999829        6.5000001602        5.4386314598
 Cl         6.5000000171        6.4999998398        7.5613686224
       2
 i =        4, E =       -28.4384713282
 Br         6.4999999829        6.5000001602        5.4386314598
 Cl         6.5000000171        6.4999998398        7.5613686224
