       3
 i =        1, E =       -31.8270435609
 Ca         7.5000000001        7.5000000001        7.4999999988
  H         7.4999999999        7.4999999999        9.3897935512
  H         7.5000000000        7.5000000000        5.6102064500
       3
 i =        2, E =       -32.8724462806
 Ca         7.4999999997        7.4999999999        7.4999999944
  H         7.5000000003        7.5000000001        9.1397935556
  H         7.5000000000        7.5000000000        5.8602064500
       3
 i =        3, E =       -33.4998650955
 Ca         7.5000000077        7.5000000023        7.5000000596
  H         7.4999999957        7.4999999987        8.8897935556
  H         7.4999999966        7.4999999990        6.1102063849
       3
 i =        4, E =       -33.6579129478
 Ca         7.4999999565        7.4999999988        7.4999970328
  H         7.5000000318        7.4999999978        8.6725279289
  H         7.5000000118        7.5000000034        6.3274750447
       3
 i =        5, E =       -33.6579575506
 Ca         7.4999999269        7.4999999914        7.5000753513
  H         7.5000000464        7.5000000047        8.6810300252
  H         7.5000000268        7.5000000039        6.3188943291
       3
 i =        6, E =       -33.4367889415
 Ca         7.5803208697        7.5269241325        7.4096435681
  H         7.4476476372        7.4823245738        8.9310300252
  H         7.4720311472        7.4907513250        6.1597597084
       3
 i =        7, E =       -33.5686150014
 Ca         7.5038669576        7.5012879576        7.5883405222
  H         7.4995288606        7.4998194534        8.7232165752
  H         7.4966033716        7.4988924439        6.1885611479
       3
 i =        8, E =       -33.6799878553
 Ca         7.4602333367        7.4866614672        7.5123127222
  H         7.5286046745        7.5096238266        8.5490860969
  H         7.5111607190        7.5037144775        6.4385611479
       3
 i =        9, E =       -33.6254814000
 Ca         7.6851422422        7.5621083424        7.4733537355
  H         7.4034809392        7.4676231414        8.3382581490
  H         7.4113758953        7.4702708133        6.6885611479
       3
 i =       10, E =       -33.2096555375
 Ca         7.4547902170        7.4848548093        7.4676095361
  H         7.4277295553        7.4757795827        8.1265871424
  H         7.6174906041        7.5393794053        6.9060847518
       3
 i =       11, E =       -33.3949155936
 Ca         7.2138893249        7.4040747345        7.4907583556
  H         7.4186355907        7.4727553852        8.1252216993
  H         7.8674906041        7.6231907689        6.8844681440
       3
 i =       12, E =       -33.4443588485
 Ca         7.0665319935        7.3546154135        7.4798833756
  H         7.6686355907        7.5566484003        8.1855145048
  H         7.7648431790        7.5887647971        6.8351653178
       3
 i =       13, E =       -33.4884302498
 Ca         7.1866713969        7.3948053716        7.4614382575
  H         7.7984860055        7.6002833804        8.2599156374
  H         7.5148431790        7.5049186074        6.7791445953
       3
 i =       14, E =       -33.5027888676
 Ca         7.1828737933        7.3935378613        7.4700003695
  H         7.9025032596        7.6352172760        8.2828946462
  H         7.4146273820        7.4712928141        6.7477064337
       3
 i =       15, E =       -33.4810916608
 Ca         7.1768130163        7.3915300048        7.4904739346
  H         8.1525032596        7.7191718274        8.3385819074
  H         7.1706957588        7.3894438257        6.6717876862
       3
 i =       16, E =       -33.5124091929
 Ca         7.1811035345        7.3930609397        7.4797923141
  H         7.9629219012        7.6554375695        8.2960836089
  H         7.3560001868        7.4516238311        6.7249172919
       3
 i =       17, E =       -33.5164831142
 Ca         7.1811068945        7.3930239731        7.4853121832
  H         7.9818421005        7.6618399316        8.3004691335
  H         7.3371133260        7.4452788958        6.7151677528
       3
 i =       18, E =       -33.5464938132
 Ca         7.1838718446        7.3939453292        7.5343911002
  H         8.0879649186        7.6976977468        8.3259421982
  H         7.2288754442        7.4087376892        6.6419970753
       3
 i =       19, E =       -33.5290778452
 Ca         7.1880915213        7.3958787323        7.6837571893
  H         8.3355085890        7.7813573954        8.3791277755
  H         6.9788754442        7.3238039177        6.4436883657
       3
 i =       20, E =       -33.5913093488
 Ca         7.1904169679        7.3955634079        7.5823561219
  H         8.1230824957        7.7098868748        8.3396517695
  H         7.1878151257        7.3951534166        6.5819468569
       3
 i =       21, E =       -33.6175836809
 Ca         7.1962850653        7.3973642601        7.6128803009
  H         8.1367694572        7.7139778035        8.3487745638
  H         7.1686546899        7.3893998451        6.5433703041
       3
 i =       22, E =       -33.6303566143
 Ca         7.2192177984        7.4038856659        7.6822373267
  H         8.1490488702        7.7161328261        8.3774715514
  H         7.1343074277        7.3810864701        6.4477613168
       3
 i =       23, E =       -33.6422114536
 Ca         7.2168270004        7.4072142004        7.6498775179
  H         8.1143886619        7.7037430939        8.3698255792
  H         7.1710378811        7.3899963198        6.4868979182
       3
 i =       24, E =       -33.6448875430
 Ca         7.2259283309        7.4071787186        7.6449322853
  H         8.0974062249        7.7000050908        8.3773360637
  H         7.1789615830        7.3937668542        6.4846281467
       3
 i =       25, E =       -33.6513229663
 Ca         7.2585702373        7.4207800298        7.6273818485
  H         8.0554767132        7.6848304030        8.4137379614
  H         7.1885603589        7.3953889149        6.4669366955
       3
 i =       26, E =       -33.6557058205
 Ca         7.2939176700        7.4299057373        7.6077977429
  H         8.0290285716        7.6776461105        8.4557489141
  H         7.1799420966        7.3934864272        6.4454410357
       3
 i =       27, E =       -33.6592645930
 Ca         7.3431376536        7.4421979630        7.5788707205
  H         8.0028939191        7.6721522169        8.5172140002
  H         7.1573598546        7.3867609697        6.4145642878
       3
 i =       28, E =       -33.6595724474
 Ca         7.3615186316        7.4463002012        7.5662770013
  H         7.9931661598        7.6708625524        8.5402052477
  H         7.1488623951        7.3839604210        6.4045780280
       3
 i =       29, E =       -33.6595768947
 Ca         7.3600027750        7.4461292148        7.5666765262
  H         7.9935068215        7.6707605310        8.5382788279
  H         7.1499869249        7.3842207722        6.4059196454
       3
 i =       30, E =       -33.6595770435
 Ca         7.3601982840        7.4462730568        7.5664847403
  H         7.9932472281        7.6706279353        8.5384888263
  H         7.1500172969        7.3841986087        6.4057623863
       3
 i =       31, E =       -33.6595770435
 Ca         7.3601982840        7.4462730568        7.5664847403
  H         7.9932472281        7.6706279353        8.5384888263
  H         7.1500172969        7.3841986087        6.4057623863
