       2
 i =        1, E =       -21.6773993863
  C         6.0000000023        5.9999999967        5.4373699477
  O         5.9999999977        6.0000000033        6.5627831806
       2
 i =        2, E =       -21.6774005854
  C         6.0000000020        5.9999999971        5.4364851692
  O         5.9999999984        6.0000000023        6.5614945763
       2
 i =        3, E =       -21.6774005854
  C         6.0000000020        5.9999999971        5.4364851692
  O         5.9999999984        6.0000000023        6.5614945763
