       3
 i =        1, E =      -106.7401345964
  S         6.4999999119        6.4999999207        7.3402135918
 Cu         5.2748918223        6.5000000494        5.6464055687
 Cu         7.7251082657        6.5000000300        5.6464055231
       3
 i =        2, E =      -106.7404728315
  S         6.5000000965        6.4999999246        7.3171985220
 Cu         5.2560643361        6.5000000111        5.6645211357
 Cu         7.7439356088        6.5000000059        5.6645212524
       3
 i =        3, E =      -106.7405546213
  S         6.5000001155        6.4999999232        7.3104410998
 Cu         5.2447484381        6.5000000018        5.6661929731
 Cu         7.7552514823        6.5000000003        5.6661930395
       3
 i =        4, E =      -106.7405884558
  S         6.5000000561        6.4999999216        7.3030885335
 Cu         5.2305207750        6.4999999950        5.6635533959
 Cu         7.7694792543        6.4999999965        5.6635533291
       3
 i =        5, E =      -106.7405975696
  S         6.5000000555        6.4999999228        7.3053002955
 Cu         5.2354654703        6.4999999985        5.6613822099
 Cu         7.7645345415        6.4999999987        5.6613821662
       3
 i =        6, E =      -106.7405988507
  S         6.5000000385        6.4999999243        7.3040746529
 Cu         5.2358417345        6.4999999984        5.6601349101
 Cu         7.7641582877        6.4999999986        5.6601348684
       3
 i =        7, E =      -106.7405988507
  S         6.5000000385        6.4999999243        7.3040746529
 Cu         5.2358417345        6.4999999984        5.6601349101
 Cu         7.7641582877        6.4999999986        5.6601348684
