       2
 i =        1, E =       -72.4475842249
 Cu         6.4999999637        6.5000000351        5.6270923389
  F         6.5000000365        6.4999999649        7.3721066341
       2
 i =        2, E =       -72.4475893150
 Cu         6.4999999997        6.5000000003        5.6242187986
  F         6.4999999228        6.5000000742        7.3728713241
       2
 i =        3, E =       -72.4475896343
 Cu         6.5000000006        6.4999999995        5.6235109695
  F         6.5000000129        6.4999999876        7.3723189392
       2
 i =        4, E =       -72.4475896343
 Cu         6.5000000006        6.4999999995        5.6235109695
  F         6.5000000129        6.4999999876        7.3723189392
