       3
 i =        1, E =       -11.4067504604
  S         6.4999944829        6.9638978513        6.4999999499
  H         7.4707265960        6.0306159427        6.4999999693
  H         5.5292718411        6.0306094422        6.5000000808
       3
 i =        2, E =       -11.4068299822
  S         6.4999954542        6.9603168807        6.4999999520
  H         7.4630018864        6.0324084975        6.4999999680
  H         5.5369955794        6.0324011374        6.5000000800
       3
 i =        3, E =       -11.4068305588
  S         6.4999953497        6.9610987125        6.4999999515
  H         7.4624216050        6.0320174520        6.4999999679
  H         5.5375759653        6.0320101920        6.5000000806
       3
 i =        4, E =       -11.4068305588
  S         6.4999953497        6.9610987125        6.4999999515
  H         7.4624216050        6.0320174520        6.4999999679
  H         5.5375759653        6.0320101920        6.5000000806
