       3
 i =        1, E =      -151.2413853586
 Mn         7.5001909591        7.5016346201        7.4999155599
  F         7.5000491612        7.4994869790        9.2712221326
  F         7.4997599267        7.4988754562        5.7288462774
       3
 i =        2, E =      -151.2414708884
 Mn         7.4992607558        7.4993982502        7.4999369497
  F         7.5004134716        7.4988020693        9.2638089482
  F         7.5001721783        7.4978274615        5.7361165516
       3
 i =        3, E =      -151.2414719996
 Mn         7.4995258915        7.4996415338        7.4999652269
  F         7.5007136402        7.4979776726        9.2655373028
  F         7.5002040853        7.4961525949        5.7344512601
       3
 i =        4, E =      -151.2415049034
 Mn         7.4998401906        7.4995355502        7.5000401213
  F         7.5025474797        7.4935116052        9.2678911146
  F         7.5007162105        7.4873288092        5.7322125965
       3
 i =        5, E =      -151.2393315440
 Mn         7.5181826348        7.4703228415        7.4998837184
  F         7.5689119313        7.3351988596        9.2213022300
  F         7.5151360251        7.2373288092        5.7782513785
       3
 i =        6, E =      -151.2410558020
 Mn         7.5099626628        7.4811129275        7.4993882088
  F         7.5513282017        7.3906510937        9.2539775663
  F         7.5148576603        7.3048200370        5.7467967381
       3
 i =        7, E =      -151.2402760678
 Mn         7.4935634422        7.4955672114        7.4992137429
  F         7.4653598550        7.5726891910        9.3034238523
  F         7.5117298162        7.5548200370        5.6980206713
       3
 i =        8, E =      -151.2415543738
 Mn         7.5048487699        7.4842852545        7.4989996159
  F         7.5165403373        7.4695234803        9.2716165491
  F         7.5245934090        7.3862447303        5.7298587813
       3
 i =        9, E =      -151.2416262381
 Mn         7.5047441021        7.4854673944        7.4988352702
  F         7.5243674773        7.4874942054        9.2659998772
  F         7.5274685672        7.4303669519        5.7349843060
       3
 i =       10, E =      -151.2415588004
 Mn         7.5103507471        7.4766492287        7.4988254519
  F         7.5471494966        7.4593794129        9.2564625782
  F         7.5338752463        7.4030939490        5.7435277977
       3
 i =       11, E =      -151.2417323054
 Mn         7.5091119705        7.4810635168        7.4990860856
  F         7.5300596318        7.4751025060        9.2651630994
  F         7.5298287515        7.4146264037        5.7347960185
       3
 i =       12, E =      -151.2417382809
 Mn         7.5122384444        7.4772931008        7.4992040741
  F         7.5285652766        7.4694622427        9.2659492542
  F         7.5293206171        7.4025080104        5.7340047040
       3
 i =       13, E =      -151.2417521696
 Mn         7.5134864051        7.4758900102        7.4992367534
  F         7.5313064314        7.4694479940        9.2642921500
  F         7.5300150579        7.4089332315        5.7355753227
       3
 i =       14, E =      -151.2417598329
 Mn         7.5149288185        7.4726251551        7.4994062306
  F         7.5303756732        7.4708516120        9.2644411844
  F         7.5306125003        7.4091177336        5.7356557740
       3
 i =       15, E =      -151.2404593820
 Mn         7.7649288185        7.3829309214        7.4904525175
  F         7.6366553388        7.3191242574        9.2508346960
  F         7.4919764320        7.3745907711        5.7324536547
       3
 i =       16, E =      -151.2416817207
 Mn         7.5775952009        7.4131974684        7.5002631377
  F         7.5452543015        7.4598506625        9.2648963268
  F         7.5322568069        7.4030421777        5.7377351054
       3
 i =       17, E =      -151.2402331174
 Mn         7.3275952009        7.4346721078        7.5148062258
  F         7.4074972178        7.6663768299        9.2856755667
  F         7.5916155418        7.4451123431        5.7441193043
       3
 i =       18, E =      -151.2424880777
 Mn         7.4579809261        7.4807762603        7.5024533978
  F         7.4903089534        7.5207869288        9.2667497577
  F         7.5402764246        7.4230186188        5.7393760109
       3
 i =       19, E =      -151.2415899464
 Mn         7.4932219452        7.4246384500        7.5038007652
  F         7.4923690210        7.5363479590        9.2679636466
  F         7.5378182374        7.4121497101        5.7442169082
       3
 i =       20, E =      -151.2416349592
 Mn         7.4926470409        7.4323860791        7.5009279942
  F         7.4952295480        7.5249332867        9.2655179031
  F         7.5231968045        7.4013425369        5.7396026064
       3
 i =       21, E =      -151.2416846233
 Mn         7.4435991033        7.4751852508        7.4997332978
  F         7.4772512444        7.5374631616        9.2645744407
  F         7.5258105397        7.4061579349        5.7351044123
       3
 i =       22, E =      -151.2417465853
 Mn         7.4566554179        7.4643666708        7.5003712974
  F         7.4769247087        7.5304463277        9.2653791754
  F         7.5324776488        7.4078844726        5.7373547442
       3
 i =       23, E =      -151.2417002293
 Mn         7.5001662885        7.4371980741        7.5009074043
  F         7.4817194124        7.5197209315        9.2664075535
  F         7.5364530886        7.4049795907        5.7421407865
       3
 i =       24, E =      -151.2417781155
 Mn         7.4734549411        7.4568512258        7.5002539565
  F         7.4694279728        7.5273553201        9.2658994596
  F         7.5326046945        7.4060635111        5.7405777055
       3
 i =       25, E =      -151.2412540781
 Mn         7.3834353850        7.5563936869        7.4953895756
  F         7.4474463320        7.5393067572        9.2611947765
  F         7.5179087616        7.4115219558        5.7291023086
       3
 i =       26, E =      -151.2417536665
 Mn         7.4549454426        7.4821411737        7.4984491437
  F         7.4655471984        7.5302484429        9.2637808160
  F         7.5279861046        7.4080939695        5.7370421767
       3
 i =       27, E =      -151.2415500294
 Mn         7.5311582777        7.3899296803        7.5016488106
  F         7.4937251813        7.5267889688        9.2662205771
  F         7.5410315023        7.3998523850        5.7383981378
       3
 i =       28, E =      -151.2417524242
 Mn         7.4869909325        7.4459989942        7.4998107316
  F         7.4782797550        7.5284771442        9.2640467099
  F         7.5315653407        7.4055581208        5.7370969672
       3
 i =       29, E =      -151.2416049975
 Mn         7.4296414682        7.5070084495        7.4985304555
  F         7.4455252102        7.5361711848        9.2642631596
  F         7.5275191257        7.4103987805        5.7379103013
       3
 i =       30, E =      -151.2417676307
 Mn         7.4608847093        7.4779960217        7.4991639537
  F         7.4599120397        7.5304328946        9.2645160763
  F         7.5303125789        7.4072065857        5.7375043603
       3
 i =       31, E =      -151.2373513795
 Mn         7.4807415769        7.3355423234        7.5375720340
  F         7.7099120397        7.7285059747        9.2543818072
  F         7.4281390533        7.5366849316        5.7088496502
       3
 i =       32, E =      -151.2388202400
 Mn         7.7307415769        7.2096544301        7.5149436971
  F         7.6470527667        7.5321514184        9.2638226604
  F         7.5271620390        7.4147847868        5.7256054506
       3
 i =       33, E =      -151.2414251899
 Mn         7.5198633090        7.4596544301        7.4921660581
  F         7.4487960409        7.4808900971        9.2640939749
  F         7.5563218770        7.3737910659        5.7410676409
       3
 i =       34, E =      -151.2415251546
 Mn         7.5331207546        7.4403431963        7.4974795620
  F         7.4972232934        7.4976563907        9.2602793264
  F         7.5391209913        7.3861626305        5.7330810569
       3
 i =       35, E =      -151.2415472181
 Mn         7.4895766024        7.4640572436        7.5051570711
  F         7.5248582336        7.5368541960        9.2609043676
  F         7.5034351042        7.4223079183        5.7292274476
       3
 i =       36, E =      -151.2416014858
 Mn         7.5169963446        7.4529589506        7.5006415258
  F         7.5029156525        7.5042044399        9.2641360812
  F         7.5245448824        7.3993874913        5.7332833230
       3
 i =       37, E =      -151.2416587367
 Mn         7.5157875892        7.4505510858        7.5016428329
  F         7.5086868221        7.5122324411        9.2647013211
  F         7.5249604964        7.4062861372        5.7340373901
       3
 i =       38, E =      -151.2406649820
 Mn         7.5644473636        7.4207287865        7.4935778716
  F         7.7105012756        7.7372911451        9.2416340595
  F         7.4992403100        7.1562861372        5.7051925150
       3
 i =       39, E =      -151.2402050412
 Mn         7.5100816695        7.4004697269        7.5155081723
  F         7.7077379983        7.7756240359        9.2648460287
  F         7.5296879646        7.4062861372        5.7371166141
