       2
 i =        1, E =       -63.0874746369
 Na         6.5000000051        6.4999999983        5.2875978623
 Cl         6.4999999948        6.5000000017        7.6674631120
       2
 i =        2, E =       -63.0874836182
 Na         6.4999999941        6.5000000020        5.3067079841
 Cl         6.4999999947        6.5000000018        7.6696531401
       2
 i =        3, E =       -63.0876402573
 Na         6.5000000011        6.4999999997        5.2972300432
 Cl         6.4999999945        6.5000000018        7.6609837141
       2
 i =        4, E =       -63.0876475780
 Na         6.4999999859        6.5000000043        5.2952625947
 Cl         6.4999999944        6.5000000019        7.6550495168
       2
 i =        5, E =       -63.0876504886
 Na         6.5000001007        6.4999999701        5.2959104421
 Cl         6.4999999943        6.5000000019        7.6526818837
       2
 i =        6, E =       -63.0876506221
 Na         6.4999988802        6.5000003234        5.2960504742
 Cl         6.4999999941        6.5000000019        7.6519303482
       2
 i =        7, E =       -63.0876506221
 Na         6.4999988802        6.5000003234        5.2960504742
 Cl         6.4999999941        6.5000000019        7.6519303482
