       4
 i =        1, E =      -130.8820067229
 Ta         6.5330602683        6.9999999279        6.9998063571
  F         5.6259030391        8.5714891850        7.0003804093
  F         5.6259030623        5.4285108810        7.0003803828
  F         8.3475351207        7.0000000057        7.0003796119
       4
 i =        2, E =      -130.8820210088
 Ta         6.5330520274        7.0000000879        6.9998651110
  F         5.6255182179        8.5726170872        7.0004847994
  F         5.6255181696        5.4273828272        7.0004847640
  F         8.3431645420        6.9999999994        7.0004839964
       4
 i =        3, E =      -130.8820709443
 Ta         6.5193701287        7.0000000628        7.0002297894
  F         5.6229395466        8.5795185992        7.0012081344
  F         5.6229394979        5.4204813522        7.0012080377
  F         8.3316468516        7.0000000043        7.0012120183
       4
 i =        4, E =      -130.8820786990
 Ta         6.5168980715        6.9999998685        7.0003833677
  F         5.6211051006        8.5784664125        7.0017143891
  F         5.6211051315        5.4215337398        7.0017142533
  F         8.3326077430        7.0000000153        7.0017186791
       4
 i =        5, E =      -130.8821491932
 Ta         6.5118726498        6.9999996877        7.0016061877
  F         5.6047627019        8.5724309213        7.0058511592
  F         5.6047627616        5.4275694053        7.0058506972
  F         8.3324026461        7.0000000432        7.0058461271
       4
 i =        6, E =      -130.8821693733
 Ta         6.5127881406        6.9999999695        7.0021139386
  F         5.6006422923        8.5710874571        7.0076142068
  F         5.6006421942        5.4289125994        7.0076136068
  F         8.3296385699        7.0000000388        7.0075741226
       4
 i =        7, E =      -130.8822202435
 Ta         6.5119961869        7.0000003393        7.0041680217
  F         5.6036324878        8.5686043906        7.0147788858
  F         5.6036323027        5.4313953405        7.0147777739
  F         8.3219721943        7.0000000542        7.0144644350
       4
 i =        8, E =      -130.8822969960
 Ta         6.5079783465        6.9999999846        7.0078379831
  F         5.6061019471        8.5689355783        7.0268072941
  F         5.6061021243        5.4310645154        7.0268055039
  F         8.3184307040        7.0000001299        7.0260328783
       4
 i =        9, E =      -130.8823739118
 Ta         6.5072333924        6.9999999839        7.0111441959
  F         5.6038527228        8.5743752344        7.0330935601
  F         5.6038529495        5.4256248991        7.0330919438
  F         8.3213091688        7.0000001966        7.0322261826
       4
 i =       10, E =      -130.8823938795
 Ta         6.5068720675        7.0000004780        7.0154480568
  F         5.6033343864        8.5759530366        7.0291488661
  F         5.6033341982        5.4240465755        7.0291484517
  F         8.3232165337        7.0000003022        7.0290515270
       4
 i =       11, E =      -130.8823989010
 Ta         6.5077984989        6.9999989541        7.0188831789
  F         5.6039445346        8.5757575535        7.0285593314
  F         5.6039451643        5.4242435897        7.0285594558
  F         8.3218147224        7.0000005610        7.0285434469
       4
 i =       12, E =      -130.8824033214
 Ta         6.5068039892        7.0000007248        7.0231386119
  F         5.6047610928        8.5753628100        7.0286845325
  F         5.6047607249        5.4246365854        7.0286850836
  F         8.3218254727        7.0000008432        7.0286242836
       4
 i =       13, E =      -130.8824100541
 Ta         6.5068876576        6.9999999477        7.0307854648
  F         5.6044037558        8.5765474910        7.0303485291
  F         5.6044038792        5.4234527142        7.0303493096
  F         8.3222674715        7.0000019958        7.0300321415
       4
 i =       14, E =      -130.8824108150
 Ta         6.5068140115        7.0000006146        7.0317958614
  F         5.6043177543        8.5760702261        7.0310908803
  F         5.6043176683        5.4239294003        7.0310912032
  F         8.3218674160        7.0000031602        7.0308420367
       4
 i =       15, E =      -130.8824108150
 Ta         6.5068132578        7.0000006215        7.0318052943
  F         5.6043169226        8.5760652825        7.0310982113
  F         5.6043168345        5.4239343379        7.0310985295
  F         8.3218633288        7.0000031719        7.0308500763
