       4
 i =        1, E =       -51.7120688120
 Tl         6.5646540562        7.0000000158        7.0000000156
  H         5.6903112872        8.5144059147        7.0000000044
  H         5.6903112651        5.4855940663        6.9999999777
  H         8.3133396917        7.0000000032        7.0000000023
       4
 i =        2, E =       -51.7120704198
 Tl         6.5646541220        6.9999999995        7.0000000079
  H         5.6910761331        8.5130808766        7.0000000070
  H         5.6910761237        5.4869191226        6.9999999803
  H         8.3118098637        7.0000000012        7.0000000049
       4
 i =        3, E =       -51.7120704198
 Tl         6.5646541220        6.9999999995        7.0000000079
  H         5.6910761331        8.5130808766        7.0000000070
  H         5.6910761237        5.4869191226        6.9999999803
  H         8.3118098637        7.0000000012        7.0000000049
