       5
 i =        1, E =      -159.5717693778
  V         6.5917074703        7.0000000534        6.4938147967
  O         6.5916293685        6.9999999277        8.0554413983
  F         5.7790777764        8.4148849511        5.9395082528
  F         5.7790777704        5.5851150911        5.9395082442
  F         8.2236983337        6.9999999766        5.9399425325
       5
 i =        2, E =      -159.5718302660
  V         6.5948511951        6.9999999812        6.4947260084
  O         6.5929097886        6.9999999657        8.0503589222
  F         5.7822348692        8.4115690875        5.9360499164
  F         5.7822348345        5.5884309292        5.9360498233
  F         8.2244787412        6.9999999593        5.9380228842
       5
 i =        3, E =      -159.5718875121
  V         6.5966345692        6.9999999560        6.4907147786
  O         6.5944558786        6.9999999528        8.0438870599
  F         5.7827315120        8.4093778983        5.9286368954
  F         5.7827315136        5.5906221179        5.9286366711
  F         8.2261589540        6.9999999014        5.9344684512
       5
 i =        4, E =      -159.5345052850
  V         6.5514127994        7.0000008808        6.3104140389
  O         6.5314457895        6.9999982485        8.0725881392
  F         5.8064489071        8.4644858335        5.6786368954
  F         5.8064461809        5.5355146929        5.6786401626
  F         8.2018983063        6.9999967622        5.7294928047
       5
 i =        5, E =      -159.5717351637
  V         6.6007745243        6.9999998448        6.4556961438
  O         6.5964863687        6.9999998638        8.0219251965
  F         5.7824545631        8.4052160533        5.8812992878
  F         5.7824543995        5.5947838984        5.8812986830
  F         8.2340020438        6.9999992443        5.9062868478
       5
 i =        6, E =      -159.5718186270
  V         6.5991696035        6.9999998862        6.4784396296
  O         6.5955457990        6.9999997380        8.0234659196
  F         5.7836903889        8.4108733998        5.9246771901
  F         5.7836907741        5.5891268111        5.9246755633
  F         8.2332558712        6.9999990522        5.9376744638
       5
 i =        7, E =      -159.5719954108
  V         6.6001465159        6.9999998073        6.4602161760
  O         6.5940654473        6.9999995868        8.0171239849
  F         5.7836737651        8.4089018912        5.8967834007
  F         5.7836736749        5.5910983084        5.8967819729
  F         8.2356795015        6.9999982843        5.9200863742
       5
 i =        8, E =      -159.5720916727
  V         6.6001834340        6.9999997346        6.4643163284
  O         6.5898308839        6.9999993349        8.0224804791
  F         5.7826904276        8.4118459759        5.9110333983
  F         5.7826899766        5.5881540853        5.9110326190
  F         8.2331091401        6.9999968922        5.9141216948
       5
 i =        9, E =      -159.5721057626
  V         6.6008412651        6.9999996384        6.4659282338
  O         6.5948532779        6.9999991564        8.0213050504
  F         5.7821890116        8.4099733597        5.9111676885
  F         5.7821885116        5.5900263820        5.9111678409
  F         8.2331699867        6.9999938883        5.9136584328
       5
 i =       10, E =      -159.5721069888
  V         6.6010417594        6.9999990383        6.4650126626
  O         6.5970948033        6.9999991284        8.0206470761
  F         5.7826153694        8.4099412776        5.9103708031
  F         5.7826141934        5.5900580282        5.9103706785
  F         8.2328862452        6.9999867742        5.9111180166
       5
 i =       11, E =      -159.5721075415
  V         6.6007646237        6.9999982591        6.4651602217
  O         6.5980994818        6.9999989881        8.0208547593
  F         5.7826195641        8.4102126008        5.9110559348
  F         5.7826173220        5.5897861147        5.9110560146
  F         8.2326745288        6.9999740680        5.9119037551
       5
 i =       12, E =      -159.5721075415
  V         6.6007646237        6.9999982591        6.4651602217
  O         6.5980994818        6.9999989881        8.0208547593
  F         5.7826195641        8.4102126008        5.9110559348
  F         5.7826173220        5.5897861147        5.9110560146
  F         8.2326745288        6.9999740680        5.9119037551
