       2
 i =        1, E =       -48.5096977613
 Cu         6.0000000148        6.0000000031        5.2758095359
  H         5.9999999847        5.9999999965        6.7369728134
       2
 i =        2, E =       -48.5095512254
 Cu         5.9999998820        5.9999999751        5.3155596640
  H         5.9999998745        5.9999999715        6.7980165889
       2
 i =        3, E =       -48.5095667140
 Cu         5.9999999350        5.9999999863        5.3500470215
  H         5.9999997116        5.9999999345        6.8399481761
       2
 i =        4, E =       -48.5096595362
 Cu         6.0000000128        6.0000000027        5.3283033506
  H         5.9999997601        5.9999999456        6.8060580062
       2
 i =        5, E =       -48.5097185186
 Cu         5.9999999510        5.9999999896        5.3378551749
  H         5.9999997042        5.9999999329        6.8108316331
       2
 i =        6, E =       -48.5097256435
 Cu         6.0000000659        6.0000000140        5.3416213740
  H         5.9999996669        5.9999999244        6.8102844472
       2
 i =        7, E =       -48.5097259947
 Cu         5.9999999436        5.9999999882        5.3405648858
  H         5.9999996489        5.9999999203        6.8092248302
       2
 i =        8, E =       -48.5097259947
 Cu         5.9999999436        5.9999999882        5.3405648858
  H         5.9999996489        5.9999999203        6.8092248302
