       3
 i =        1, E =       -16.1825552437
  H         6.5000000016        6.5000000014        5.3818898298
  C         6.5000000015        6.5000000028        6.4552151928
  N         6.4999999970        6.4999999959        7.6193322746
       3
 i =        2, E =       -16.1825688098
  H         6.5000000033        6.5000000038        5.3832198638
  C         6.5000000000        6.4999999999        6.4521868886
  N         6.4999999972        6.4999999966        7.6163088216
       3
 i =        3, E =       -16.1825698669
  H         6.5000000049        6.5000000056        5.3821982200
  C         6.5000000003        6.5000000001        6.4511790508
  N         6.4999999968        6.4999999961        7.6152829564
       3
 i =        4, E =       -16.1825698669
  H         6.5000000049        6.5000000056        5.3821982200
  C         6.5000000003        6.5000000001        6.4511790508
  N         6.4999999968        6.4999999961        7.6152829564
