       2
 i =        1, E =       -65.4014871321
 Hf         6.5000000250        6.5000000050        5.6550128795
  O         6.4999999745        6.4999999953        7.3513782721
       2
 i =        2, E =       -65.4015562260
 Hf         6.5000000621        6.5000000126        5.6554587045
  O         6.4999999983        6.5000000006        7.3409807681
       2
 i =        3, E =       -65.4015645149
 Hf         6.5000001236        6.5000000251        5.6544610832
  O         6.4999999975        6.5000000017        7.3428208762
       2
 i =        4, E =       -65.4015645344
 Hf         6.5000003540        6.5000000721        5.6543268444
  O         6.4999999979        6.4999999994        7.3426096624
       2
 i =        5, E =       -65.4015645344
 Hf         6.5000003540        6.5000000721        5.6543268444
  O         6.4999999979        6.4999999994        7.3426096624
