       4
 i =        1, E =       -21.5969260138
  S         8.0409995636        6.9612607659        7.4741199132
  S         5.9590004247        7.0387392356        7.4741199118
  H         8.2838338809        7.9075827536        6.5261925136
  H         5.7161661311        6.0924172452        6.5261925120
       4
 i =        2, E =       -21.5969987977
  S         8.0362448009        6.9577309128        7.4717297466
  S         5.9637551977        7.0422690908        7.4717297381
  H         8.2789783583        7.9017796637        6.5311076451
  H         5.7210216472        6.0982203353        6.5311076421
       4
 i =        3, E =       -21.5970084243
  S         8.0365047561        6.9550624245        7.4720795113
  S         5.9634952421        7.0449375799        7.4720795033
  H         8.2762086242        7.8999800965        6.5321801390
  H         5.7237913826        6.1000199023        6.5321801356
       4
 i =        4, E =       -21.5970132343
  S         8.0372673893        6.9521284043        7.4734761126
  S         5.9627326093        7.0478716009        7.4734761044
  H         8.2732817599        7.8976488528        6.5330134933
  H         5.7267182483        6.1023511459        6.5330134891
       4
 i =        5, E =       -21.5970138839
  S         8.0373016534        6.9520860504        7.4742813594
  S         5.9626983460        7.0479139548        7.4742813506
  H         8.2733851297        7.8969261957        6.5330543450
  H         5.7266148785        6.1030738031        6.5330543405
       4
 i =        6, E =       -21.5970138839
  S         8.0373016534        6.9520860504        7.4742813594
  S         5.9626983460        7.0479139548        7.4742813506
  H         8.2733851297        7.8969261957        6.5330543450
  H         5.7266148785        6.1030738031        6.5330543405
