      13
 i =        1, E =      -197.8017553319
 Mo         8.5000000061        8.4999999524        8.4999999722
  C         8.4999999485       10.5754449705        8.5000000208
  C         8.4999999674        8.5000000050       10.5754449599
  C        10.5754449238        8.4999999612        8.4999999925
  C         8.4999999920        8.4999999687        6.4245550785
  C         6.4245550423        8.4999999766        8.5000000181
  C         8.4999999478        6.4245550957        8.4999999916
  O         8.5000000000       11.7361472253        8.4999999930
  O         8.5000000064        8.5000000015       11.7361472177
  O        11.7361473182        8.5000000200        8.5000000090
  O         8.4999999940        8.5000000201        5.2638527473
  O         5.2638528519        8.5000000119        8.4999999970
  O         8.5000000032        5.2638527915        8.5000000033
      13
 i =        2, E =      -197.8017581133
 Mo         8.5000000519        8.5000000186        8.5000000017
  C         8.4999999900       10.5766839830        8.4999999936
  C         8.4999999850        8.4999999888       10.5766839764
  C        10.5766838785        8.4999999953        8.5000000012
  C         8.4999999802        8.4999999932        6.4233161292
  C         6.4233160249        8.4999999972        8.4999999971
  C         8.4999999860        6.4233161292        8.4999999997
  O         8.4999999651       11.7376092771        8.5000000193
  O         8.4999999780        8.5000000139       11.7376092497
  O        11.7376093394        8.5000000000        8.5000000103
  O         8.4999999858        8.5000000038        5.2623906947
  O         5.2623907830        8.5000000024        8.5000000180
  O         8.4999999657        5.2623907087        8.5000000090
      13
 i =        3, E =      -197.8017581133
 Mo         8.5000000519        8.5000000186        8.5000000017
  C         8.4999999900       10.5766839830        8.4999999936
  C         8.4999999850        8.4999999888       10.5766839764
  C        10.5766838785        8.4999999953        8.5000000012
  C         8.4999999802        8.4999999932        6.4233161292
  C         6.4233160249        8.4999999972        8.4999999971
  C         8.4999999860        6.4233161292        8.4999999997
  O         8.4999999651       11.7376092771        8.5000000193
  O         8.4999999780        8.5000000139       11.7376092497
  O        11.7376093394        8.5000000000        8.5000000103
  O         8.4999999858        8.5000000038        5.2623906947
  O         5.2623907830        8.5000000024        8.5000000180
  O         8.4999999657        5.2623907087        8.5000000090
