       5
 i =        1, E =      -151.3648849783
 Re         6.5960198378        6.9999999534        6.3621339740
  F         6.5939193400        6.9999996512        8.2138542447
  O         5.8014343615        8.3741864571        5.7617784055
  O         5.8014343559        5.6258135997        5.7617784390
  O         8.1834468513        7.0000000223        5.7619660869
       5
 i =        2, E =      -151.3650206135
 Re         6.5920920120        6.9999999993        6.3574229752
  F         6.5994658714        6.9999988141        8.2004719043
  O         5.7920046255        8.3770855989        5.7731117006
  O         5.7920046411        5.6229144392        5.7731116564
  O         8.1842473740        7.0000000049        5.7729560334
       5
 i =        3, E =      -151.3651408195
 Re         6.5862275555        6.9999998973        6.3661025424
  F         6.5911940790        6.9999957686        8.2052099198
  O         5.7851716842        8.3810657662        5.7876077380
  O         5.7851716387        5.6189342028        5.7876073681
  O         8.1812332862        7.0000000168        5.7849416689
       5
 i =        4, E =      -151.3651795669
 Re         6.5794267051        6.9999994182        6.3805553146
  F         6.5998937632        6.9999862800        8.2207095633
  O         5.7870076839        8.3845196262        5.7923926196
  O         5.7870074532        5.6154800493        5.7923914164
  O         8.1724656233        7.0000000871        5.7886966963
       5
 i =        5, E =      -151.3652332005
 Re         6.5806250609        6.9999985666        6.3748880889
  F         6.5928793156        6.9999691946        8.2157240583
  O         5.7895040863        8.3835210982        5.7858610926
  O         5.7895036890        5.6164780197        5.7858584245
  O         8.1705694081        7.0000001467        5.7812047487
       5
 i =        6, E =      -151.3652481734
 Re         6.5778873942        6.9999956470        6.3727356956
  F         6.5947826987        6.9999092476        8.2131735125
  O         5.7861889876        8.3845132625        5.7881614552
  O         5.7861877912        5.6154837713        5.7881537470
  O         8.1675783071        7.0000003056        5.7829381707
       5
 i =        7, E =      -151.3652549013
 Re         6.5747451826        6.9999866362        6.3741544312
  F         6.5947357776        6.9997259823        8.2146280967
  O         5.7847121710        8.3852045596        5.7880247509
  O         5.7847087125        5.6147862014        5.7880012399
  O         8.1634676358        7.0000006368        5.7822403309
       5
 i =        8, E =      -151.3652557479
 Re         6.5735885887        6.9999522807        6.3738689704
  F         6.5945429949        6.9990213230        8.2145706529
  O         5.7843104436        8.3854414888        5.7873438219
  O         5.7842983086        5.6145259932        5.7872604034
  O         8.1622744895        7.0000013499        5.7815244282
       5
 i =        9, E =      -151.3652557479
 Re         6.5735885887        6.9999522807        6.3738689704
  F         6.5945429949        6.9990213230        8.2145706529
  O         5.7843104436        8.3854414888        5.7873438219
  O         5.7842983086        5.6145259932        5.7872604034
  O         8.1622744895        7.0000013499        5.7815244282
