       5
 i =        1, E =       -64.0610762042
 Si         6.4999999935        6.5000000307        6.4999999817
 Cl         7.6763004240        5.3236995689        7.6763004292
 Cl         5.3236995713        7.6763004211        7.6763004398
 Cl         5.3236995774        5.3236995566        5.3236995783
 Cl         7.6763004340        7.6763004227        5.3236995710
       5
 i =        2, E =       -64.0610874017
 Si         6.4999999990        6.5000000036        6.4999999979
 Cl         7.6746657890        5.3253342122        7.6746657901
 Cl         5.3253342106        7.6746657886        7.6746657910
 Cl         5.3253342135        5.3253342063        5.3253342119
 Cl         7.6746657880        7.6746657890        5.3253342092
       5
 i =        3, E =       -64.0610874298
 Si         6.4999999997        6.5000000011        6.4999999994
 Cl         7.6747439433        5.3252560589        7.6747439439
 Cl         5.3252560567        7.6747439427        7.6747439434
 Cl         5.3252560592        5.3252560538        5.3252560579
 Cl         7.6747439412        7.6747439432        5.3252560555
       5
 i =        4, E =       -64.0610874298
 Si         6.4999999997        6.5000000011        6.4999999994
 Cl         7.6747439433        5.3252560589        7.6747439439
 Cl         5.3252560567        7.6747439427        7.6747439434
 Cl         5.3252560592        5.3252560538        5.3252560579
 Cl         7.6747439412        7.6747439432        5.3252560555
