       2
 i =        1, E =       -68.2042534800
  W         6.4992628424        6.4997488862        5.6752941412
  H         6.5007270192        6.5002447140        7.3270241586
       2
 i =        2, E =       -68.2043430413
  W         6.4992345793        6.4997396244        5.6655377274
  H         6.5007582752        6.5002549922        7.3368700328
       2
 i =        3, E =       -68.2043447165
  W         6.4992224003        6.4997360549        5.6661276258
  H         6.5008046730        6.5002699853        7.3352816257
       2
 i =        4, E =       -68.2043448539
  W         6.4992065964        6.4997316235        5.6657198457
  H         6.5008535060        6.5002855001        7.3347346232
       2
 i =        5, E =       -68.2043448540
  W         6.4992065964        6.4997316235        5.6657198457
  H         6.5008535060        6.5002855001        7.3347346232
