       5
 i =        1, E =      -112.1692155850
 Xe         7.0000001105        7.0000000885        6.9999999982
  F         8.4697436053        5.5302571663        7.0000001790
  F         8.4697431579        8.4697433401        7.0000000278
  F         5.5302567366        8.4697431211        7.0000001478
  F         5.5302574084        5.5302566289        6.9999996078
       5
 i =        2, E =      -112.1697128052
 Xe         7.0000000398        6.9999999744        6.9999999924
  F         8.4574100384        5.5425897685        7.0000004786
  F         8.4574100788        8.4574101128        6.9999997242
  F         5.5425900127        8.4574101231        7.0000006584
  F         5.5425898150        5.5425900304        6.9999991655
       5
 i =        3, E =      -112.1697585411
 Xe         6.9999999786        7.0000000058        7.0000000044
  F         8.4602148450        5.5397849780        7.0000012842
  F         8.4602150129        8.4602149423        6.9999991945
  F         5.5397849867        8.4602149360        7.0000019995
  F         5.5397849623        5.5397850212        6.9999978151
       5
 i =        4, E =      -112.1697585478
 Xe         7.0000000729        6.9999999753        7.0000000757
  F         8.4601812752        5.5398191291        7.0000047186
  F         8.4601809231        8.4601810756        6.9999970835
  F         5.5398191168        8.4601809907        7.0000074431
  F         5.5398191521        5.5398190311        6.9999923367
       5
 i =        5, E =      -112.1697585478
 Xe         7.0000000729        6.9999999753        7.0000000757
  F         8.4601812752        5.5398191291        7.0000047186
  F         8.4601809231        8.4601810756        6.9999970835
  F         5.5398191168        8.4601809907        7.0000074431
  F         5.5398191521        5.5398190311        6.9999923367
