 Entering Gaussian System, Link 0=g16
 Initial command:
 /sw-ng/spack/opt/spack/linux-opensuse_leap15-sandybridge/pgi-18.10/gaussian-src-16-C.01-zldqaomctopxhethwccpmxmwefdscg3m/g16/l1.exe "/data/hutter/SMG16/TPSS/Gau-38537.inp" -scrdir="/data/hutter/SMG16/TPSS/"
 Entering Link 1 = /sw-ng/spack/opt/spack/linux-opensuse_leap15-sandybridge/pgi-18.10/gaussian-src-16-C.01-zldqaomctopxhethwccpmxmwefdscg3m/g16/l1.exe PID=     38543.
  
 Copyright (c) 1988-2019, Gaussian, Inc.  All Rights Reserved.
  
 This is part of the Gaussian(R) 16 program.  It is based on
 the Gaussian(R) 09 system (copyright 2009, Gaussian, Inc.),
 the Gaussian(R) 03 system (copyright 2003, Gaussian, Inc.),
 the Gaussian(R) 98 system (copyright 1998, Gaussian, Inc.),
 the Gaussian(R) 94 system (copyright 1995, Gaussian, Inc.),
 the Gaussian 92(TM) system (copyright 1992, Gaussian, Inc.),
 the Gaussian 90(TM) system (copyright 1990, Gaussian, Inc.),
 the Gaussian 88(TM) system (copyright 1988, Gaussian, Inc.),
 the Gaussian 86(TM) system (copyright 1986, Carnegie Mellon
 University), and the Gaussian 82(TM) system (copyright 1983,
 Carnegie Mellon University). Gaussian is a federally registered
 trademark of Gaussian, Inc.
  
 This software contains proprietary and confidential information,
 including trade secrets, belonging to Gaussian, Inc.
  
 This software is provided under written license and may be
 used, copied, transmitted, or stored only in accord with that
 written license.
  
 The following legend is applicable only to US Government
 contracts under FAR:
  
                    RESTRICTED RIGHTS LEGEND
  
 Use, reproduction and disclosure by the US Government is
 subject to restrictions as set forth in subparagraphs (a)
 and (c) of the Commercial Computer Software - Restricted
 Rights clause in FAR 52.227-19.
  
 Gaussian, Inc.
 340 Quinnipiac St., Bldg. 40, Wallingford CT 06492
  
  
 ---------------------------------------------------------------
 Warning -- This program may not be used in any manner that
 competes with the business of Gaussian, Inc. or will provide
 assistance to any competitor of Gaussian, Inc.  The licensee
 of this program is prohibited from giving any competitor of
 Gaussian, Inc. access to this program.  By using this program,
 the user acknowledges that Gaussian, Inc. is engaged in the
 business of creating and licensing software in the field of
 computational chemistry and represents and warrants to the
 licensee that it is not a competitor of Gaussian, Inc. and that
 it will not use this program in any manner prohibited above.
 ---------------------------------------------------------------
  

 Cite this work as:
 Gaussian 16, Revision C.01,
 M. J. Frisch, G. W. Trucks, H. B. Schlegel, G. E. Scuseria, 
 M. A. Robb, J. R. Cheeseman, G. Scalmani, V. Barone, 
 G. A. Petersson, H. Nakatsuji, X. Li, M. Caricato, A. V. Marenich, 
 J. Bloino, B. G. Janesko, R. Gomperts, B. Mennucci, H. P. Hratchian, 
 J. V. Ortiz, A. F. Izmaylov, J. L. Sonnenberg, D. Williams-Young, 
 F. Ding, F. Lipparini, F. Egidi, J. Goings, B. Peng, A. Petrone, 
 T. Henderson, D. Ranasinghe, V. G. Zakrzewski, J. Gao, N. Rega, 
 G. Zheng, W. Liang, M. Hada, M. Ehara, K. Toyota, R. Fukuda, 
 J. Hasegawa, M. Ishida, T. Nakajima, Y. Honda, O. Kitao, H. Nakai, 
 T. Vreven, K. Throssell, J. A. Montgomery, Jr., J. E. Peralta, 
 F. Ogliaro, M. J. Bearpark, J. J. Heyd, E. N. Brothers, K. N. Kudin, 
 V. N. Staroverov, T. A. Keith, R. Kobayashi, J. Normand, 
 K. Raghavachari, A. P. Rendell, J. C. Burant, S. S. Iyengar, 
 J. Tomasi, M. Cossi, J. M. Millam, M. Klene, C. Adamo, R. Cammi, 
 J. W. Ochterski, R. L. Martin, K. Morokuma, O. Farkas, 
 J. B. Foresman, and D. J. Fox, Gaussian, Inc., Wallingford CT, 2019.
 
 ******************************************
 Gaussian 16:  ES64L-G16RevC.01  3-Jul-2019
                31-Jul-2021 
 ******************************************
 %mem=8GB
 %NProcShare=8
 Will use up to    8 processors via shared memory.
 -------------------------------------------------------------
 #N RTPSSTPSS/Def2QZVPP scf=tight Int(Grid=ultrafine) OPT FREQ
 -------------------------------------------------------------
 1/18=20,19=15,26=4,38=1/1,3;
 2/9=110,12=2,17=6,18=5,40=1/2;
 3/5=45,7=202,11=2,25=1,30=1,71=1,74=2523,75=-5,116=1/1,2,3;
 4//1;
 5/5=2,32=2,38=5/2;
 6/7=2,8=2,9=2,10=2,28=1/1;
 7//1,2,3,16;
 1/18=20,19=15,26=4/3(2);
 2/9=110/2;
 99//99;
 2/9=110/2;
 3/5=45,7=202,11=2,25=1,30=1,71=1,74=2523,75=-5,116=1/1,2,3;
 4/5=5,16=3,69=1/1;
 5/5=2,32=2,38=5/2;
 7//1,2,3,16;
 1/18=20,19=15,26=4/3(-5);
 2/9=110/2;
 6/7=2,8=2,9=2,10=2,19=2,28=1/1;
 99/9=1/99;
 ---------
 Mol job 1
 ---------
 Symbolic Z-matrix:
 Charge =  0 Multiplicity = 1
 Ge                    7.5       7.5       7.5 
 H                     8.39581   6.60419   8.39581 
 H                     6.60419   8.39581   8.39581 
 H                     6.60419   6.60419   6.60419 
 H                     8.39581   8.39581   6.60419 
 

 GradGradGradGradGradGradGradGradGradGradGradGradGradGradGradGradGradGrad
 Berny optimization.
 Initialization pass.
                           ----------------------------
                           !    Initial Parameters    !
                           ! (Angstroms and Degrees)  !
 --------------------------                            --------------------------
 ! Name  Definition              Value          Derivative Info.                !
 --------------------------------------------------------------------------------
 ! R1    R(1,2)                  1.5516         estimate D2E/DX2                !
 ! R2    R(1,3)                  1.5516         estimate D2E/DX2                !
 ! R3    R(1,4)                  1.5516         estimate D2E/DX2                !
 ! R4    R(1,5)                  1.5516         estimate D2E/DX2                !
 ! A1    A(2,1,3)              109.4712         estimate D2E/DX2                !
 ! A2    A(2,1,4)              109.4712         estimate D2E/DX2                !
 ! A3    A(2,1,5)              109.4712         estimate D2E/DX2                !
 ! A4    A(3,1,4)              109.4712         estimate D2E/DX2                !
 ! A5    A(3,1,5)              109.4712         estimate D2E/DX2                !
 ! A6    A(4,1,5)              109.4712         estimate D2E/DX2                !
 ! D1    D(2,1,4,3)            120.0            estimate D2E/DX2                !
 ! D2    D(2,1,5,3)           -120.0            estimate D2E/DX2                !
 ! D3    D(2,1,5,4)            120.0            estimate D2E/DX2                !
 ! D4    D(3,1,5,4)           -120.0            estimate D2E/DX2                !
 --------------------------------------------------------------------------------
 Trust Radius=3.00D-01 FncErr=1.00D-07 GrdErr=1.00D-06 EigMax=2.50D+02 EigMin=1.00D-04
 Number of steps in this run=     24 maximum allowed number of steps=    100.
 GradGradGradGradGradGradGradGradGradGradGradGradGradGradGradGradGradGrad

                          Input orientation:                          
 ---------------------------------------------------------------------
 Center     Atomic      Atomic             Coordinates (Angstroms)
 Number     Number       Type             X           Y           Z
 ---------------------------------------------------------------------
      1         32           0        7.500000    7.500000    7.500000
      2          1           0        8.395810    6.604190    8.395810
      3          1           0        6.604190    8.395810    8.395810
      4          1           0        6.604190    6.604190    6.604190
      5          1           0        8.395810    8.395810    6.604190
 ---------------------------------------------------------------------
                    Distance matrix (angstroms):
                    1          2          3          4          5
     1  Ge   0.000000
     2  H    1.551588   0.000000
     3  H    1.551588   2.533732   0.000000
     4  H    1.551588   2.533732   2.533732   0.000000
     5  H    1.551588   2.533732   2.533732   2.533732   0.000000
 Stoichiometry    GeH4
 Framework group  TD[O(Ge),4C3(H)]
 Deg. of freedom     1
 Full point group                 TD      NOp  24
 Largest Abelian subgroup         D2      NOp   4
 Largest concise Abelian subgroup D2      NOp   4
                         Standard orientation:                         
 ---------------------------------------------------------------------
 Center     Atomic      Atomic             Coordinates (Angstroms)
 Number     Number       Type             X           Y           Z
 ---------------------------------------------------------------------
      1         32           0        0.000000    0.000000    0.000000
      2          1           0        0.895810    0.895810    0.895810
      3          1           0       -0.895810   -0.895810    0.895810
      4          1           0        0.895810   -0.895810   -0.895810
      5          1           0       -0.895810    0.895810   -0.895810
 ---------------------------------------------------------------------
 Rotational constants (GHZ):          78.1107015          78.1107015          78.1107015
 Standard basis: def2QZVPP (5D, 7F)
 There are    68 symmetry adapted cartesian basis functions of A   symmetry.
 There are    61 symmetry adapted cartesian basis functions of B1  symmetry.
 There are    61 symmetry adapted cartesian basis functions of B2  symmetry.
 There are    61 symmetry adapted cartesian basis functions of B3  symmetry.
 There are    56 symmetry adapted basis functions of A   symmetry.
 There are    51 symmetry adapted basis functions of B1  symmetry.
 There are    51 symmetry adapted basis functions of B2  symmetry.
 There are    51 symmetry adapted basis functions of B3  symmetry.
   209 basis functions,   348 primitive gaussians,   251 cartesian basis functions
    18 alpha electrons       18 beta electrons
       nuclear repulsion energy        44.9081890897 Hartrees.
 NAtoms=    5 NActive=    5 NUniq=    2 SFac= 4.00D+00 NAtFMM=   60 NAOKFM=F Big=F
 Integral buffers will be    131072 words long.
 Raffenetti 2 integral format.
 Two-electron integral symmetry is turned on.
 One-electron integrals computed using PRISM.
  24 Symmetry operations used in ECPInt.
 ECPInt:  NShTT=    2278 NPrTT=    6254 LenC2=    2279 LenP2D=    5908.
 LDataN:  DoStor=T MaxTD1= 8 Len=  415
 NBasis=   209 RedAO= T EigKep=  1.65D-04  NBF=    56    51    51    51
 NBsUse=   209 1.00D-06 EigRej= -1.00D+00 NBFU=    56    51    51    51
 ExpMin= 5.79D-02 ExpMax= 7.23D+06 ExpMxC= 8.25D+03 IAcc=3 IRadAn=         5 AccDes= 0.00D+00
 Harris functional with IExCor= 1009 and IRadAn=       5 diagonalized for initial guess.
 HarFok:  IExCor= 1009 AccDes= 0.00D+00 IRadAn=         5 IDoV= 1 UseB2=F ITyADJ=14
 ICtDFT=  3500011 ScaDFX=  1.000000  1.000000  1.000000  1.000000
 FoFCou: FMM=F IPFlag=           0 FMFlag=      100000 FMFlg1=           0
         NFxFlg=           0 DoJE=T BraDBF=F KetDBF=T FulRan=T
         wScrn=  0.000000 ICntrl=       500 IOpCl=  0 I1Cent=   200000004 NGrid=           0
         NMat0=    1 NMatS0=      1 NMatT0=    0 NMatD0=    1 NMtDS0=    0 NMtDT0=    0
 Petite list used in FoFCou.
 Initial guess orbital symmetries:
       Occupied  (A1) (A1) (T2) (T2) (T2) (A1) (T2) (T2) (T2) (T2)
                 (T2) (T2) (E) (E) (A1) (T2) (T2) (T2)
       Virtual   (A1) (T2) (T2) (T2) (T2) (T2) (T2) (E) (E) (A1)
                 (T2) (T2) (T2) (A1) (T2) (T2) (T2) (T1) (T1) (T1)
                 (T2) (T2) (T2) (A1) (T2) (T2) (T2) (E) (E) (T2)
                 (T2) (T2) (T1) (T1) (T1) (E) (E) (T2) (T2) (T2)
                 (A1) (A1) (T2) (T2) (T2) (A1) (T2) (T2) (T2) (T1)
                 (T1) (T1) (E) (E) (A1) (T2) (T2) (T2) (T1) (T1)
                 (T1) (T2) (T2) (T2) (T1) (T1) (T1) (E) (E) (T2)
                 (T2) (T2) (T1) (T1) (T1) (A1) (T2) (T2) (T2) (T2)
                 (T2) (T2) (E) (E) (E) (E) (T2) (T2) (T2) (A1)
                 (A1) (T2) (T2) (T2) (T1) (T1) (T1) (E) (E) (T2)
                 (T2) (T2) (A1) (T2) (T2) (T2) (A1) (A2) (T1) (T1)
                 (T1) (T2) (T2) (T2) (T2) (T2) (T2) (A1) (T1) (T1)
                 (T1) (E) (E) (T2) (T2) (T2) (T1) (T1) (T1) (T2)
                 (T2) (T2) (E) (E) (A1) (T2) (T2) (T2) (T1) (T1)
                 (T1) (A1) (T2) (T2) (T2) (E) (E) (T2) (T2) (T2)
                 (T1) (T1) (T1) (E) (E) (T2) (T2) (T2) (T1) (T1)
                 (T1) (T2) (T2) (T2) (E) (E) (T1) (T1) (T1) (T2)
                 (T2) (T2) (A1) (T2) (T2) (T2) (A1) (A1) (T2) (T2)
                 (T2) (T1) (T1) (T1) (A1) (A1) (T2) (T2) (T2) (A1)
                 (A1)
 The electronic state of the initial guess is 1-A1.
 Keep J ints in memory in symmetry-blocked form, NReq=301069061.
 Requested convergence on RMS density matrix=1.00D-08 within 128 cycles.
 Requested convergence on MAX density matrix=1.00D-06.
 Requested convergence on             energy=1.00D-06.
 No special actions if energy rises.
 Integral accuracy reduced to 1.0D-05 until final iterations.
 Initial convergence to 1.0D-05 achieved.  Increase integral accuracy.
 SCF Done:  E(RTPSS-TPSS) =  -2079.41507211     A.U. after   10 cycles
            NFock= 10  Conv=0.68D-08     -V/T= 2.0015

 **********************************************************************

            Population analysis using the SCF Density.

 **********************************************************************

 Orbital symmetries:
       Occupied  (A1) (A1) (T2) (T2) (T2) (A1) (T2) (T2) (T2) (T2)
                 (T2) (T2) (E) (E) (A1) (T2) (T2) (T2)
       Virtual   (A1) (T2) (T2) (T2) (T2) (T2) (T2) (A1) (E) (E)
                 (T2) (T2) (T2) (A1) (T2) (T2) (T2) (T1) (T1) (T1)
                 (T2) (T2) (T2) (A1) (T2) (T2) (T2) (E) (E) (T2)
                 (T2) (T2) (T1) (T1) (T1) (E) (E) (A1) (T2) (T2)
                 (T2) (A1) (T2) (T2) (T2) (A1) (T2) (T2) (T2) (T1)
                 (T1) (T1) (E) (E) (A1) (T2) (T2) (T2) (T1) (T1)
                 (T1) (T2) (T2) (T2) (T1) (T1) (T1) (T2) (T2) (T2)
                 (E) (E) (T1) (T1) (T1) (A1) (T2) (T2) (T2) (T2)
                 (T2) (T2) (E) (E) (E) (E) (T2) (T2) (T2) (A1)
                 (A1) (T2) (T2) (T2) (T1) (T1) (T1) (E) (E) (T2)
                 (T2) (T2) (A1) (T2) (T2) (T2) (A1) (A2) (T1) (T1)
                 (T1) (T2) (T2) (T2) (A1) (T2) (T2) (T2) (T1) (T1)
                 (T1) (E) (E) (T2) (T2) (T2) (T1) (T1) (T1) (T2)
                 (T2) (T2) (E) (E) (A1) (T2) (T2) (T2) (T1) (T1)
                 (T1) (A1) (T2) (T2) (T2) (E) (E) (T2) (T2) (T2)
                 (T1) (T1) (T1) (E) (E) (T1) (T1) (T1) (T2) (T2)
                 (T2) (T2) (T2) (T2) (E) (E) (T1) (T1) (T1) (T2)
                 (T2) (T2) (A1) (T2) (T2) (T2) (A1) (A1) (T2) (T2)
                 (T2) (T1) (T1) (T1) (A1) (A1) (T2) (T2) (T2) (A1)
                 (A1)
 The electronic state is 1-A1.
 Alpha  occ. eigenvalues -- -397.69702 -49.27795 -43.81504 -43.81504 -43.81504
 Alpha  occ. eigenvalues --   -6.02283  -4.20961  -4.20961  -4.20961  -1.08654
 Alpha  occ. eigenvalues --   -1.08654  -1.08654  -1.08444  -1.08444  -0.51761
 Alpha  occ. eigenvalues --   -0.31447  -0.31447  -0.31447
 Alpha virt. eigenvalues --   -0.00098   0.01662   0.01662   0.01662   0.10473
 Alpha virt. eigenvalues --    0.10473   0.10473   0.16397   0.16443   0.16443
 Alpha virt. eigenvalues --    0.23069   0.23069   0.23069   0.25928   0.37834
 Alpha virt. eigenvalues --    0.37834   0.37834   0.46599   0.46599   0.46599
 Alpha virt. eigenvalues --    0.60655   0.60655   0.60655   0.69751   0.77741
 Alpha virt. eigenvalues --    0.77741   0.77741   0.82543   0.82543   0.88359
 Alpha virt. eigenvalues --    0.88359   0.88359   0.89268   0.89268   0.89268
 Alpha virt. eigenvalues --    0.93005   0.93005   0.95707   0.96208   0.96208
 Alpha virt. eigenvalues --    0.96208   1.14101   1.22130   1.22130   1.22130
 Alpha virt. eigenvalues --    1.37692   1.49144   1.49144   1.49144   1.66122
 Alpha virt. eigenvalues --    1.66122   1.66122   1.76339   1.76339   1.93939
 Alpha virt. eigenvalues --    1.94247   1.94247   1.94247   2.04150   2.04150
 Alpha virt. eigenvalues --    2.04150   2.13797   2.13797   2.13797   2.22762
 Alpha virt. eigenvalues --    2.22762   2.22762   2.29715   2.29715   2.29715
 Alpha virt. eigenvalues --    2.31180   2.31180   2.53488   2.53488   2.53488
 Alpha virt. eigenvalues --    2.57439   2.64152   2.64152   2.64152   2.81266
 Alpha virt. eigenvalues --    2.81266   2.81266   2.83416   2.83416   2.89595
 Alpha virt. eigenvalues --    2.89595   3.04357   3.04357   3.04357   3.14398
 Alpha virt. eigenvalues --    3.24719   3.26579   3.26579   3.26579   3.38839
 Alpha virt. eigenvalues --    3.38839   3.38839   3.44029   3.44029   3.72442
 Alpha virt. eigenvalues --    3.72442   3.72442   4.85287   5.60939   5.60939
 Alpha virt. eigenvalues --    5.60939   5.82660   5.88691   5.89615   5.89615
 Alpha virt. eigenvalues --    5.89615   5.92453   5.92453   5.92453   6.04938
 Alpha virt. eigenvalues --    6.06021   6.06021   6.06021   6.16441   6.16441
 Alpha virt. eigenvalues --    6.16441   6.24533   6.24533   6.36257   6.36257
 Alpha virt. eigenvalues --    6.36257   6.46359   6.46359   6.46359   6.65751
 Alpha virt. eigenvalues --    6.65751   6.65751   6.70421   6.70421   6.83932
 Alpha virt. eigenvalues --    7.21347   7.21347   7.21347   7.45636   7.45636
 Alpha virt. eigenvalues --    7.45636   7.76900   7.84302   7.84302   7.84302
 Alpha virt. eigenvalues --    8.01572   8.01572   8.10484   8.10484   8.10484
 Alpha virt. eigenvalues --    8.18570   8.18570   8.18570   8.36534   8.36534
 Alpha virt. eigenvalues --    8.36728   8.36728   8.36728   8.36981   8.36981
 Alpha virt. eigenvalues --    8.36981   8.88216   8.88216   8.88216   8.92360
 Alpha virt. eigenvalues --    8.92360   9.10670   9.10670   9.10670   9.18301
 Alpha virt. eigenvalues --    9.18301   9.18301   9.29383   9.73922   9.73922
 Alpha virt. eigenvalues --    9.73922  10.14027  19.21562  24.40475  24.40475
 Alpha virt. eigenvalues --   24.40475  24.51793  24.51793  24.51793  24.86965
 Alpha virt. eigenvalues --   62.85797 202.06503 202.06503 202.06503 210.60815
 Alpha virt. eigenvalues -- 1265.09860
          Condensed to atoms (all electrons):
               1          2          3          4          5
     1  Ge  30.242212   0.357019   0.357019   0.357019   0.357019
     2  H    0.357019   0.782883  -0.019158  -0.019158  -0.019158
     3  H    0.357019  -0.019158   0.782883  -0.019158  -0.019158
     4  H    0.357019  -0.019158  -0.019158   0.782883  -0.019158
     5  H    0.357019  -0.019158  -0.019158  -0.019158   0.782883
 Mulliken charges:
               1
     1  Ge   0.329710
     2  H   -0.082427
     3  H   -0.082427
     4  H   -0.082427
     5  H   -0.082427
 Sum of Mulliken charges =  -0.00000
 Mulliken charges with hydrogens summed into heavy atoms:
               1
     1  Ge  -0.000000
 Electronic spatial extent (au):  <R**2>=             80.7562
 Charge=              0.0000 electrons
 Dipole moment (field-independent basis, Debye):
    X=              0.0000    Y=              0.0000    Z=             -0.0000  Tot=              0.0000
 Quadrupole moment (field-independent basis, Debye-Ang):
   XX=            -20.7888   YY=            -20.7888   ZZ=            -20.7888
   XY=             -0.0000   XZ=              0.0000   YZ=              0.0000
 Traceless Quadrupole moment (field-independent basis, Debye-Ang):
   XX=             -0.0000   YY=             -0.0000   ZZ=              0.0000
   XY=             -0.0000   XZ=              0.0000   YZ=              0.0000
 Octapole moment (field-independent basis, Debye-Ang**2):
  XXX=             -0.0000  YYY=              0.0000  ZZZ=             -0.0000  XYY=             -0.0000
  XXY=              0.0000  XXZ=             -0.0000  XZZ=             -0.0000  YZZ=              0.0000
  YYZ=             -0.0000  XYZ=             -0.8699
 Hexadecapole moment (field-independent basis, Debye-Ang**3):
 XXXX=            -47.6059 YYYY=            -47.6059 ZZZZ=            -47.6059 XXXY=             -0.0000
 XXXZ=              0.0000 YYYX=             -0.0000 YYYZ=             -0.0000 ZZZX=              0.0000
 ZZZY=             -0.0000 XXYY=            -15.4810 XXZZ=            -15.4810 YYZZ=            -15.4810
 XXYZ=              0.0000 YYXZ=              0.0000 ZZXY=              0.0000
 N-N= 4.490818908974D+01 E-N=-5.062610781552D+03  KE= 2.076390056770D+03
 Symmetry A    KE= 1.291276083284D+03
 Symmetry B1   KE= 2.617046578285D+02
 Symmetry B2   KE= 2.617046578285D+02
 Symmetry B3   KE= 2.617046578285D+02
  24 Symmetry operations used in ECPInt.
 ECPInt:  NShTT=    2278 NPrTT=    6254 LenC2=    2279 LenP2D=    5908.
 LDataN:  DoStor=T MaxTD1= 9 Len=  602
 Calling FoFJK, ICntrl=      2527 FMM=F ISym2X=1 I1Cent= 0 IOpClX= 0 NMat=1 NMatS=1 NMatT=0.
 ***** Axes restored to original set *****
 -------------------------------------------------------------------
 Center     Atomic                   Forces (Hartrees/Bohr)
 Number     Number              X              Y              Z
 -------------------------------------------------------------------
      1       32          -0.000000000   -0.000000000    0.000000000
      2        1          -0.003413925    0.003413925   -0.003413925
      3        1           0.003413925   -0.003413925   -0.003413925
      4        1           0.003413925    0.003413925    0.003413925
      5        1          -0.003413925   -0.003413925    0.003413925
 -------------------------------------------------------------------
 Cartesian Forces:  Max     0.003413925 RMS     0.003053508

 GradGradGradGradGradGradGradGradGradGradGradGradGradGradGradGradGradGrad
 Berny optimization.
 FormGI is forming the generalized inverse of G from B-inverse, IUseBI=4.
 Internal  Forces:  Max     0.005913092 RMS     0.003160681
 Search for a local minimum.
 Step number   1 out of a maximum of   24
 All quantities printed in internal units (Hartrees-Bohrs-Radians)
 Mixed Optimization -- RFO/linear search
 Second derivative matrix not updated -- first step.
 The second derivative matrix:
                          R1        R2        R3        R4        A1
           R1           0.15860
           R2           0.00000   0.15860
           R3           0.00000   0.00000   0.15860
           R4           0.00000   0.00000   0.00000   0.15860
           A1           0.00000   0.00000   0.00000   0.00000   0.16000
           A2           0.00000   0.00000   0.00000   0.00000   0.00000
           A3           0.00000   0.00000   0.00000   0.00000   0.00000
           A4           0.00000   0.00000   0.00000   0.00000   0.00000
           A5           0.00000   0.00000   0.00000   0.00000   0.00000
           A6           0.00000   0.00000   0.00000   0.00000   0.00000
           D1           0.00000   0.00000   0.00000   0.00000   0.00000
           D2           0.00000   0.00000   0.00000   0.00000   0.00000
           D3           0.00000   0.00000   0.00000   0.00000   0.00000
           D4           0.00000   0.00000   0.00000   0.00000   0.00000
                          A2        A3        A4        A5        A6
           A2           0.16000
           A3           0.00000   0.16000
           A4           0.00000   0.00000   0.16000
           A5           0.00000   0.00000   0.00000   0.16000
           A6           0.00000   0.00000   0.00000   0.00000   0.16000
           D1           0.00000   0.00000   0.00000   0.00000   0.00000
           D2           0.00000   0.00000   0.00000   0.00000   0.00000
           D3           0.00000   0.00000   0.00000   0.00000   0.00000
           D4           0.00000   0.00000   0.00000   0.00000   0.00000
                          D1        D2        D3        D4
           D1           0.01142
           D2           0.00000   0.01142
           D3           0.00000   0.00000   0.01142
           D4           0.00000   0.00000   0.00000   0.01142
 ITU=  0
     Eigenvalues ---    0.05714   0.06310   0.09066   0.15860   0.15860
     Eigenvalues ---    0.15860   0.15860   0.16000   0.16000
 RFO step:  Lambda=-8.76994464D-04 EMin= 5.71378869D-02
 Linear search not attempted -- first point.
 Iteration  1 RMS(Cart)=  0.01981929 RMS(Int)=  0.00000000
 Iteration  2 RMS(Cart)=  0.00000000 RMS(Int)=  0.00000000
 ClnCor:  largest displacement from symmetrization is 3.38D-13 for atom     3.
 Variable       Old X    -DE/DX   Delta X   Delta X   Delta X     New X
                                 (Linear)    (Quad)   (Total)
    R1        2.93208  -0.00591   0.00000  -0.03708  -0.03708   2.89500
    R2        2.93208  -0.00591   0.00000  -0.03708  -0.03708   2.89500
    R3        2.93208  -0.00591   0.00000  -0.03708  -0.03708   2.89500
    R4        2.93208  -0.00591   0.00000  -0.03708  -0.03708   2.89500
    A1        1.91063  -0.00000   0.00000   0.00000   0.00000   1.91063
    A2        1.91063   0.00000   0.00000  -0.00000   0.00000   1.91063
    A3        1.91063  -0.00000   0.00000  -0.00000   0.00000   1.91063
    A4        1.91063   0.00000   0.00000   0.00000   0.00000   1.91063
    A5        1.91063  -0.00000   0.00000   0.00000   0.00000   1.91063
    A6        1.91063  -0.00000   0.00000  -0.00000   0.00000   1.91063
    D1        2.09440   0.00000   0.00000   0.00000   0.00000   2.09440
    D2       -2.09440   0.00000   0.00000   0.00000   0.00000  -2.09440
    D3        2.09440  -0.00000   0.00000  -0.00000   0.00000   2.09440
    D4       -2.09440  -0.00000   0.00000  -0.00000   0.00000  -2.09440
         Item               Value     Threshold  Converged?
 Maximum Force            0.005913     0.000450     NO 
 RMS     Force            0.003161     0.000300     NO 
 Maximum Displacement     0.021407     0.001800     NO 
 RMS     Displacement     0.019819     0.001200     NO 
 Predicted change in Energy=-4.409086D-04
 GradGradGradGradGradGradGradGradGradGradGradGradGradGradGradGradGradGrad

                          Input orientation:                          
 ---------------------------------------------------------------------
 Center     Atomic      Atomic             Coordinates (Angstroms)
 Number     Number       Type             X           Y           Z
 ---------------------------------------------------------------------
      1         32           0        7.500000    7.500000    7.500000
      2          1           0        8.384481    6.615519    8.384481
      3          1           0        6.615519    8.384481    8.384481
      4          1           0        6.615519    6.615519    6.615519
      5          1           0        8.384481    8.384481    6.615519
 ---------------------------------------------------------------------
                    Distance matrix (angstroms):
                    1          2          3          4          5
     1  Ge   0.000000
     2  H    1.531967   0.000000
     3  H    1.531967   2.501691   0.000000
     4  H    1.531967   2.501691   2.501691   0.000000
     5  H    1.531967   2.501691   2.501691   2.501691   0.000000
 Stoichiometry    GeH4
 Framework group  TD[O(Ge),4C3(H)]
 Deg. of freedom     1
 Full point group                 TD      NOp  24
 Largest Abelian subgroup         D2      NOp   4
 Largest concise Abelian subgroup D2      NOp   4
                         Standard orientation:                         
 ---------------------------------------------------------------------
 Center     Atomic      Atomic             Coordinates (Angstroms)
 Number     Number       Type             X           Y           Z
 ---------------------------------------------------------------------
      1         32           0        0.000000    0.000000    0.000000
      2          1           0        0.884481    0.884481    0.884481
      3          1           0       -0.884481   -0.884481    0.884481
      4          1           0        0.884481   -0.884481   -0.884481
      5          1           0       -0.884481    0.884481   -0.884481
 ---------------------------------------------------------------------
 Rotational constants (GHZ):          80.1243644          80.1243644          80.1243644
 Standard basis: def2QZVPP (5D, 7F)
 There are    68 symmetry adapted cartesian basis functions of A   symmetry.
 There are    61 symmetry adapted cartesian basis functions of B1  symmetry.
 There are    61 symmetry adapted cartesian basis functions of B2  symmetry.
 There are    61 symmetry adapted cartesian basis functions of B3  symmetry.
 There are    56 symmetry adapted basis functions of A   symmetry.
 There are    51 symmetry adapted basis functions of B1  symmetry.
 There are    51 symmetry adapted basis functions of B2  symmetry.
 There are    51 symmetry adapted basis functions of B3  symmetry.
   209 basis functions,   348 primitive gaussians,   251 cartesian basis functions
    18 alpha electrons       18 beta electrons
       nuclear repulsion energy        45.4833633828 Hartrees.
 NAtoms=    5 NActive=    5 NUniq=    2 SFac= 4.00D+00 NAtFMM=   60 NAOKFM=F Big=F
 Integral buffers will be    131072 words long.
 Raffenetti 2 integral format.
 Two-electron integral symmetry is turned on.
 One-electron integrals computed using PRISM.
  24 Symmetry operations used in ECPInt.
 ECPInt:  NShTT=    2278 NPrTT=    6254 LenC2=    2279 LenP2D=    5912.
 LDataN:  DoStor=T MaxTD1= 8 Len=  415
 NBasis=   209 RedAO= T EigKep=  1.50D-04  NBF=    56    51    51    51
 NBsUse=   209 1.00D-06 EigRej= -1.00D+00 NBFU=    56    51    51    51
 Initial guess from the checkpoint file:  "/data/hutter/SMG16/TPSS/Gau-38543.chk"
 B after Tr=     0.000000    0.000000    0.000000
         Rot=    1.000000    0.000000    0.000000    0.000000 Ang=   0.00 deg.
 Initial guess orbital symmetries:
       Occupied  (A1) (A1) (T2) (T2) (T2) (A1) (T2) (T2) (T2) (T2)
                 (T2) (T2) (E) (E) (A1) (T2) (T2) (T2)
       Virtual   (A1) (T2) (T2) (T2) (T2) (T2) (T2) (A1) (E) (E)
                 (T2) (T2) (T2) (A1) (T2) (T2) (T2) (T1) (T1) (T1)
                 (T2) (T2) (T2) (A1) (T2) (T2) (T2) (E) (E) (T2)
                 (T2) (T2) (T1) (T1) (T1) (E) (E) (A1) (T2) (T2)
                 (T2) (A1) (T2) (T2) (T2) (A1) (T2) (T2) (T2) (T1)
                 (T1) (T1) (E) (E) (A1) (T2) (T2) (T2) (T1) (T1)
                 (T1) (T2) (T2) (T2) (T1) (T1) (T1) (T2) (T2) (T2)
                 (E) (E) (T1) (T1) (T1) (A1) (T2) (T2) (T2) (T2)
                 (T2) (T2) (E) (E) (E) (E) (T2) (T2) (T2) (A1)
                 (A1) (T2) (T2) (T2) (T1) (T1) (T1) (E) (E) (T2)
                 (T2) (T2) (A1) (T2) (T2) (T2) (A1) (A2) (T1) (T1)
                 (T1) (T2) (T2) (T2) (A1) (T2) (T2) (T2) (T1) (T1)
                 (T1) (E) (E) (T2) (T2) (T2) (T1) (T1) (T1) (T2)
                 (T2) (T2) (E) (E) (A1) (T2) (T2) (T2) (T1) (T1)
                 (T1) (A1) (T2) (T2) (T2) (E) (E) (T2) (T2) (T2)
                 (T1) (T1) (T1) (E) (E) (T1) (T1) (T1) (T2) (T2)
                 (T2) (T2) (T2) (T2) (E) (E) (T1) (T1) (T1) (T2)
                 (T2) (T2) (A1) (T2) (T2) (T2) (A1) (A1) (T2) (T2)
                 (T2) (T1) (T1) (T1) (A1) (A1) (T2) (T2) (T2) (A1)
                 (A1)
 ExpMin= 5.79D-02 ExpMax= 7.23D+06 ExpMxC= 8.25D+03 IAcc=3 IRadAn=         5 AccDes= 0.00D+00
 Harris functional with IExCor= 1009 and IRadAn=       5 diagonalized for initial guess.
 HarFok:  IExCor= 1009 AccDes= 0.00D+00 IRadAn=         5 IDoV= 1 UseB2=F ITyADJ=14
 ICtDFT=  3500011 ScaDFX=  1.000000  1.000000  1.000000  1.000000
 FoFCou: FMM=F IPFlag=           0 FMFlag=      100000 FMFlg1=           0
         NFxFlg=           0 DoJE=T BraDBF=F KetDBF=T FulRan=T
         wScrn=  0.000000 ICntrl=       500 IOpCl=  0 I1Cent=   200000004 NGrid=           0
         NMat0=    1 NMatS0=      1 NMatT0=    0 NMatD0=    1 NMtDS0=    0 NMtDT0=    0
 Petite list used in FoFCou.
 Keep J ints in memory in symmetry-blocked form, NReq=301069061.
 Requested convergence on RMS density matrix=1.00D-08 within 128 cycles.
 Requested convergence on MAX density matrix=1.00D-06.
 Requested convergence on             energy=1.00D-06.
 No special actions if energy rises.
 Integral accuracy reduced to 1.0D-05 until final iterations.
 Initial convergence to 1.0D-05 achieved.  Increase integral accuracy.
 SCF Done:  E(RTPSS-TPSS) =  -2079.41549439     A.U. after    8 cycles
            NFock=  8  Conv=0.82D-08     -V/T= 2.0014
  24 Symmetry operations used in ECPInt.
 ECPInt:  NShTT=    2278 NPrTT=    6254 LenC2=    2279 LenP2D=    5912.
 LDataN:  DoStor=T MaxTD1= 9 Len=  602
 Calling FoFJK, ICntrl=      2527 FMM=F ISym2X=1 I1Cent= 0 IOpClX= 0 NMat=1 NMatS=1 NMatT=0.
 ***** Axes restored to original set *****
 -------------------------------------------------------------------
 Center     Atomic                   Forces (Hartrees/Bohr)
 Number     Number              X              Y              Z
 -------------------------------------------------------------------
      1       32          -0.000000000   -0.000000000   -0.000000000
      2        1           0.000179564   -0.000179564    0.000179564
      3        1          -0.000179564    0.000179564    0.000179564
      4        1          -0.000179564   -0.000179564   -0.000179564
      5        1           0.000179564    0.000179564   -0.000179564
 -------------------------------------------------------------------
 Cartesian Forces:  Max     0.000179564 RMS     0.000160607

 GradGradGradGradGradGradGradGradGradGradGradGradGradGradGradGradGradGrad
 Berny optimization.
 Using GEDIIS/GDIIS optimizer.
 FormGI is forming the generalized inverse of G from B-inverse, IUseBI=4.
 Internal  Forces:  Max     0.000311013 RMS     0.000166244
 Search for a local minimum.
 Step number   2 out of a maximum of   24
 All quantities printed in internal units (Hartrees-Bohrs-Radians)
 Mixed Optimization -- En-DIIS/RFO-DIIS
 Update second derivatives using D2CorX and points    1    2
 DE= -4.22D-04 DEPred=-4.41D-04 R= 9.58D-01
 TightC=F SS=  1.41D+00  RLast= 7.42D-02 DXNew= 5.0454D-01 2.2247D-01
 Trust test= 9.58D-01 RLast= 7.42D-02 DXMaxT set to 3.00D-01
 The second derivative matrix:
                          R1        R2        R3        R4        A1
           R1           0.16091
           R2           0.00232   0.16091
           R3           0.00232   0.00232   0.16091
           R4           0.00232   0.00232   0.00232   0.16091
           A1           0.00000   0.00000   0.00000   0.00000   0.16000
           A2           0.00000   0.00000   0.00000   0.00000   0.00000
           A3          -0.00000  -0.00000  -0.00000  -0.00000  -0.00000
           A4          -0.00000  -0.00000  -0.00000  -0.00000  -0.00000
           A5           0.00000   0.00000   0.00000   0.00000   0.00000
           A6           0.00000   0.00000   0.00000   0.00000   0.00000
           D1           0.00000   0.00000   0.00000   0.00000   0.00000
           D2           0.00000   0.00000   0.00000   0.00000   0.00000
           D3           0.00000   0.00000   0.00000   0.00000   0.00000
           D4           0.00000   0.00000   0.00000   0.00000   0.00000
                          A2        A3        A4        A5        A6
           A2           0.16000
           A3          -0.00000   0.16000
           A4          -0.00000   0.00000   0.16000
           A5           0.00000  -0.00000  -0.00000   0.16000
           A6           0.00000  -0.00000  -0.00000   0.00000   0.16000
           D1           0.00000  -0.00000  -0.00000   0.00000   0.00000
           D2           0.00000  -0.00000  -0.00000   0.00000   0.00000
           D3           0.00000  -0.00000  -0.00000   0.00000   0.00000
           D4           0.00000  -0.00000  -0.00000   0.00000   0.00000
                          D1        D2        D3        D4
           D1           0.01142
           D2           0.00000   0.01142
           D3           0.00000   0.00000   0.01142
           D4           0.00000   0.00000   0.00000   0.01142
 ITU=  1  0
 Use linear search instead of GDIIS.
     Eigenvalues ---    0.05714   0.06310   0.09066   0.15860   0.15860
     Eigenvalues ---    0.15860   0.16000   0.16000   0.16786
 RFO step:  Lambda= 0.00000000D+00 EMin= 5.71378869D-02
 Quartic linear search produced a step of -0.04793.
 Iteration  1 RMS(Cart)=  0.00094986 RMS(Int)=  0.00000000
 Iteration  2 RMS(Cart)=  0.00000000 RMS(Int)=  0.00000000
 ClnCor:  largest displacement from symmetrization is 1.80D-13 for atom     2.
 Variable       Old X    -DE/DX   Delta X   Delta X   Delta X     New X
                                 (Linear)    (Quad)   (Total)
    R1        2.89500   0.00031   0.00178  -0.00000   0.00178   2.89677
    R2        2.89500   0.00031   0.00178   0.00000   0.00178   2.89677
    R3        2.89500   0.00031   0.00178   0.00000   0.00178   2.89677
    R4        2.89500   0.00031   0.00178  -0.00000   0.00178   2.89677
    A1        1.91063   0.00000   0.00000   0.00000   0.00000   1.91063
    A2        1.91063   0.00000   0.00000   0.00000   0.00000   1.91063
    A3        1.91063  -0.00000   0.00000  -0.00000   0.00000   1.91063
    A4        1.91063  -0.00000   0.00000   0.00000  -0.00000   1.91063
    A5        1.91063   0.00000   0.00000  -0.00000  -0.00000   1.91063
    A6        1.91063   0.00000   0.00000   0.00000  -0.00000   1.91063
    D1        2.09440   0.00000   0.00000   0.00000   0.00000   2.09440
    D2       -2.09440   0.00000   0.00000   0.00000  -0.00000  -2.09440
    D3        2.09440  -0.00000   0.00000  -0.00000   0.00000   2.09440
    D4       -2.09440  -0.00000   0.00000  -0.00000   0.00000  -2.09440
         Item               Value     Threshold  Converged?
 Maximum Force            0.000311     0.000450     YES
 RMS     Force            0.000166     0.000300     YES
 Maximum Displacement     0.001026     0.001800     YES
 RMS     Displacement     0.000950     0.001200     YES
 Predicted change in Energy=-1.150554D-06
 Optimization completed.
    -- Stationary point found.
                           ----------------------------
                           !   Optimized Parameters   !
                           ! (Angstroms and Degrees)  !
 --------------------------                            --------------------------
 ! Name  Definition              Value          Derivative Info.                !
 --------------------------------------------------------------------------------
 ! R1    R(1,2)                  1.532          -DE/DX =    0.0003              !
 ! R2    R(1,3)                  1.532          -DE/DX =    0.0003              !
 ! R3    R(1,4)                  1.532          -DE/DX =    0.0003              !
 ! R4    R(1,5)                  1.532          -DE/DX =    0.0003              !
 ! A1    A(2,1,3)              109.4712         -DE/DX =    0.0                 !
 ! A2    A(2,1,4)              109.4712         -DE/DX =    0.0                 !
 ! A3    A(2,1,5)              109.4712         -DE/DX =    0.0                 !
 ! A4    A(3,1,4)              109.4712         -DE/DX =    0.0                 !
 ! A5    A(3,1,5)              109.4712         -DE/DX =    0.0                 !
 ! A6    A(4,1,5)              109.4712         -DE/DX =    0.0                 !
 ! D1    D(2,1,4,3)            120.0            -DE/DX =    0.0                 !
 ! D2    D(2,1,5,3)           -120.0            -DE/DX =    0.0                 !
 ! D3    D(2,1,5,4)            120.0            -DE/DX =    0.0                 !
 ! D4    D(3,1,5,4)           -120.0            -DE/DX =    0.0                 !
 --------------------------------------------------------------------------------
 GradGradGradGradGradGradGradGradGradGradGradGradGradGradGradGradGradGrad

                          Input orientation:                          
 ---------------------------------------------------------------------
 Center     Atomic      Atomic             Coordinates (Angstroms)
 Number     Number       Type             X           Y           Z
 ---------------------------------------------------------------------
      1         32           0        7.500000    7.500000    7.500000
      2          1           0        8.384481    6.615519    8.384481
      3          1           0        6.615519    8.384481    8.384481
      4          1           0        6.615519    6.615519    6.615519
      5          1           0        8.384481    8.384481    6.615519
 ---------------------------------------------------------------------
                    Distance matrix (angstroms):
                    1          2          3          4          5
     1  Ge   0.000000
     2  H    1.531967   0.000000
     3  H    1.531967   2.501691   0.000000
     4  H    1.531967   2.501691   2.501691   0.000000
     5  H    1.531967   2.501691   2.501691   2.501691   0.000000
 Stoichiometry    GeH4
 Framework group  TD[O(Ge),4C3(H)]
 Deg. of freedom     1
 Full point group                 TD      NOp  24
 Largest Abelian subgroup         D2      NOp   4
 Largest concise Abelian subgroup D2      NOp   4
                         Standard orientation:                         
 ---------------------------------------------------------------------
 Center     Atomic      Atomic             Coordinates (Angstroms)
 Number     Number       Type             X           Y           Z
 ---------------------------------------------------------------------
      1         32           0        0.000000    0.000000    0.000000
      2          1           0        0.884481    0.884481    0.884481
      3          1           0       -0.884481   -0.884481    0.884481
      4          1           0        0.884481   -0.884481   -0.884481
      5          1           0       -0.884481    0.884481   -0.884481
 ---------------------------------------------------------------------
 Rotational constants (GHZ):          80.1243644          80.1243644          80.1243644

 **********************************************************************

            Population analysis using the SCF Density.

 **********************************************************************

 Orbital symmetries:
       Occupied  (A1) (A1) (T2) (T2) (T2) (A1) (T2) (T2) (T2) (T2)
                 (T2) (T2) (E) (E) (A1) (T2) (T2) (T2)
       Virtual   (A1) (T2) (T2) (T2) (T2) (T2) (T2) (E) (E) (A1)
                 (T2) (T2) (T2) (A1) (T2) (T2) (T2) (T1) (T1) (T1)
                 (T2) (T2) (T2) (A1) (T2) (T2) (T2) (E) (E) (T2)
                 (T2) (T2) (T1) (T1) (T1) (E) (E) (T2) (T2) (T2)
                 (A1) (A1) (T2) (T2) (T2) (A1) (T2) (T2) (T2) (T1)
                 (T1) (T1) (E) (E) (T2) (T2) (T2) (A1) (T1) (T1)
                 (T1) (T2) (T2) (T2) (T1) (T1) (T1) (T2) (T2) (T2)
                 (E) (E) (T1) (T1) (T1) (A1) (T2) (T2) (T2) (T2)
                 (T2) (T2) (E) (E) (E) (E) (T2) (T2) (T2) (A1)
                 (A1) (T2) (T2) (T2) (T1) (T1) (T1) (E) (E) (T2)
                 (T2) (T2) (A1) (T2) (T2) (T2) (A1) (A2) (T1) (T1)
                 (T1) (T2) (T2) (T2) (T2) (T2) (T2) (A1) (T1) (T1)
                 (T1) (E) (E) (T2) (T2) (T2) (T1) (T1) (T1) (T2)
                 (T2) (T2) (E) (E) (A1) (T2) (T2) (T2) (T1) (T1)
                 (T1) (A1) (T2) (T2) (T2) (E) (E) (T2) (T2) (T2)
                 (T1) (T1) (T1) (E) (E) (T2) (T2) (T2) (T1) (T1)
                 (T1) (T2) (T2) (T2) (E) (E) (T1) (T1) (T1) (T2)
                 (T2) (T2) (A1) (T2) (T2) (T2) (A1) (A1) (T2) (T2)
                 (T2) (T1) (T1) (T1) (A1) (A1) (T2) (T2) (T2) (A1)
                 (A1)
 The electronic state is 1-A1.
 Alpha  occ. eigenvalues -- -397.69390 -49.27549 -43.81250 -43.81250 -43.81250
 Alpha  occ. eigenvalues --   -6.02066  -4.20745  -4.20745  -4.20745  -1.08476
 Alpha  occ. eigenvalues --   -1.08476  -1.08476  -1.08242  -1.08242  -0.52061
 Alpha  occ. eigenvalues --   -0.31572  -0.31572  -0.31572
 Alpha virt. eigenvalues --    0.00354   0.01881   0.01881   0.01881   0.10511
 Alpha virt. eigenvalues --    0.10511   0.10511   0.16501   0.16501   0.16827
 Alpha virt. eigenvalues --    0.23226   0.23226   0.23226   0.26226   0.37963
 Alpha virt. eigenvalues --    0.37963   0.37963   0.47027   0.47027   0.47027
 Alpha virt. eigenvalues --    0.61180   0.61180   0.61180   0.69470   0.77680
 Alpha virt. eigenvalues --    0.77680   0.77680   0.82201   0.82201   0.88409
 Alpha virt. eigenvalues --    0.88409   0.88409   0.89348   0.89348   0.89348
 Alpha virt. eigenvalues --    0.94010   0.94010   0.96477   0.96477   0.96477
 Alpha virt. eigenvalues --    0.96712   1.13570   1.23042   1.23042   1.23042
 Alpha virt. eigenvalues --    1.37606   1.50574   1.50574   1.50574   1.66396
 Alpha virt. eigenvalues --    1.66396   1.66396   1.76979   1.76979   1.94319
 Alpha virt. eigenvalues --    1.94319   1.94319   1.95369   2.04549   2.04549
 Alpha virt. eigenvalues --    2.04549   2.14936   2.14936   2.14936   2.23346
 Alpha virt. eigenvalues --    2.23346   2.23346   2.31318   2.31318   2.31318
 Alpha virt. eigenvalues --    2.32563   2.32563   2.55171   2.55171   2.55171
 Alpha virt. eigenvalues --    2.59532   2.65664   2.65664   2.65664   2.80419
 Alpha virt. eigenvalues --    2.80419   2.80419   2.86017   2.86017   2.91936
 Alpha virt. eigenvalues --    2.91936   3.07263   3.07263   3.07263   3.14243
 Alpha virt. eigenvalues --    3.23560   3.27352   3.27352   3.27352   3.41436
 Alpha virt. eigenvalues --    3.41436   3.41436   3.43706   3.43706   3.74717
 Alpha virt. eigenvalues --    3.74717   3.74717   4.84837   5.61406   5.61406
 Alpha virt. eigenvalues --    5.61406   5.86394   5.88364   5.89264   5.89264
 Alpha virt. eigenvalues --    5.89264   5.92906   5.92906   5.92906   6.06012
 Alpha virt. eigenvalues --    6.06012   6.06012   6.06672   6.18839   6.18839
 Alpha virt. eigenvalues --    6.18839   6.26628   6.26628   6.37835   6.37835
 Alpha virt. eigenvalues --    6.37835   6.49104   6.49104   6.49104   6.70871
 Alpha virt. eigenvalues --    6.70871   6.70871   6.74096   6.74096   6.88065
 Alpha virt. eigenvalues --    7.22466   7.22466   7.22466   7.45613   7.45613
 Alpha virt. eigenvalues --    7.45613   7.81054   7.88337   7.88337   7.88337
 Alpha virt. eigenvalues --    8.02416   8.02416   8.12236   8.12236   8.12236
 Alpha virt. eigenvalues --    8.19555   8.19555   8.19555   8.37844   8.37844
 Alpha virt. eigenvalues --    8.38328   8.38328   8.38328   8.40822   8.40822
 Alpha virt. eigenvalues --    8.40822   8.90601   8.90601   8.90601   8.95314
 Alpha virt. eigenvalues --    8.95314   9.14316   9.14316   9.14316   9.22410
 Alpha virt. eigenvalues --    9.22410   9.22410   9.29185   9.76249   9.76249
 Alpha virt. eigenvalues --    9.76249  10.21436  19.26706  24.41272  24.41272
 Alpha virt. eigenvalues --   24.41272  24.53923  24.53923  24.53923  24.88715
 Alpha virt. eigenvalues --   62.90406 202.23195 202.23195 202.23195 210.65174
 Alpha virt. eigenvalues -- 1265.17753
          Condensed to atoms (all electrons):
               1          2          3          4          5
     1  Ge  30.239987   0.359503   0.359503   0.359503   0.359503
     2  H    0.359503   0.780081  -0.019695  -0.019695  -0.019695
     3  H    0.359503  -0.019695   0.780081  -0.019695  -0.019695
     4  H    0.359503  -0.019695  -0.019695   0.780081  -0.019695
     5  H    0.359503  -0.019695  -0.019695  -0.019695   0.780081
 Mulliken charges:
               1
     1  Ge   0.322001
     2  H   -0.080500
     3  H   -0.080500
     4  H   -0.080500
     5  H   -0.080500
 Sum of Mulliken charges =   0.00000
 Mulliken charges with hydrogens summed into heavy atoms:
               1
     1  Ge   0.000000
 Electronic spatial extent (au):  <R**2>=             79.7186
 Charge=              0.0000 electrons
 Dipole moment (field-independent basis, Debye):
    X=              0.0000    Y=              0.0000    Z=              0.0000  Tot=              0.0000
 Quadrupole moment (field-independent basis, Debye-Ang):
   XX=            -20.7111   YY=            -20.7111   ZZ=            -20.7111
   XY=             -0.0000   XZ=              0.0000   YZ=              0.0000
 Traceless Quadrupole moment (field-independent basis, Debye-Ang):
   XX=              0.0000   YY=             -0.0000   ZZ=              0.0000
   XY=             -0.0000   XZ=              0.0000   YZ=              0.0000
 Octapole moment (field-independent basis, Debye-Ang**2):
  XXX=              0.0000  YYY=              0.0000  ZZZ=             -0.0000  XYY=              0.0000
  XXY=              0.0000  XXZ=             -0.0000  XZZ=              0.0000  YZZ=              0.0000
  YYZ=             -0.0000  XYZ=             -0.8928
 Hexadecapole moment (field-independent basis, Debye-Ang**3):
 XXXX=            -46.6752 YYYY=            -46.6752 ZZZZ=            -46.6752 XXXY=              0.0000
 XXXZ=             -0.0000 YYYX=              0.0000 YYYZ=             -0.0000 ZZZX=             -0.0000
 ZZZY=             -0.0000 XXYY=            -15.2110 XXZZ=            -15.2110 YYZZ=            -15.2110
 XXYZ=             -0.0000 YYXZ=              0.0000 ZZXY=             -0.0000
 N-N= 4.548336338283D+01 E-N=-5.063875194984D+03  KE= 2.076465603533D+03
 Symmetry A    KE= 1.291270060371D+03
 Symmetry B1   KE= 2.617318477206D+02
 Symmetry B2   KE= 2.617318477206D+02
 Symmetry B3   KE= 2.617318477206D+02
 Unable to Open any file for archive entry.
 1\1\GINC-TCOPT10\FOpt\RTPSSTPSS\def2QZVPP\Ge1H4\HUTTER\31-Jul-2021\0\\
 #N RTPSSTPSS/Def2QZVPP scf=tight Int(Grid=ultrafine) OPT FREQ\\Mol job
  1\\0,1\Ge,7.5,7.5,7.5\H,8.3844814643,6.6155185357,8.3844814643\H,6.61
 55185357,8.3844814643,8.3844814643\H,6.6155185357,6.6155185357,6.61551
 85357\H,8.3844814643,8.3844814643,6.6155185357\\Version=ES64L-G16RevC.
 01\State=1-A1\HF=-2079.4154944\RMSD=8.245e-09\RMSF=1.606e-04\Dipole=0.
 ,0.,0.\Quadrupole=0.,0.,0.,0.,0.,0.\PG=TD [O(Ge1),4C3(H1)]\\@
 The archive entry for this job was punched.


 A COMPUTER IS LIKE A HORSE, IT WILL SENSE WEAKNESS.
     -- GREG WETTSTEIN
 Job cpu time:       0 days  0 hours  7 minutes  9.8 seconds.
 Elapsed time:       0 days  0 hours  1 minutes  1.8 seconds.
 File lengths (MBytes):  RWF=     23 Int=      0 D2E=      0 Chk=      4 Scr=      1
 Normal termination of Gaussian 16 at Sat Jul 31 23:03:56 2021.
 Link1:  Proceeding to internal job step number  2.
 ----------------------------------------------------------------------
 #N Geom=AllCheck Guess=TCheck SCRF=Check GenChk RTPSSTPSS/def2QZVPP Fr
 eq
 ----------------------------------------------------------------------
 1/10=4,29=7,30=1,38=1,40=1/1,3;
 2/12=2,40=1/2;
 3/5=45,7=202,11=2,14=-4,25=1,30=1,70=2,71=2,74=2523,75=-5,116=1,140=1/1,2,3;
 4/5=101/1;
 5/5=2,32=2,38=6,98=1/2;
 8/6=4,10=90,11=11/1;
 11/6=1,8=1,9=11,15=111,16=1/1,2,10;
 10/6=1/2;
 6/7=2,8=2,9=2,10=2,28=1/1;
 7/8=1,10=1,25=1/1,2,3,16;
 1/10=4,30=1/3;
 99//99;
 Structure from the checkpoint file:  "/data/hutter/SMG16/TPSS/Gau-38543.chk"
 ---------
 Mol job 1
 ---------
 Charge =  0 Multiplicity = 1
 Redundant internal coordinates found in file.  (old form).
 Ge,0,7.5,7.5,7.5
 H,0,8.3844814643,6.6155185357,8.3844814643
 H,0,6.6155185357,8.3844814643,8.3844814643
 H,0,6.6155185357,6.6155185357,6.6155185357
 H,0,8.3844814643,8.3844814643,6.6155185357
 Recover connectivity data from disk.

 GradGradGradGradGradGradGradGradGradGradGradGradGradGradGradGradGradGrad
 Berny optimization.
 Initialization pass.
                           ----------------------------
                           !    Initial Parameters    !
                           ! (Angstroms and Degrees)  !
 --------------------------                            --------------------------
 ! Name  Definition              Value          Derivative Info.                !
 --------------------------------------------------------------------------------
 ! R1    R(1,2)                  1.532          calculate D2E/DX2 analytically  !
 ! R2    R(1,3)                  1.532          calculate D2E/DX2 analytically  !
 ! R3    R(1,4)                  1.532          calculate D2E/DX2 analytically  !
 ! R4    R(1,5)                  1.532          calculate D2E/DX2 analytically  !
 ! A1    A(2,1,3)              109.4712         calculate D2E/DX2 analytically  !
 ! A2    A(2,1,4)              109.4712         calculate D2E/DX2 analytically  !
 ! A3    A(2,1,5)              109.4712         calculate D2E/DX2 analytically  !
 ! A4    A(3,1,4)              109.4712         calculate D2E/DX2 analytically  !
 ! A5    A(3,1,5)              109.4712         calculate D2E/DX2 analytically  !
 ! A6    A(4,1,5)              109.4712         calculate D2E/DX2 analytically  !
 ! D1    D(2,1,4,3)            120.0            calculate D2E/DX2 analytically  !
 ! D2    D(2,1,5,3)           -120.0            calculate D2E/DX2 analytically  !
 ! D3    D(2,1,5,4)            120.0            calculate D2E/DX2 analytically  !
 ! D4    D(3,1,5,4)           -120.0            calculate D2E/DX2 analytically  !
 --------------------------------------------------------------------------------
 Trust Radius=3.00D-01 FncErr=1.00D-07 GrdErr=1.00D-07 EigMax=2.50D+02 EigMin=1.00D-04
 Number of steps in this run=      2 maximum allowed number of steps=      2.
 GradGradGradGradGradGradGradGradGradGradGradGradGradGradGradGradGradGrad

                          Input orientation:                          
 ---------------------------------------------------------------------
 Center     Atomic      Atomic             Coordinates (Angstroms)
 Number     Number       Type             X           Y           Z
 ---------------------------------------------------------------------
      1         32           0        7.500000    7.500000    7.500000
      2          1           0        8.384481    6.615519    8.384481
      3          1           0        6.615519    8.384481    8.384481
      4          1           0        6.615519    6.615519    6.615519
      5          1           0        8.384481    8.384481    6.615519
 ---------------------------------------------------------------------
                    Distance matrix (angstroms):
                    1          2          3          4          5
     1  Ge   0.000000
     2  H    1.531967   0.000000
     3  H    1.531967   2.501691   0.000000
     4  H    1.531967   2.501691   2.501691   0.000000
     5  H    1.531967   2.501691   2.501691   2.501691   0.000000
 Stoichiometry    GeH4
 Framework group  TD[O(Ge),4C3(H)]
 Deg. of freedom     1
 Full point group                 TD      NOp  24
 Largest Abelian subgroup         D2      NOp   4
 Largest concise Abelian subgroup D2      NOp   4
                         Standard orientation:                         
 ---------------------------------------------------------------------
 Center     Atomic      Atomic             Coordinates (Angstroms)
 Number     Number       Type             X           Y           Z
 ---------------------------------------------------------------------
      1         32           0        0.000000    0.000000    0.000000
      2          1           0        0.884481    0.884481    0.884481
      3          1           0       -0.884481   -0.884481    0.884481
      4          1           0        0.884481   -0.884481   -0.884481
      5          1           0       -0.884481    0.884481   -0.884481
 ---------------------------------------------------------------------
 Rotational constants (GHZ):          80.1243644          80.1243644          80.1243644
 Standard basis: def2QZVPP (5D, 7F)
 There are    68 symmetry adapted cartesian basis functions of A   symmetry.
 There are    61 symmetry adapted cartesian basis functions of B1  symmetry.
 There are    61 symmetry adapted cartesian basis functions of B2  symmetry.
 There are    61 symmetry adapted cartesian basis functions of B3  symmetry.
 There are    56 symmetry adapted basis functions of A   symmetry.
 There are    51 symmetry adapted basis functions of B1  symmetry.
 There are    51 symmetry adapted basis functions of B2  symmetry.
 There are    51 symmetry adapted basis functions of B3  symmetry.
   209 basis functions,   348 primitive gaussians,   251 cartesian basis functions
    18 alpha electrons       18 beta electrons
       nuclear repulsion energy        45.4833633828 Hartrees.
 NAtoms=    5 NActive=    5 NUniq=    2 SFac= 4.00D+00 NAtFMM=   60 NAOKFM=F Big=F
 Integral buffers will be    131072 words long.
 Raffenetti 2 integral format.
 Two-electron integral symmetry is turned on.
 One-electron integrals computed using PRISM.
  24 Symmetry operations used in ECPInt.
 ECPInt:  NShTT=    2278 NPrTT=    6254 LenC2=    2279 LenP2D=    5912.
 LDataN:  DoStor=T MaxTD1= 8 Len=  415
 NBasis=   209 RedAO= T EigKep=  1.50D-04  NBF=    56    51    51    51
 NBsUse=   209 1.00D-06 EigRej= -1.00D+00 NBFU=    56    51    51    51
 Initial guess from the checkpoint file:  "/data/hutter/SMG16/TPSS/Gau-38543.chk"
 B after Tr=     0.000000    0.000000    0.000000
         Rot=    1.000000    0.000000    0.000000    0.000000 Ang=   0.00 deg.
 Initial guess orbital symmetries:
       Occupied  (A1) (A1) (T2) (T2) (T2) (A1) (T2) (T2) (T2) (T2)
                 (T2) (T2) (E) (E) (A1) (T2) (T2) (T2)
       Virtual   (A1) (T2) (T2) (T2) (T2) (T2) (T2) (E) (E) (A1)
                 (T2) (T2) (T2) (A1) (T2) (T2) (T2) (T1) (T1) (T1)
                 (T2) (T2) (T2) (A1) (T2) (T2) (T2) (E) (E) (T2)
                 (T2) (T2) (T1) (T1) (T1) (E) (E) (T2) (T2) (T2)
                 (A1) (A1) (T2) (T2) (T2) (A1) (T2) (T2) (T2) (T1)
                 (T1) (T1) (E) (E) (T2) (T2) (T2) (A1) (T1) (T1)
                 (T1) (T2) (T2) (T2) (T1) (T1) (T1) (T2) (T2) (T2)
                 (E) (E) (T1) (T1) (T1) (A1) (T2) (T2) (T2) (T2)
                 (T2) (T2) (E) (E) (E) (E) (T2) (T2) (T2) (A1)
                 (A1) (T2) (T2) (T2) (T1) (T1) (T1) (E) (E) (T2)
                 (T2) (T2) (A1) (T2) (T2) (T2) (A1) (A2) (T1) (T1)
                 (T1) (T2) (T2) (T2) (T2) (T2) (T2) (A1) (T1) (T1)
                 (T1) (E) (E) (T2) (T2) (T2) (T1) (T1) (T1) (T2)
                 (T2) (T2) (E) (E) (A1) (T2) (T2) (T2) (T1) (T1)
                 (T1) (A1) (T2) (T2) (T2) (E) (E) (T2) (T2) (T2)
                 (T1) (T1) (T1) (E) (E) (T2) (T2) (T2) (T1) (T1)
                 (T1) (T2) (T2) (T2) (E) (E) (T1) (T1) (T1) (T2)
                 (T2) (T2) (A1) (T2) (T2) (T2) (A1) (A1) (T2) (T2)
                 (T2) (T1) (T1) (T1) (A1) (A1) (T2) (T2) (T2) (A1)
                 (A1)
 Keep J ints in memory in symmetry-blocked form, NReq=301069061.
 Requested convergence on RMS density matrix=1.00D-08 within 128 cycles.
 Requested convergence on MAX density matrix=1.00D-06.
 Requested convergence on             energy=1.00D-06.
 No special actions if energy rises.
 SCF Done:  E(RTPSS-TPSS) =  -2079.41549439     A.U. after    1 cycles
            NFock=  1  Conv=0.51D-09     -V/T= 2.0014
 DoSCS=F DFT=T ScalE2(SS,OS)=  1.000000  1.000000
 Range of M.O.s used for correlation:     1   209
 NBasis=   209 NAE=    18 NBE=    18 NFC=     0 NFV=     0
 NROrb=    209 NOA=    18 NOB=    18 NVA=   191 NVB=   191

 **** Warning!!: The largest alpha MO coefficient is  0.45113106D+02

  24 Symmetry operations used in ECPInt.
 ECPInt:  NShTT=    2278 NPrTT=    6254 LenC2=    2279 LenP2D=    5912.
 LDataN:  DoStor=T MaxTD1= 9 Len=  602
 Symmetrizing basis deriv contribution to polar:
 IMax=3 JMax=2 DiffMx= 0.00D+00
 G2DrvN: will do     6 centers at a time, making    1 passes.
 Calling FoFCou, ICntrl=  3507 FMM=F I1Cent=   0 AccDes= 0.00D+00.
 End of G2Drv F.D. properties file   721 does not exist.
 End of G2Drv F.D. properties file   722 does not exist.
 End of G2Drv F.D. properties file   788 does not exist.
          IDoAtm=11111
          Differentiating once with respect to electric field.
                with respect to dipole field.
          Differentiating once with respect to nuclear coordinates.
 Keep J ints in memory in symmetry-blocked form, NReq=301071897.
          There are     9 degrees of freedom in the 1st order CPHF.  IDoFFX=4 NUNeed=     9.
      9 vectors produced by pass  0 Test12= 3.82D-14 1.11D-08 XBig12= 3.46D+01 3.05D+00.
 AX will form     9 AO Fock derivatives at one time.
      9 vectors produced by pass  1 Test12= 3.82D-14 1.11D-08 XBig12= 1.54D+00 4.46D-01.
      9 vectors produced by pass  2 Test12= 3.82D-14 1.11D-08 XBig12= 1.55D-02 4.28D-02.
      9 vectors produced by pass  3 Test12= 3.82D-14 1.11D-08 XBig12= 5.45D-04 7.21D-03.
      9 vectors produced by pass  4 Test12= 3.82D-14 1.11D-08 XBig12= 1.34D-06 3.65D-04.
      7 vectors produced by pass  5 Test12= 3.82D-14 1.11D-08 XBig12= 5.27D-09 1.75D-05.
      4 vectors produced by pass  6 Test12= 3.82D-14 1.11D-08 XBig12= 1.07D-11 8.57D-07.
      3 vectors produced by pass  7 Test12= 3.82D-14 1.11D-08 XBig12= 2.13D-14 2.91D-08.
 InvSVY:  IOpt=1 It=  1 EMax= 8.88D-16
 Solved reduced A of dimension    59 with     9 vectors.
 Isotropic polarizability for W=    0.000000       34.05 Bohr**3.
 End of Minotr F.D. properties file   721 does not exist.
 End of Minotr F.D. properties file   722 does not exist.
 End of Minotr F.D. properties file   788 does not exist.

 **********************************************************************

            Population analysis using the SCF Density.

 **********************************************************************

 Orbital symmetries:
       Occupied  (A1) (A1) (T2) (T2) (T2) (A1) (T2) (T2) (T2) (T2)
                 (T2) (T2) (E) (E) (A1) (T2) (T2) (T2)
       Virtual   (A1) (T2) (T2) (T2) (T2) (T2) (T2) (E) (E) (A1)
                 (T2) (T2) (T2) (A1) (T2) (T2) (T2) (T1) (T1) (T1)
                 (T2) (T2) (T2) (A1) (T2) (T2) (T2) (E) (E) (T2)
                 (T2) (T2) (T1) (T1) (T1) (E) (E) (T2) (T2) (T2)
                 (A1) (A1) (T2) (T2) (T2) (A1) (T2) (T2) (T2) (T1)
                 (T1) (T1) (E) (E) (T2) (T2) (T2) (A1) (T1) (T1)
                 (T1) (T2) (T2) (T2) (T1) (T1) (T1) (T2) (T2) (T2)
                 (E) (E) (T1) (T1) (T1) (A1) (T2) (T2) (T2) (T2)
                 (T2) (T2) (E) (E) (E) (E) (T2) (T2) (T2) (A1)
                 (A1) (T2) (T2) (T2) (T1) (T1) (T1) (E) (E) (T2)
                 (T2) (T2) (A1) (T2) (T2) (T2) (A1) (A2) (T1) (T1)
                 (T1) (T2) (T2) (T2) (T2) (T2) (T2) (A1) (T1) (T1)
                 (T1) (E) (E) (T2) (T2) (T2) (T1) (T1) (T1) (T2)
                 (T2) (T2) (E) (E) (A1) (T2) (T2) (T2) (T1) (T1)
                 (T1) (A1) (T2) (T2) (T2) (E) (E) (T2) (T2) (T2)
                 (T1) (T1) (T1) (E) (E) (T2) (T2) (T2) (T1) (T1)
                 (T1) (T2) (T2) (T2) (E) (E) (T1) (T1) (T1) (T2)
                 (T2) (T2) (A1) (T2) (T2) (T2) (A1) (A1) (T2) (T2)
                 (T2) (T1) (T1) (T1) (A1) (A1) (T2) (T2) (T2) (A1)
                 (A1)
 The electronic state is 1-A1.
 Alpha  occ. eigenvalues -- -397.69390 -49.27549 -43.81250 -43.81250 -43.81250
 Alpha  occ. eigenvalues --   -6.02066  -4.20745  -4.20745  -4.20745  -1.08476
 Alpha  occ. eigenvalues --   -1.08476  -1.08476  -1.08242  -1.08242  -0.52061
 Alpha  occ. eigenvalues --   -0.31572  -0.31572  -0.31572
 Alpha virt. eigenvalues --    0.00354   0.01881   0.01881   0.01881   0.10511
 Alpha virt. eigenvalues --    0.10511   0.10511   0.16501   0.16501   0.16827
 Alpha virt. eigenvalues --    0.23226   0.23226   0.23226   0.26226   0.37963
 Alpha virt. eigenvalues --    0.37963   0.37963   0.47027   0.47027   0.47027
 Alpha virt. eigenvalues --    0.61180   0.61180   0.61180   0.69470   0.77680
 Alpha virt. eigenvalues --    0.77680   0.77680   0.82201   0.82201   0.88409
 Alpha virt. eigenvalues --    0.88409   0.88409   0.89348   0.89348   0.89348
 Alpha virt. eigenvalues --    0.94010   0.94010   0.96477   0.96477   0.96477
 Alpha virt. eigenvalues --    0.96712   1.13570   1.23042   1.23042   1.23042
 Alpha virt. eigenvalues --    1.37606   1.50574   1.50574   1.50574   1.66396
 Alpha virt. eigenvalues --    1.66396   1.66396   1.76979   1.76979   1.94319
 Alpha virt. eigenvalues --    1.94319   1.94319   1.95369   2.04549   2.04549
 Alpha virt. eigenvalues --    2.04549   2.14936   2.14936   2.14936   2.23346
 Alpha virt. eigenvalues --    2.23346   2.23346   2.31318   2.31318   2.31318
 Alpha virt. eigenvalues --    2.32563   2.32563   2.55171   2.55171   2.55171
 Alpha virt. eigenvalues --    2.59532   2.65664   2.65664   2.65664   2.80419
 Alpha virt. eigenvalues --    2.80419   2.80419   2.86017   2.86017   2.91936
 Alpha virt. eigenvalues --    2.91936   3.07263   3.07263   3.07263   3.14243
 Alpha virt. eigenvalues --    3.23560   3.27352   3.27352   3.27352   3.41436
 Alpha virt. eigenvalues --    3.41436   3.41436   3.43706   3.43706   3.74717
 Alpha virt. eigenvalues --    3.74717   3.74717   4.84837   5.61406   5.61406
 Alpha virt. eigenvalues --    5.61406   5.86394   5.88364   5.89264   5.89264
 Alpha virt. eigenvalues --    5.89264   5.92906   5.92906   5.92906   6.06012
 Alpha virt. eigenvalues --    6.06012   6.06012   6.06672   6.18839   6.18839
 Alpha virt. eigenvalues --    6.18839   6.26628   6.26628   6.37835   6.37835
 Alpha virt. eigenvalues --    6.37835   6.49104   6.49104   6.49104   6.70871
 Alpha virt. eigenvalues --    6.70871   6.70871   6.74096   6.74096   6.88065
 Alpha virt. eigenvalues --    7.22466   7.22466   7.22466   7.45613   7.45613
 Alpha virt. eigenvalues --    7.45613   7.81054   7.88337   7.88337   7.88337
 Alpha virt. eigenvalues --    8.02416   8.02416   8.12236   8.12236   8.12236
 Alpha virt. eigenvalues --    8.19555   8.19555   8.19555   8.37844   8.37844
 Alpha virt. eigenvalues --    8.38328   8.38328   8.38328   8.40822   8.40822
 Alpha virt. eigenvalues --    8.40822   8.90601   8.90601   8.90601   8.95314
 Alpha virt. eigenvalues --    8.95314   9.14316   9.14316   9.14316   9.22410
 Alpha virt. eigenvalues --    9.22410   9.22410   9.29185   9.76249   9.76249
 Alpha virt. eigenvalues --    9.76249  10.21436  19.26706  24.41272  24.41272
 Alpha virt. eigenvalues --   24.41272  24.53923  24.53923  24.53923  24.88715
 Alpha virt. eigenvalues --   62.90406 202.23195 202.23195 202.23195 210.65174
 Alpha virt. eigenvalues -- 1265.17753
          Condensed to atoms (all electrons):
               1          2          3          4          5
     1  Ge  30.239987   0.359503   0.359503   0.359503   0.359503
     2  H    0.359503   0.780081  -0.019695  -0.019695  -0.019695
     3  H    0.359503  -0.019695   0.780081  -0.019695  -0.019695
     4  H    0.359503  -0.019695  -0.019695   0.780081  -0.019695
     5  H    0.359503  -0.019695  -0.019695  -0.019695   0.780081
 Mulliken charges:
               1
     1  Ge   0.322001
     2  H   -0.080500
     3  H   -0.080500
     4  H   -0.080500
     5  H   -0.080500
 Sum of Mulliken charges =  -0.00000
 Mulliken charges with hydrogens summed into heavy atoms:
               1
     1  Ge  -0.000000
 APT charges:
               1
     1  Ge   0.899213
     2  H   -0.224803
     3  H   -0.224803
     4  H   -0.224803
     5  H   -0.224803
 Sum of APT charges =  -0.00000
 APT charges with hydrogens summed into heavy atoms:
               1
     1  Ge  -0.000000
 Electronic spatial extent (au):  <R**2>=             79.7186
 Charge=             -0.0000 electrons
 Dipole moment (field-independent basis, Debye):
    X=             -0.0000    Y=              0.0000    Z=             -0.0000  Tot=              0.0000
 Quadrupole moment (field-independent basis, Debye-Ang):
   XX=            -20.7111   YY=            -20.7111   ZZ=            -20.7111
   XY=              0.0000   XZ=             -0.0000   YZ=              0.0000
 Traceless Quadrupole moment (field-independent basis, Debye-Ang):
   XX=              0.0000   YY=              0.0000   ZZ=             -0.0000
   XY=              0.0000   XZ=             -0.0000   YZ=              0.0000
 Octapole moment (field-independent basis, Debye-Ang**2):
  XXX=              0.0000  YYY=             -0.0000  ZZZ=              0.0000  XYY=             -0.0000
  XXY=             -0.0000  XXZ=             -0.0000  XZZ=             -0.0000  YZZ=              0.0000
  YYZ=             -0.0000  XYZ=             -0.8928
 Hexadecapole moment (field-independent basis, Debye-Ang**3):
 XXXX=            -46.6752 YYYY=            -46.6752 ZZZZ=            -46.6752 XXXY=              0.0000
 XXXZ=              0.0000 YYYX=              0.0000 YYYZ=             -0.0000 ZZZX=              0.0000
 ZZZY=             -0.0000 XXYY=            -15.2110 XXZZ=            -15.2110 YYZZ=            -15.2110
 XXYZ=              0.0000 YYXZ=              0.0000 ZZXY=             -0.0000
 N-N= 4.548336338283D+01 E-N=-5.063875195343D+03  KE= 2.076465603533D+03
 Symmetry A    KE= 1.291270060423D+03
 Symmetry B1   KE= 2.617318477033D+02
 Symmetry B2   KE= 2.617318477033D+02
 Symmetry B3   KE= 2.617318477033D+02
  Exact polarizability:      34.046      -0.000      34.046      -0.000      -0.000      34.046
 Approx polarizability:      51.834      -0.000      51.834       0.000      -0.000      51.834
  24 Symmetry operations used in ECPInt.
 ECPInt:  NShTT=    2278 NPrTT=    6254 LenC2=    2279 LenP2D=    5912.
 LDataN:  DoStor=T MaxTD1=10 Len=  848
 Calling FoFJK, ICntrl=    100527 FMM=F ISym2X=1 I1Cent= 0 IOpClX= 0 NMat=1 NMatS=1 NMatT=0.
 Full mass-weighted force constant matrix:
 Low frequencies ---  -45.8640  -45.8640  -45.8640   -0.0195   -0.0194   -0.0112
 Low frequencies ---  812.3835  812.3835  812.3835
 Diagonal vibrational polarizability:
        4.7134182       4.7134182       4.7134182
 Harmonic frequencies (cm**-1), IR intensities (KM/Mole), Raman scattering
 activities (A**4/AMU), depolarization ratios for plane and unpolarized
 incident light, reduced masses (AMU), force constants (mDyne/A),
 and normal coordinates:
                      1                      2                      3
                     T2                     T2                     T2
 Frequencies --    812.3835               812.3835               812.3835
 Red. masses --      1.0450                 1.0450                 1.0450
 Frc consts  --      0.4063                 0.4063                 0.4063
 IR Inten    --     98.1396                98.1396                98.1396
  Atom  AN      X      Y      Z        X      Y      Z        X      Y      Z
     1  32     0.00  -0.02   0.01     0.00  -0.01  -0.02    -0.02  -0.00  -0.00
     2   1    -0.02   0.44  -0.42    -0.30   0.13   0.20     0.40  -0.19  -0.19
     3   1    -0.28   0.19  -0.12     0.00   0.43   0.43     0.41  -0.18   0.22
     4   1     0.02   0.44  -0.42     0.26   0.11   0.18     0.43   0.20   0.21
     5   1     0.28   0.19  -0.12    -0.04   0.41   0.45     0.41   0.22  -0.18
                      4                      5                      6
                      E                      E                     A1
 Frequencies --    918.5911               918.5911              2144.6941
 Red. masses --      1.0078                 1.0078                 1.0078
 Frc consts  --      0.5010                 0.5010                 2.7313
 IR Inten    --      0.0000                 0.0000                 0.0000
  Atom  AN      X      Y      Z        X      Y      Z        X      Y      Z
     1  32     0.00  -0.00   0.00    -0.00   0.00   0.00    -0.00  -0.00  -0.00
     2   1    -0.08   0.39  -0.31     0.40  -0.13  -0.27     0.29   0.29   0.29
     3   1     0.08  -0.39  -0.31    -0.40   0.13  -0.27    -0.29  -0.29   0.29
     4   1    -0.08  -0.39   0.31     0.40   0.13   0.27     0.29  -0.29  -0.29
     5   1     0.08   0.39   0.31    -0.40  -0.13   0.27    -0.29   0.29  -0.29
                      7                      8                      9
                     T2                     T2                     T2
 Frequencies --   2152.1172              2152.1172              2152.1172
 Red. masses --      1.0236                 1.0236                 1.0236
 Frc consts  --      2.7933                 2.7933                 2.7933
 IR Inten    --    122.4747               122.4747               122.4747
  Atom  AN      X      Y      Z        X      Y      Z        X      Y      Z
     1  32    -0.00  -0.01  -0.01    -0.00   0.01  -0.01     0.01  -0.00  -0.00
     2   1     0.42   0.40   0.40     0.01   0.03  -0.01    -0.27  -0.30  -0.30
     3   1     0.02  -0.01  -0.03    -0.42  -0.40   0.40    -0.27  -0.30   0.30
     4   1    -0.42   0.40   0.40    -0.01   0.03  -0.01    -0.27   0.30   0.30
     5   1    -0.01  -0.01  -0.03     0.42  -0.40   0.40    -0.27   0.30  -0.30

 -------------------
 - Thermochemistry -
 -------------------
 Temperature   298.150 Kelvin.  Pressure   1.00000 Atm.
 Atom     1 has atomic number 32 and mass  73.92118
 Atom     2 has atomic number  1 and mass   1.00783
 Atom     3 has atomic number  1 and mass   1.00783
 Atom     4 has atomic number  1 and mass   1.00783
 Atom     5 has atomic number  1 and mass   1.00783
 Molecular mass:    77.95248 amu.
 Principal axes and moments of inertia in atomic units:
                           1         2         3
     Eigenvalues --    22.52425  22.52425  22.52425
           X            1.00000  -0.00000   0.00000
           Y            0.00000   1.00000   0.00000
           Z            0.00000   0.00000   1.00000
 This molecule is a spherical top.
 Rotational symmetry number 12.
 Rotational temperatures (Kelvin)      3.84536     3.84536     3.84536
 Rotational constants (GHZ):          80.12436    80.12436    80.12436
 Zero-point vibrational energy      77011.9 (Joules/Mol)
                                   18.40628 (Kcal/Mol)
 Vibrational temperatures:   1168.84  1168.84  1168.84  1321.65  1321.65
          (Kelvin)           3085.74  3096.42  3096.42  3096.42
 
 Zero-point correction=                           0.029332 (Hartree/Particle)
 Thermal correction to Energy=                    0.032491
 Thermal correction to Enthalpy=                  0.033436
 Thermal correction to Gibbs Free Energy=         0.008739
 Sum of electronic and zero-point Energies=          -2079.386162
 Sum of electronic and thermal Energies=             -2079.383003
 Sum of electronic and thermal Enthalpies=           -2079.382059
 Sum of electronic and thermal Free Energies=        -2079.406756
 
                     E (Thermal)             CV                S
                      KCal/Mol        Cal/Mol-Kelvin    Cal/Mol-Kelvin
 Total                   20.389              8.830             51.979
 Electronic               0.000              0.000              0.000
 Translational            0.889              2.981             38.976
 Rotational               0.889              2.981             12.149
 Vibrational             18.611              2.869              0.855
                       Q            Log10(Q)             Ln(Q)
 Total Bot       0.956050D-04         -4.019520         -9.255286
 Total V=0       0.296740D+10          9.472377         21.810953
 Vib (Bot)       0.350463D-13        -13.455358        -30.982107
 Vib (V=0)       0.108777D+01          0.036538          0.084132
 Electronic      0.100000D+01          0.000000          0.000000
 Translational   0.270520D+08          7.432199         17.113270
 Rotational      0.100842D+03          2.003640          4.613551
 ***** Axes restored to original set *****
 -------------------------------------------------------------------
 Center     Atomic                   Forces (Hartrees/Bohr)
 Number     Number              X              Y              Z
 -------------------------------------------------------------------
      1       32          -0.000000000    0.000000000   -0.000000000
      2        1           0.000179563   -0.000179563    0.000179563
      3        1          -0.000179563    0.000179563    0.000179563
      4        1          -0.000179563   -0.000179563   -0.000179563
      5        1           0.000179563    0.000179563   -0.000179563
 -------------------------------------------------------------------
 Cartesian Forces:  Max     0.000179563 RMS     0.000160606
 FormGI is forming the generalized inverse of G from B-inverse, IUseBI=4.

 GradGradGradGradGradGradGradGradGradGradGradGradGradGradGradGradGradGrad
 Berny optimization.
 Internal  Forces:  Max     0.000311013 RMS     0.000166243
 Search for a local minimum.
 Step number   1 out of a maximum of    2
 All quantities printed in internal units (Hartrees-Bohrs-Radians)
 Second derivative matrix not updated -- analytic derivatives used.
 The second derivative matrix:
                          R1        R2        R3        R4        A1
           R1           0.17401
           R2           0.00047   0.17401
           R3           0.00047   0.00047   0.17401
           R4           0.00047   0.00047   0.00047   0.17401
           A1           0.00118   0.00118  -0.00074  -0.00162   0.01389
           A2           0.00184  -0.00048   0.00205  -0.00342  -0.00544
           A3           0.00360  -0.00289  -0.00320   0.00249  -0.00894
           A4          -0.00048   0.00184   0.00205  -0.00342  -0.00544
           A5          -0.00289   0.00360  -0.00320   0.00249  -0.00894
           A6          -0.00326  -0.00326   0.00304   0.00348   0.01487
           D1           0.00228   0.00228   0.00161  -0.00617   0.01034
           D2          -0.00188  -0.00188   0.00483  -0.00107  -0.00607
           D3           0.00247  -0.00435   0.00241  -0.00054  -0.00303
           D4           0.00435  -0.00247  -0.00241   0.00054   0.00303
                          A2        A3        A4        A5        A6
           A2           0.02692
           A3          -0.01594   0.05256
           A4          -0.00017   0.01489   0.02692
           A5           0.01489  -0.02427  -0.01594   0.05256
           A6          -0.02026  -0.01831  -0.02026  -0.01831   0.06226
           D1           0.00971  -0.01158   0.00971  -0.01158  -0.00660
           D2           0.00731  -0.00638   0.00731  -0.00638   0.00421
           D3           0.01080   0.00145  -0.00349  -0.00783   0.00211
           D4           0.00349   0.00783  -0.01080  -0.00145  -0.00211
                          D1        D2        D3        D4
           D1           0.02456
           D2           0.00152   0.01525
           D3           0.00076   0.00762   0.01541
           D4          -0.00076  -0.00762   0.00778   0.01541
 ITU=  0
     Eigenvalues ---    0.03080   0.03497   0.05418   0.09133   0.09179
     Eigenvalues ---    0.17434   0.17434   0.17459   0.17543
 Angle between quadratic step and forces=   0.00 degrees.
 Linear search not attempted -- first point.
 Iteration  1 RMS(Cart)=  0.00094763 RMS(Int)=  0.00000000
 Iteration  2 RMS(Cart)=  0.00000000 RMS(Int)=  0.00000000
 ClnCor:  largest displacement from symmetrization is 2.25D-11 for atom     5.
 Variable       Old X    -DE/DX   Delta X   Delta X   Delta X     New X
                                 (Linear)    (Quad)   (Total)
    R1        2.89500   0.00031   0.00000   0.00177   0.00177   2.89677
    R2        2.89500   0.00031   0.00000   0.00177   0.00177   2.89677
    R3        2.89500   0.00031   0.00000   0.00177   0.00177   2.89677
    R4        2.89500   0.00031   0.00000   0.00177   0.00177   2.89677
    A1        1.91063   0.00000   0.00000  -0.00000  -0.00000   1.91063
    A2        1.91063  -0.00000   0.00000   0.00000  -0.00000   1.91063
    A3        1.91063  -0.00000   0.00000  -0.00000  -0.00000   1.91063
    A4        1.91063  -0.00000   0.00000  -0.00000  -0.00000   1.91063
    A5        1.91063   0.00000   0.00000   0.00000  -0.00000   1.91063
    A6        1.91063   0.00000   0.00000  -0.00000  -0.00000   1.91063
    D1        2.09440   0.00000   0.00000  -0.00000   0.00000   2.09440
    D2       -2.09440  -0.00000   0.00000   0.00000   0.00000  -2.09440
    D3        2.09440  -0.00000   0.00000   0.00000   0.00000   2.09440
    D4       -2.09440  -0.00000   0.00000   0.00000   0.00000  -2.09440
         Item               Value     Threshold  Converged?
 Maximum Force            0.000311     0.000450     YES
 RMS     Force            0.000166     0.000300     YES
 Maximum Displacement     0.001024     0.001800     YES
 RMS     Displacement     0.000948     0.001200     YES
 Predicted change in Energy=-1.102757D-06
 Optimization completed.
    -- Stationary point found.
                           ----------------------------
                           !   Optimized Parameters   !
                           ! (Angstroms and Degrees)  !
 --------------------------                            --------------------------
 ! Name  Definition              Value          Derivative Info.                !
 --------------------------------------------------------------------------------
 ! R1    R(1,2)                  1.532          -DE/DX =    0.0003              !
 ! R2    R(1,3)                  1.532          -DE/DX =    0.0003              !
 ! R3    R(1,4)                  1.532          -DE/DX =    0.0003              !
 ! R4    R(1,5)                  1.532          -DE/DX =    0.0003              !
 ! A1    A(2,1,3)              109.4712         -DE/DX =    0.0                 !
 ! A2    A(2,1,4)              109.4712         -DE/DX =    0.0                 !
 ! A3    A(2,1,5)              109.4712         -DE/DX =    0.0                 !
 ! A4    A(3,1,4)              109.4712         -DE/DX =    0.0                 !
 ! A5    A(3,1,5)              109.4712         -DE/DX =    0.0                 !
 ! A6    A(4,1,5)              109.4712         -DE/DX =    0.0                 !
 ! D1    D(2,1,4,3)            120.0            -DE/DX =    0.0                 !
 ! D2    D(2,1,5,3)           -120.0            -DE/DX =    0.0                 !
 ! D3    D(2,1,5,4)            120.0            -DE/DX =    0.0                 !
 ! D4    D(3,1,5,4)           -120.0            -DE/DX =    0.0                 !
 --------------------------------------------------------------------------------
 GradGradGradGradGradGradGradGradGradGradGradGradGradGradGradGradGradGrad

 Dipole is zero, so no output in dipole orientation.

 ----------------------------------------------------------------------

 Electric dipole moment (input orientation):
 (Debye = 10**-18 statcoulomb cm , SI units = C m)
                  (au)            (Debye)         (10**-30 SI)
   Tot        0.000000D+00      0.000000D+00      0.000000D+00
   x          0.000000D+00      0.000000D+00      0.000000D+00
   y          0.000000D+00      0.000000D+00      0.000000D+00
   z          0.000000D+00      0.000000D+00      0.000000D+00

 Dipole polarizability, Alpha (input orientation).
 (esu units = cm**3 , SI units = C**2 m**2 J**-1)
 Alpha(0;0):
               (au)            (10**-24 esu)      (10**-40 SI)
   iso        0.340464D+02      0.504516D+01      0.561350D+01
   aniso      0.000000D+00      0.000000D+00      0.000000D+00
   xx         0.340464D+02      0.504516D+01      0.561350D+01
   yx         0.000000D+00      0.000000D+00      0.000000D+00
   yy         0.340464D+02      0.504516D+01      0.561350D+01
   zx         0.000000D+00      0.000000D+00      0.000000D+00
   zy         0.000000D+00      0.000000D+00      0.000000D+00
   zz         0.340464D+02      0.504516D+01      0.561350D+01

 ----------------------------------------------------------------------
 Unable to Open any file for archive entry.
 1\1\GINC-TCOPT10\Freq\RTPSSTPSS\def2QZVPP\Ge1H4\HUTTER\31-Jul-2021\0\\
 #N Geom=AllCheck Guess=TCheck SCRF=Check GenChk RTPSSTPSS/def2QZVPP Fr
 eq\\Mol job 1\\0,1\Ge,7.5,7.5,7.5\H,8.3844814643,6.6155185357,8.384481
 4643\H,6.6155185357,8.3844814643,8.3844814643\H,6.6155185357,6.6155185
 357,6.6155185357\H,8.3844814643,8.3844814643,6.6155185357\\Version=ES6
 4L-G16RevC.01\State=1-A1\HF=-2079.4154944\RMSD=5.052e-10\RMSF=1.606e-0
 4\ZeroPoint=0.0293323\Thermal=0.0324914\ETot=-2079.383003\HTot=-2079.3
 820588\GTot=-2079.4067557\Dipole=0.,0.,0.\DipoleDeriv=0.8992131,0.,0.,
 0.,0.8992131,0.,0.,0.,0.8992131,-0.2248033,0.0431561,-0.0431561,0.0431
 561,-0.2248033,0.0431561,-0.0431561,0.0431561,-0.2248033,-0.2248033,0.
 0431561,0.0431561,0.0431561,-0.2248033,-0.0431561,0.0431561,-0.0431561
 ,-0.2248033,-0.2248033,-0.0431561,-0.0431561,-0.0431561,-0.2248033,-0.
 0431561,-0.0431561,-0.0431561,-0.2248033,-0.2248033,-0.0431561,0.04315
 61,-0.0431561,-0.2248033,0.0431561,0.0431561,0.0431561,-0.2248033\Pola
 r=34.0464335,0.,34.0464335,0.,0.,34.0464335\Quadrupole=0.,0.,0.,0.,0.,
 0.\PG=TD [O(Ge1),4C3(H1)]\NImag=0\\0.26919852,0.,0.26919852,0.,0.,0.26
 919852,-0.06729963,0.04790430,-0.04790430,0.06950014,0.04790430,-0.067
 29963,0.04790430,-0.05225570,0.06950014,-0.04790430,0.04790430,-0.0672
 9963,0.05225570,-0.05225570,0.06950014,-0.06729963,0.04790430,0.047904
 30,-0.00315814,0.00435140,0.00442875,0.06950014,0.04790430,-0.06729963
 ,-0.04790430,0.00435140,-0.00315814,-0.00442875,-0.05225570,0.06950014
 ,0.04790430,-0.04790430,-0.06729963,-0.00442875,0.00442875,0.00411577,
 -0.05225570,0.05225570,0.06950014,-0.06729963,-0.04790430,-0.04790430,
 -0.00315814,-0.00442875,-0.00435140,0.00411577,0.00442875,0.00442875,0
 .06950014,-0.04790430,-0.06729963,-0.04790430,0.00442875,0.00411577,0.
 00442875,-0.00442875,-0.00315814,-0.00435140,0.05225570,0.06950014,-0.
 04790430,-0.04790430,-0.06729963,-0.00435140,-0.00442875,-0.00315814,-
 0.00442875,-0.00435140,-0.00315814,0.05225570,0.05225570,0.06950014,-0
 .06729963,-0.04790430,0.04790430,0.00411577,0.00442875,-0.00442875,-0.
 00315814,-0.00442875,0.00435140,-0.00315814,-0.00435140,0.00442875,0.0
 6950014,-0.04790430,-0.06729963,0.04790430,-0.00442875,-0.00315814,0.0
 0435140,0.00442875,0.00411577,-0.00442875,-0.00435140,-0.00315814,0.00
 442875,0.05225570,0.06950014,0.04790430,0.04790430,-0.06729963,0.00442
 875,0.00435140,-0.00315814,0.00435140,0.00442875,-0.00315814,-0.004428
 75,-0.00442875,0.00411577,-0.05225570,-0.05225570,0.06950014\\0.,0.,0.
 ,-0.00017956,0.00017956,-0.00017956,0.00017956,-0.00017956,-0.00017956
 ,0.00017956,0.00017956,0.00017956,-0.00017956,-0.00017956,0.00017956\\
 \@
 The archive entry for this job was punched.


 Make no judgements where you have no compassion.
                               -- Anne McCaffrey
 Job cpu time:       0 days  0 hours 15 minutes 25.8 seconds.
 Elapsed time:       0 days  0 hours  2 minutes  2.4 seconds.
 File lengths (MBytes):  RWF=     23 Int=      0 D2E=      0 Chk=      5 Scr=      1
 Normal termination of Gaussian 16 at Sat Jul 31 23:05:59 2021.
