 Entering Gaussian System, Link 0=g16
 Initial command:
 /sw-ng/spack/opt/spack/linux-opensuse_leap15-sandybridge/pgi-18.10/gaussian-src-16-C.01-zldqaomctopxhethwccpmxmwefdscg3m/g16/l1.exe "/data/hutter/SMG16/TPSS/Gau-63073.inp" -scrdir="/data/hutter/SMG16/TPSS/"
 Entering Link 1 = /sw-ng/spack/opt/spack/linux-opensuse_leap15-sandybridge/pgi-18.10/gaussian-src-16-C.01-zldqaomctopxhethwccpmxmwefdscg3m/g16/l1.exe PID=     63082.
  
 Copyright (c) 1988-2019, Gaussian, Inc.  All Rights Reserved.
  
 This is part of the Gaussian(R) 16 program.  It is based on
 the Gaussian(R) 09 system (copyright 2009, Gaussian, Inc.),
 the Gaussian(R) 03 system (copyright 2003, Gaussian, Inc.),
 the Gaussian(R) 98 system (copyright 1998, Gaussian, Inc.),
 the Gaussian(R) 94 system (copyright 1995, Gaussian, Inc.),
 the Gaussian 92(TM) system (copyright 1992, Gaussian, Inc.),
 the Gaussian 90(TM) system (copyright 1990, Gaussian, Inc.),
 the Gaussian 88(TM) system (copyright 1988, Gaussian, Inc.),
 the Gaussian 86(TM) system (copyright 1986, Carnegie Mellon
 University), and the Gaussian 82(TM) system (copyright 1983,
 Carnegie Mellon University). Gaussian is a federally registered
 trademark of Gaussian, Inc.
  
 This software contains proprietary and confidential information,
 including trade secrets, belonging to Gaussian, Inc.
  
 This software is provided under written license and may be
 used, copied, transmitted, or stored only in accord with that
 written license.
  
 The following legend is applicable only to US Government
 contracts under FAR:
  
                    RESTRICTED RIGHTS LEGEND
  
 Use, reproduction and disclosure by the US Government is
 subject to restrictions as set forth in subparagraphs (a)
 and (c) of the Commercial Computer Software - Restricted
 Rights clause in FAR 52.227-19.
  
 Gaussian, Inc.
 340 Quinnipiac St., Bldg. 40, Wallingford CT 06492
  
  
 ---------------------------------------------------------------
 Warning -- This program may not be used in any manner that
 competes with the business of Gaussian, Inc. or will provide
 assistance to any competitor of Gaussian, Inc.  The licensee
 of this program is prohibited from giving any competitor of
 Gaussian, Inc. access to this program.  By using this program,
 the user acknowledges that Gaussian, Inc. is engaged in the
 business of creating and licensing software in the field of
 computational chemistry and represents and warrants to the
 licensee that it is not a competitor of Gaussian, Inc. and that
 it will not use this program in any manner prohibited above.
 ---------------------------------------------------------------
  

 Cite this work as:
 Gaussian 16, Revision C.01,
 M. J. Frisch, G. W. Trucks, H. B. Schlegel, G. E. Scuseria, 
 M. A. Robb, J. R. Cheeseman, G. Scalmani, V. Barone, 
 G. A. Petersson, H. Nakatsuji, X. Li, M. Caricato, A. V. Marenich, 
 J. Bloino, B. G. Janesko, R. Gomperts, B. Mennucci, H. P. Hratchian, 
 J. V. Ortiz, A. F. Izmaylov, J. L. Sonnenberg, D. Williams-Young, 
 F. Ding, F. Lipparini, F. Egidi, J. Goings, B. Peng, A. Petrone, 
 T. Henderson, D. Ranasinghe, V. G. Zakrzewski, J. Gao, N. Rega, 
 G. Zheng, W. Liang, M. Hada, M. Ehara, K. Toyota, R. Fukuda, 
 J. Hasegawa, M. Ishida, T. Nakajima, Y. Honda, O. Kitao, H. Nakai, 
 T. Vreven, K. Throssell, J. A. Montgomery, Jr., J. E. Peralta, 
 F. Ogliaro, M. J. Bearpark, J. J. Heyd, E. N. Brothers, K. N. Kudin, 
 V. N. Staroverov, T. A. Keith, R. Kobayashi, J. Normand, 
 K. Raghavachari, A. P. Rendell, J. C. Burant, S. S. Iyengar, 
 J. Tomasi, M. Cossi, J. M. Millam, M. Klene, C. Adamo, R. Cammi, 
 J. W. Ochterski, R. L. Martin, K. Morokuma, O. Farkas, 
 J. B. Foresman, and D. J. Fox, Gaussian, Inc., Wallingford CT, 2019.
 
 ******************************************
 Gaussian 16:  ES64L-G16RevC.01  3-Jul-2019
                31-Jul-2021 
 ******************************************
 %mem=8GB
 %NProcShare=8
 Will use up to    8 processors via shared memory.
 -------------------------------------------------------------
 #N RTPSSTPSS/Def2QZVPP scf=tight Int(Grid=ultrafine) OPT FREQ
 -------------------------------------------------------------
 1/18=20,19=15,26=4,38=1/1,3;
 2/9=110,12=2,17=6,18=5,40=1/2;
 3/5=45,7=202,11=2,25=1,30=1,71=1,74=2523,75=-5,116=1/1,2,3;
 4//1;
 5/5=2,32=2,38=5/2;
 6/7=2,8=2,9=2,10=2,28=1/1;
 7//1,2,3,16;
 1/18=20,19=15,26=4/3(2);
 2/9=110/2;
 99//99;
 2/9=110/2;
 3/5=45,7=202,11=2,25=1,30=1,71=1,74=2523,75=-5,116=1/1,2,3;
 4/5=5,16=3,69=1/1;
 5/5=2,32=2,38=5/2;
 7//1,2,3,16;
 1/18=20,19=15,26=4/3(-5);
 2/9=110/2;
 6/7=2,8=2,9=2,10=2,19=2,28=1/1;
 99/9=1/99;
 ---------
 Mol job 1
 ---------
 Symbolic Z-matrix:
 Charge =  0 Multiplicity = 1
 B                     8.79162   8.12745   8.5 
 H                     8.79222   6.91094   8.5 
 H                     9.37493   8.61437   7.48959 
 H                     9.37493   8.61437   9.51041 
 H                     7.62507   8.61381   8.5 
 Li                    8.79177   10.08906   8.5 
 

 GradGradGradGradGradGradGradGradGradGradGradGradGradGradGradGradGradGrad
 Berny optimization.
 Initialization pass.
                           ----------------------------
                           !    Initial Parameters    !
                           ! (Angstroms and Degrees)  !
 --------------------------                            --------------------------
 ! Name  Definition              Value          Derivative Info.                !
 --------------------------------------------------------------------------------
 ! R1    R(1,2)                  1.2165         estimate D2E/DX2                !
 ! R2    R(1,3)                  1.2642         estimate D2E/DX2                !
 ! R3    R(1,4)                  1.2642         estimate D2E/DX2                !
 ! R4    R(1,5)                  1.2639         estimate D2E/DX2                !
 ! R5    R(1,6)                  1.9616         estimate D2E/DX2                !
 ! R6    R(3,6)                  1.8803         estimate D2E/DX2                !
 ! R7    R(4,6)                  1.8803         estimate D2E/DX2                !
 ! R8    R(5,6)                  1.8808         estimate D2E/DX2                !
 ! A1    A(2,1,3)              112.6395         estimate D2E/DX2                !
 ! A2    A(2,1,4)              112.6395         estimate D2E/DX2                !
 ! A3    A(2,1,5)              112.66           estimate D2E/DX2                !
 ! A4    A(3,1,4)              106.1137         estimate D2E/DX2                !
 ! A5    A(3,1,5)              106.1199         estimate D2E/DX2                !
 ! A6    A(4,1,5)              106.1199         estimate D2E/DX2                !
 ! A7    A(3,6,4)               65.0075         estimate D2E/DX2                !
 ! A8    A(3,6,5)               64.9908         estimate D2E/DX2                !
 ! A9    A(4,6,5)               64.9908         estimate D2E/DX2                !
 ! A10   L(2,1,6,3,-1)         179.984          estimate D2E/DX2                !
 ! A11   L(2,1,6,3,-2)         180.0301         estimate D2E/DX2                !
 ! D1    D(2,1,4,3)            123.6842         estimate D2E/DX2                !
 ! D2    D(2,1,5,3)           -123.7012         estimate D2E/DX2                !
 ! D3    D(2,1,5,4)            123.7012         estimate D2E/DX2                !
 ! D4    D(3,1,5,4)           -112.5975         estimate D2E/DX2                !
 ! D5    D(4,3,6,1)            -36.3558         estimate D2E/DX2                !
 ! D6    D(5,3,6,1)             36.3524         estimate D2E/DX2                !
 ! D7    D(5,4,6,1)            -36.3524         estimate D2E/DX2                !
 --------------------------------------------------------------------------------
 Trust Radius=3.00D-01 FncErr=1.00D-07 GrdErr=1.00D-06 EigMax=2.50D+02 EigMin=1.00D-04
 Number of steps in this run=     36 maximum allowed number of steps=    100.
 GradGradGradGradGradGradGradGradGradGradGradGradGradGradGradGradGradGrad

                          Input orientation:                          
 ---------------------------------------------------------------------
 Center     Atomic      Atomic             Coordinates (Angstroms)
 Number     Number       Type             X           Y           Z
 ---------------------------------------------------------------------
      1          5           0        8.791625    8.127448    8.500000
      2          1           0        8.792216    6.910939    8.500000
      3          1           0        9.374930    8.614375    7.489586
      4          1           0        9.374930    8.614375    9.510414
      5          1           0        7.625070    8.613806    8.500000
      6          3           0        8.791769   10.089061    8.500000
 ---------------------------------------------------------------------
                    Distance matrix (angstroms):
                    1          2          3          4          5
     1  B    0.000000
     2  H    1.216509   0.000000
     3  H    1.264230   2.064506   0.000000
     4  H    1.264230   2.064506   2.020828   0.000000
     5  H    1.263880   2.064457   2.020630   2.020630   0.000000
     6  Li   1.961612   3.178122   1.880349   1.880349   1.880841
                    6
     6  Li   0.000000
 Stoichiometry    BH4Li
 Framework group  CS[SG(BH2Li),X(H2)]
 Deg. of freedom     8
 Full point group                 CS      NOp   2
 Largest Abelian subgroup         CS      NOp   2
 Largest concise Abelian subgroup CS      NOp   2
                         Standard orientation:                         
 ---------------------------------------------------------------------
 Center     Atomic      Atomic             Coordinates (Angstroms)
 Number     Number       Type             X           Y           Z
 ---------------------------------------------------------------------
      1          5           0       -0.000052    0.510712    0.000000
      2          1           0        0.000628    1.727221    0.000000
      3          1           0        0.583217    0.023742    1.010414
      4          1           0        0.583217    0.023742   -1.010414
      5          1           0       -1.166643    0.024439    0.000000
      6          3           0       -0.000052   -1.450901   -0.000000
 ---------------------------------------------------------------------
 Rotational constants (GHZ):         122.8090007          22.5964829          22.5959401
 Standard basis: def2QZVPP (5D, 7F)
 There are   159 symmetry adapted cartesian basis functions of A'  symmetry.
 There are    93 symmetry adapted cartesian basis functions of A"  symmetry.
 There are   131 symmetry adapted basis functions of A'  symmetry.
 There are    81 symmetry adapted basis functions of A"  symmetry.
   212 basis functions,   299 primitive gaussians,   252 cartesian basis functions
     6 alpha electrons        6 beta electrons
       nuclear repulsion energy        17.0874373679 Hartrees.
 NAtoms=    6 NActive=    6 NUniq=    5 SFac= 1.44D+00 NAtFMM=   60 NAOKFM=F Big=F
 Integral buffers will be    131072 words long.
 Raffenetti 2 integral format.
 Two-electron integral symmetry is turned on.
 One-electron integrals computed using PRISM.
   2 Symmetry operations used in ECPInt.
 ECPInt:  NShTT=    2485 NPrTT=    5668 LenC2=    2486 LenP2D=    5326.
 LDataN:  DoStor=T MaxTD1= 8 Len=  415
 NBasis=   212 RedAO= T EigKep=  5.56D-05  NBF=   131    81
 NBsUse=   212 1.00D-06 EigRej= -1.00D+00 NBFU=   131    81
 ExpMin= 2.05D-02 ExpMax= 4.64D+04 ExpMxC= 4.48D+02 IAcc=3 IRadAn=         5 AccDes= 0.00D+00
 Harris functional with IExCor= 1009 and IRadAn=       5 diagonalized for initial guess.
 HarFok:  IExCor= 1009 AccDes= 0.00D+00 IRadAn=         5 IDoV= 1 UseB2=F ITyADJ=14
 ICtDFT=  3500011 ScaDFX=  1.000000  1.000000  1.000000  1.000000
 FoFCou: FMM=F IPFlag=           0 FMFlag=      100000 FMFlg1=           0
         NFxFlg=           0 DoJE=T BraDBF=F KetDBF=T FulRan=T
         wScrn=  0.000000 ICntrl=       500 IOpCl=  0 I1Cent=   200000004 NGrid=           0
         NMat0=    1 NMatS0=      1 NMatT0=    0 NMatD0=    1 NMtDS0=    0 NMtDT0=    0
 Petite list used in FoFCou.
 Initial guess orbital symmetries:
       Occupied  (A') (A') (A') (A') (A') (A")
       Virtual   (A') (A") (A') (A') (A") (A') (A') (A') (A') (A")
                 (A') (A') (A") (A') (A") (A') (A') (A') (A") (A')
                 (A") (A') (A') (A') (A') (A") (A') (A') (A") (A')
                 (A") (A') (A') (A") (A") (A') (A') (A') (A') (A")
                 (A") (A') (A') (A") (A') (A") (A') (A") (A') (A")
                 (A') (A') (A') (A") (A') (A") (A') (A') (A') (A")
                 (A') (A') (A') (A") (A') (A') (A") (A') (A") (A')
                 (A") (A') (A") (A') (A') (A") (A') (A') (A") (A")
                 (A') (A') (A") (A') (A') (A") (A') (A") (A') (A")
                 (A') (A') (A") (A') (A") (A') (A") (A') (A") (A')
                 (A") (A') (A") (A') (A') (A') (A") (A') (A') (A")
                 (A') (A') (A") (A') (A") (A") (A') (A') (A") (A')
                 (A") (A') (A") (A') (A') (A') (A") (A') (A') (A")
                 (A') (A") (A') (A") (A') (A') (A") (A') (A") (A")
                 (A") (A') (A') (A') (A") (A') (A") (A') (A') (A")
                 (A') (A") (A') (A') (A") (A') (A') (A") (A') (A")
                 (A') (A') (A") (A') (A") (A') (A") (A') (A') (A")
                 (A') (A") (A') (A") (A') (A") (A') (A") (A") (A')
                 (A') (A") (A') (A") (A') (A") (A') (A') (A") (A")
                 (A') (A') (A") (A') (A') (A") (A') (A") (A') (A')
                 (A") (A') (A') (A') (A') (A')
 The electronic state of the initial guess is 1-A'.
 Keep J ints in memory in symmetry-blocked form, NReq=382856332.
 Requested convergence on RMS density matrix=1.00D-08 within 128 cycles.
 Requested convergence on MAX density matrix=1.00D-06.
 Requested convergence on             energy=1.00D-06.
 No special actions if energy rises.
 SCF Done:  E(RTPSS-TPSS) =  -34.8196306263     A.U. after    9 cycles
            NFock=  9  Conv=0.34D-08     -V/T= 2.0102

 **********************************************************************

            Population analysis using the SCF Density.

 **********************************************************************

 Orbital symmetries:
       Occupied  (A') (A') (A') (A') (A") (A')
       Virtual   (A') (A') (A") (A') (A') (A") (A') (A') (A') (A")
                 (A') (A') (A") (A') (A") (A') (A') (A') (A") (A')
                 (A") (A') (A') (A') (A") (A') (A') (A') (A") (A')
                 (A") (A') (A') (A") (A") (A') (A') (A') (A") (A')
                 (A") (A') (A') (A') (A") (A") (A') (A") (A') (A")
                 (A') (A') (A') (A") (A') (A") (A') (A') (A') (A")
                 (A') (A') (A') (A') (A") (A') (A") (A") (A') (A')
                 (A") (A") (A') (A') (A') (A") (A') (A') (A') (A")
                 (A") (A') (A") (A') (A') (A") (A') (A") (A') (A")
                 (A') (A') (A") (A') (A") (A') (A") (A') (A") (A')
                 (A") (A') (A") (A') (A') (A') (A") (A') (A') (A")
                 (A') (A') (A") (A') (A") (A") (A') (A') (A") (A')
                 (A") (A') (A") (A') (A') (A') (A") (A') (A') (A")
                 (A') (A") (A') (A") (A') (A') (A') (A") (A") (A")
                 (A") (A') (A') (A') (A") (A') (A') (A") (A") (A')
                 (A') (A") (A') (A') (A") (A') (A') (A') (A") (A")
                 (A') (A') (A') (A") (A") (A') (A") (A') (A') (A")
                 (A') (A") (A') (A") (A') (A") (A') (A") (A") (A')
                 (A') (A") (A') (A") (A') (A") (A') (A") (A') (A")
                 (A') (A') (A") (A') (A") (A') (A') (A") (A') (A')
                 (A') (A") (A') (A') (A') (A')
 The electronic state is 1-A'.
 Alpha  occ. eigenvalues --   -6.51462  -1.93271  -0.45077  -0.26238  -0.26236
 Alpha  occ. eigenvalues --   -0.26160
 Alpha virt. eigenvalues --   -0.05873   0.00246   0.00246   0.01975   0.03750
 Alpha virt. eigenvalues --    0.05950   0.05951   0.09056   0.09227   0.09227
 Alpha virt. eigenvalues --    0.11512   0.12371   0.12372   0.13430   0.18520
 Alpha virt. eigenvalues --    0.18522   0.21610   0.21949   0.21950   0.24337
 Alpha virt. eigenvalues --    0.26222   0.26225   0.26804   0.31036   0.31581
 Alpha virt. eigenvalues --    0.31581   0.34984   0.41051   0.42499   0.42503
 Alpha virt. eigenvalues --    0.44056   0.48795   0.50309   0.50311   0.51424
 Alpha virt. eigenvalues --    0.51427   0.52907   0.57142   0.57144   0.60045
 Alpha virt. eigenvalues --    0.61886   0.61890   0.66502   0.71292   0.71295
 Alpha virt. eigenvalues --    0.71626   0.75126   0.75131   0.82076   0.88955
 Alpha virt. eigenvalues --    0.88963   0.90077   0.93221   0.93227   1.01151
 Alpha virt. eigenvalues --    1.02302   1.02305   1.07893   1.10555   1.10556
 Alpha virt. eigenvalues --    1.16631   1.18212   1.28407   1.31245   1.31250
 Alpha virt. eigenvalues --    1.32522   1.36419   1.37900   1.37908   1.44274
 Alpha virt. eigenvalues --    1.44280   1.52909   1.52910   1.52998   1.69986
 Alpha virt. eigenvalues --    1.69991   1.83624   1.95661   2.08081   2.10824
 Alpha virt. eigenvalues --    2.11796   2.11804   2.24151   2.24158   2.34039
 Alpha virt. eigenvalues --    2.34051   2.42013   2.52036   2.52041   2.60746
 Alpha virt. eigenvalues --    2.64118   2.65498   2.65502   2.69809   2.69810
 Alpha virt. eigenvalues --    2.73808   2.76118   2.79436   2.79441   2.89612
 Alpha virt. eigenvalues --    2.92256   2.92277   3.17311   3.17338   3.23008
 Alpha virt. eigenvalues --    3.25979   3.27111   3.27124   3.32424   3.32461
 Alpha virt. eigenvalues --    3.33926   3.44791   3.49576   3.49581   3.81769
 Alpha virt. eigenvalues --    3.91549   3.91555   3.92965   3.92981   4.22676
 Alpha virt. eigenvalues --    4.29624   4.29628   4.32878   4.32895   4.36048
 Alpha virt. eigenvalues --    4.52931   4.52953   4.54796   4.58052   4.81388
 Alpha virt. eigenvalues --    4.81432   4.93853   4.97471   5.02205   5.02233
 Alpha virt. eigenvalues --    5.55303   5.80974   5.81003   5.97855   6.04329
 Alpha virt. eigenvalues --    6.07821   6.07842   6.24380   6.24883   6.24893
 Alpha virt. eigenvalues --    6.36016   6.58521   6.73663   6.76542   6.76558
 Alpha virt. eigenvalues --    6.84016   6.94195   6.94240   7.04743   7.04769
 Alpha virt. eigenvalues --    7.12234   7.25631   7.25689   7.25697   7.32157
 Alpha virt. eigenvalues --    7.32190   7.53721   7.59613   7.59619   7.60819
 Alpha virt. eigenvalues --    7.64677   7.74496   7.74516   7.92281   7.92295
 Alpha virt. eigenvalues --    8.14223   8.37096   8.37100   8.46469   8.53260
 Alpha virt. eigenvalues --    8.53295   8.56063   8.56091   8.66609   8.66611
 Alpha virt. eigenvalues --    8.72462   8.80161   8.80186   8.83466   8.88479
 Alpha virt. eigenvalues --    9.05235   9.05247   9.37319   9.37323   9.39881
 Alpha virt. eigenvalues --    9.42842   9.50202   9.50230   9.60701   9.69866
 Alpha virt. eigenvalues --    9.69894   9.73122   9.78322   9.78330   9.90287
 Alpha virt. eigenvalues --   10.06407  10.06414  10.30101  11.83050  20.37453
 Alpha virt. eigenvalues --  104.44142
          Condensed to atoms (all electrons):
               1          2          3          4          5          6
     1  B    3.389672   0.454965   0.230731   0.230731   0.230934   0.156799
     2  H    0.454965   0.753808  -0.025813  -0.025813  -0.025800  -0.070426
     3  H    0.230731  -0.025813   0.906030  -0.054847  -0.054887   0.158001
     4  H    0.230731  -0.025813  -0.054847   0.906030  -0.054887   0.158001
     5  H    0.230934  -0.025800  -0.054887  -0.054887   0.906088   0.157736
     6  Li   0.156799  -0.070426   0.158001   0.158001   0.157736   2.207518
 Mulliken charges:
               1
     1  B    0.306168
     2  H   -0.060922
     3  H   -0.159216
     4  H   -0.159216
     5  H   -0.159184
     6  Li   0.232370
 Sum of Mulliken charges =  -0.00000
 Mulliken charges with hydrogens summed into heavy atoms:
               1
     1  B   -0.232370
     6  Li   0.232370
 Electronic spatial extent (au):  <R**2>=             76.9008
 Charge=             -0.0000 electrons
 Dipole moment (field-independent basis, Debye):
    X=             -0.0011    Y=             -6.0721    Z=             -0.0000  Tot=              6.0721
 Quadrupole moment (field-independent basis, Debye-Ang):
   XX=            -14.2246   YY=             -4.4357   ZZ=            -14.2258
   XY=              0.0011   XZ=             -0.0000   YZ=              0.0000
 Traceless Quadrupole moment (field-independent basis, Debye-Ang):
   XX=             -3.2626   YY=              6.5263   ZZ=             -3.2638
   XY=              0.0011   XZ=             -0.0000   YZ=              0.0000
 Octapole moment (field-independent basis, Debye-Ang**2):
  XXX=              0.8231  YYY=            -27.5799  ZZZ=             -0.0000  XYY=             -0.0024
  XXY=             -3.0234  XXZ=             -0.0000  XZZ=             -0.8266  YZZ=             -3.0217
  YYZ=             -0.0000  XYZ=             -0.0000
 Hexadecapole moment (field-independent basis, Debye-Ang**3):
 XXXX=            -35.7216 YYYY=            -36.0336 ZZZZ=            -35.7316 XXXY=             -0.0915
 XXXZ=              0.0000 YYYX=              0.0018 YYYZ=             -0.0000 ZZZX=              0.0000
 ZZZY=             -0.0000 XXYY=            -15.3753 XXZZ=            -11.9088 YYZZ=            -15.3773
 XXYZ=             -0.0000 YYXZ=              0.0000 ZZXY=              0.0931
 N-N= 1.708743736787D+01 E-N=-1.137698376873D+02  KE= 3.446924925049D+01
 Symmetry A'   KE= 3.320824834988D+01
 Symmetry A"   KE= 1.261000900613D+00
   2 Symmetry operations used in ECPInt.
 ECPInt:  NShTT=    2485 NPrTT=    5668 LenC2=    2486 LenP2D=    5326.
 LDataN:  DoStor=T MaxTD1= 9 Len=  602
 Calling FoFJK, ICntrl=      2527 FMM=F ISym2X=1 I1Cent= 0 IOpClX= 0 NMat=1 NMatS=1 NMatT=0.
 ***** Axes restored to original set *****
 -------------------------------------------------------------------
 Center     Atomic                   Forces (Hartrees/Bohr)
 Number     Number              X              Y              Z
 -------------------------------------------------------------------
      1        5           0.000089342   -0.001737234    0.000000000
      2        1          -0.000012314    0.009421660    0.000000000
      3        1          -0.003081676   -0.000422543    0.005347325
      4        1          -0.003081676   -0.000422543   -0.005347325
      5        1           0.006103827   -0.000383083   -0.000000000
      6        3          -0.000017501   -0.006456256   -0.000000000
 -------------------------------------------------------------------
 Cartesian Forces:  Max     0.009421660 RMS     0.003707493

 GradGradGradGradGradGradGradGradGradGradGradGradGradGradGradGradGradGrad
 Berny optimization.
 FormGI is forming the generalized inverse of G from B-inverse, IUseBI=4.
 Internal  Forces:  Max     0.009421665 RMS     0.002618823
 Search for a local minimum.
 Step number   1 out of a maximum of   36
 All quantities printed in internal units (Hartrees-Bohrs-Radians)
 Mixed Optimization -- RFO/linear search
 Second derivative matrix not updated -- first step.
 ITU=  0
     Eigenvalues ---    0.04111   0.04646   0.05278   0.05899   0.06920
     Eigenvalues ---    0.07932   0.11218   0.11579   0.18868   0.19579
     Eigenvalues ---    0.19819   0.23498
 RFO step:  Lambda=-1.02014863D-03 EMin= 4.11071333D-02
 Linear search not attempted -- first point.
 Iteration  1 RMS(Cart)=  0.01284476 RMS(Int)=  0.00001890
 Iteration  2 RMS(Cart)=  0.00000948 RMS(Int)=  0.00001188
 Iteration  3 RMS(Cart)=  0.00000000 RMS(Int)=  0.00001188
 ClnCor:  largest displacement from symmetrization is 2.30D-05 for atom     4.
 Variable       Old X    -DE/DX   Delta X   Delta X   Delta X     New X
                                 (Linear)    (Quad)   (Total)
    R1        2.29887  -0.00942   0.00000  -0.03992  -0.03992   2.25895
    R2        2.38905  -0.00459   0.00000  -0.02518  -0.02518   2.36387
    R3        2.38905  -0.00452   0.00000  -0.02518  -0.02518   2.36387
    R4        2.38839  -0.00437   0.00000  -0.02477  -0.02476   2.36362
    R5        3.70691  -0.00192   0.00000  -0.02713  -0.02717   3.67974
    R6        3.55334  -0.00247   0.00000  -0.03287  -0.03285   3.52049
    R7        3.55334  -0.00248   0.00000  -0.03287  -0.03285   3.52049
    R8        3.55427  -0.00248   0.00000  -0.03325  -0.03324   3.52103
    A1        1.96593  -0.00008   0.00000   0.00216   0.00218   1.96811
    A2        1.96593  -0.00010   0.00000   0.00219   0.00218   1.96811
    A3        1.96629  -0.00015   0.00000   0.00209   0.00210   1.96839
    A4        1.85203   0.00007   0.00000  -0.00235  -0.00236   1.84968
    A5        1.85214   0.00014   0.00000  -0.00240  -0.00241   1.84973
    A6        1.85214   0.00014   0.00000  -0.00240  -0.00241   1.84973
    A7        1.13459  -0.00151   0.00000  -0.00277  -0.00279   1.13180
    A8        1.13430  -0.00143   0.00000  -0.00262  -0.00264   1.13166
    A9        1.13430  -0.00141   0.00000  -0.00262  -0.00264   1.13166
   A10        3.14131   0.00004   0.00000   0.00008   0.00010   3.14141
   A11        3.14212  -0.00004   0.00000  -0.00019  -0.00018   3.14193
    D1        2.15870  -0.00011   0.00000   0.00244   0.00245   2.16115
    D2       -2.15899   0.00009   0.00000  -0.00235  -0.00237  -2.16136
    D3        2.15899  -0.00011   0.00000   0.00238   0.00237   2.16136
    D4       -1.96520  -0.00020   0.00000   0.00473   0.00473  -1.96047
    D5       -0.63453   0.00029   0.00000   0.00061   0.00062  -0.63391
    D6        0.63447  -0.00033   0.00000  -0.00056  -0.00056   0.63390
    D7       -0.63447   0.00034   0.00000   0.00056   0.00056  -0.63390
         Item               Value     Threshold  Converged?
 Maximum Force            0.009422     0.000450     NO 
 RMS     Force            0.002619     0.000300     NO 
 Maximum Displacement     0.040265     0.001800     NO 
 RMS     Displacement     0.012847     0.001200     NO 
 Predicted change in Energy=-5.139290D-04
 GradGradGradGradGradGradGradGradGradGradGradGradGradGradGradGradGradGrad

                          Input orientation:                          
 ---------------------------------------------------------------------
 Center     Atomic      Atomic             Coordinates (Angstroms)
 Number     Number       Type             X           Y           Z
 ---------------------------------------------------------------------
      1          5           0        8.791711    8.127630    8.500000
      2          1           0        8.792183    6.932246    8.500000
      3          1           0        9.368342    8.611887    7.501123
      4          1           0        9.368342    8.611887    9.498877
      5          1           0        7.638310    8.611477    8.500000
      6          3           0        8.791651   10.074865    8.500000
 ---------------------------------------------------------------------
                    Distance matrix (angstroms):
                    1          2          3          4          5
     1  B    0.000000
     2  H    1.195384   0.000000
     3  H    1.250906   2.037378   0.000000
     4  H    1.250906   2.037378   1.997755   0.000000
     5  H    1.250776   2.037458   1.997690   1.997690   0.000000
     6  Li   1.947235   3.142618   1.862963   1.862963   1.863249
                    6
     6  Li   0.000000
 Stoichiometry    BH4Li
 Framework group  CS[SG(BH2Li),X(H2)]
 Deg. of freedom     8
 Full point group                 CS      NOp   2
 Largest Abelian subgroup         CS      NOp   2
 Largest concise Abelian subgroup CS      NOp   2
                         Standard orientation:                         
 ---------------------------------------------------------------------
 Center     Atomic      Atomic             Coordinates (Angstroms)
 Number     Number       Type             X           Y           Z
 ---------------------------------------------------------------------
      1          5           0       -0.000029    0.508224    0.000000
      2          1           0        0.000407    1.703607    0.000000
      3          1           0        0.576618    0.023984    0.998877
      4          1           0        0.576618    0.023984   -0.998877
      5          1           0       -1.153414    0.024341    0.000000
      6          3           0       -0.000029   -1.439011   -0.000000
 ---------------------------------------------------------------------
 Rotational constants (GHZ):         125.6511342          22.9963595          22.9961789
 Standard basis: def2QZVPP (5D, 7F)
 There are   159 symmetry adapted cartesian basis functions of A'  symmetry.
 There are    93 symmetry adapted cartesian basis functions of A"  symmetry.
 There are   131 symmetry adapted basis functions of A'  symmetry.
 There are    81 symmetry adapted basis functions of A"  symmetry.
   212 basis functions,   299 primitive gaussians,   252 cartesian basis functions
     6 alpha electrons        6 beta electrons
       nuclear repulsion energy        17.2709047603 Hartrees.
 NAtoms=    6 NActive=    6 NUniq=    5 SFac= 1.44D+00 NAtFMM=   60 NAOKFM=F Big=F
 Integral buffers will be    131072 words long.
 Raffenetti 2 integral format.
 Two-electron integral symmetry is turned on.
 One-electron integrals computed using PRISM.
   2 Symmetry operations used in ECPInt.
 ECPInt:  NShTT=    2485 NPrTT=    5668 LenC2=    2486 LenP2D=    5327.
 LDataN:  DoStor=T MaxTD1= 8 Len=  415
 NBasis=   212 RedAO= T EigKep=  5.10D-05  NBF=   131    81
 NBsUse=   212 1.00D-06 EigRej= -1.00D+00 NBFU=   131    81
 Initial guess from the checkpoint file:  "/data/hutter/SMG16/TPSS/Gau-63082.chk"
 B after Tr=    -0.000000   -0.000000    0.000000
         Rot=    1.000000    0.000000    0.000000   -0.000032 Ang=  -0.00 deg.
 Initial guess orbital symmetries:
       Occupied  (A') (A') (A') (A') (A") (A')
       Virtual   (A') (A') (A") (A') (A') (A") (A') (A') (A') (A")
                 (A') (A') (A") (A') (A") (A') (A') (A') (A") (A')
                 (A") (A') (A') (A') (A") (A') (A') (A') (A") (A')
                 (A") (A') (A') (A") (A") (A') (A') (A') (A") (A')
                 (A") (A') (A') (A') (A") (A") (A') (A") (A') (A")
                 (A') (A') (A') (A") (A') (A") (A') (A') (A') (A")
                 (A') (A') (A') (A') (A") (A') (A") (A") (A') (A')
                 (A") (A") (A') (A') (A') (A") (A') (A') (A') (A")
                 (A") (A') (A") (A') (A') (A") (A') (A") (A') (A")
                 (A') (A') (A") (A') (A") (A') (A") (A') (A") (A')
                 (A") (A') (A") (A') (A') (A') (A") (A') (A') (A")
                 (A') (A') (A") (A') (A") (A") (A') (A') (A") (A')
                 (A") (A') (A") (A') (A') (A') (A") (A') (A') (A")
                 (A') (A") (A') (A") (A') (A') (A') (A") (A") (A")
                 (A") (A') (A') (A') (A") (A') (A') (A") (A") (A')
                 (A') (A") (A') (A') (A") (A') (A') (A') (A") (A")
                 (A') (A') (A') (A") (A") (A') (A") (A') (A') (A")
                 (A') (A") (A') (A") (A') (A") (A') (A") (A") (A')
                 (A') (A") (A') (A") (A') (A") (A') (A") (A') (A")
                 (A') (A') (A") (A') (A") (A') (A') (A") (A') (A')
                 (A') (A") (A') (A') (A') (A')
 ExpMin= 2.05D-02 ExpMax= 4.64D+04 ExpMxC= 4.48D+02 IAcc=3 IRadAn=         5 AccDes= 0.00D+00
 Harris functional with IExCor= 1009 and IRadAn=       5 diagonalized for initial guess.
 HarFok:  IExCor= 1009 AccDes= 0.00D+00 IRadAn=         5 IDoV= 1 UseB2=F ITyADJ=14
 ICtDFT=  3500011 ScaDFX=  1.000000  1.000000  1.000000  1.000000
 FoFCou: FMM=F IPFlag=           0 FMFlag=      100000 FMFlg1=           0
         NFxFlg=           0 DoJE=T BraDBF=F KetDBF=T FulRan=T
         wScrn=  0.000000 ICntrl=       500 IOpCl=  0 I1Cent=   200000004 NGrid=           0
         NMat0=    1 NMatS0=      1 NMatT0=    0 NMatD0=    1 NMtDS0=    0 NMtDT0=    0
 Petite list used in FoFCou.
 Keep J ints in memory in symmetry-blocked form, NReq=382856332.
 Requested convergence on RMS density matrix=1.00D-08 within 128 cycles.
 Requested convergence on MAX density matrix=1.00D-06.
 Requested convergence on             energy=1.00D-06.
 No special actions if energy rises.
 SCF Done:  E(RTPSS-TPSS) =  -34.8202818030     A.U. after    7 cycles
            NFock=  7  Conv=0.48D-08     -V/T= 2.0085
   2 Symmetry operations used in ECPInt.
 ECPInt:  NShTT=    2485 NPrTT=    5668 LenC2=    2486 LenP2D=    5327.
 LDataN:  DoStor=T MaxTD1= 9 Len=  602
 Calling FoFJK, ICntrl=      2527 FMM=F ISym2X=1 I1Cent= 0 IOpClX= 0 NMat=1 NMatS=1 NMatT=0.
 ***** Axes restored to original set *****
 -------------------------------------------------------------------
 Center     Atomic                   Forces (Hartrees/Bohr)
 Number     Number              X              Y              Z
 -------------------------------------------------------------------
      1        5           0.000039003    0.001731730    0.000000000
      2        1          -0.000008654    0.000476271   -0.000000000
      3        1          -0.000904045    0.000851440    0.001571871
      4        1          -0.000904045    0.000851440   -0.001571871
      5        1           0.001794126    0.000865841   -0.000000000
      6        3          -0.000016386   -0.004776721    0.000000000
 -------------------------------------------------------------------
 Cartesian Forces:  Max     0.004776721 RMS     0.001453717

 GradGradGradGradGradGradGradGradGradGradGradGradGradGradGradGradGradGrad
 Berny optimization.
 Using GEDIIS/GDIIS optimizer.
 FormGI is forming the generalized inverse of G from B-inverse, IUseBI=4.
 Internal  Forces:  Max     0.001463926 RMS     0.000653660
 Search for a local minimum.
 Step number   2 out of a maximum of   36
 All quantities printed in internal units (Hartrees-Bohrs-Radians)
 Mixed Optimization -- En-DIIS/RFO-DIIS
 Update second derivatives using D2CorX and points    1    2
 DE= -6.51D-04 DEPred=-5.14D-04 R= 1.27D+00
 TightC=F SS=  1.41D+00  RLast= 8.70D-02 DXNew= 5.0454D-01 2.6103D-01
 Trust test= 1.27D+00 RLast= 8.70D-02 DXMaxT set to 3.00D-01
 ITU=  1  0
 Use linear search instead of GDIIS.
     Eigenvalues ---    0.04093   0.04494   0.04639   0.05276   0.06761
     Eigenvalues ---    0.07337   0.11215   0.11575   0.18632   0.19412
     Eigenvalues ---    0.19795   0.25803
 RFO step:  Lambda=-1.07046312D-04 EMin= 4.09309465D-02
 Quartic linear search produced a step of  0.34472.
 Iteration  1 RMS(Cart)=  0.00685995 RMS(Int)=  0.00001657
 Iteration  2 RMS(Cart)=  0.00000796 RMS(Int)=  0.00001243
 Iteration  3 RMS(Cart)=  0.00000000 RMS(Int)=  0.00001243
 ClnCor:  largest displacement from symmetrization is 2.40D-05 for atom     4.
 Variable       Old X    -DE/DX   Delta X   Delta X   Delta X     New X
                                 (Linear)    (Quad)   (Total)
    R1        2.25895  -0.00048  -0.01376   0.00711  -0.00665   2.25229
    R2        2.36387  -0.00096  -0.00868  -0.00197  -0.01067   2.35320
    R3        2.36387  -0.00095  -0.00868  -0.00197  -0.01067   2.35320
    R4        2.36362  -0.00093  -0.00854  -0.00189  -0.01044   2.35319
    R5        3.67974  -0.00138  -0.00937  -0.01697  -0.02636   3.65338
    R6        3.52049  -0.00143  -0.01133  -0.01928  -0.03058   3.48991
    R7        3.52049  -0.00144  -0.01133  -0.01928  -0.03058   3.48991
    R8        3.52103  -0.00146  -0.01146  -0.01967  -0.03112   3.48992
    A1        1.96811   0.00004   0.00075   0.00245   0.00323   1.97134
    A2        1.96811   0.00005   0.00075   0.00249   0.00323   1.97134
    A3        1.96839   0.00006   0.00073   0.00238   0.00311   1.97150
    A4        1.84968  -0.00003  -0.00081  -0.00267  -0.00351   1.84617
    A5        1.84973  -0.00006  -0.00083  -0.00274  -0.00359   1.84614
    A6        1.84973  -0.00007  -0.00083  -0.00274  -0.00359   1.84614
    A7        1.13180  -0.00001  -0.00096   0.00462   0.00366   1.13546
    A8        1.13166  -0.00001  -0.00091   0.00468   0.00378   1.13545
    A9        1.13166  -0.00001  -0.00091   0.00468   0.00378   1.13545
   A10        3.14141  -0.00001   0.00003   0.00007   0.00013   3.14154
   A11        3.14193   0.00000  -0.00006  -0.00019  -0.00024   3.14170
    D1        2.16115   0.00005   0.00085   0.00277   0.00362   2.16477
    D2       -2.16136  -0.00004  -0.00082  -0.00265  -0.00349  -2.16485
    D3        2.16136   0.00005   0.00082   0.00270   0.00349   2.16485
    D4       -1.96047   0.00009   0.00163   0.00535   0.00697  -1.95349
    D5       -0.63391   0.00001   0.00021  -0.00110  -0.00089  -0.63480
    D6        0.63390   0.00001  -0.00019   0.00111   0.00092   0.63482
    D7       -0.63390  -0.00001   0.00019  -0.00111  -0.00092  -0.63482
         Item               Value     Threshold  Converged?
 Maximum Force            0.001464     0.000450     NO 
 RMS     Force            0.000654     0.000300     NO 
 Maximum Displacement     0.024490     0.001800     NO 
 RMS     Displacement     0.006863     0.001200     NO 
 Predicted change in Energy=-1.071637D-04
 GradGradGradGradGradGradGradGradGradGradGradGradGradGradGradGradGradGrad

                          Input orientation:                          
 ---------------------------------------------------------------------
 Center     Atomic      Atomic             Coordinates (Angstroms)
 Number     Number       Type             X           Y           Z
 ---------------------------------------------------------------------
      1          5           0        8.791795    8.128620    8.500000
      2          1           0        8.792111    6.936757    8.500000
      3          1           0        9.365042    8.614325    7.506946
      4          1           0        9.365042    8.614325    9.493054
      5          1           0        7.645055    8.614051    8.500000
      6          3           0        8.791496   10.061905    8.500000
 ---------------------------------------------------------------------
                    Distance matrix (angstroms):
                    1          2          3          4          5
     1  B    0.000000
     2  H    1.191863   0.000000
     3  H    1.245262   2.031906   0.000000
     4  H    1.245262   2.031906   1.986107   0.000000
     5  H    1.245254   2.032007   1.986079   1.986079   0.000000
     6  Li   1.933285   3.125148   1.846780   1.846780   1.846784
                    6
     6  Li   0.000000
 Stoichiometry    BH4Li
 Framework group  CS[SG(BH2Li),X(H2)]
 Deg. of freedom     8
 Full point group                 CS      NOp   2
 Largest Abelian subgroup         CS      NOp   2
 Largest concise Abelian subgroup CS      NOp   2
                         Standard orientation:                         
 ---------------------------------------------------------------------
 Center     Atomic      Atomic             Coordinates (Angstroms)
 Number     Number       Type             X           Y           Z
 ---------------------------------------------------------------------
      1          5           0       -0.000009    0.505403   -0.000000
      2          1           0        0.000122    1.697266   -0.000000
      3          1           0        0.573313    0.019786    0.993054
      4          1           0        0.573313    0.019786   -0.993054
      5          1           0       -1.146674    0.019794   -0.000000
      6          3           0       -0.000009   -1.427882    0.000000
 ---------------------------------------------------------------------
 Rotational constants (GHZ):         127.1261244          23.3083517          23.3082706
 Standard basis: def2QZVPP (5D, 7F)
 There are   159 symmetry adapted cartesian basis functions of A'  symmetry.
 There are    93 symmetry adapted cartesian basis functions of A"  symmetry.
 There are   131 symmetry adapted basis functions of A'  symmetry.
 There are    81 symmetry adapted basis functions of A"  symmetry.
   212 basis functions,   299 primitive gaussians,   252 cartesian basis functions
     6 alpha electrons        6 beta electrons
       nuclear repulsion energy        17.3675108228 Hartrees.
 NAtoms=    6 NActive=    6 NUniq=    5 SFac= 1.44D+00 NAtFMM=   60 NAOKFM=F Big=F
 Integral buffers will be    131072 words long.
 Raffenetti 2 integral format.
 Two-electron integral symmetry is turned on.
 One-electron integrals computed using PRISM.
   2 Symmetry operations used in ECPInt.
 ECPInt:  NShTT=    2485 NPrTT=    5668 LenC2=    2486 LenP2D=    5328.
 LDataN:  DoStor=T MaxTD1= 8 Len=  415
 NBasis=   212 RedAO= T EigKep=  4.93D-05  NBF=   131    81
 NBsUse=   212 1.00D-06 EigRej= -1.00D+00 NBFU=   131    81
 Initial guess from the checkpoint file:  "/data/hutter/SMG16/TPSS/Gau-63082.chk"
 B after Tr=     0.000000    0.000000   -0.000000
         Rot=    1.000000   -0.000000    0.000000   -0.000037 Ang=  -0.00 deg.
 Initial guess orbital symmetries:
       Occupied  (A') (A') (A') (A') (A') (A")
       Virtual   (A') (A') (A") (A') (A') (A") (A') (A') (A') (A")
                 (A') (A') (A") (A') (A") (A') (A') (A') (A") (A')
                 (A") (A') (A') (A') (A') (A") (A') (A') (A") (A')
                 (A") (A') (A') (A") (A") (A') (A') (A') (A") (A')
                 (A") (A') (A') (A') (A") (A") (A') (A") (A') (A")
                 (A') (A') (A') (A") (A') (A") (A') (A') (A") (A')
                 (A') (A') (A') (A') (A") (A') (A") (A") (A') (A')
                 (A") (A') (A") (A') (A') (A") (A') (A') (A') (A")
                 (A") (A') (A") (A') (A') (A") (A') (A") (A') (A")
                 (A') (A') (A") (A") (A') (A') (A") (A') (A") (A')
                 (A") (A') (A") (A') (A') (A') (A") (A') (A') (A")
                 (A') (A') (A") (A') (A") (A") (A') (A') (A") (A')
                 (A") (A') (A") (A') (A') (A') (A') (A") (A') (A")
                 (A') (A") (A') (A") (A') (A') (A') (A") (A") (A")
                 (A") (A') (A') (A") (A') (A') (A') (A") (A") (A')
                 (A') (A") (A') (A') (A") (A') (A') (A') (A") (A")
                 (A') (A') (A") (A') (A") (A') (A") (A') (A') (A")
                 (A') (A") (A') (A") (A') (A") (A') (A") (A") (A')
                 (A') (A") (A") (A') (A') (A") (A') (A') (A") (A')
                 (A") (A') (A") (A') (A") (A') (A') (A") (A') (A')
                 (A') (A") (A') (A') (A') (A')
 ExpMin= 2.05D-02 ExpMax= 4.64D+04 ExpMxC= 4.48D+02 IAcc=3 IRadAn=         5 AccDes= 0.00D+00
 Harris functional with IExCor= 1009 and IRadAn=       5 diagonalized for initial guess.
 HarFok:  IExCor= 1009 AccDes= 0.00D+00 IRadAn=         5 IDoV= 1 UseB2=F ITyADJ=14
 ICtDFT=  3500011 ScaDFX=  1.000000  1.000000  1.000000  1.000000
 FoFCou: FMM=F IPFlag=           0 FMFlag=      100000 FMFlg1=           0
         NFxFlg=           0 DoJE=T BraDBF=F KetDBF=T FulRan=T
         wScrn=  0.000000 ICntrl=       500 IOpCl=  0 I1Cent=   200000004 NGrid=           0
         NMat0=    1 NMatS0=      1 NMatT0=    0 NMatD0=    1 NMtDS0=    0 NMtDT0=    0
 Petite list used in FoFCou.
 Keep J ints in memory in symmetry-blocked form, NReq=382856332.
 Requested convergence on RMS density matrix=1.00D-08 within 128 cycles.
 Requested convergence on MAX density matrix=1.00D-06.
 Requested convergence on             energy=1.00D-06.
 No special actions if energy rises.
 SCF Done:  E(RTPSS-TPSS) =  -34.8204181350     A.U. after    7 cycles
            NFock=  7  Conv=0.22D-08     -V/T= 2.0077
   2 Symmetry operations used in ECPInt.
 ECPInt:  NShTT=    2485 NPrTT=    5668 LenC2=    2486 LenP2D=    5328.
 LDataN:  DoStor=T MaxTD1= 9 Len=  602
 Calling FoFJK, ICntrl=      2527 FMM=F ISym2X=1 I1Cent= 0 IOpClX= 0 NMat=1 NMatS=1 NMatT=0.
 ***** Axes restored to original set *****
 -------------------------------------------------------------------
 Center     Atomic                   Forces (Hartrees/Bohr)
 Number     Number              X              Y              Z
 -------------------------------------------------------------------
      1        5           0.000006357    0.000566206   -0.000000000
      2        1          -0.000005760   -0.001046432    0.000000000
      3        1           0.000113367    0.001081919   -0.000189377
      4        1           0.000113367    0.001081919    0.000189377
      5        1          -0.000214670    0.001079966    0.000000000
      6        3          -0.000012661   -0.002763578   -0.000000000
 -------------------------------------------------------------------
 Cartesian Forces:  Max     0.002763578 RMS     0.000840111

 GradGradGradGradGradGradGradGradGradGradGradGradGradGradGradGradGradGrad
 Berny optimization.
 Using GEDIIS/GDIIS optimizer.
 FormGI is forming the generalized inverse of G from B-inverse, IUseBI=4.
 Internal  Forces:  Max     0.001046431 RMS     0.000433115
 Search for a local minimum.
 Step number   3 out of a maximum of   36
 All quantities printed in internal units (Hartrees-Bohrs-Radians)
 Mixed Optimization -- En-DIIS/RFO-DIIS
 Swapping is turned off.
 Update second derivatives using D2CorX and points    1    2    3
 DE= -1.36D-04 DEPred=-1.07D-04 R= 1.27D+00
 TightC=F SS=  1.41D+00  RLast= 6.41D-02 DXNew= 5.0454D-01 1.9241D-01
 Trust test= 1.27D+00 RLast= 6.41D-02 DXMaxT set to 3.00D-01
 ITU=  1  1  0
     Eigenvalues ---    0.02599   0.04100   0.04630   0.05273   0.06716
     Eigenvalues ---    0.07306   0.11213   0.11577   0.19083   0.19769
     Eigenvalues ---    0.21456   0.32287
 En-DIIS/RFO-DIIS/Sim-DIIS IScMMF=       -3 using points:     3    2
 RFO step:  Lambda=-7.68722650D-05.
 DidBck=F Rises=F RFO-DIIS coefs:    1.76272   -0.76272
 Iteration  1 RMS(Cart)=  0.00499615 RMS(Int)=  0.00002658
 Iteration  2 RMS(Cart)=  0.00001092 RMS(Int)=  0.00002315
 Iteration  3 RMS(Cart)=  0.00000000 RMS(Int)=  0.00002315
 ClnCor:  largest displacement from symmetrization is 7.10D-06 for atom     2.
 Variable       Old X    -DE/DX   Delta X   Delta X   Delta X     New X
                                 (Linear)    (Quad)   (Total)
    R1        2.25229   0.00105  -0.00507   0.00531   0.00024   2.25253
    R2        2.35320   0.00059  -0.00813   0.00630  -0.00186   2.35134
    R3        2.35320   0.00057  -0.00813   0.00629  -0.00186   2.35134
    R4        2.35319   0.00054  -0.00796   0.00619  -0.00180   2.35138
    R5        3.65338  -0.00075  -0.02011  -0.00093  -0.02104   3.63234
    R6        3.48991  -0.00066  -0.02332  -0.00128  -0.02459   3.46532
    R7        3.48991  -0.00066  -0.02332  -0.00128  -0.02459   3.46532
    R8        3.48992  -0.00069  -0.02373  -0.00141  -0.02512   3.46480
    A1        1.97134   0.00007   0.00246   0.00101   0.00349   1.97484
    A2        1.97134   0.00010   0.00246   0.00103   0.00349   1.97484
    A3        1.97150   0.00013   0.00237   0.00096   0.00334   1.97485
    A4        1.84617  -0.00007  -0.00268  -0.00114  -0.00385   1.84231
    A5        1.84614  -0.00013  -0.00274  -0.00111  -0.00387   1.84226
    A6        1.84614  -0.00014  -0.00274  -0.00111  -0.00387   1.84226
    A7        1.13546   0.00052   0.00279   0.00333   0.00617   1.14163
    A8        1.13545   0.00049   0.00288   0.00334   0.00627   1.14172
    A9        1.13545   0.00048   0.00288   0.00334   0.00627   1.14172
   A10        3.14154  -0.00003   0.00010   0.00003   0.00013   3.14167
   A11        3.14170   0.00002  -0.00018  -0.00007  -0.00025   3.14145
    D1        2.16477   0.00011   0.00276   0.00111   0.00386   2.16863
    D2       -2.16485  -0.00008  -0.00266  -0.00109  -0.00375  -2.16860
    D3        2.16485   0.00011   0.00266   0.00111   0.00375   2.16860
    D4       -1.95349   0.00019   0.00532   0.00220   0.00751  -1.94598
    D5       -0.63480  -0.00008  -0.00068  -0.00081  -0.00152  -0.63632
    D6        0.63482   0.00012   0.00070   0.00076   0.00148   0.63630
    D7       -0.63482  -0.00013  -0.00070  -0.00076  -0.00148  -0.63630
         Item               Value     Threshold  Converged?
 Maximum Force            0.001046     0.000450     NO 
 RMS     Force            0.000433     0.000300     NO 
 Maximum Displacement     0.020856     0.001800     NO 
 RMS     Displacement     0.004999     0.001200     NO 
 Predicted change in Energy=-3.850938D-05
 GradGradGradGradGradGradGradGradGradGradGradGradGradGradGradGradGradGrad

                          Input orientation:                          
 ---------------------------------------------------------------------
 Center     Atomic      Atomic             Coordinates (Angstroms)
 Number     Number       Type             X           Y           Z
 ---------------------------------------------------------------------
      1          5           0        8.791860    8.128714    8.500000
      2          1           0        8.792005    6.936725    8.500000
      3          1           0        9.363824    8.617954    7.509181
      4          1           0        9.363824    8.617954    9.490819
      5          1           0        7.647696    8.617764    8.500000
      6          3           0        8.791332   10.050868    8.500000
 ---------------------------------------------------------------------
                    Distance matrix (angstroms):
                    1          2          3          4          5
     1  B    0.000000
     2  H    1.191989   0.000000
     3  H    1.244275   2.033526   0.000000
     4  H    1.244275   2.033526   1.981639   0.000000
     5  H    1.244299   2.033552   1.981620   1.981620   0.000000
     6  Li   1.922154   3.114143   1.833770   1.833770   1.833492
                    6
     6  Li   0.000000
 Stoichiometry    BH4Li
 Framework group  CS[SG(BH2Li),X(H2)]
 Deg. of freedom     8
 Full point group                 CS      NOp   2
 Largest Abelian subgroup         CS      NOp   2
 Largest concise Abelian subgroup CS      NOp   2
                         Standard orientation:                         
 ---------------------------------------------------------------------
 Center     Atomic      Atomic             Coordinates (Angstroms)
 Number     Number       Type             X           Y           Z
 ---------------------------------------------------------------------
      1          5           0        0.000001    0.503500   -0.000000
      2          1           0       -0.000180    1.695489   -0.000000
      3          1           0        0.572099    0.014417    0.990819
      4          1           0        0.572099    0.014417   -0.990819
      5          1           0       -1.144028    0.014137   -0.000000
      6          3           0        0.000001   -1.418654    0.000000
 ---------------------------------------------------------------------
 Rotational constants (GHZ):         127.6993182          23.5415927          23.5415374
 Standard basis: def2QZVPP (5D, 7F)
 There are   159 symmetry adapted cartesian basis functions of A'  symmetry.
 There are    93 symmetry adapted cartesian basis functions of A"  symmetry.
 There are   131 symmetry adapted basis functions of A'  symmetry.
 There are    81 symmetry adapted basis functions of A"  symmetry.
   212 basis functions,   299 primitive gaussians,   252 cartesian basis functions
     6 alpha electrons        6 beta electrons
       nuclear repulsion energy        17.4174639276 Hartrees.
 NAtoms=    6 NActive=    6 NUniq=    5 SFac= 1.44D+00 NAtFMM=   60 NAOKFM=F Big=F
 Integral buffers will be    131072 words long.
 Raffenetti 2 integral format.
 Two-electron integral symmetry is turned on.
 One-electron integrals computed using PRISM.
   2 Symmetry operations used in ECPInt.
 ECPInt:  NShTT=    2485 NPrTT=    5668 LenC2=    2486 LenP2D=    5330.
 LDataN:  DoStor=T MaxTD1= 8 Len=  415
 NBasis=   212 RedAO= T EigKep=  4.89D-05  NBF=   131    81
 NBsUse=   212 1.00D-06 EigRej= -1.00D+00 NBFU=   131    81
 Initial guess from the checkpoint file:  "/data/hutter/SMG16/TPSS/Gau-63082.chk"
 B after Tr=     0.000000   -0.000000    0.000000
         Rot=    1.000000    0.000000    0.000000   -0.000035 Ang=  -0.00 deg.
 Initial guess orbital symmetries:
       Occupied  (A') (A') (A') (A') (A") (A')
       Virtual   (A') (A') (A") (A') (A') (A') (A") (A') (A') (A")
                 (A') (A') (A") (A') (A") (A') (A') (A') (A") (A')
                 (A") (A') (A') (A') (A') (A") (A') (A') (A") (A')
                 (A") (A') (A") (A') (A') (A") (A') (A') (A") (A')
                 (A') (A") (A') (A') (A") (A") (A') (A") (A') (A")
                 (A') (A') (A') (A") (A') (A") (A') (A') (A") (A')
                 (A') (A') (A') (A') (A") (A') (A") (A') (A") (A")
                 (A') (A') (A") (A') (A') (A") (A') (A') (A') (A")
                 (A") (A') (A') (A") (A') (A") (A') (A") (A') (A")
                 (A') (A') (A") (A") (A') (A") (A') (A') (A") (A')
                 (A") (A') (A") (A') (A') (A') (A") (A') (A') (A")
                 (A') (A') (A') (A") (A") (A") (A') (A') (A") (A')
                 (A") (A') (A") (A') (A') (A') (A') (A") (A') (A")
                 (A') (A") (A') (A') (A") (A') (A') (A") (A") (A")
                 (A") (A') (A') (A") (A') (A') (A') (A") (A") (A')
                 (A') (A") (A') (A') (A") (A') (A') (A') (A") (A")
                 (A') (A') (A") (A') (A") (A') (A") (A') (A') (A")
                 (A') (A") (A') (A") (A') (A") (A') (A") (A") (A')
                 (A') (A") (A") (A') (A') (A") (A') (A') (A") (A')
                 (A") (A') (A") (A') (A') (A") (A') (A') (A") (A')
                 (A") (A') (A') (A') (A') (A')
 ExpMin= 2.05D-02 ExpMax= 4.64D+04 ExpMxC= 4.48D+02 IAcc=3 IRadAn=         5 AccDes= 0.00D+00
 Harris functional with IExCor= 1009 and IRadAn=       5 diagonalized for initial guess.
 HarFok:  IExCor= 1009 AccDes= 0.00D+00 IRadAn=         5 IDoV= 1 UseB2=F ITyADJ=14
 ICtDFT=  3500011 ScaDFX=  1.000000  1.000000  1.000000  1.000000
 FoFCou: FMM=F IPFlag=           0 FMFlag=      100000 FMFlg1=           0
         NFxFlg=           0 DoJE=T BraDBF=F KetDBF=T FulRan=T
         wScrn=  0.000000 ICntrl=       500 IOpCl=  0 I1Cent=   200000004 NGrid=           0
         NMat0=    1 NMatS0=      1 NMatT0=    0 NMatD0=    1 NMtDS0=    0 NMtDT0=    0
 Petite list used in FoFCou.
 Keep J ints in memory in symmetry-blocked form, NReq=382856332.
 Requested convergence on RMS density matrix=1.00D-08 within 128 cycles.
 Requested convergence on MAX density matrix=1.00D-06.
 Requested convergence on             energy=1.00D-06.
 No special actions if energy rises.
 SCF Done:  E(RTPSS-TPSS) =  -34.8204688935     A.U. after    7 cycles
            NFock=  7  Conv=0.14D-08     -V/T= 2.0075
   2 Symmetry operations used in ECPInt.
 ECPInt:  NShTT=    2485 NPrTT=    5668 LenC2=    2486 LenP2D=    5330.
 LDataN:  DoStor=T MaxTD1= 9 Len=  602
 Calling FoFJK, ICntrl=      2527 FMM=F ISym2X=1 I1Cent= 0 IOpClX= 0 NMat=1 NMatS=1 NMatT=0.
 ***** Axes restored to original set *****
 -------------------------------------------------------------------
 Center     Atomic                   Forces (Hartrees/Bohr)
 Number     Number              X              Y              Z
 -------------------------------------------------------------------
      1        5          -0.000003707   -0.000443176    0.000000000
      2        1          -0.000000843   -0.000875533   -0.000000000
      3        1           0.000375145    0.000751998   -0.000644587
      4        1           0.000375145    0.000751998    0.000644587
      5        1          -0.000737808    0.000746825    0.000000000
      6        3          -0.000007933   -0.000932111    0.000000000
 -------------------------------------------------------------------
 Cartesian Forces:  Max     0.000932111 RMS     0.000536316

 GradGradGradGradGradGradGradGradGradGradGradGradGradGradGradGradGradGrad
 Berny optimization.
 Using GEDIIS/GDIIS optimizer.
 FormGI is forming the generalized inverse of G from B-inverse, IUseBI=4.
 Internal  Forces:  Max     0.000875533 RMS     0.000371355
 Search for a local minimum.
 Step number   4 out of a maximum of   36
 All quantities printed in internal units (Hartrees-Bohrs-Radians)
 Mixed Optimization -- En-DIIS/RFO-DIIS
 Swapping is turned off.
 Update second derivatives using D2CorX and points    1    2    3    4
 DE= -5.08D-05 DEPred=-3.85D-05 R= 1.32D+00
 TightC=F SS=  1.41D+00  RLast= 5.10D-02 DXNew= 5.0454D-01 1.5285D-01
 Trust test= 1.32D+00 RLast= 5.10D-02 DXMaxT set to 3.00D-01
 ITU=  1  1  1  0
     Eigenvalues ---    0.01960   0.04093   0.04628   0.05275   0.06734
     Eigenvalues ---    0.07425   0.11217   0.11596   0.19090   0.19767
     Eigenvalues ---    0.22392   0.28300
 En-DIIS/RFO-DIIS/Sim-DIIS IScMMF=       -3 using points:     4    3    2
 RFO step:  Lambda=-2.60474019D-05.
 DidBck=F Rises=F RFO-DIIS coefs:    2.32130   -1.98987    0.66857
 Iteration  1 RMS(Cart)=  0.00332484 RMS(Int)=  0.00001359
 Iteration  2 RMS(Cart)=  0.00000887 RMS(Int)=  0.00000611
 Iteration  3 RMS(Cart)=  0.00000000 RMS(Int)=  0.00000611
 ClnCor:  largest displacement from symmetrization is 2.85D-06 for atom     2.
 Variable       Old X    -DE/DX   Delta X   Delta X   Delta X     New X
                                 (Linear)    (Quad)   (Total)
    R1        2.25253   0.00088   0.00476  -0.00153   0.00323   2.25577
    R2        2.35134   0.00083   0.00467   0.00057   0.00524   2.35658
    R3        2.35134   0.00081   0.00467   0.00057   0.00524   2.35658
    R4        2.35138   0.00078   0.00459   0.00061   0.00520   2.35659
    R5        3.63234  -0.00018  -0.01017   0.00162  -0.00854   3.62381
    R6        3.46532  -0.00014  -0.01204  -0.00005  -0.01209   3.45323
    R7        3.46532  -0.00014  -0.01204  -0.00005  -0.01209   3.45323
    R8        3.46480  -0.00016  -0.01239  -0.00008  -0.01247   3.45233
    A1        1.97484   0.00007   0.00246   0.00064   0.00310   1.97793
    A2        1.97484   0.00009   0.00246   0.00065   0.00310   1.97793
    A3        1.97485   0.00013   0.00234   0.00067   0.00300   1.97784
    A4        1.84231  -0.00007  -0.00274  -0.00073  -0.00348   1.83884
    A5        1.84226  -0.00013  -0.00272  -0.00073  -0.00345   1.83882
    A6        1.84226  -0.00014  -0.00272  -0.00073  -0.00345   1.83882
    A7        1.14163   0.00047   0.00570  -0.00003   0.00567   1.14730
    A8        1.14172   0.00043   0.00576  -0.00001   0.00574   1.14746
    A9        1.14172   0.00043   0.00576  -0.00001   0.00574   1.14746
   A10        3.14167  -0.00003   0.00009  -0.00001   0.00009   3.14175
   A11        3.14145   0.00002  -0.00017   0.00000  -0.00016   3.14129
    D1        2.16863   0.00010   0.00269   0.00069   0.00337   2.17200
    D2       -2.16860  -0.00008  -0.00263  -0.00070  -0.00333  -2.17193
    D3        2.16860   0.00010   0.00263   0.00071   0.00333   2.17193
    D4       -1.94598   0.00018   0.00526   0.00141   0.00666  -1.93932
    D5       -0.63632  -0.00007  -0.00141   0.00000  -0.00142  -0.63774
    D6        0.63630   0.00011   0.00134   0.00000   0.00134   0.63764
    D7       -0.63630  -0.00012  -0.00134  -0.00000  -0.00134  -0.63764
         Item               Value     Threshold  Converged?
 Maximum Force            0.000876     0.000450     NO 
 RMS     Force            0.000371     0.000300     NO 
 Maximum Displacement     0.010920     0.001800     NO 
 RMS     Displacement     0.003325     0.001200     NO 
 Predicted change in Energy=-9.803655D-06
 GradGradGradGradGradGradGradGradGradGradGradGradGradGradGradGradGradGrad

                          Input orientation:                          
 ---------------------------------------------------------------------
 Center     Atomic      Atomic             Coordinates (Angstroms)
 Number     Number       Type             X           Y           Z
 ---------------------------------------------------------------------
      1          5           0        8.791889    8.127453    8.500000
      2          1           0        8.791922    6.933753    8.500000
      3          1           0        9.364401    8.621278    7.508284
      4          1           0        9.364401    8.621278    9.491716
      5          1           0        7.646716    8.621128    8.500000
      6          3           0        8.791214   10.045089    8.500000
 ---------------------------------------------------------------------
                    Distance matrix (angstroms):
                    1          2          3          4          5
     1  B    0.000000
     2  H    1.193700   0.000000
     3  H    1.247050   2.039357   0.000000
     4  H    1.247050   2.039357   1.983432   0.000000
     5  H    1.247051   2.039297   1.983417   1.983417   0.000000
     6  Li   1.917637   3.111337   1.827370   1.827370   1.826894
                    6
     6  Li   0.000000
 Stoichiometry    BH4Li
 Framework group  CS[SG(BH2Li),X(H2)]
 Deg. of freedom     8
 Full point group                 CS      NOp   2
 Largest Abelian subgroup         CS      NOp   2
 Largest concise Abelian subgroup CS      NOp   2
                         Standard orientation:                         
 ---------------------------------------------------------------------
 Center     Atomic      Atomic             Coordinates (Angstroms)
 Number     Number       Type             X           Y           Z
 ---------------------------------------------------------------------
      1          5           0        0.000001    0.503378    0.000000
      2          1           0       -0.000386    1.697078    0.000000
      3          1           0        0.572687    0.009754    0.991716
      4          1           0        0.572687    0.009754   -0.991716
      5          1           0       -1.144998    0.009300    0.000000
      6          3           0        0.000001   -1.414259   -0.000000
 ---------------------------------------------------------------------
 Rotational constants (GHZ):         127.4682025          23.6252090          23.6251629
 Standard basis: def2QZVPP (5D, 7F)
 There are   159 symmetry adapted cartesian basis functions of A'  symmetry.
 There are    93 symmetry adapted cartesian basis functions of A"  symmetry.
 There are   131 symmetry adapted basis functions of A'  symmetry.
 There are    81 symmetry adapted basis functions of A"  symmetry.
   212 basis functions,   299 primitive gaussians,   252 cartesian basis functions
     6 alpha electrons        6 beta electrons
       nuclear repulsion energy        17.4165572311 Hartrees.
 NAtoms=    6 NActive=    6 NUniq=    5 SFac= 1.44D+00 NAtFMM=   60 NAOKFM=F Big=F
 Integral buffers will be    131072 words long.
 Raffenetti 2 integral format.
 Two-electron integral symmetry is turned on.
 One-electron integrals computed using PRISM.
   2 Symmetry operations used in ECPInt.
 ECPInt:  NShTT=    2485 NPrTT=    5668 LenC2=    2486 LenP2D=    5334.
 LDataN:  DoStor=T MaxTD1= 8 Len=  415
 NBasis=   212 RedAO= T EigKep=  4.95D-05  NBF=   131    81
 NBsUse=   212 1.00D-06 EigRej= -1.00D+00 NBFU=   131    81
 Initial guess from the checkpoint file:  "/data/hutter/SMG16/TPSS/Gau-63082.chk"
 B after Tr=     0.000000    0.000000   -0.000000
         Rot=    1.000000   -0.000000    0.000000   -0.000022 Ang=  -0.00 deg.
 Initial guess orbital symmetries:
       Occupied  (A') (A') (A') (A') (A') (A")
       Virtual   (A') (A") (A') (A') (A') (A') (A") (A') (A") (A')
                 (A') (A") (A') (A') (A') (A") (A') (A") (A') (A')
                 (A') (A") (A') (A') (A") (A') (A') (A') (A') (A")
                 (A") (A') (A") (A') (A') (A") (A') (A") (A') (A')
                 (A') (A") (A') (A") (A') (A") (A") (A') (A') (A')
                 (A") (A') (A") (A') (A') (A") (A') (A') (A") (A')
                 (A') (A') (A') (A') (A") (A') (A") (A') (A") (A")
                 (A') (A') (A') (A") (A") (A') (A') (A') (A') (A")
                 (A') (A") (A') (A") (A") (A') (A') (A') (A") (A")
                 (A") (A') (A') (A') (A") (A") (A') (A") (A') (A')
                 (A') (A") (A') (A") (A') (A') (A") (A') (A") (A')
                 (A') (A') (A') (A") (A") (A") (A') (A') (A") (A')
                 (A") (A') (A") (A') (A') (A') (A") (A') (A') (A')
                 (A") (A") (A') (A') (A") (A') (A") (A') (A") (A")
                 (A') (A") (A") (A') (A') (A') (A') (A") (A') (A")
                 (A') (A') (A") (A') (A") (A') (A') (A') (A") (A')
                 (A") (A") (A') (A') (A") (A') (A') (A") (A') (A")
                 (A') (A") (A') (A") (A") (A') (A") (A') (A") (A')
                 (A') (A") (A") (A') (A') (A') (A") (A') (A") (A')
                 (A') (A") (A") (A') (A') (A") (A') (A') (A") (A')
                 (A") (A') (A') (A') (A') (A')
 Keep J ints in memory in symmetry-blocked form, NReq=382856332.
 Requested convergence on RMS density matrix=1.00D-08 within 128 cycles.
 Requested convergence on MAX density matrix=1.00D-06.
 Requested convergence on             energy=1.00D-06.
 No special actions if energy rises.
 SCF Done:  E(RTPSS-TPSS) =  -34.8204873150     A.U. after    7 cycles
            NFock=  7  Conv=0.89D-09     -V/T= 2.0076
   2 Symmetry operations used in ECPInt.
 ECPInt:  NShTT=    2485 NPrTT=    5668 LenC2=    2486 LenP2D=    5334.
 LDataN:  DoStor=T MaxTD1= 9 Len=  602
 Calling FoFJK, ICntrl=      2527 FMM=F ISym2X=1 I1Cent= 0 IOpClX= 0 NMat=1 NMatS=1 NMatT=0.
 ***** Axes restored to original set *****
 -------------------------------------------------------------------
 Center     Atomic                   Forces (Hartrees/Bohr)
 Number     Number              X              Y              Z
 -------------------------------------------------------------------
      1        5           0.000002406   -0.000252810    0.000000000
      2        1           0.000002899    0.000031819   -0.000000000
      3        1           0.000010208    0.000077217   -0.000016271
      4        1           0.000010208    0.000077217    0.000016271
      5        1          -0.000021699    0.000075579    0.000000000
      6        3          -0.000004023   -0.000009023    0.000000000
 -------------------------------------------------------------------
 Cartesian Forces:  Max     0.000252810 RMS     0.000068265

 GradGradGradGradGradGradGradGradGradGradGradGradGradGradGradGradGradGrad
 Berny optimization.
 Using GEDIIS/GDIIS optimizer.
 FormGI is forming the generalized inverse of G from B-inverse, IUseBI=4.
 Internal  Forces:  Max     0.000046151 RMS     0.000026200
 Search for a local minimum.
 Step number   5 out of a maximum of   36
 All quantities printed in internal units (Hartrees-Bohrs-Radians)
 Mixed Optimization -- En-DIIS/RFO-DIIS
 Swapping is turned off.
 Update second derivatives using D2CorX and points    1    2    3    4    5
 DE= -1.84D-05 DEPred=-9.80D-06 R= 1.88D+00
 TightC=F SS=  1.41D+00  RLast= 2.93D-02 DXNew= 5.0454D-01 8.7930D-02
 Trust test= 1.88D+00 RLast= 2.93D-02 DXMaxT set to 3.00D-01
 ITU=  1  1  1  1  0
     Eigenvalues ---    0.02011   0.04088   0.04628   0.05277   0.06731
     Eigenvalues ---    0.07459   0.11187   0.11550   0.16025   0.19163
     Eigenvalues ---    0.19775   0.25634
 En-DIIS/RFO-DIIS/Sim-DIIS IScMMF=       -3 using points:     5    4    3    2
 RFO step:  Lambda=-2.61791055D-07.
 DIIS inversion failure, remove point   4.
 RFO-DIIS uses    3 points instead of    4
 DidBck=F Rises=F RFO-DIIS coefs:    1.08206   -0.07871   -0.00335    0.00000
 Iteration  1 RMS(Cart)=  0.00028537 RMS(Int)=  0.00000081
 Iteration  2 RMS(Cart)=  0.00000011 RMS(Int)=  0.00000080
 ClnCor:  largest displacement from symmetrization is 1.18D-06 for atom     4.
 Variable       Old X    -DE/DX   Delta X   Delta X   Delta X     New X
                                 (Linear)    (Quad)   (Total)
    R1        2.25577  -0.00003   0.00027  -0.00040  -0.00013   2.25563
    R2        2.35658   0.00004   0.00042  -0.00009   0.00033   2.35692
    R3        2.35658   0.00004   0.00042  -0.00009   0.00033   2.35692
    R4        2.35659   0.00005   0.00042  -0.00007   0.00035   2.35693
    R5        3.62381   0.00004  -0.00077   0.00059  -0.00018   3.62363
    R6        3.45323  -0.00001  -0.00107  -0.00002  -0.00110   3.45213
    R7        3.45323  -0.00001  -0.00107  -0.00002  -0.00110   3.45213
    R8        3.45233  -0.00002  -0.00111  -0.00004  -0.00114   3.45119
    A1        1.97793   0.00002   0.00027   0.00020   0.00047   1.97840
    A2        1.97793   0.00002   0.00027   0.00020   0.00047   1.97840
    A3        1.97784   0.00003   0.00026   0.00021   0.00046   1.97831
    A4        1.83884  -0.00002  -0.00030  -0.00023  -0.00053   1.83831
    A5        1.83882  -0.00003  -0.00030  -0.00023  -0.00053   1.83829
    A6        1.83882  -0.00003  -0.00030  -0.00023  -0.00053   1.83829
    A7        1.14730   0.00002   0.00049  -0.00016   0.00033   1.14763
    A8        1.14746   0.00001   0.00049  -0.00015   0.00035   1.14780
    A9        1.14746   0.00001   0.00049  -0.00015   0.00035   1.14780
   A10        3.14175  -0.00001   0.00001  -0.00000   0.00001   3.14176
   A11        3.14129   0.00001  -0.00001  -0.00000  -0.00002   3.14127
    D1        2.17200   0.00002   0.00029   0.00021   0.00050   2.17251
    D2       -2.17193  -0.00002  -0.00029  -0.00022  -0.00051  -2.17244
    D3        2.17193   0.00002   0.00029   0.00022   0.00051   2.17244
    D4       -1.93932   0.00004   0.00057   0.00044   0.00101  -1.93831
    D5       -0.63774   0.00000  -0.00012   0.00003  -0.00009  -0.63783
    D6        0.63764   0.00001   0.00012  -0.00003   0.00008   0.63772
    D7       -0.63764  -0.00001  -0.00012   0.00003  -0.00008  -0.63772
         Item               Value     Threshold  Converged?
 Maximum Force            0.000046     0.000450     YES
 RMS     Force            0.000026     0.000300     YES
 Maximum Displacement     0.000746     0.001800     YES
 RMS     Displacement     0.000285     0.001200     YES
 Predicted change in Energy=-1.308470D-07
 Optimization completed.
    -- Stationary point found.
                           ----------------------------
                           !   Optimized Parameters   !
                           ! (Angstroms and Degrees)  !
 --------------------------                            --------------------------
 ! Name  Definition              Value          Derivative Info.                !
 --------------------------------------------------------------------------------
 ! R1    R(1,2)                  1.1937         -DE/DX =    0.0                 !
 ! R2    R(1,3)                  1.2471         -DE/DX =    0.0                 !
 ! R3    R(1,4)                  1.2471         -DE/DX =    0.0                 !
 ! R4    R(1,5)                  1.2471         -DE/DX =    0.0                 !
 ! R5    R(1,6)                  1.9176         -DE/DX =    0.0                 !
 ! R6    R(3,6)                  1.8274         -DE/DX =    0.0                 !
 ! R7    R(4,6)                  1.8274         -DE/DX =    0.0                 !
 ! R8    R(5,6)                  1.8269         -DE/DX =    0.0                 !
 ! A1    A(2,1,3)              113.3273         -DE/DX =    0.0                 !
 ! A2    A(2,1,4)              113.3273         -DE/DX =    0.0                 !
 ! A3    A(2,1,5)              113.3221         -DE/DX =    0.0                 !
 ! A4    A(3,1,4)              105.3577         -DE/DX =    0.0                 !
 ! A5    A(3,1,5)              105.3564         -DE/DX =    0.0                 !
 ! A6    A(4,1,5)              105.3564         -DE/DX =    0.0                 !
 ! A7    A(3,6,4)               65.7354         -DE/DX =    0.0                 !
 ! A8    A(3,6,5)               65.7445         -DE/DX =    0.0                 !
 ! A9    A(4,6,5)               65.7445         -DE/DX =    0.0                 !
 ! A10   L(2,1,6,3,-1)         180.0093         -DE/DX =    0.0                 !
 ! A11   L(2,1,6,3,-2)         179.9825         -DE/DX =    0.0                 !
 ! D1    D(2,1,4,3)            124.4467         -DE/DX =    0.0                 !
 ! D2    D(2,1,5,3)           -124.4426         -DE/DX =    0.0                 !
 ! D3    D(2,1,5,4)            124.4426         -DE/DX =    0.0                 !
 ! D4    D(3,1,5,4)           -111.1148         -DE/DX =    0.0                 !
 ! D5    D(4,3,6,1)            -36.5399         -DE/DX =    0.0                 !
 ! D6    D(5,3,6,1)             36.5342         -DE/DX =    0.0                 !
 ! D7    D(5,4,6,1)            -36.5342         -DE/DX =    0.0                 !
 --------------------------------------------------------------------------------
 GradGradGradGradGradGradGradGradGradGradGradGradGradGradGradGradGradGrad

                          Input orientation:                          
 ---------------------------------------------------------------------
 Center     Atomic      Atomic             Coordinates (Angstroms)
 Number     Number       Type             X           Y           Z
 ---------------------------------------------------------------------
      1          5           0        8.791889    8.127453    8.500000
      2          1           0        8.791922    6.933753    8.500000
      3          1           0        9.364401    8.621278    7.508284
      4          1           0        9.364401    8.621278    9.491716
      5          1           0        7.646716    8.621128    8.500000
      6          3           0        8.791214   10.045089    8.500000
 ---------------------------------------------------------------------
                    Distance matrix (angstroms):
                    1          2          3          4          5
     1  B    0.000000
     2  H    1.193700   0.000000
     3  H    1.247050   2.039357   0.000000
     4  H    1.247050   2.039357   1.983432   0.000000
     5  H    1.247051   2.039297   1.983417   1.983417   0.000000
     6  Li   1.917637   3.111337   1.827370   1.827370   1.826894
                    6
     6  Li   0.000000
 Stoichiometry    BH4Li
 Framework group  CS[SG(BH2Li),X(H2)]
 Deg. of freedom     8
 Full point group                 CS      NOp   2
 Largest Abelian subgroup         CS      NOp   2
 Largest concise Abelian subgroup CS      NOp   2
                         Standard orientation:                         
 ---------------------------------------------------------------------
 Center     Atomic      Atomic             Coordinates (Angstroms)
 Number     Number       Type             X           Y           Z
 ---------------------------------------------------------------------
      1          5           0        0.000001    0.503378    0.000000
      2          1           0       -0.000386    1.697078    0.000000
      3          1           0        0.572687    0.009754    0.991716
      4          1           0        0.572687    0.009754   -0.991716
      5          1           0       -1.144998    0.009300    0.000000
      6          3           0        0.000001   -1.414259   -0.000000
 ---------------------------------------------------------------------
 Rotational constants (GHZ):         127.4682025          23.6252090          23.6251629

 **********************************************************************

            Population analysis using the SCF Density.

 **********************************************************************

 Orbital symmetries:
       Occupied  (A') (A') (A') (A') (A') (A")
       Virtual   (A') (A") (A') (A') (A') (A') (A") (A') (A") (A')
                 (A') (A") (A') (A') (A') (A") (A') (A") (A') (A')
                 (A') (A") (A') (A') (A") (A') (A') (A') (A') (A")
                 (A") (A') (A") (A') (A') (A") (A') (A") (A') (A')
                 (A') (A") (A') (A") (A') (A") (A") (A') (A') (A')
                 (A") (A') (A") (A') (A') (A") (A') (A') (A") (A')
                 (A') (A') (A') (A') (A") (A') (A") (A') (A") (A")
                 (A') (A') (A') (A") (A") (A') (A') (A') (A') (A")
                 (A') (A") (A') (A") (A") (A') (A') (A') (A") (A")
                 (A") (A') (A') (A') (A") (A") (A') (A") (A') (A')
                 (A') (A") (A') (A") (A') (A') (A") (A') (A") (A')
                 (A') (A') (A') (A") (A") (A") (A') (A") (A') (A')
                 (A') (A") (A") (A') (A') (A') (A") (A') (A') (A')
                 (A") (A") (A') (A") (A') (A') (A") (A') (A") (A")
                 (A') (A") (A') (A") (A') (A') (A') (A") (A') (A")
                 (A') (A') (A") (A") (A') (A') (A') (A") (A') (A')
                 (A") (A") (A') (A") (A') (A') (A') (A") (A") (A')
                 (A') (A") (A') (A") (A") (A') (A") (A') (A') (A")
                 (A') (A") (A') (A") (A') (A') (A") (A') (A") (A')
                 (A") (A") (A') (A') (A') (A") (A') (A") (A') (A')
                 (A") (A') (A') (A') (A') (A')
 The electronic state is 1-A'.
 Alpha  occ. eigenvalues --   -6.50889  -1.92688  -0.45621  -0.26578  -0.26496
 Alpha  occ. eigenvalues --   -0.26495
 Alpha virt. eigenvalues --   -0.05717   0.00400   0.00400   0.02024   0.03849
 Alpha virt. eigenvalues --    0.06048   0.06049   0.09074   0.09341   0.09343
 Alpha virt. eigenvalues --    0.11552   0.12417   0.12417   0.14039   0.18793
 Alpha virt. eigenvalues --    0.18794   0.21639   0.22167   0.22168   0.24596
 Alpha virt. eigenvalues --    0.26116   0.26117   0.26960   0.31761   0.31797
 Alpha virt. eigenvalues --    0.31799   0.35070   0.41526   0.42985   0.42987
 Alpha virt. eigenvalues --    0.44133   0.49229   0.50535   0.50536   0.51655
 Alpha virt. eigenvalues --    0.51655   0.53727   0.57333   0.57334   0.60940
 Alpha virt. eigenvalues --    0.61498   0.61500   0.66487   0.72225   0.72227
 Alpha virt. eigenvalues --    0.72767   0.76219   0.76224   0.80880   0.89447
 Alpha virt. eigenvalues --    0.89450   0.91634   0.93205   0.93208   1.01923
 Alpha virt. eigenvalues --    1.03688   1.03689   1.09254   1.11465   1.11468
 Alpha virt. eigenvalues --    1.17344   1.19211   1.28790   1.31374   1.31376
 Alpha virt. eigenvalues --    1.32261   1.36390   1.37758   1.37761   1.45465
 Alpha virt. eigenvalues --    1.45472   1.52597   1.53973   1.53975   1.71088
 Alpha virt. eigenvalues --    1.71091   1.83170   1.99661   2.06383   2.12212
 Alpha virt. eigenvalues --    2.13043   2.13048   2.24646   2.24646   2.36008
 Alpha virt. eigenvalues --    2.36023   2.44888   2.52943   2.52945   2.60908
 Alpha virt. eigenvalues --    2.66198   2.66201   2.66727   2.71414   2.71415
 Alpha virt. eigenvalues --    2.78210   2.78258   2.81322   2.81333   2.92700
 Alpha virt. eigenvalues --    2.93281   2.93290   3.18445   3.18448   3.23171
 Alpha virt. eigenvalues --    3.26846   3.26852   3.27114   3.32881   3.32883
 Alpha virt. eigenvalues --    3.35115   3.47225   3.53922   3.53925   3.81551
 Alpha virt. eigenvalues --    3.91991   3.91998   3.93760   3.93765   4.22047
 Alpha virt. eigenvalues --    4.30178   4.30179   4.33104   4.33106   4.36917
 Alpha virt. eigenvalues --    4.53167   4.57091   4.57093   4.60567   4.83710
 Alpha virt. eigenvalues --    4.83713   4.98402   5.00893   5.07538   5.07539
 Alpha virt. eigenvalues --    5.60203   5.84715   5.84740   5.97849   6.05958
 Alpha virt. eigenvalues --    6.09895   6.09906   6.27933   6.28272   6.28286
 Alpha virt. eigenvalues --    6.38697   6.61904   6.76237   6.79753   6.79753
 Alpha virt. eigenvalues --    6.91169   6.98924   6.98936   7.06196   7.06196
 Alpha virt. eigenvalues --    7.13829   7.31845   7.32310   7.32314   7.34600
 Alpha virt. eigenvalues --    7.34601   7.60307   7.60447   7.63846   7.63850
 Alpha virt. eigenvalues --    7.71317   7.77210   7.77222   7.97403   7.97409
 Alpha virt. eigenvalues --    8.17906   8.39101   8.39103   8.50847   8.55896
 Alpha virt. eigenvalues --    8.55912   8.60408   8.60415   8.68051   8.68054
 Alpha virt. eigenvalues --    8.76340   8.81932   8.85094   8.85098   8.93134
 Alpha virt. eigenvalues --    9.05681   9.05689   9.39174   9.39177   9.46234
 Alpha virt. eigenvalues --    9.47964   9.49600   9.49604   9.59933   9.77556
 Alpha virt. eigenvalues --    9.77559   9.79572   9.87257   9.87259  10.01926
 Alpha virt. eigenvalues --   10.09239  10.09241  10.30906  11.98652  20.43260
 Alpha virt. eigenvalues --  104.51915
          Condensed to atoms (all electrons):
               1          2          3          4          5          6
     1  B    3.420044   0.461239   0.228887   0.228887   0.228796   0.162964
     2  H    0.461239   0.734701  -0.025584  -0.025584  -0.025588  -0.074509
     3  H    0.228887  -0.025584   0.879594  -0.054820  -0.054789   0.165035
     4  H    0.228887  -0.025584  -0.054820   0.879594  -0.054789   0.165035
     5  H    0.228796  -0.025588  -0.054789  -0.054789   0.879360   0.165179
     6  Li   0.162964  -0.074509   0.165035   0.165035   0.165179   2.225984
 Mulliken charges:
               1
     1  B    0.269182
     2  H   -0.044676
     3  H   -0.138324
     4  H   -0.138324
     5  H   -0.138168
     6  Li   0.190310
 Sum of Mulliken charges =  -0.00000
 Mulliken charges with hydrogens summed into heavy atoms:
               1
     1  B   -0.190310
     6  Li   0.190310
 Electronic spatial extent (au):  <R**2>=             74.6991
 Charge=             -0.0000 electrons
 Dipole moment (field-independent basis, Debye):
    X=              0.0001    Y=             -5.8710    Z=             -0.0000  Tot=              5.8710
 Quadrupole moment (field-independent basis, Debye-Ang):
   XX=            -14.0519   YY=             -4.7321   ZZ=            -14.0518
   XY=             -0.0002   XZ=              0.0000   YZ=              0.0000
 Traceless Quadrupole moment (field-independent basis, Debye-Ang):
   XX=             -3.1066   YY=              6.2132   ZZ=             -3.1066
   XY=             -0.0002   XZ=              0.0000   YZ=              0.0000
 Octapole moment (field-independent basis, Debye-Ang**2):
  XXX=              0.7989  YYY=            -25.9879  ZZZ=              0.0000  XYY=              0.0006
  XXY=             -2.8794  XXZ=             -0.0000  XZZ=             -0.7995  YZZ=             -2.8802
  YYZ=             -0.0000  XYZ=              0.0000
 Hexadecapole moment (field-independent basis, Debye-Ang**3):
 XXXX=            -34.5443 YYYY=            -35.8337 ZZZZ=            -34.5449 XXXY=             -0.0879
 XXXZ=              0.0000 YYYX=              0.0002 YYYZ=              0.0000 ZZZX=              0.0000
 ZZZY=              0.0000 XXYY=            -14.8021 XXZZ=            -11.5149 YYZZ=            -14.8021
 XXYZ=              0.0000 YYXZ=              0.0000 ZZXY=              0.0879
 N-N= 1.741655723108D+01 E-N=-1.144934478801D+02  KE= 3.455644992614D+01
 Symmetry A'   KE= 3.327848593462D+01
 Symmetry A"   KE= 1.277963991515D+00
 Unable to Open any file for archive entry.
 1\1\GINC-TCOPT10\FOpt\RTPSSTPSS\def2QZVPP\B1H4Li1\HUTTER\31-Jul-2021\0
 \\#N RTPSSTPSS/Def2QZVPP scf=tight Int(Grid=ultrafine) OPT FREQ\\Mol j
 ob 1\\0,1\B,8.7918888639,8.1274526208,8.5\H,8.7919219377,6.9337526166,
 8.5\H,9.3644005478,8.6212784744,7.5082838533\H,9.3644005481,8.62127847
 44,9.4917161465\H,7.6467158814,8.6211282106,8.5000000002\Li,8.79121388
 06,10.0450894817,8.5\\Version=ES64L-G16RevC.01\State=1-A'\HF=-34.82048
 73\RMSD=8.929e-10\RMSF=6.827e-05\Dipole=-0.000778,2.3098303,0.\Quadrup
 ole=-2.3096972,4.6193533,-2.3096561,-0.0022862,0.,0.\PG=CS [SG(B1H2Li1
 ),X(H2)]\\@
 The archive entry for this job was punched.


 PICNIC:  A SNACK IN THE GRASS.
 Job cpu time:       0 days  0 hours 22 minutes 31.1 seconds.
 Elapsed time:       0 days  0 hours  4 minutes 35.0 seconds.
 File lengths (MBytes):  RWF=     22 Int=      0 D2E=      0 Chk=      4 Scr=      1
 Normal termination of Gaussian 16 at Sat Jul 31 23:42:47 2021.
 Link1:  Proceeding to internal job step number  2.
 ----------------------------------------------------------------------
 #N Geom=AllCheck Guess=TCheck SCRF=Check GenChk RTPSSTPSS/def2QZVPP Fr
 eq
 ----------------------------------------------------------------------
 1/10=4,29=7,30=1,38=1,40=1/1,3;
 2/12=2,40=1/2;
 3/5=45,7=202,11=2,14=-4,25=1,30=1,70=2,71=2,74=2523,75=-5,116=1,140=1/1,2,3;
 4/5=101/1;
 5/5=2,32=2,38=6,98=1/2;
 8/6=4,10=90,11=11/1;
 11/6=1,8=1,9=11,15=111,16=1/1,2,10;
 10/6=1/2;
 6/7=2,8=2,9=2,10=2,28=1/1;
 7/8=1,10=1,25=1/1,2,3,16;
 1/10=4,30=1/3;
 99//99;
 Structure from the checkpoint file:  "/data/hutter/SMG16/TPSS/Gau-63082.chk"
 ---------
 Mol job 1
 ---------
 Charge =  0 Multiplicity = 1
 Redundant internal coordinates found in file.  (old form).
 B,0,8.7918888639,8.1274526208,8.5
 H,0,8.7919219377,6.9337526166,8.5
 H,0,9.3644005478,8.6212784744,7.5082838533
 H,0,9.3644005481,8.6212784744,9.4917161465
 H,0,7.6467158814,8.6211282106,8.5000000002
 Li,0,8.7912138806,10.0450894817,8.5
 Recover connectivity data from disk.

 GradGradGradGradGradGradGradGradGradGradGradGradGradGradGradGradGradGrad
 Berny optimization.
 Initialization pass.
                           ----------------------------
                           !    Initial Parameters    !
                           ! (Angstroms and Degrees)  !
 --------------------------                            --------------------------
 ! Name  Definition              Value          Derivative Info.                !
 --------------------------------------------------------------------------------
 ! R1    R(1,2)                  1.1937         calculate D2E/DX2 analytically  !
 ! R2    R(1,3)                  1.2471         calculate D2E/DX2 analytically  !
 ! R3    R(1,4)                  1.2471         calculate D2E/DX2 analytically  !
 ! R4    R(1,5)                  1.2471         calculate D2E/DX2 analytically  !
 ! R5    R(1,6)                  1.9176         calculate D2E/DX2 analytically  !
 ! R6    R(3,6)                  1.8274         calculate D2E/DX2 analytically  !
 ! R7    R(4,6)                  1.8274         calculate D2E/DX2 analytically  !
 ! R8    R(5,6)                  1.8269         calculate D2E/DX2 analytically  !
 ! A1    A(2,1,3)              113.3273         calculate D2E/DX2 analytically  !
 ! A2    A(2,1,4)              113.3273         calculate D2E/DX2 analytically  !
 ! A3    A(2,1,5)              113.3221         calculate D2E/DX2 analytically  !
 ! A4    A(3,1,4)              105.3577         calculate D2E/DX2 analytically  !
 ! A5    A(3,1,5)              105.3564         calculate D2E/DX2 analytically  !
 ! A6    A(4,1,5)              105.3564         calculate D2E/DX2 analytically  !
 ! A7    A(3,6,4)               65.7354         calculate D2E/DX2 analytically  !
 ! A8    A(3,6,5)               65.7445         calculate D2E/DX2 analytically  !
 ! A9    A(4,6,5)               65.7445         calculate D2E/DX2 analytically  !
 ! A10   L(2,1,6,3,-1)         180.0093         calculate D2E/DX2 analytically  !
 ! A11   L(2,1,6,3,-2)         179.9825         calculate D2E/DX2 analytically  !
 ! D1    D(2,1,4,3)            124.4467         calculate D2E/DX2 analytically  !
 ! D2    D(2,1,5,3)           -124.4426         calculate D2E/DX2 analytically  !
 ! D3    D(2,1,5,4)            124.4426         calculate D2E/DX2 analytically  !
 ! D4    D(3,1,5,4)           -111.1148         calculate D2E/DX2 analytically  !
 ! D5    D(4,3,6,1)            -36.5399         calculate D2E/DX2 analytically  !
 ! D6    D(5,3,6,1)             36.5342         calculate D2E/DX2 analytically  !
 ! D7    D(5,4,6,1)            -36.5342         calculate D2E/DX2 analytically  !
 --------------------------------------------------------------------------------
 Trust Radius=3.00D-01 FncErr=1.00D-07 GrdErr=1.00D-07 EigMax=2.50D+02 EigMin=1.00D-04
 Number of steps in this run=      2 maximum allowed number of steps=      2.
 GradGradGradGradGradGradGradGradGradGradGradGradGradGradGradGradGradGrad

                          Input orientation:                          
 ---------------------------------------------------------------------
 Center     Atomic      Atomic             Coordinates (Angstroms)
 Number     Number       Type             X           Y           Z
 ---------------------------------------------------------------------
      1          5           0        8.791889    8.127453    8.500000
      2          1           0        8.791922    6.933753    8.500000
      3          1           0        9.364401    8.621278    7.508284
      4          1           0        9.364401    8.621278    9.491716
      5          1           0        7.646716    8.621128    8.500000
      6          3           0        8.791214   10.045089    8.500000
 ---------------------------------------------------------------------
                    Distance matrix (angstroms):
                    1          2          3          4          5
     1  B    0.000000
     2  H    1.193700   0.000000
     3  H    1.247050   2.039357   0.000000
     4  H    1.247050   2.039357   1.983432   0.000000
     5  H    1.247051   2.039297   1.983417   1.983417   0.000000
     6  Li   1.917637   3.111337   1.827370   1.827370   1.826894
                    6
     6  Li   0.000000
 Stoichiometry    BH4Li
 Framework group  CS[SG(BH2Li),X(H2)]
 Deg. of freedom     8
 Full point group                 CS      NOp   2
 Largest Abelian subgroup         CS      NOp   2
 Largest concise Abelian subgroup CS      NOp   2
                         Standard orientation:                         
 ---------------------------------------------------------------------
 Center     Atomic      Atomic             Coordinates (Angstroms)
 Number     Number       Type             X           Y           Z
 ---------------------------------------------------------------------
      1          5           0        0.000001    0.503378    0.000000
      2          1           0       -0.000386    1.697078    0.000000
      3          1           0        0.572687    0.009754    0.991716
      4          1           0        0.572687    0.009754   -0.991716
      5          1           0       -1.144998    0.009300    0.000000
      6          3           0        0.000001   -1.414259   -0.000000
 ---------------------------------------------------------------------
 Rotational constants (GHZ):         127.4682025          23.6252090          23.6251629
 Standard basis: def2QZVPP (5D, 7F)
 There are   159 symmetry adapted cartesian basis functions of A'  symmetry.
 There are    93 symmetry adapted cartesian basis functions of A"  symmetry.
 There are   131 symmetry adapted basis functions of A'  symmetry.
 There are    81 symmetry adapted basis functions of A"  symmetry.
   212 basis functions,   299 primitive gaussians,   252 cartesian basis functions
     6 alpha electrons        6 beta electrons
       nuclear repulsion energy        17.4165572311 Hartrees.
 NAtoms=    6 NActive=    6 NUniq=    5 SFac= 1.44D+00 NAtFMM=   60 NAOKFM=F Big=F
 Integral buffers will be    131072 words long.
 Raffenetti 2 integral format.
 Two-electron integral symmetry is turned on.
 One-electron integrals computed using PRISM.
   2 Symmetry operations used in ECPInt.
 ECPInt:  NShTT=    2485 NPrTT=    5668 LenC2=    2486 LenP2D=    5334.
 LDataN:  DoStor=T MaxTD1= 8 Len=  415
 NBasis=   212 RedAO= T EigKep=  4.95D-05  NBF=   131    81
 NBsUse=   212 1.00D-06 EigRej= -1.00D+00 NBFU=   131    81
 Initial guess from the checkpoint file:  "/data/hutter/SMG16/TPSS/Gau-63082.chk"
 B after Tr=    -0.000000    0.000000   -0.000000
         Rot=    1.000000   -0.000000   -0.000000    0.000000 Ang=   0.00 deg.
 Initial guess orbital symmetries:
       Occupied  (A') (A') (A') (A') (A') (A")
       Virtual   (A') (A") (A') (A') (A') (A') (A") (A') (A") (A')
                 (A') (A") (A') (A') (A') (A") (A') (A") (A') (A')
                 (A') (A") (A') (A') (A") (A') (A') (A') (A') (A")
                 (A") (A') (A") (A') (A') (A") (A') (A") (A') (A')
                 (A') (A") (A') (A") (A') (A") (A") (A') (A') (A')
                 (A") (A') (A") (A') (A') (A") (A') (A') (A") (A')
                 (A') (A') (A') (A') (A") (A') (A") (A') (A") (A")
                 (A') (A') (A') (A") (A") (A') (A') (A') (A') (A")
                 (A') (A") (A') (A") (A") (A') (A') (A') (A") (A")
                 (A") (A') (A') (A') (A") (A") (A') (A") (A') (A')
                 (A') (A") (A') (A") (A') (A') (A") (A') (A") (A')
                 (A') (A') (A') (A") (A") (A") (A') (A") (A') (A')
                 (A') (A") (A") (A') (A') (A') (A") (A') (A') (A')
                 (A") (A") (A') (A") (A') (A') (A") (A') (A") (A")
                 (A') (A") (A') (A") (A') (A') (A') (A") (A') (A")
                 (A') (A') (A") (A") (A') (A') (A') (A") (A') (A')
                 (A") (A") (A') (A") (A') (A') (A') (A") (A") (A')
                 (A') (A") (A') (A") (A") (A') (A") (A') (A') (A")
                 (A') (A") (A') (A") (A') (A') (A") (A') (A") (A')
                 (A") (A") (A') (A') (A') (A") (A') (A") (A') (A')
                 (A") (A') (A') (A') (A') (A')
 Keep J ints in memory in symmetry-blocked form, NReq=382856332.
 Requested convergence on RMS density matrix=1.00D-08 within 128 cycles.
 Requested convergence on MAX density matrix=1.00D-06.
 Requested convergence on             energy=1.00D-06.
 No special actions if energy rises.
 SCF Done:  E(RTPSS-TPSS) =  -34.8204873150     A.U. after    1 cycles
            NFock=  1  Conv=0.11D-09     -V/T= 2.0076
 DoSCS=F DFT=T ScalE2(SS,OS)=  1.000000  1.000000
 Range of M.O.s used for correlation:     1   212
 NBasis=   212 NAE=     6 NBE=     6 NFC=     0 NFV=     0
 NROrb=    212 NOA=     6 NOB=     6 NVA=   206 NVB=   206

 **** Warning!!: The largest alpha MO coefficient is  0.41891698D+02

   2 Symmetry operations used in ECPInt.
 ECPInt:  NShTT=    2485 NPrTT=    5668 LenC2=    2486 LenP2D=    5334.
 LDataN:  DoStor=T MaxTD1= 9 Len=  602
 Symmetrizing basis deriv contribution to polar:
 IMax=3 JMax=2 DiffMx= 0.00D+00
 G2DrvN: will do     7 centers at a time, making    1 passes.
 Calling FoFCou, ICntrl=  3507 FMM=F I1Cent=   0 AccDes= 0.00D+00.
 End of G2Drv F.D. properties file   721 does not exist.
 End of G2Drv F.D. properties file   722 does not exist.
 End of G2Drv F.D. properties file   788 does not exist.
          IDoAtm=111111
          Differentiating once with respect to electric field.
                with respect to dipole field.
          Differentiating once with respect to nuclear coordinates.
 Keep J ints in memory in symmetry-blocked form, NReq=382859520.
          There are    18 degrees of freedom in the 1st order CPHF.  IDoFFX=4 NUNeed=    18.
     18 vectors produced by pass  0 Test12= 6.87D-15 5.56D-09 XBig12= 3.33D+01 2.17D+00.
 AX will form    18 AO Fock derivatives at one time.
     18 vectors produced by pass  1 Test12= 6.87D-15 5.56D-09 XBig12= 1.15D+00 2.81D-01.
     18 vectors produced by pass  2 Test12= 6.87D-15 5.56D-09 XBig12= 7.57D-03 2.24D-02.
     18 vectors produced by pass  3 Test12= 6.87D-15 5.56D-09 XBig12= 2.12D-05 1.05D-03.
     18 vectors produced by pass  4 Test12= 6.87D-15 5.56D-09 XBig12= 3.86D-08 4.13D-05.
      5 vectors produced by pass  5 Test12= 6.87D-15 5.56D-09 XBig12= 5.85D-11 1.77D-06.
      3 vectors produced by pass  6 Test12= 6.87D-15 5.56D-09 XBig12= 2.48D-14 3.24D-08.
 InvSVY:  IOpt=1 It=  1 EMax= 4.44D-15
 Solved reduced A of dimension    98 with    18 vectors.
 Isotropic polarizability for W=    0.000000       30.98 Bohr**3.
 End of Minotr F.D. properties file   721 does not exist.
 End of Minotr F.D. properties file   722 does not exist.
 End of Minotr F.D. properties file   788 does not exist.

 **********************************************************************

            Population analysis using the SCF Density.

 **********************************************************************

 Orbital symmetries:
       Occupied  (A') (A') (A') (A') (A') (A")
       Virtual   (A') (A") (A') (A') (A') (A') (A") (A') (A") (A')
                 (A') (A") (A') (A') (A') (A") (A') (A") (A') (A')
                 (A') (A") (A') (A') (A") (A') (A') (A') (A') (A")
                 (A") (A') (A") (A') (A') (A") (A') (A") (A') (A')
                 (A') (A") (A') (A") (A') (A") (A") (A') (A') (A')
                 (A") (A') (A") (A') (A') (A") (A') (A') (A") (A')
                 (A') (A') (A') (A') (A") (A') (A") (A') (A") (A")
                 (A') (A') (A') (A") (A") (A') (A') (A') (A') (A")
                 (A') (A") (A') (A") (A") (A') (A') (A') (A") (A")
                 (A") (A') (A') (A') (A") (A") (A') (A") (A') (A')
                 (A') (A") (A') (A") (A') (A') (A") (A') (A") (A')
                 (A') (A') (A') (A") (A") (A") (A') (A") (A') (A')
                 (A') (A") (A") (A') (A') (A') (A") (A') (A') (A')
                 (A") (A") (A') (A") (A') (A') (A") (A') (A") (A")
                 (A') (A") (A') (A") (A') (A') (A') (A") (A') (A")
                 (A') (A') (A") (A") (A') (A') (A') (A") (A') (A')
                 (A") (A") (A') (A") (A') (A') (A') (A") (A") (A')
                 (A') (A") (A') (A") (A") (A') (A") (A') (A') (A")
                 (A') (A") (A') (A") (A') (A') (A") (A') (A") (A')
                 (A") (A") (A') (A') (A') (A") (A') (A") (A') (A')
                 (A") (A') (A') (A') (A') (A')
 The electronic state is 1-A'.
 Alpha  occ. eigenvalues --   -6.50889  -1.92688  -0.45621  -0.26578  -0.26496
 Alpha  occ. eigenvalues --   -0.26495
 Alpha virt. eigenvalues --   -0.05717   0.00400   0.00400   0.02024   0.03849
 Alpha virt. eigenvalues --    0.06048   0.06049   0.09074   0.09341   0.09343
 Alpha virt. eigenvalues --    0.11552   0.12417   0.12417   0.14039   0.18793
 Alpha virt. eigenvalues --    0.18794   0.21639   0.22167   0.22168   0.24596
 Alpha virt. eigenvalues --    0.26116   0.26117   0.26960   0.31761   0.31797
 Alpha virt. eigenvalues --    0.31799   0.35070   0.41526   0.42985   0.42987
 Alpha virt. eigenvalues --    0.44133   0.49229   0.50535   0.50536   0.51655
 Alpha virt. eigenvalues --    0.51655   0.53727   0.57333   0.57334   0.60940
 Alpha virt. eigenvalues --    0.61498   0.61500   0.66487   0.72225   0.72227
 Alpha virt. eigenvalues --    0.72767   0.76219   0.76224   0.80880   0.89447
 Alpha virt. eigenvalues --    0.89450   0.91634   0.93205   0.93208   1.01923
 Alpha virt. eigenvalues --    1.03688   1.03689   1.09254   1.11465   1.11468
 Alpha virt. eigenvalues --    1.17344   1.19211   1.28790   1.31374   1.31376
 Alpha virt. eigenvalues --    1.32261   1.36390   1.37758   1.37761   1.45465
 Alpha virt. eigenvalues --    1.45472   1.52597   1.53973   1.53975   1.71088
 Alpha virt. eigenvalues --    1.71091   1.83170   1.99661   2.06383   2.12212
 Alpha virt. eigenvalues --    2.13043   2.13048   2.24646   2.24646   2.36008
 Alpha virt. eigenvalues --    2.36023   2.44888   2.52943   2.52945   2.60908
 Alpha virt. eigenvalues --    2.66198   2.66201   2.66727   2.71414   2.71415
 Alpha virt. eigenvalues --    2.78210   2.78258   2.81322   2.81333   2.92700
 Alpha virt. eigenvalues --    2.93281   2.93290   3.18445   3.18448   3.23171
 Alpha virt. eigenvalues --    3.26846   3.26852   3.27114   3.32881   3.32883
 Alpha virt. eigenvalues --    3.35115   3.47225   3.53922   3.53925   3.81551
 Alpha virt. eigenvalues --    3.91991   3.91998   3.93760   3.93765   4.22047
 Alpha virt. eigenvalues --    4.30178   4.30179   4.33104   4.33106   4.36917
 Alpha virt. eigenvalues --    4.53167   4.57091   4.57093   4.60567   4.83710
 Alpha virt. eigenvalues --    4.83713   4.98402   5.00893   5.07538   5.07539
 Alpha virt. eigenvalues --    5.60203   5.84715   5.84740   5.97849   6.05958
 Alpha virt. eigenvalues --    6.09895   6.09906   6.27933   6.28272   6.28286
 Alpha virt. eigenvalues --    6.38697   6.61904   6.76237   6.79753   6.79753
 Alpha virt. eigenvalues --    6.91169   6.98924   6.98936   7.06196   7.06196
 Alpha virt. eigenvalues --    7.13829   7.31845   7.32310   7.32314   7.34600
 Alpha virt. eigenvalues --    7.34601   7.60307   7.60447   7.63846   7.63850
 Alpha virt. eigenvalues --    7.71317   7.77210   7.77222   7.97403   7.97409
 Alpha virt. eigenvalues --    8.17906   8.39101   8.39103   8.50847   8.55896
 Alpha virt. eigenvalues --    8.55912   8.60408   8.60415   8.68051   8.68054
 Alpha virt. eigenvalues --    8.76340   8.81932   8.85094   8.85098   8.93134
 Alpha virt. eigenvalues --    9.05681   9.05689   9.39174   9.39177   9.46234
 Alpha virt. eigenvalues --    9.47964   9.49600   9.49604   9.59933   9.77556
 Alpha virt. eigenvalues --    9.77559   9.79572   9.87257   9.87259  10.01926
 Alpha virt. eigenvalues --   10.09239  10.09241  10.30906  11.98652  20.43260
 Alpha virt. eigenvalues --  104.51915
          Condensed to atoms (all electrons):
               1          2          3          4          5          6
     1  B    3.420044   0.461239   0.228887   0.228887   0.228796   0.162964
     2  H    0.461239   0.734701  -0.025584  -0.025584  -0.025588  -0.074509
     3  H    0.228887  -0.025584   0.879594  -0.054820  -0.054789   0.165035
     4  H    0.228887  -0.025584  -0.054820   0.879594  -0.054789   0.165035
     5  H    0.228796  -0.025588  -0.054789  -0.054789   0.879360   0.165179
     6  Li   0.162964  -0.074509   0.165035   0.165035   0.165179   2.225984
 Mulliken charges:
               1
     1  B    0.269182
     2  H   -0.044676
     3  H   -0.138324
     4  H   -0.138324
     5  H   -0.138168
     6  Li   0.190310
 Sum of Mulliken charges =   0.00000
 Mulliken charges with hydrogens summed into heavy atoms:
               1
     1  B   -0.190310
     6  Li   0.190310
 APT charges:
               1
     1  B    0.354276
     2  H   -0.192716
     3  H   -0.289385
     4  H   -0.289385
     5  H   -0.289402
     6  Li   0.706612
 Sum of APT charges =  -0.00000
 APT charges with hydrogens summed into heavy atoms:
               1
     1  B   -0.706612
     6  Li   0.706612
 Electronic spatial extent (au):  <R**2>=             74.6991
 Charge=              0.0000 electrons
 Dipole moment (field-independent basis, Debye):
    X=              0.0001    Y=             -5.8710    Z=             -0.0000  Tot=              5.8710
 Quadrupole moment (field-independent basis, Debye-Ang):
   XX=            -14.0519   YY=             -4.7321   ZZ=            -14.0518
   XY=             -0.0002   XZ=              0.0000   YZ=              0.0000
 Traceless Quadrupole moment (field-independent basis, Debye-Ang):
   XX=             -3.1066   YY=              6.2132   ZZ=             -3.1066
   XY=             -0.0002   XZ=              0.0000   YZ=              0.0000
 Octapole moment (field-independent basis, Debye-Ang**2):
  XXX=              0.7989  YYY=            -25.9879  ZZZ=              0.0000  XYY=              0.0006
  XXY=             -2.8794  XXZ=              0.0000  XZZ=             -0.7995  YZZ=             -2.8802
  YYZ=              0.0000  XYZ=             -0.0000
 Hexadecapole moment (field-independent basis, Debye-Ang**3):
 XXXX=            -34.5443 YYYY=            -35.8338 ZZZZ=            -34.5449 XXXY=             -0.0879
 XXXZ=              0.0000 YYYX=              0.0002 YYYZ=              0.0000 ZZZX=              0.0000
 ZZZY=              0.0000 XXYY=            -14.8021 XXZZ=            -11.5149 YYZZ=            -14.8021
 XXYZ=              0.0000 YYXZ=              0.0000 ZZXY=              0.0879
 N-N= 1.741655723108D+01 E-N=-1.144934477343D+02  KE= 3.455644988629D+01
 Symmetry A'   KE= 3.327848590979D+01
 Symmetry A"   KE= 1.277963976496D+00
  Exact polarizability:      29.915       0.003      33.105      -0.000       0.000      29.915
 Approx polarizability:      40.347       0.001      46.637      -0.000      -0.000      40.348
   2 Symmetry operations used in ECPInt.
 ECPInt:  NShTT=    2485 NPrTT=    5668 LenC2=    2486 LenP2D=    5334.
 LDataN:  DoStor=T MaxTD1=10 Len=  848
 Calling FoFJK, ICntrl=    100527 FMM=F ISym2X=1 I1Cent= 0 IOpClX= 0 NMat=1 NMatS=1 NMatT=0.
 Full mass-weighted force constant matrix:
 Low frequencies ---  -12.8309   -9.1759   -0.0001   -0.0001    0.0004    4.1815
 Low frequencies ---  493.8044  494.0742  692.3664
 Diagonal vibrational polarizability:
        3.0633849      11.8534043       3.0630304
 Harmonic frequencies (cm**-1), IR intensities (KM/Mole), Raman scattering
 activities (A**4/AMU), depolarization ratios for plane and unpolarized
 incident light, reduced masses (AMU), force constants (mDyne/A),
 and normal coordinates:
                      1                      2                      3
                     A'                     A"                     A'
 Frequencies --    493.8044               494.0740               692.3664
 Red. masses --      1.2161                 1.2161                 4.8050
 Frc consts  --      0.1747                 0.1749                 1.3571
 IR Inten    --      3.8183                 3.8175               153.8610
  Atom  AN      X      Y      Z        X      Y      Z        X      Y      Z
     1   5    -0.09  -0.00   0.00    -0.00   0.00  -0.09    -0.00  -0.32  -0.00
     2   1     0.67   0.00  -0.00     0.00   0.00   0.67     0.00  -0.35   0.00
     3   1    -0.25  -0.23   0.01     0.01  -0.41  -0.25    -0.01  -0.32  -0.02
     4   1    -0.25  -0.23  -0.01    -0.01   0.41  -0.25    -0.01  -0.32   0.02
     5   1    -0.24   0.47   0.00    -0.00   0.00  -0.26     0.02  -0.32  -0.00
     6   3     0.15   0.00  -0.00     0.00  -0.00   0.15    -0.00   0.68   0.00
                      4                      5                      6
                     A"                     A'                     A'
 Frequencies --   1114.9758              1115.0577              1233.9148
 Red. masses --      1.1684                 1.1684                 1.1879
 Frc consts  --      0.8558                 0.8559                 1.0656
 IR Inten    --     34.8835                34.8822               107.6160
  Atom  AN      X      Y      Z        X      Y      Z        X      Y      Z
     1   5    -0.00  -0.00  -0.13    -0.13   0.00   0.00    -0.00  -0.13   0.00
     2   1     0.00   0.00   0.52     0.52   0.00  -0.00    -0.00  -0.13   0.00
     3   1    -0.26   0.23   0.19     0.49   0.13  -0.26     0.11   0.52   0.19
     4   1     0.26  -0.23   0.19     0.49   0.13   0.26     0.11   0.52  -0.19
     5   1     0.00  -0.00   0.64     0.04  -0.26  -0.00    -0.22   0.52  -0.00
     6   3    -0.00   0.00  -0.02    -0.02  -0.00   0.00    -0.00   0.00  -0.00
                      7                      8                      9
                     A'                     A"                     A"
 Frequencies --   1278.5883              1278.7406              2200.9962
 Red. masses --      1.0100                 1.0100                 1.0906
 Frc consts  --      0.9728                 0.9731                 3.1128
 IR Inten    --      1.7086                 1.7000               334.6574
  Atom  AN      X      Y      Z        X      Y      Z        X      Y      Z
     1   5    -0.01   0.00   0.00     0.00   0.00   0.01    -0.00   0.00  -0.09
     2   1    -0.44   0.00   0.00     0.00   0.00   0.44    -0.00   0.00  -0.02
     3   1     0.30  -0.27  -0.28     0.28   0.47   0.02     0.36  -0.24   0.56
     4   1     0.30  -0.27   0.28    -0.28  -0.47   0.02    -0.36   0.24   0.56
     5   1    -0.18   0.54  -0.00     0.00  -0.00  -0.46     0.00   0.00  -0.06
     6   3     0.01   0.00  -0.00    -0.00  -0.00  -0.02    -0.00   0.00  -0.01
                     10                     11                     12
                     A'                     A'                     A'
 Frequencies --   2201.0380              2241.7703              2594.1434
 Red. masses --      1.0906                 1.0223                 1.0990
 Frc consts  --      3.1129                 3.0269                 4.3575
 IR Inten    --    334.6340               152.4209               124.4183
  Atom  AN      X      Y      Z        X      Y      Z        X      Y      Z
     1   5    -0.09   0.00   0.00    -0.00  -0.04   0.00     0.00  -0.10   0.00
     2   1    -0.02   0.00   0.00     0.00  -0.10   0.00    -0.00   0.99  -0.00
     3   1     0.15  -0.14   0.36    -0.27   0.18  -0.47    -0.02   0.01  -0.03
     4   1     0.15  -0.14  -0.36    -0.27   0.18   0.47    -0.02   0.01   0.03
     5   1     0.76   0.27   0.00     0.55   0.18   0.00     0.04   0.01   0.00
     6   3    -0.01   0.00   0.00    -0.00  -0.00  -0.00    -0.00   0.00  -0.00

 -------------------
 - Thermochemistry -
 -------------------
 Temperature   298.150 Kelvin.  Pressure   1.00000 Atm.
 Atom     1 has atomic number  5 and mass  11.00931
 Atom     2 has atomic number  1 and mass   1.00783
 Atom     3 has atomic number  1 and mass   1.00783
 Atom     4 has atomic number  1 and mass   1.00783
 Atom     5 has atomic number  1 and mass   1.00783
 Atom     6 has atomic number  3 and mass   7.01600
 Molecular mass:    22.05661 amu.
 Principal axes and moments of inertia in atomic units:
                           1         2         3
     Eigenvalues --    14.15836  76.39049  76.39064
           X           -0.00001   0.00000   1.00000
           Y            1.00000   0.00000   0.00001
           Z           -0.00000   1.00000   0.00000
 This molecule is an asymmetric top.
 Rotational symmetry number  1.
 Rotational temperatures (Kelvin)      6.11751     1.13383     1.13383
 Rotational constants (GHZ):         127.46820    23.62521    23.62516
 Zero-point vibrational energy     101320.5 (Joules/Mol)
                                   24.21619 (Kcal/Mol)
 Warning -- explicit consideration of   2 degrees of freedom as
           vibrations may cause significant error
 Vibrational temperatures:    710.47   710.86   996.16  1604.20  1604.32
          (Kelvin)           1775.33  1839.60  1839.82  3166.74  3166.80
                             3225.41  3732.39
 
 Zero-point correction=                           0.038591 (Hartree/Particle)
 Thermal correction to Energy=                    0.042083
 Thermal correction to Enthalpy=                  0.043027
 Thermal correction to Gibbs Free Energy=         0.016353
 Sum of electronic and zero-point Energies=            -34.781896
 Sum of electronic and thermal Energies=               -34.778404
 Sum of electronic and thermal Enthalpies=             -34.777460
 Sum of electronic and thermal Free Energies=          -34.804135
 
                     E (Thermal)             CV                S
                      KCal/Mol        Cal/Mol-Kelvin    Cal/Mol-Kelvin
 Total                   26.408             10.385             56.142
 Electronic               0.000              0.000              0.000
 Translational            0.889              2.981             35.212
 Rotational               0.889              2.981             19.052
 Vibrational             24.630              4.424              1.877
 Vibration     1          0.849              1.264              0.674
 Vibration     2          0.850              1.263              0.673
                       Q            Log10(Q)             Ln(Q)
 Total Bot       0.300773D-07         -7.521762        -17.319496
 Total V=0       0.169367D+11         10.228828         23.552748
 Vib (Bot)       0.227031D-17        -17.643915        -40.626617
 Vib (Bot)    1  0.334655D+00         -0.475402         -1.094654
 Vib (Bot)    2  0.334394D+00         -0.475742         -1.095436
 Vib (V=0)       0.127842D+01          0.106674          0.245627
 Vib (V=0)    1  0.110166D+01          0.042047          0.096818
 Vib (V=0)    2  0.110151D+01          0.041990          0.096686
 Electronic      0.100000D+01          0.000000          0.000000
 Translational   0.407157D+07          6.609762         15.219540
 Rotational      0.325381D+04          3.512392          8.087581
 ***** Axes restored to original set *****
 -------------------------------------------------------------------
 Center     Atomic                   Forces (Hartrees/Bohr)
 Number     Number              X              Y              Z
 -------------------------------------------------------------------
      1        5           0.000002406   -0.000252815   -0.000000000
      2        1           0.000002899    0.000031823   -0.000000000
      3        1           0.000010208    0.000077219   -0.000016271
      4        1           0.000010208    0.000077219    0.000016271
      5        1          -0.000021699    0.000075580    0.000000000
      6        3          -0.000004023   -0.000009025    0.000000000
 -------------------------------------------------------------------
 Cartesian Forces:  Max     0.000252815 RMS     0.000068267
 FormGI is forming the generalized inverse of G from B-inverse, IUseBI=4.

 GradGradGradGradGradGradGradGradGradGradGradGradGradGradGradGradGradGrad
 Berny optimization.
 Internal  Forces:  Max     0.000046152 RMS     0.000026200
 Search for a local minimum.
 Step number   1 out of a maximum of    2
 All quantities printed in internal units (Hartrees-Bohrs-Radians)
 Second derivative matrix not updated -- analytic derivatives used.
 ITU=  0
     Eigenvalues ---    0.01292   0.01324   0.01951   0.02494   0.03721
     Eigenvalues ---    0.04640   0.06850   0.07256   0.14417   0.15009
     Eigenvalues ---    0.15185   0.23595
 Angle between quadratic step and forces=  39.12 degrees.
 Linear search not attempted -- first point.
 Iteration  1 RMS(Cart)=  0.00032135 RMS(Int)=  0.00000029
 Iteration  2 RMS(Cart)=  0.00000016 RMS(Int)=  0.00000021
 ClnCor:  largest displacement from symmetrization is 6.35D-08 for atom     4.
 Variable       Old X    -DE/DX   Delta X   Delta X   Delta X     New X
                                 (Linear)    (Quad)   (Total)
    R1        2.25577  -0.00003   0.00000  -0.00022  -0.00022   2.25554
    R2        2.35658   0.00004   0.00000   0.00037   0.00037   2.35696
    R3        2.35658   0.00004   0.00000   0.00037   0.00037   2.35696
    R4        2.35659   0.00005   0.00000   0.00039   0.00039   2.35698
    R5        3.62381   0.00004   0.00000   0.00019   0.00019   3.62400
    R6        3.45323  -0.00001   0.00000  -0.00107  -0.00107   3.45216
    R7        3.45323  -0.00001   0.00000  -0.00107  -0.00107   3.45216
    R8        3.45233  -0.00002   0.00000  -0.00116  -0.00116   3.45117
    A1        1.97793   0.00002   0.00000   0.00060   0.00060   1.97853
    A2        1.97793   0.00002   0.00000   0.00060   0.00060   1.97853
    A3        1.97784   0.00003   0.00000   0.00059   0.00059   1.97843
    A4        1.83884  -0.00002   0.00000  -0.00068  -0.00068   1.83816
    A5        1.83882  -0.00003   0.00000  -0.00067  -0.00067   1.83815
    A6        1.83882  -0.00003   0.00000  -0.00067  -0.00067   1.83815
    A7        1.14730   0.00002   0.00000   0.00027   0.00027   1.14757
    A8        1.14746   0.00001   0.00000   0.00030   0.00030   1.14776
    A9        1.14746   0.00001   0.00000   0.00030   0.00030   1.14776
   A10        3.14175  -0.00001   0.00000   0.00002   0.00002   3.14177
   A11        3.14129   0.00001   0.00000  -0.00003  -0.00003   3.14125
    D1        2.17200   0.00002   0.00000   0.00064   0.00064   2.17265
    D2       -2.17193  -0.00002   0.00000  -0.00064  -0.00064  -2.17258
    D3        2.17193   0.00002   0.00000   0.00064   0.00064   2.17258
    D4       -1.93932   0.00004   0.00000   0.00129   0.00129  -1.93803
    D5       -0.63774   0.00000   0.00000  -0.00008  -0.00009  -0.63783
    D6        0.63764   0.00001   0.00000   0.00007   0.00007   0.63771
    D7       -0.63764  -0.00001   0.00000  -0.00007  -0.00007  -0.63771
         Item               Value     Threshold  Converged?
 Maximum Force            0.000046     0.000450     YES
 RMS     Force            0.000026     0.000300     YES
 Maximum Displacement     0.000786     0.001800     YES
 RMS     Displacement     0.000321     0.001200     YES
 Predicted change in Energy=-1.615639D-07
 Optimization completed.
    -- Stationary point found.
                           ----------------------------
                           !   Optimized Parameters   !
                           ! (Angstroms and Degrees)  !
 --------------------------                            --------------------------
 ! Name  Definition              Value          Derivative Info.                !
 --------------------------------------------------------------------------------
 ! R1    R(1,2)                  1.1937         -DE/DX =    0.0                 !
 ! R2    R(1,3)                  1.2471         -DE/DX =    0.0                 !
 ! R3    R(1,4)                  1.2471         -DE/DX =    0.0                 !
 ! R4    R(1,5)                  1.2471         -DE/DX =    0.0                 !
 ! R5    R(1,6)                  1.9176         -DE/DX =    0.0                 !
 ! R6    R(3,6)                  1.8274         -DE/DX =    0.0                 !
 ! R7    R(4,6)                  1.8274         -DE/DX =    0.0                 !
 ! R8    R(5,6)                  1.8269         -DE/DX =    0.0                 !
 ! A1    A(2,1,3)              113.3273         -DE/DX =    0.0                 !
 ! A2    A(2,1,4)              113.3273         -DE/DX =    0.0                 !
 ! A3    A(2,1,5)              113.3221         -DE/DX =    0.0                 !
 ! A4    A(3,1,4)              105.3577         -DE/DX =    0.0                 !
 ! A5    A(3,1,5)              105.3564         -DE/DX =    0.0                 !
 ! A6    A(4,1,5)              105.3564         -DE/DX =    0.0                 !
 ! A7    A(3,6,4)               65.7354         -DE/DX =    0.0                 !
 ! A8    A(3,6,5)               65.7445         -DE/DX =    0.0                 !
 ! A9    A(4,6,5)               65.7445         -DE/DX =    0.0                 !
 ! A10   L(2,1,6,3,-1)         180.0093         -DE/DX =    0.0                 !
 ! A11   L(2,1,6,3,-2)         179.9825         -DE/DX =    0.0                 !
 ! D1    D(2,1,4,3)            124.4467         -DE/DX =    0.0                 !
 ! D2    D(2,1,5,3)           -124.4426         -DE/DX =    0.0                 !
 ! D3    D(2,1,5,4)            124.4426         -DE/DX =    0.0                 !
 ! D4    D(3,1,5,4)           -111.1148         -DE/DX =    0.0                 !
 ! D5    D(4,3,6,1)            -36.5399         -DE/DX =    0.0                 !
 ! D6    D(5,3,6,1)             36.5342         -DE/DX =    0.0                 !
 ! D7    D(5,4,6,1)            -36.5342         -DE/DX =    0.0                 !
 --------------------------------------------------------------------------------
 GradGradGradGradGradGradGradGradGradGradGradGradGradGradGradGradGradGrad


 ----------------------------------------------------------------------

 Electric dipole moment (input orientation):
 (Debye = 10**-18 statcoulomb cm , SI units = C m)
                  (au)            (Debye)         (10**-30 SI)
   Tot        0.230983D+01      0.587100D+01      0.195836D+02
   x         -0.777999D-03     -0.197748D-02     -0.659615D-02
   y          0.230983D+01      0.587100D+01      0.195836D+02
   z          0.000000D+00      0.000000D+00      0.000000D+00

 Dipole polarizability, Alpha (input orientation).
 (esu units = cm**3 , SI units = C**2 m**2 J**-1)
 Alpha(0;0):
               (au)            (10**-24 esu)      (10**-40 SI)
   iso        0.309782D+02      0.459049D+01      0.510761D+01
   aniso      0.319059D+01      0.472796D+00      0.526056D+00
   xx         0.299146D+02      0.443289D+01      0.493226D+01
   yx        -0.413703D-02     -0.613044D-03     -0.682104D-03
   yy         0.331052D+02      0.490569D+01      0.545832D+01
   zx         0.000000D+00      0.000000D+00      0.000000D+00
   zy         0.000000D+00      0.000000D+00      0.000000D+00
   zz         0.299147D+02      0.443290D+01      0.493226D+01

 ----------------------------------------------------------------------

 Dipole orientation:
     5         16.62484354        -16.05707338         15.35306264
     1         16.62414625        -16.05707361         13.09729667
     1         17.70641680        -14.18263706         16.28589380
     1         17.70767925        -17.93078067         16.28589380
     1         14.46109471        -16.05780217         16.28670315
     3         16.62478858        -16.05707340         18.97687134

 Electric dipole moment (dipole orientation):
 (Debye = 10**-18 statcoulomb cm , SI units = C m)
                  (au)            (Debye)         (10**-30 SI)
   Tot        0.230983D+01      0.587100D+01      0.195836D+02
   x          0.000000D+00      0.000000D+00      0.000000D+00
   y          0.000000D+00      0.000000D+00      0.000000D+00
   z          0.230983D+01      0.587100D+01      0.195836D+02

 Dipole polarizability, Alpha (dipole orientation).
 (esu units = cm**3 , SI units = C**2 m**2 J**-1)
 Alpha(0;0):
               (au)            (10**-24 esu)      (10**-40 SI)
   iso        0.309782D+02      0.459049D+01      0.510761D+01
   aniso      0.319059D+01      0.472796D+00      0.526056D+00
   xx         0.299146D+02      0.443289D+01      0.493226D+01
   yx         0.000000D+00      0.000000D+00      0.000000D+00
   yy         0.299147D+02      0.443290D+01      0.493226D+01
   zx        -0.306236D-02     -0.453796D-03     -0.504916D-03
   zy         0.000000D+00      0.000000D+00      0.000000D+00
   zz         0.331052D+02      0.490569D+01      0.545832D+01

 ----------------------------------------------------------------------
 Unable to Open any file for archive entry.
 1\1\GINC-TCOPT10\Freq\RTPSSTPSS\def2QZVPP\B1H4Li1\HUTTER\31-Jul-2021\0
 \\#N Geom=AllCheck Guess=TCheck SCRF=Check GenChk RTPSSTPSS/def2QZVPP 
 Freq\\Mol job 1\\0,1\B,8.7918888639,8.1274526208,8.5\H,8.7919219377,6.
 9337526166,8.5\H,9.3644005478,8.6212784744,7.5082838533\H,9.364400548,
 8.6212784744,9.4917161466\H,7.6467158814,8.6211282106,8.5000000001\Li,
 8.7912138806,10.0450894817,8.5\\Version=ES64L-G16RevC.01\State=1-A'\HF
 =-34.8204873\RMSD=1.083e-10\RMSF=6.827e-05\ZeroPoint=0.038591\Thermal=
 0.0420833\ETot=-34.778404\HTot=-34.7774598\GTot=-34.8041345\Dipole=-0.
 000778,2.3098302,0.\DipoleDeriv=0.3601587,0.000208,0.,-0.0000675,0.342
 5434,0.,0.,0.,0.3601263,-0.1262477,-0.0000728,0.,0.0000538,-0.3256098,
 0.,0.,0.,-0.1262899,-0.2040254,-0.0779316,0.1437581,-0.0853869,-0.2940
 423,0.1480175,0.1436763,0.1350576,-0.370087,-0.2040254,-0.0779316,-0.1
 437581,-0.0853869,-0.2940423,-0.1480175,-0.1436763,-0.1350576,-0.37008
 7,-0.4531826,0.1558583,0.,0.1709888,-0.2939398,0.,0.,0.,-0.1210848,0.6
 273224,-0.0001304,0.,-0.0002013,0.8650909,0.,0.,0.,0.6274224\Polar=29.
 9146299,-0.004137,33.1052317,0.,0.,29.9146789\Quadrupole=-2.3096972,4.
 6193534,-2.3096561,-0.0022862,0.,0.\PG=CS [SG(B1H2Li1),X(H2)]\NImag=0\
 \0.25227924,-0.00000460,0.43925209,0.,0.,0.25226071,-0.02736618,-0.000
 00111,0.,0.02649625,0.00000807,-0.22205857,0.,-0.00000835,0.23550666,0
 .,0.,-0.02736426,0.,0.,0.02649541,-0.05228110,-0.01785804,0.04417877,0
 .00027438,-0.00039343,-0.00060124,0.06331946,-0.01933807,-0.04938730,0
 .03350713,-0.00948420,-0.00488377,0.01642849,0.02081050,0.05593264,0.0
 4417357,0.03093668,-0.10330371,-0.00059856,0.00068322,0.00096579,-0.05
 606542,-0.03605809,0.12807441,-0.05228110,-0.01785804,-0.04417877,0.00
 027438,-0.00039343,0.00060124,0.00528763,0.00338806,0.00814489,0.06331
 946,-0.01933807,-0.04938730,-0.03350713,-0.00948420,-0.00488377,-0.016
 42849,0.00338806,0.00239401,0.00315774,0.02081050,0.05593264,-0.044173
 57,-0.03093668,-0.10330371,0.00059856,-0.00068322,0.00096579,-0.008144
 89,-0.00315774,-0.01783252,0.05606542,0.03605809,0.12807441,-0.1288420
 8,0.03571956,0.,0.00131305,0.00078700,0.,-0.01205934,0.00103946,0.0018
 6992,-0.01205934,0.00103946,-0.00186992,0.16046139,0.03867484,-0.04935
 364,0.,0.01897102,-0.00488308,0.,-0.00442602,0.00239076,-0.00135706,-0
 .00442602,0.00239076,0.00135706,-0.04163876,0.05589755,0.,0.,-0.026775
 13,0.,0.,-0.00007196,0.01815886,-0.00451421,-0.00049385,-0.01815886,0.
 00451421,-0.00049385,0.,0.,0.03094713,0.00849121,0.00000224,0.,-0.0009
 9189,0.00000014,0.,-0.00454103,0.00358424,0.00247560,-0.00454103,0.003
 58424,-0.00247560,-0.00881368,-0.00715507,0.,0.01039642,-0.00000217,-0
 .06906528,0.,0.00000684,0.00120254,0.,-0.00152108,-0.00644633,0.002637
 50,-0.00152108,-0.00644633,-0.00263750,0.00305327,-0.00644234,0.,-0.00
 001579,0.08719775,0.,0.,0.00848610,0.,0.,-0.00099077,0.00247392,-0.006
 20557,-0.00741011,-0.00247392,0.00620557,-0.00741011,0.,0.,-0.00311235
 ,0.,0.,0.01043724\\-0.00000241,0.00025282,0.,-0.00000290,-0.00003182,0
 .,-0.00001021,-0.00007722,0.00001627,-0.00001021,-0.00007722,-0.000016
 27,0.00002170,-0.00007558,0.,0.00000402,0.00000902,0.\\\@
 The archive entry for this job was punched.


 We're simply so accustomed to the marvels of everyday thought
 that we never wonder about it.
 -- Marvin Minsky in "Why people think computers are smart"
 Job cpu time:       0 days  0 hours 28 minutes 15.1 seconds.
 Elapsed time:       0 days  0 hours  4 minutes 46.6 seconds.
 File lengths (MBytes):  RWF=     22 Int=      0 D2E=      0 Chk=      5 Scr=      1
 Normal termination of Gaussian 16 at Sat Jul 31 23:47:34 2021.
