 Entering Gaussian System, Link 0=g16
 Initial command:
 /sw-ng/spack/opt/spack/linux-opensuse_leap15-sandybridge/pgi-18.10/gaussian-src-16-C.01-zldqaomctopxhethwccpmxmwefdscg3m/g16/l1.exe "/data/hutter/SMG16/TPSS/Gau-60317.inp" -scrdir="/data/hutter/SMG16/TPSS/"
 Entering Link 1 = /sw-ng/spack/opt/spack/linux-opensuse_leap15-sandybridge/pgi-18.10/gaussian-src-16-C.01-zldqaomctopxhethwccpmxmwefdscg3m/g16/l1.exe PID=     60325.
  
 Copyright (c) 1988-2019, Gaussian, Inc.  All Rights Reserved.
  
 This is part of the Gaussian(R) 16 program.  It is based on
 the Gaussian(R) 09 system (copyright 2009, Gaussian, Inc.),
 the Gaussian(R) 03 system (copyright 2003, Gaussian, Inc.),
 the Gaussian(R) 98 system (copyright 1998, Gaussian, Inc.),
 the Gaussian(R) 94 system (copyright 1995, Gaussian, Inc.),
 the Gaussian 92(TM) system (copyright 1992, Gaussian, Inc.),
 the Gaussian 90(TM) system (copyright 1990, Gaussian, Inc.),
 the Gaussian 88(TM) system (copyright 1988, Gaussian, Inc.),
 the Gaussian 86(TM) system (copyright 1986, Carnegie Mellon
 University), and the Gaussian 82(TM) system (copyright 1983,
 Carnegie Mellon University). Gaussian is a federally registered
 trademark of Gaussian, Inc.
  
 This software contains proprietary and confidential information,
 including trade secrets, belonging to Gaussian, Inc.
  
 This software is provided under written license and may be
 used, copied, transmitted, or stored only in accord with that
 written license.
  
 The following legend is applicable only to US Government
 contracts under FAR:
  
                    RESTRICTED RIGHTS LEGEND
  
 Use, reproduction and disclosure by the US Government is
 subject to restrictions as set forth in subparagraphs (a)
 and (c) of the Commercial Computer Software - Restricted
 Rights clause in FAR 52.227-19.
  
 Gaussian, Inc.
 340 Quinnipiac St., Bldg. 40, Wallingford CT 06492
  
  
 ---------------------------------------------------------------
 Warning -- This program may not be used in any manner that
 competes with the business of Gaussian, Inc. or will provide
 assistance to any competitor of Gaussian, Inc.  The licensee
 of this program is prohibited from giving any competitor of
 Gaussian, Inc. access to this program.  By using this program,
 the user acknowledges that Gaussian, Inc. is engaged in the
 business of creating and licensing software in the field of
 computational chemistry and represents and warrants to the
 licensee that it is not a competitor of Gaussian, Inc. and that
 it will not use this program in any manner prohibited above.
 ---------------------------------------------------------------
  

 Cite this work as:
 Gaussian 16, Revision C.01,
 M. J. Frisch, G. W. Trucks, H. B. Schlegel, G. E. Scuseria, 
 M. A. Robb, J. R. Cheeseman, G. Scalmani, V. Barone, 
 G. A. Petersson, H. Nakatsuji, X. Li, M. Caricato, A. V. Marenich, 
 J. Bloino, B. G. Janesko, R. Gomperts, B. Mennucci, H. P. Hratchian, 
 J. V. Ortiz, A. F. Izmaylov, J. L. Sonnenberg, D. Williams-Young, 
 F. Ding, F. Lipparini, F. Egidi, J. Goings, B. Peng, A. Petrone, 
 T. Henderson, D. Ranasinghe, V. G. Zakrzewski, J. Gao, N. Rega, 
 G. Zheng, W. Liang, M. Hada, M. Ehara, K. Toyota, R. Fukuda, 
 J. Hasegawa, M. Ishida, T. Nakajima, Y. Honda, O. Kitao, H. Nakai, 
 T. Vreven, K. Throssell, J. A. Montgomery, Jr., J. E. Peralta, 
 F. Ogliaro, M. J. Bearpark, J. J. Heyd, E. N. Brothers, K. N. Kudin, 
 V. N. Staroverov, T. A. Keith, R. Kobayashi, J. Normand, 
 K. Raghavachari, A. P. Rendell, J. C. Burant, S. S. Iyengar, 
 J. Tomasi, M. Cossi, J. M. Millam, M. Klene, C. Adamo, R. Cammi, 
 J. W. Ochterski, R. L. Martin, K. Morokuma, O. Farkas, 
 J. B. Foresman, and D. J. Fox, Gaussian, Inc., Wallingford CT, 2019.
 
 ******************************************
 Gaussian 16:  ES64L-G16RevC.01  3-Jul-2019
                31-Jul-2021 
 ******************************************
 %mem=8GB
 %NProcShare=8
 Will use up to    8 processors via shared memory.
 -------------------------------------------------------------
 #N RTPSSTPSS/Def2QZVPP scf=tight Int(Grid=ultrafine) OPT FREQ
 -------------------------------------------------------------
 1/18=20,19=15,26=4,38=1/1,3;
 2/9=110,12=2,17=6,18=5,40=1/2;
 3/5=45,7=202,11=2,25=1,30=1,71=1,74=2523,75=-5,116=1/1,2,3;
 4//1;
 5/5=2,32=2,38=5/2;
 6/7=2,8=2,9=2,10=2,28=1/1;
 7//1,2,3,16;
 1/18=20,19=15,26=4/3(2);
 2/9=110/2;
 99//99;
 2/9=110/2;
 3/5=45,7=202,11=2,25=1,30=1,71=1,74=2523,75=-5,116=1/1,2,3;
 4/5=5,16=3,69=1/1;
 5/5=2,32=2,38=5/2;
 7//1,2,3,16;
 1/18=20,19=15,26=4/3(-5);
 2/9=110/2;
 6/7=2,8=2,9=2,10=2,19=2,28=1/1;
 99/9=1/99;
 ---------
 Mol job 1
 ---------
 Symbolic Z-matrix:
 Charge =  0 Multiplicity = 1
 K                     9.        9.        7.62781 
 Cl                    9.        9.        10.37219 
 

 GradGradGradGradGradGradGradGradGradGradGradGradGradGradGradGradGradGrad
 Berny optimization.
 Initialization pass.
                           ----------------------------
                           !    Initial Parameters    !
                           ! (Angstroms and Degrees)  !
 --------------------------                            --------------------------
 ! Name  Definition              Value          Derivative Info.                !
 --------------------------------------------------------------------------------
 ! R1    R(1,2)                  2.7444         estimate D2E/DX2                !
 --------------------------------------------------------------------------------
 Trust Radius=3.00D-01 FncErr=1.00D-07 GrdErr=1.00D-06 EigMax=2.50D+02 EigMin=1.00D-04
 Number of steps in this run=     20 maximum allowed number of steps=    100.
 GradGradGradGradGradGradGradGradGradGradGradGradGradGradGradGradGradGrad

                          Input orientation:                          
 ---------------------------------------------------------------------
 Center     Atomic      Atomic             Coordinates (Angstroms)
 Number     Number       Type             X           Y           Z
 ---------------------------------------------------------------------
      1         19           0        9.000000    9.000000    7.627806
      2         17           0        9.000000    9.000000   10.372194
 ---------------------------------------------------------------------
 Stoichiometry    ClK
 Framework group  C*V[C*(ClK)]
 Deg. of freedom     1
 Full point group                 C*V     NOp   4
 Largest Abelian subgroup         C2V     NOp   4
 Largest concise Abelian subgroup C1      NOp   1
                         Standard orientation:                         
 ---------------------------------------------------------------------
 Center     Atomic      Atomic             Coordinates (Angstroms)
 Number     Number       Type             X           Y           Z
 ---------------------------------------------------------------------
      1         19           0        0.000000    0.000000    1.295961
      2         17           0        0.000000    0.000000   -1.448427
 ---------------------------------------------------------------------
 Rotational constants (GHZ):           0.0000000           3.6409959           3.6409959
 Standard basis: def2QZVPP (5D, 7F)
 There are    77 symmetry adapted cartesian basis functions of A1  symmetry.
 There are    16 symmetry adapted cartesian basis functions of A2  symmetry.
 There are    38 symmetry adapted cartesian basis functions of B1  symmetry.
 There are    38 symmetry adapted cartesian basis functions of B2  symmetry.
 There are    61 symmetry adapted basis functions of A1  symmetry.
 There are    15 symmetry adapted basis functions of A2  symmetry.
 There are    32 symmetry adapted basis functions of B1  symmetry.
 There are    32 symmetry adapted basis functions of B2  symmetry.
   140 basis functions,   253 primitive gaussians,   169 cartesian basis functions
    18 alpha electrons       18 beta electrons
       nuclear repulsion energy        62.2813626133 Hartrees.
 NAtoms=    2 NActive=    2 NUniq=    2 SFac= 1.00D+00 NAtFMM=   60 NAOKFM=F Big=F
 Integral buffers will be    131072 words long.
 Raffenetti 2 integral format.
 Two-electron integral symmetry is turned on.
 One-electron integrals computed using PRISM.
   4 Symmetry operations used in ECPInt.
 ECPInt:  NShTT=    1081 NPrTT=    4279 LenC2=    1047 LenP2D=    3510.
 LDataN:  DoStor=T MaxTD1= 8 Len=  415
 NBasis=   140 RedAO= T EigKep=  1.34D-03  NBF=    61    15    32    32
 NBsUse=   140 1.00D-06 EigRej= -1.00D+00 NBFU=    61    15    32    32
 ExpMin= 1.53D-02 ExpMax= 2.02D+06 ExpMxC= 2.31D+03 IAcc=3 IRadAn=         5 AccDes= 0.00D+00
 Harris functional with IExCor= 1009 and IRadAn=       5 diagonalized for initial guess.
 HarFok:  IExCor= 1009 AccDes= 0.00D+00 IRadAn=         5 IDoV= 1 UseB2=F ITyADJ=14
 ICtDFT=  3500011 ScaDFX=  1.000000  1.000000  1.000000  1.000000
 FoFCou: FMM=F IPFlag=           0 FMFlag=      100000 FMFlg1=           0
         NFxFlg=           0 DoJE=T BraDBF=F KetDBF=T FulRan=T
         wScrn=  0.000000 ICntrl=       500 IOpCl=  0 I1Cent=   200000004 NGrid=           0
         NMat0=    1 NMatS0=      1 NMatT0=    0 NMatD0=    1 NMtDS0=    0 NMtDT0=    0
 Petite list used in FoFCou.
 Initial guess orbital symmetries:
       Occupied  (SG) (SG) (SG) (PI) (PI) (SG) (SG) (SG) (PI) (PI)
                 (SG) (SG) (PI) (PI) (SG) (SG) (PI) (PI)
       Virtual   (SG) (PI) (PI) (SG) (SG) (DLTA) (DLTA) (SG) (PI)
                 (PI) (PI) (PI) (SG) (SG) (PI) (PI) (SG) (PI) (PI)
                 (DLTA) (DLTA) (SG) (DLTA) (DLTA) (SG) (PI) (PI)
                 (PHI) (PHI) (PI) (PI) (SG) (DLTA) (DLTA) (SG)
                 (PI) (PI) (SG) (PI) (PI) (SG) (DLTA) (DLTA) (PI)
                 (PI) (SG) (SG) (PI) (PI) (DLTA) (DLTA) (SG) (PI)
                 (PI) (SG) (PHI) (PHI) (DLTA) (DLTA) (PI) (PI)
                 (SG) (PHI) (PHI) (DLTA) (DLTA) (PI) (PI) (SG)
                 (SG) (DLTA) (DLTA) (PI) (PI) (SG) (DLTA) (DLTA)
                 (PI) (PI) (SG) (DLTA) (DLTA) (PHI) (PHI) (?A)
                 (?A) (PI) (PI) (SG) (PI) (PI) (PHI) (PHI) (SG)
                 (DLTA) (DLTA) (PI) (PI) (SG) (SG) (PHI) (PHI)
                 (DLTA) (DLTA) (PI) (PI) (SG) (SG) (DLTA) (DLTA)
                 (PI) (PI) (SG) (SG) (SG) (PI) (PI) (SG) (SG) (SG)
                 (SG) (SG)
 The electronic state of the initial guess is 1-SG.
 Keep J ints in memory in symmetry-blocked form, NReq=61242609.
 Requested convergence on RMS density matrix=1.00D-08 within 128 cycles.
 Requested convergence on MAX density matrix=1.00D-06.
 Requested convergence on             energy=1.00D-06.
 No special actions if energy rises.
 SCF Done:  E(RTPSS-TPSS) =  -1060.28089874     A.U. after   11 cycles
            NFock= 11  Conv=0.13D-08     -V/T= 2.0017

 **********************************************************************

            Population analysis using the SCF Density.

 **********************************************************************

 Orbital symmetries:
       Occupied  (SG) (SG) (SG) (PI) (PI) (SG) (SG) (SG) (PI) (PI)
                 (SG) (PI) (PI) (SG) (SG) (SG) (PI) (PI)
       Virtual   (SG) (PI) (PI) (SG) (SG) (PI) (PI) (DLTA) (DLTA)
                 (SG) (PI) (PI) (SG) (SG) (PI) (PI) (PI) (PI) (DLTA)
                 (DLTA) (SG) (SG) (DLTA) (DLTA) (SG) (PHI) (PHI)
                 (PI) (PI) (PI) (PI) (SG) (DLTA) (DLTA) (SG) (PI)
                 (PI) (SG) (PI) (PI) (SG) (DLTA) (DLTA) (PI) (PI)
                 (SG) (SG) (PI) (PI) (DLTA) (DLTA) (SG) (SG) (PI)
                 (PI) (PHI) (PHI) (DLTA) (DLTA) (PI) (PI) (SG)
                 (PHI) (PHI) (DLTA) (DLTA) (PI) (PI) (SG) (SG)
                 (DLTA) (DLTA) (PI) (PI) (SG) (DLTA) (DLTA) (PI)
                 (PI) (SG) (DLTA) (DLTA) (PHI) (PHI) (SG) (PI)
                 (PI) (?A) (?A) (PI) (PI) (SG) (PHI) (PHI) (DLTA)
                 (DLTA) (PI) (PI) (SG) (SG) (PHI) (PHI) (DLTA)
                 (DLTA) (PI) (PI) (SG) (SG) (DLTA) (DLTA) (PI)
                 (PI) (SG) (SG) (SG) (PI) (PI) (SG) (SG) (SG) (SG)
                 (SG)
 The electronic state is 1-SG.
 Alpha  occ. eigenvalues -- -129.20929-100.84926 -12.96995 -10.32902 -10.32902
 Alpha  occ. eigenvalues --  -10.32865  -9.10339  -6.87657  -6.87606  -6.87606
 Alpha  occ. eigenvalues --   -1.31489  -0.70734  -0.70734  -0.70501  -0.60591
 Alpha  occ. eigenvalues --   -0.18517  -0.17577  -0.17577
 Alpha virt. eigenvalues --   -0.06405  -0.00870  -0.00870   0.00328   0.02723
 Alpha virt. eigenvalues --    0.04321   0.04321   0.04975   0.04975   0.05181
 Alpha virt. eigenvalues --    0.07427   0.07427   0.12096   0.17196   0.18704
 Alpha virt. eigenvalues --    0.18704   0.20398   0.20398   0.20439   0.20439
 Alpha virt. eigenvalues --    0.21535   0.23415   0.25602   0.25602   0.25680
 Alpha virt. eigenvalues --    0.27041   0.27041   0.29229   0.29229   0.30522
 Alpha virt. eigenvalues --    0.30522   0.37659   0.43978   0.43978   0.48293
 Alpha virt. eigenvalues --    0.52171   0.52171   0.63006   0.63370   0.63370
 Alpha virt. eigenvalues --    0.71955   0.77839   0.77842   0.81276   0.81276
 Alpha virt. eigenvalues --    0.93773   1.01915   1.18532   1.18532   1.24496
 Alpha virt. eigenvalues --    1.24496   1.31016   1.33225   1.33303   1.33303
 Alpha virt. eigenvalues --    1.39931   1.39931   1.41538   1.41538   1.48090
 Alpha virt. eigenvalues --    1.48090   1.55353   2.09618   2.09618   2.10259
 Alpha virt. eigenvalues --    2.10259   2.12754   2.12754   2.26078   2.41767
 Alpha virt. eigenvalues --    2.87314   2.87316   2.90243   2.90243   2.96259
 Alpha virt. eigenvalues --    3.32667   3.32667   3.42370   3.42370   3.46362
 Alpha virt. eigenvalues --    3.71759   3.71759   3.71946   3.71946   3.72081
 Alpha virt. eigenvalues --    3.72097   3.72097   3.72291   3.72292   3.99282
 Alpha virt. eigenvalues --    3.99282   3.99546   4.00101   4.00101   4.01289
 Alpha virt. eigenvalues --    4.01289   4.05229   4.05229   4.08749   4.36608
 Alpha virt. eigenvalues --    7.39599   7.39599   7.39842   7.39856   7.41161
 Alpha virt. eigenvalues --    7.41161   7.52952   8.38514  10.67167  10.67167
 Alpha virt. eigenvalues --   10.74218  10.74218  10.79303  14.24583  28.63411
 Alpha virt. eigenvalues --   41.64136  41.64136  41.65447  49.36455  98.08739
 Alpha virt. eigenvalues --  342.28760 526.30525
          Condensed to atoms (all electrons):
               1          2
     1  K   18.091285   0.146488
     2  Cl   0.146488  17.615739
 Mulliken charges:
               1
     1  K    0.762227
     2  Cl  -0.762227
 Sum of Mulliken charges =   0.00000
 Mulliken charges with hydrogens summed into heavy atoms:
               1
     1  K    0.762227
     2  Cl  -0.762227
 Electronic spatial extent (au):  <R**2>=            297.2391
 Charge=             -0.0000 electrons
 Dipole moment (field-independent basis, Debye):
    X=              0.0000    Y=              0.0000    Z=             10.2528  Tot=             10.2528
 Quadrupole moment (field-independent basis, Debye-Ang):
   XX=            -25.4144   YY=            -25.4144   ZZ=            -24.3875
   XY=              0.0000   XZ=              0.0000   YZ=              0.0000
 Traceless Quadrupole moment (field-independent basis, Debye-Ang):
   XX=             -0.3423   YY=             -0.3423   ZZ=              0.6846
   XY=              0.0000   XZ=              0.0000   YZ=              0.0000
 Octapole moment (field-independent basis, Debye-Ang**2):
  XXX=              0.0000  YYY=              0.0000  ZZZ=             43.3325  XYY=              0.0000
  XXY=              0.0000  XXZ=             10.3444  XZZ=              0.0000  YZZ=              0.0000
  YYZ=             10.3444  XYZ=              0.0000
 Hexadecapole moment (field-independent basis, Debye-Ang**3):
 XXXX=            -32.3351 YYYY=            -32.3351 ZZZZ=           -310.5896 XXXY=              0.0000
 XXXZ=              0.0000 YYYX=              0.0000 YYYZ=              0.0000 ZZZX=              0.0000
 ZZZY=              0.0000 XXYY=            -10.7783 XXZZ=            -56.8159 YYZZ=            -56.8159
 XXYZ=              0.0000 YYXZ=              0.0000 ZZXY=              0.0000
 N-N= 6.228136261332D+01 E-N=-2.644880810968D+03  KE= 1.058451377861D+03
 Symmetry A1   KE= 8.424152825278D+02
 Symmetry A2   KE= 6.929964520398D-46
 Symmetry B1   KE= 1.080180476668D+02
 Symmetry B2   KE= 1.080180476668D+02
   4 Symmetry operations used in ECPInt.
 ECPInt:  NShTT=    1081 NPrTT=    4279 LenC2=    1047 LenP2D=    3510.
 LDataN:  DoStor=T MaxTD1= 9 Len=  602
 Calling FoFJK, ICntrl=      2527 FMM=F ISym2X=1 I1Cent= 0 IOpClX= 0 NMat=1 NMatS=1 NMatT=0.
 ***** Axes restored to original set *****
 -------------------------------------------------------------------
 Center     Atomic                   Forces (Hartrees/Bohr)
 Number     Number              X              Y              Z
 -------------------------------------------------------------------
      1       19          -0.000000000   -0.000000000    0.005636853
      2       17          -0.000000000   -0.000000000   -0.005636853
 -------------------------------------------------------------------
 Cartesian Forces:  Max     0.005636853 RMS     0.003254439

 GradGradGradGradGradGradGradGradGradGradGradGradGradGradGradGradGradGrad
 Berny optimization.
 FormGI is forming the generalized inverse of G from B-inverse, IUseBI=4.
 Internal  Forces:  Max     0.005636853 RMS     0.005636853
 Search for a local minimum.
 Step number   1 out of a maximum of   20
 All quantities printed in internal units (Hartrees-Bohrs-Radians)
 Mixed Optimization -- RFO/linear search
 Second derivative matrix not updated -- first step.
 The second derivative matrix:
                          R1
           R1           0.04562
 ITU=  0
     Eigenvalues ---    0.04562
 RFO step:  Lambda=-6.86223329D-04 EMin= 4.56166488D-02
 Linear search not attempted -- first point.
 Iteration  1 RMS(Cart)=  0.08608228 RMS(Int)=  0.00000000
 Iteration  2 RMS(Cart)=  0.00000000 RMS(Int)=  0.00000000
 ClnCor:  largest displacement from symmetrization is 0.00D+00 for atom     0.
 Variable       Old X    -DE/DX   Delta X   Delta X   Delta X     New X
                                 (Linear)    (Quad)   (Total)
    R1        5.18614  -0.00564   0.00000  -0.12174  -0.12174   5.06440
         Item               Value     Threshold  Converged?
 Maximum Force            0.005637     0.000450     NO 
 RMS     Force            0.005637     0.000300     NO 
 Maximum Displacement     0.060869     0.001800     NO 
 RMS     Displacement     0.086082     0.001200     NO 
 Predicted change in Energy=-3.481967D-04
 GradGradGradGradGradGradGradGradGradGradGradGradGradGradGradGradGradGrad

                          Input orientation:                          
 ---------------------------------------------------------------------
 Center     Atomic      Atomic             Coordinates (Angstroms)
 Number     Number       Type             X           Y           Z
 ---------------------------------------------------------------------
      1         19           0        9.000000    9.000000    7.660017
      2         17           0        9.000000    9.000000   10.339983
 ---------------------------------------------------------------------
 Stoichiometry    ClK
 Framework group  C*V[C*(ClK)]
 Deg. of freedom     1
 Full point group                 C*V     NOp   4
 Largest Abelian subgroup         C2V     NOp   4
 Largest concise Abelian subgroup C1      NOp   1
                         Standard orientation:                         
 ---------------------------------------------------------------------
 Center     Atomic      Atomic             Coordinates (Angstroms)
 Number     Number       Type             X           Y           Z
 ---------------------------------------------------------------------
      1         19           0        0.000000    0.000000    1.265540
      2         17           0        0.000000    0.000000   -1.414427
 ---------------------------------------------------------------------
 Rotational constants (GHZ):           0.0000000           3.8181451           3.8181451
 Standard basis: def2QZVPP (5D, 7F)
 There are    77 symmetry adapted cartesian basis functions of A1  symmetry.
 There are    16 symmetry adapted cartesian basis functions of A2  symmetry.
 There are    38 symmetry adapted cartesian basis functions of B1  symmetry.
 There are    38 symmetry adapted cartesian basis functions of B2  symmetry.
 There are    61 symmetry adapted basis functions of A1  symmetry.
 There are    15 symmetry adapted basis functions of A2  symmetry.
 There are    32 symmetry adapted basis functions of B1  symmetry.
 There are    32 symmetry adapted basis functions of B2  symmetry.
   140 basis functions,   253 primitive gaussians,   169 cartesian basis functions
    18 alpha electrons       18 beta electrons
       nuclear repulsion energy        63.7784894172 Hartrees.
 NAtoms=    2 NActive=    2 NUniq=    2 SFac= 1.00D+00 NAtFMM=   60 NAOKFM=F Big=F
 Integral buffers will be    131072 words long.
 Raffenetti 2 integral format.
 Two-electron integral symmetry is turned on.
 One-electron integrals computed using PRISM.
   4 Symmetry operations used in ECPInt.
 ECPInt:  NShTT=    1081 NPrTT=    4279 LenC2=    1048 LenP2D=    3520.
 LDataN:  DoStor=T MaxTD1= 8 Len=  415
 NBasis=   140 RedAO= T EigKep=  1.33D-03  NBF=    61    15    32    32
 NBsUse=   140 1.00D-06 EigRej= -1.00D+00 NBFU=    61    15    32    32
 Initial guess from the checkpoint file:  "/data/hutter/SMG16/TPSS/Gau-60325.chk"
 B after Tr=     0.000000    0.000000    0.000000
         Rot=    1.000000    0.000000    0.000000    0.000000 Ang=   0.00 deg.
 Initial guess orbital symmetries:
       Occupied  (SG) (SG) (SG) (PI) (PI) (SG) (SG) (SG) (PI) (PI)
                 (SG) (PI) (PI) (SG) (SG) (SG) (PI) (PI)
       Virtual   (SG) (PI) (PI) (SG) (SG) (PI) (PI) (DLTA) (DLTA)
                 (SG) (PI) (PI) (SG) (SG) (PI) (PI) (PI) (PI) (DLTA)
                 (DLTA) (SG) (SG) (DLTA) (DLTA) (SG) (PHI) (PHI)
                 (PI) (PI) (PI) (PI) (SG) (DLTA) (DLTA) (SG) (PI)
                 (PI) (SG) (PI) (PI) (SG) (DLTA) (DLTA) (PI) (PI)
                 (SG) (SG) (PI) (PI) (DLTA) (DLTA) (SG) (SG) (PI)
                 (PI) (PHI) (PHI) (DLTA) (DLTA) (PI) (PI) (SG)
                 (PHI) (PHI) (DLTA) (DLTA) (PI) (PI) (SG) (SG)
                 (DLTA) (DLTA) (PI) (PI) (SG) (DLTA) (DLTA) (PI)
                 (PI) (SG) (DLTA) (DLTA) (PHI) (PHI) (SG) (PI)
                 (PI) (?A) (?A) (PI) (PI) (SG) (PHI) (PHI) (DLTA)
                 (DLTA) (PI) (PI) (SG) (SG) (PHI) (PHI) (DLTA)
                 (DLTA) (PI) (PI) (SG) (SG) (DLTA) (DLTA) (PI)
                 (PI) (SG) (SG) (SG) (PI) (PI) (SG) (SG) (SG) (SG)
                 (SG)
 ExpMin= 1.53D-02 ExpMax= 2.02D+06 ExpMxC= 2.31D+03 IAcc=3 IRadAn=         5 AccDes= 0.00D+00
 Harris functional with IExCor= 1009 and IRadAn=       5 diagonalized for initial guess.
 HarFok:  IExCor= 1009 AccDes= 0.00D+00 IRadAn=         5 IDoV= 1 UseB2=F ITyADJ=14
 ICtDFT=  3500011 ScaDFX=  1.000000  1.000000  1.000000  1.000000
 FoFCou: FMM=F IPFlag=           0 FMFlag=      100000 FMFlg1=           0
         NFxFlg=           0 DoJE=T BraDBF=F KetDBF=T FulRan=T
         wScrn=  0.000000 ICntrl=       500 IOpCl=  0 I1Cent=   200000004 NGrid=           0
         NMat0=    1 NMatS0=      1 NMatT0=    0 NMatD0=    1 NMtDS0=    0 NMtDT0=    0
 Petite list used in FoFCou.
 Keep J ints in memory in symmetry-blocked form, NReq=61242609.
 Requested convergence on RMS density matrix=1.00D-08 within 128 cycles.
 Requested convergence on MAX density matrix=1.00D-06.
 Requested convergence on             energy=1.00D-06.
 No special actions if energy rises.
 SCF Done:  E(RTPSS-TPSS) =  -1060.28125784     A.U. after    8 cycles
            NFock=  8  Conv=0.82D-08     -V/T= 2.0017
   4 Symmetry operations used in ECPInt.
 ECPInt:  NShTT=    1081 NPrTT=    4279 LenC2=    1048 LenP2D=    3520.
 LDataN:  DoStor=T MaxTD1= 9 Len=  602
 Calling FoFJK, ICntrl=      2527 FMM=F ISym2X=1 I1Cent= 0 IOpClX= 0 NMat=1 NMatS=1 NMatT=0.
 ***** Axes restored to original set *****
 -------------------------------------------------------------------
 Center     Atomic                   Forces (Hartrees/Bohr)
 Number     Number              X              Y              Z
 -------------------------------------------------------------------
      1       19          -0.000000000   -0.000000000    0.000033982
      2       17          -0.000000000   -0.000000000   -0.000033982
 -------------------------------------------------------------------
 Cartesian Forces:  Max     0.000033982 RMS     0.000019620

 GradGradGradGradGradGradGradGradGradGradGradGradGradGradGradGradGradGrad
 Berny optimization.
 Using GEDIIS/GDIIS optimizer.
 Internal  Forces:  Max     0.000033982 RMS     0.000033982
 Search for a local minimum.
 Step number   2 out of a maximum of   20
 All quantities printed in internal units (Hartrees-Bohrs-Radians)
 Mixed Optimization -- En-DIIS/RFO-DIIS
 Update second derivatives using D2CorX and points    1    2
 DE= -3.59D-04 DEPred=-3.48D-04 R= 1.03D+00
 TightC=F SS=  1.41D+00  RLast= 1.22D-01 DXNew= 5.0454D-01 3.6522D-01
 Trust test= 1.03D+00 RLast= 1.22D-01 DXMaxT set to 3.65D-01
 The second derivative matrix:
                          R1
           R1           0.04602
 ITU=  1  0
 Use linear search instead of GDIIS.
     Eigenvalues ---    0.04602
 RFO step:  Lambda= 0.00000000D+00 EMin= 4.60237296D-02
 Quartic linear search produced a step of  0.00539.
 Iteration  1 RMS(Cart)=  0.00046380 RMS(Int)=  0.00000000
 Iteration  2 RMS(Cart)=  0.00000000 RMS(Int)=  0.00000000
 ClnCor:  largest displacement from symmetrization is 0.00D+00 for atom     0.
 Variable       Old X    -DE/DX   Delta X   Delta X   Delta X     New X
                                 (Linear)    (Quad)   (Total)
    R1        5.06440  -0.00003  -0.00066   0.00000  -0.00066   5.06375
         Item               Value     Threshold  Converged?
 Maximum Force            0.000034     0.000450     YES
 RMS     Force            0.000034     0.000300     YES
 Maximum Displacement     0.000328     0.001800     YES
 RMS     Displacement     0.000464     0.001200     YES
 Predicted change in Energy=-1.238934D-08
 Optimization completed.
    -- Stationary point found.
                           ----------------------------
                           !   Optimized Parameters   !
                           ! (Angstroms and Degrees)  !
 --------------------------                            --------------------------
 ! Name  Definition              Value          Derivative Info.                !
 --------------------------------------------------------------------------------
 ! R1    R(1,2)                  2.68           -DE/DX =    0.0                 !
 --------------------------------------------------------------------------------
 GradGradGradGradGradGradGradGradGradGradGradGradGradGradGradGradGradGrad

                          Input orientation:                          
 ---------------------------------------------------------------------
 Center     Atomic      Atomic             Coordinates (Angstroms)
 Number     Number       Type             X           Y           Z
 ---------------------------------------------------------------------
      1         19           0        9.000000    9.000000    7.660017
      2         17           0        9.000000    9.000000   10.339983
 ---------------------------------------------------------------------
 Stoichiometry    ClK
 Framework group  C*V[C*(ClK)]
 Deg. of freedom     1
 Full point group                 C*V     NOp   4
 Largest Abelian subgroup         C2V     NOp   4
 Largest concise Abelian subgroup C1      NOp   1
                         Standard orientation:                         
 ---------------------------------------------------------------------
 Center     Atomic      Atomic             Coordinates (Angstroms)
 Number     Number       Type             X           Y           Z
 ---------------------------------------------------------------------
      1         19           0        0.000000    0.000000    1.265540
      2         17           0        0.000000    0.000000   -1.414427
 ---------------------------------------------------------------------
 Rotational constants (GHZ):           0.0000000           3.8181451           3.8181451

 **********************************************************************

            Population analysis using the SCF Density.

 **********************************************************************

 Orbital symmetries:
       Occupied  (SG) (SG) (SG) (PI) (PI) (SG) (SG) (SG) (PI) (PI)
                 (SG) (PI) (PI) (SG) (SG) (SG) (PI) (PI)
       Virtual   (SG) (PI) (PI) (SG) (SG) (PI) (PI) (DLTA) (DLTA)
                 (SG) (PI) (PI) (SG) (SG) (PI) (PI) (PI) (PI) (DLTA)
                 (DLTA) (SG) (SG) (DLTA) (DLTA) (SG) (PHI) (PHI)
                 (PI) (PI) (PI) (PI) (SG) (DLTA) (DLTA) (SG) (PI)
                 (PI) (SG) (PI) (PI) (SG) (DLTA) (DLTA) (PI) (PI)
                 (SG) (SG) (PI) (PI) (DLTA) (DLTA) (SG) (SG) (PI)
                 (PI) (PHI) (PHI) (DLTA) (DLTA) (PI) (PI) (SG)
                 (PHI) (PHI) (DLTA) (DLTA) (PI) (PI) (SG) (SG)
                 (DLTA) (DLTA) (PI) (PI) (SG) (DLTA) (DLTA) (PI)
                 (PI) (SG) (DLTA) (DLTA) (PHI) (PHI) (PI) (PI)
                 (?A) (?A) (SG) (PI) (PI) (PHI) (PHI) (SG) (DLTA)
                 (DLTA) (PI) (PI) (SG) (SG) (PHI) (PHI) (DLTA)
                 (DLTA) (PI) (PI) (SG) (SG) (DLTA) (DLTA) (PI)
                 (PI) (SG) (SG) (SG) (PI) (PI) (SG) (SG) (SG) (SG)
                 (SG)
 The electronic state is 1-SG.
 Alpha  occ. eigenvalues -- -129.20429-100.85078 -12.96496 -10.32403 -10.32403
 Alpha  occ. eigenvalues --  -10.32365  -9.10521  -6.87825  -6.87790  -6.87790
 Alpha  occ. eigenvalues --   -1.31038  -0.70297  -0.70297  -0.70238  -0.60735
 Alpha  occ. eigenvalues --   -0.18705  -0.17877  -0.17877
 Alpha virt. eigenvalues --   -0.06213  -0.00753  -0.00753   0.00410   0.02823
 Alpha virt. eigenvalues --    0.04416   0.04416   0.05163   0.05163   0.05233
 Alpha virt. eigenvalues --    0.07681   0.07681   0.12270   0.17255   0.18820
 Alpha virt. eigenvalues --    0.18820   0.20455   0.20455   0.20712   0.20712
 Alpha virt. eigenvalues --    0.21664   0.23811   0.25551   0.25551   0.26042
 Alpha virt. eigenvalues --    0.27188   0.27188   0.29425   0.29425   0.30720
 Alpha virt. eigenvalues --    0.30720   0.37884   0.44103   0.44104   0.48560
 Alpha virt. eigenvalues --    0.52300   0.52300   0.63375   0.63633   0.63633
 Alpha virt. eigenvalues --    0.72925   0.78170   0.78172   0.82092   0.82092
 Alpha virt. eigenvalues --    0.94078   1.01778   1.18558   1.18558   1.24517
 Alpha virt. eigenvalues --    1.24517   1.31331   1.33362   1.33389   1.33389
 Alpha virt. eigenvalues --    1.39673   1.39673   1.41456   1.41456   1.47907
 Alpha virt. eigenvalues --    1.47907   1.56224   2.10043   2.10043   2.10678
 Alpha virt. eigenvalues --    2.10679   2.14229   2.14229   2.28722   2.44297
 Alpha virt. eigenvalues --    2.87766   2.87768   2.90573   2.90573   2.96949
 Alpha virt. eigenvalues --    3.32675   3.32676   3.42745   3.42745   3.46144
 Alpha virt. eigenvalues --    3.71430   3.71430   3.71633   3.71633   3.71829
 Alpha virt. eigenvalues --    3.71829   3.71997   3.71998   3.72570   3.99232
 Alpha virt. eigenvalues --    3.99232   3.99857   3.99857   4.00434   4.01169
 Alpha virt. eigenvalues --    4.01169   4.05745   4.05745   4.09958   4.41533
 Alpha virt. eigenvalues --    7.40066   7.40066   7.40305   7.40321   7.42198
 Alpha virt. eigenvalues --    7.42198   7.56820   8.38542  10.67133  10.67133
 Alpha virt. eigenvalues --   10.74513  10.74513  10.79578  14.25597  28.63500
 Alpha virt. eigenvalues --   41.63983  41.63983  41.65522  49.37466  98.08845
 Alpha virt. eigenvalues --  342.30187 526.30836
          Condensed to atoms (all electrons):
               1          2
     1  K   18.099384   0.139992
     2  Cl   0.139992  17.620631
 Mulliken charges:
               1
     1  K    0.760623
     2  Cl  -0.760623
 Sum of Mulliken charges =  -0.00000
 Mulliken charges with hydrogens summed into heavy atoms:
               1
     1  K    0.760623
     2  Cl  -0.760623
 Electronic spatial extent (au):  <R**2>=            286.0191
 Charge=             -0.0000 electrons
 Dipole moment (field-independent basis, Debye):
    X=              0.0000    Y=              0.0000    Z=              9.9404  Tot=              9.9404
 Quadrupole moment (field-independent basis, Debye-Ang):
   XX=            -25.3624   YY=            -25.3624   ZZ=            -24.4597
   XY=              0.0000   XZ=              0.0000   YZ=              0.0000
 Traceless Quadrupole moment (field-independent basis, Debye-Ang):
   XX=             -0.3009   YY=             -0.3009   ZZ=              0.6018
   XY=              0.0000   XZ=              0.0000   YZ=              0.0000
 Octapole moment (field-independent basis, Debye-Ang**2):
  XXX=              0.0000  YYY=              0.0000  ZZZ=             41.1273  XYY=              0.0000
  XXY=              0.0000  XXZ=             10.0451  XZZ=              0.0000  YZZ=              0.0000
  YYZ=             10.0451  XYZ=              0.0000
 Hexadecapole moment (field-independent basis, Debye-Ang**3):
 XXXX=            -32.0740 YYYY=            -32.0740 ZZZZ=           -297.8209 XXXY=              0.0000
 XXXZ=              0.0000 YYYX=              0.0000 YYYZ=              0.0000 ZZZX=              0.0000
 ZZZY=              0.0000 XXYY=            -10.6913 XXZZ=            -54.5446 YYZZ=            -54.5446
 XXYZ=              0.0000 YYXZ=              0.0000 ZZXY=              0.0000
 N-N= 6.377848941723D+01 E-N=-2.647945392774D+03  KE= 1.058479606230D+03
 Symmetry A1   KE= 8.424576409839D+02
 Symmetry A2   KE= 5.274818203642D-46
 Symmetry B1   KE= 1.080109826233D+02
 Symmetry B2   KE= 1.080109826233D+02
 Unable to Open any file for archive entry.
 1\1\GINC-TCOPT10\FOpt\RTPSSTPSS\def2QZVPP\Cl1K1\HUTTER\31-Jul-2021\0\\
 #N RTPSSTPSS/Def2QZVPP scf=tight Int(Grid=ultrafine) OPT FREQ\\Mol job
  1\\0,1\K,9.,9.,7.6600165613\Cl,9.,9.,10.3399834387\\Version=ES64L-G16
 RevC.01\State=1-SG\HF=-1060.2812578\RMSD=8.195e-09\RMSF=1.962e-05\Dipo
 le=0.,0.,-3.9108637\Quadrupole=-0.2237204,-0.2237204,0.4474409,0.,0.,0
 .\PG=C*V [C*(Cl1K1)]\\@
 The archive entry for this job was punched.


 TELEVISION IS CALLED A MEDIUM BECAUSE IT ISN'T
 RARE, AND IT ISN'T WELL DONE.
 Job cpu time:       0 days  0 hours  3 minutes 21.8 seconds.
 Elapsed time:       0 days  0 hours  0 minutes 32.8 seconds.
 File lengths (MBytes):  RWF=     15 Int=      0 D2E=      0 Chk=      3 Scr=      1
 Normal termination of Gaussian 16 at Sat Jul 31 23:37:36 2021.
 Link1:  Proceeding to internal job step number  2.
 ----------------------------------------------------------------------
 #N Geom=AllCheck Guess=TCheck SCRF=Check GenChk RTPSSTPSS/def2QZVPP Fr
 eq
 ----------------------------------------------------------------------
 1/10=4,29=7,30=1,38=1,40=1/1,3;
 2/12=2,40=1/2;
 3/5=45,7=202,11=2,14=-4,25=1,30=1,70=2,71=2,74=2523,75=-5,116=1,140=1/1,2,3;
 4/5=101/1;
 5/5=2,32=2,38=6,98=1/2;
 8/6=4,10=90,11=11/1;
 11/6=1,8=1,9=11,15=111,16=1/1,2,10;
 10/6=1/2;
 6/7=2,8=2,9=2,10=2,28=1/1;
 7/8=1,10=1,25=1/1,2,3,16;
 1/10=4,30=1/3;
 99//99;
 Structure from the checkpoint file:  "/data/hutter/SMG16/TPSS/Gau-60325.chk"
 ---------
 Mol job 1
 ---------
 Charge =  0 Multiplicity = 1
 Redundant internal coordinates found in file.  (old form).
 K,0,9.,9.,7.6600165613
 Cl,0,9.,9.,10.3399834387
 Recover connectivity data from disk.

 GradGradGradGradGradGradGradGradGradGradGradGradGradGradGradGradGradGrad
 Berny optimization.
 Initialization pass.
                           ----------------------------
                           !    Initial Parameters    !
                           ! (Angstroms and Degrees)  !
 --------------------------                            --------------------------
 ! Name  Definition              Value          Derivative Info.                !
 --------------------------------------------------------------------------------
 ! R1    R(1,2)                  2.68           calculate D2E/DX2 analytically  !
 --------------------------------------------------------------------------------
 Trust Radius=3.00D-01 FncErr=1.00D-07 GrdErr=1.00D-07 EigMax=2.50D+02 EigMin=1.00D-04
 Number of steps in this run=      2 maximum allowed number of steps=      2.
 GradGradGradGradGradGradGradGradGradGradGradGradGradGradGradGradGradGrad

                          Input orientation:                          
 ---------------------------------------------------------------------
 Center     Atomic      Atomic             Coordinates (Angstroms)
 Number     Number       Type             X           Y           Z
 ---------------------------------------------------------------------
      1         19           0        9.000000    9.000000    7.660017
      2         17           0        9.000000    9.000000   10.339983
 ---------------------------------------------------------------------
 Stoichiometry    ClK
 Framework group  C*V[C*(ClK)]
 Deg. of freedom     1
 Full point group                 C*V     NOp   4
 Largest Abelian subgroup         C2V     NOp   4
 Largest concise Abelian subgroup C1      NOp   1
                         Standard orientation:                         
 ---------------------------------------------------------------------
 Center     Atomic      Atomic             Coordinates (Angstroms)
 Number     Number       Type             X           Y           Z
 ---------------------------------------------------------------------
      1         19           0        0.000000    0.000000    1.265540
      2         17           0        0.000000    0.000000   -1.414427
 ---------------------------------------------------------------------
 Rotational constants (GHZ):           0.0000000           3.8181451           3.8181451
 Standard basis: def2QZVPP (5D, 7F)
 There are    77 symmetry adapted cartesian basis functions of A1  symmetry.
 There are    16 symmetry adapted cartesian basis functions of A2  symmetry.
 There are    38 symmetry adapted cartesian basis functions of B1  symmetry.
 There are    38 symmetry adapted cartesian basis functions of B2  symmetry.
 There are    61 symmetry adapted basis functions of A1  symmetry.
 There are    15 symmetry adapted basis functions of A2  symmetry.
 There are    32 symmetry adapted basis functions of B1  symmetry.
 There are    32 symmetry adapted basis functions of B2  symmetry.
   140 basis functions,   253 primitive gaussians,   169 cartesian basis functions
    18 alpha electrons       18 beta electrons
       nuclear repulsion energy        63.7784894172 Hartrees.
 NAtoms=    2 NActive=    2 NUniq=    2 SFac= 1.00D+00 NAtFMM=   60 NAOKFM=F Big=F
 Integral buffers will be    131072 words long.
 Raffenetti 2 integral format.
 Two-electron integral symmetry is turned on.
 One-electron integrals computed using PRISM.
   4 Symmetry operations used in ECPInt.
 ECPInt:  NShTT=    1081 NPrTT=    4279 LenC2=    1048 LenP2D=    3520.
 LDataN:  DoStor=T MaxTD1= 8 Len=  415
 NBasis=   140 RedAO= T EigKep=  1.33D-03  NBF=    61    15    32    32
 NBsUse=   140 1.00D-06 EigRej= -1.00D+00 NBFU=    61    15    32    32
 Initial guess from the checkpoint file:  "/data/hutter/SMG16/TPSS/Gau-60325.chk"
 B after Tr=     0.000000    0.000000    0.000000
         Rot=    1.000000    0.000000    0.000000    0.000000 Ang=   0.00 deg.
 Initial guess orbital symmetries:
       Occupied  (SG) (SG) (SG) (PI) (PI) (SG) (SG) (SG) (PI) (PI)
                 (SG) (PI) (PI) (SG) (SG) (SG) (PI) (PI)
       Virtual   (SG) (PI) (PI) (SG) (SG) (PI) (PI) (DLTA) (DLTA)
                 (SG) (PI) (PI) (SG) (SG) (PI) (PI) (PI) (PI) (DLTA)
                 (DLTA) (SG) (SG) (DLTA) (DLTA) (SG) (PHI) (PHI)
                 (PI) (PI) (PI) (PI) (SG) (DLTA) (DLTA) (SG) (PI)
                 (PI) (SG) (PI) (PI) (SG) (DLTA) (DLTA) (PI) (PI)
                 (SG) (SG) (PI) (PI) (DLTA) (DLTA) (SG) (SG) (PI)
                 (PI) (PHI) (PHI) (DLTA) (DLTA) (PI) (PI) (SG)
                 (PHI) (PHI) (DLTA) (DLTA) (PI) (PI) (SG) (SG)
                 (DLTA) (DLTA) (PI) (PI) (SG) (DLTA) (DLTA) (PI)
                 (PI) (SG) (DLTA) (DLTA) (PHI) (PHI) (PI) (PI)
                 (?A) (?A) (SG) (PI) (PI) (PHI) (PHI) (SG) (DLTA)
                 (DLTA) (PI) (PI) (SG) (SG) (PHI) (PHI) (DLTA)
                 (DLTA) (PI) (PI) (SG) (SG) (DLTA) (DLTA) (PI)
                 (PI) (SG) (SG) (SG) (PI) (PI) (SG) (SG) (SG) (SG)
                 (SG)
 Keep J ints in memory in symmetry-blocked form, NReq=61242609.
 Requested convergence on RMS density matrix=1.00D-08 within 128 cycles.
 Requested convergence on MAX density matrix=1.00D-06.
 Requested convergence on             energy=1.00D-06.
 No special actions if energy rises.
 SCF Done:  E(RTPSS-TPSS) =  -1060.28125784     A.U. after    1 cycles
            NFock=  1  Conv=0.11D-08     -V/T= 2.0017
 DoSCS=F DFT=T ScalE2(SS,OS)=  1.000000  1.000000
 Range of M.O.s used for correlation:     1   140
 NBasis=   140 NAE=    18 NBE=    18 NFC=     0 NFV=     0
 NROrb=    140 NOA=    18 NOB=    18 NVA=   122 NVB=   122

 **** Warning!!: The largest alpha MO coefficient is  0.10251483D+02

   4 Symmetry operations used in ECPInt.
 ECPInt:  NShTT=    1081 NPrTT=    4279 LenC2=    1048 LenP2D=    3520.
 LDataN:  DoStor=T MaxTD1= 9 Len=  602
 Symmetrizing basis deriv contribution to polar:
 IMax=3 JMax=2 DiffMx= 0.00D+00
 G2DrvN: will do     3 centers at a time, making    1 passes.
 Calling FoFCou, ICntrl=  3507 FMM=F I1Cent=   0 AccDes= 0.00D+00.
 End of G2Drv F.D. properties file   721 does not exist.
 End of G2Drv F.D. properties file   722 does not exist.
 End of G2Drv F.D. properties file   788 does not exist.
          IDoAtm=11
          Differentiating once with respect to electric field.
                with respect to dipole field.
          Differentiating once with respect to nuclear coordinates.
 Keep J ints in memory in symmetry-blocked form, NReq=61243990.
          There are     9 degrees of freedom in the 1st order CPHF.  IDoFFX=6 NUNeed=     3.
      6 vectors produced by pass  0 Test12= 2.44D-14 1.11D-08 XBig12= 7.27D+01 6.12D+00.
 AX will form     6 AO Fock derivatives at one time.
      6 vectors produced by pass  1 Test12= 2.44D-14 1.11D-08 XBig12= 1.32D+01 1.12D+00.
      6 vectors produced by pass  2 Test12= 2.44D-14 1.11D-08 XBig12= 4.11D-01 1.91D-01.
      6 vectors produced by pass  3 Test12= 2.44D-14 1.11D-08 XBig12= 5.58D-02 7.91D-02.
      6 vectors produced by pass  4 Test12= 2.44D-14 1.11D-08 XBig12= 4.28D-04 6.90D-03.
      6 vectors produced by pass  5 Test12= 2.44D-14 1.11D-08 XBig12= 2.92D-06 4.58D-04.
      4 vectors produced by pass  6 Test12= 2.44D-14 1.11D-08 XBig12= 2.48D-08 3.92D-05.
      4 vectors produced by pass  7 Test12= 2.44D-14 1.11D-08 XBig12= 2.57D-10 4.08D-06.
      1 vectors produced by pass  8 Test12= 2.44D-14 1.11D-08 XBig12= 3.38D-13 1.67D-07.
 InvSVY:  IOpt=1 It=  1 EMax= 4.44D-16
 Solved reduced A of dimension    45 with     6 vectors.
 Isotropic polarizability for W=    0.000000       36.85 Bohr**3.
 End of Minotr F.D. properties file   721 does not exist.
 End of Minotr F.D. properties file   722 does not exist.
 End of Minotr F.D. properties file   788 does not exist.

 **********************************************************************

            Population analysis using the SCF Density.

 **********************************************************************

 Orbital symmetries:
       Occupied  (SG) (SG) (SG) (PI) (PI) (SG) (SG) (SG) (PI) (PI)
                 (SG) (PI) (PI) (SG) (SG) (SG) (PI) (PI)
       Virtual   (SG) (PI) (PI) (SG) (SG) (PI) (PI) (DLTA) (DLTA)
                 (SG) (PI) (PI) (SG) (SG) (PI) (PI) (PI) (PI) (DLTA)
                 (DLTA) (SG) (SG) (DLTA) (DLTA) (SG) (PHI) (PHI)
                 (PI) (PI) (PI) (PI) (SG) (DLTA) (DLTA) (SG) (PI)
                 (PI) (SG) (PI) (PI) (SG) (DLTA) (DLTA) (PI) (PI)
                 (SG) (SG) (PI) (PI) (DLTA) (DLTA) (SG) (SG) (PI)
                 (PI) (PHI) (PHI) (DLTA) (DLTA) (PI) (PI) (SG)
                 (PHI) (PHI) (DLTA) (DLTA) (PI) (PI) (SG) (SG)
                 (DLTA) (DLTA) (PI) (PI) (SG) (DLTA) (DLTA) (PI)
                 (PI) (SG) (DLTA) (DLTA) (PHI) (PHI) (PI) (PI)
                 (?A) (?A) (SG) (PI) (PI) (PHI) (PHI) (SG) (DLTA)
                 (DLTA) (PI) (PI) (SG) (SG) (PHI) (PHI) (DLTA)
                 (DLTA) (PI) (PI) (SG) (SG) (DLTA) (DLTA) (PI)
                 (PI) (SG) (SG) (SG) (PI) (PI) (SG) (SG) (SG) (SG)
                 (SG)
 The electronic state is 1-SG.
 Alpha  occ. eigenvalues -- -129.20429-100.85078 -12.96496 -10.32403 -10.32403
 Alpha  occ. eigenvalues --  -10.32365  -9.10521  -6.87825  -6.87790  -6.87790
 Alpha  occ. eigenvalues --   -1.31038  -0.70297  -0.70297  -0.70238  -0.60735
 Alpha  occ. eigenvalues --   -0.18705  -0.17877  -0.17877
 Alpha virt. eigenvalues --   -0.06213  -0.00753  -0.00753   0.00410   0.02823
 Alpha virt. eigenvalues --    0.04416   0.04416   0.05163   0.05163   0.05233
 Alpha virt. eigenvalues --    0.07681   0.07681   0.12270   0.17255   0.18820
 Alpha virt. eigenvalues --    0.18820   0.20455   0.20455   0.20712   0.20712
 Alpha virt. eigenvalues --    0.21664   0.23811   0.25551   0.25551   0.26042
 Alpha virt. eigenvalues --    0.27188   0.27188   0.29425   0.29425   0.30720
 Alpha virt. eigenvalues --    0.30720   0.37884   0.44103   0.44104   0.48560
 Alpha virt. eigenvalues --    0.52300   0.52300   0.63375   0.63633   0.63633
 Alpha virt. eigenvalues --    0.72925   0.78170   0.78172   0.82092   0.82092
 Alpha virt. eigenvalues --    0.94078   1.01778   1.18558   1.18558   1.24517
 Alpha virt. eigenvalues --    1.24517   1.31331   1.33362   1.33389   1.33389
 Alpha virt. eigenvalues --    1.39673   1.39673   1.41456   1.41456   1.47907
 Alpha virt. eigenvalues --    1.47907   1.56224   2.10043   2.10043   2.10678
 Alpha virt. eigenvalues --    2.10679   2.14229   2.14229   2.28722   2.44297
 Alpha virt. eigenvalues --    2.87766   2.87768   2.90573   2.90573   2.96949
 Alpha virt. eigenvalues --    3.32675   3.32676   3.42745   3.42745   3.46144
 Alpha virt. eigenvalues --    3.71430   3.71430   3.71633   3.71633   3.71829
 Alpha virt. eigenvalues --    3.71829   3.71997   3.71998   3.72570   3.99232
 Alpha virt. eigenvalues --    3.99232   3.99857   3.99857   4.00434   4.01169
 Alpha virt. eigenvalues --    4.01169   4.05745   4.05745   4.09958   4.41533
 Alpha virt. eigenvalues --    7.40066   7.40066   7.40305   7.40321   7.42198
 Alpha virt. eigenvalues --    7.42198   7.56820   8.38542  10.67133  10.67133
 Alpha virt. eigenvalues --   10.74513  10.74513  10.79578  14.25597  28.63500
 Alpha virt. eigenvalues --   41.63983  41.63983  41.65522  49.37466  98.08845
 Alpha virt. eigenvalues --  342.30187 526.30836
          Condensed to atoms (all electrons):
               1          2
     1  K   18.099384   0.139992
     2  Cl   0.139992  17.620631
 Mulliken charges:
               1
     1  K    0.760624
     2  Cl  -0.760624
 Sum of Mulliken charges =   0.00000
 Mulliken charges with hydrogens summed into heavy atoms:
               1
     1  K    0.760624
     2  Cl  -0.760624
 APT charges:
               1
     1  K    0.852038
     2  Cl  -0.852038
 Sum of APT charges =  -0.00000
 APT charges with hydrogens summed into heavy atoms:
               1
     1  K    0.852038
     2  Cl  -0.852038
 Electronic spatial extent (au):  <R**2>=            286.0191
 Charge=              0.0000 electrons
 Dipole moment (field-independent basis, Debye):
    X=              0.0000    Y=              0.0000    Z=              9.9404  Tot=              9.9404
 Quadrupole moment (field-independent basis, Debye-Ang):
   XX=            -25.3624   YY=            -25.3624   ZZ=            -24.4597
   XY=              0.0000   XZ=              0.0000   YZ=              0.0000
 Traceless Quadrupole moment (field-independent basis, Debye-Ang):
   XX=             -0.3009   YY=             -0.3009   ZZ=              0.6018
   XY=              0.0000   XZ=              0.0000   YZ=              0.0000
 Octapole moment (field-independent basis, Debye-Ang**2):
  XXX=              0.0000  YYY=              0.0000  ZZZ=             41.1272  XYY=              0.0000
  XXY=              0.0000  XXZ=             10.0451  XZZ=              0.0000  YZZ=              0.0000
  YYZ=             10.0451  XYZ=              0.0000
 Hexadecapole moment (field-independent basis, Debye-Ang**3):
 XXXX=            -32.0740 YYYY=            -32.0740 ZZZZ=           -297.8208 XXXY=              0.0000
 XXXZ=              0.0000 YYYX=              0.0000 YYYZ=              0.0000 ZZZX=              0.0000
 ZZZY=              0.0000 XXYY=            -10.6913 XXZZ=            -54.5446 YYZZ=            -54.5446
 XXYZ=              0.0000 YYXZ=              0.0000 ZZXY=              0.0000
 N-N= 6.377848941723D+01 E-N=-2.647945397581D+03  KE= 1.058479608040D+03
 Symmetry A1   KE= 8.424576418631D+02
 Symmetry A2   KE= 5.274887365061D-46
 Symmetry B1   KE= 1.080109830886D+02
 Symmetry B2   KE= 1.080109830886D+02
  Exact polarizability:      31.409      -0.000      31.409       0.000       0.000      47.736
 Approx polarizability:      47.674      -0.000      47.674      -0.000      -0.000      70.882
   4 Symmetry operations used in ECPInt.
 ECPInt:  NShTT=    1081 NPrTT=    4279 LenC2=    1048 LenP2D=    3520.
 LDataN:  DoStor=T MaxTD1=10 Len=  848
 Calling FoFJK, ICntrl=    100527 FMM=F ISym2X=1 I1Cent= 0 IOpClX= 0 NMat=1 NMatS=1 NMatT=0.
 Full mass-weighted force constant matrix:
 Low frequencies ---    0.0028    0.0059    0.0059    6.1650    6.1650  272.7556
 Diagonal vibrational polarizability:
        0.0000000       0.0000000      19.5813778
 Harmonic frequencies (cm**-1), IR intensities (KM/Mole), Raman scattering
 activities (A**4/AMU), depolarization ratios for plane and unpolarized
 incident light, reduced masses (AMU), force constants (mDyne/A),
 and normal coordinates:
                      1
                     SG
 Frequencies --    272.7556
 Red. masses --     36.7511
 Frc consts  --      1.6109
 IR Inten    --     54.1324
  Atom  AN      X      Y      Z
     1  19    -0.00  -0.00  -0.67
     2  17    -0.00  -0.00   0.74

 -------------------
 - Thermochemistry -
 -------------------
 Temperature   298.150 Kelvin.  Pressure   1.00000 Atm.
 Atom     1 has atomic number 19 and mass  38.96371
 Atom     2 has atomic number 17 and mass  34.96885
 Molecular mass:    73.93256 amu.
 Principal axes and moments of inertia in atomic units:
                           1         2         3
     Eigenvalues --     0.00000 472.67486 472.67486
           X            0.00000  -0.00000   1.00000
           Y            0.00000   1.00000   0.00000
           Z            1.00000   0.00000   0.00000
 This molecule is a prolate symmetric top.
 Rotational symmetry number  1.
 Warning -- assumption of classical behavior for rotation
           may cause significant error
 Rotational temperature (Kelvin)      0.18324
 Rotational constant (GHZ):           3.818145
 Zero-point vibrational energy       1631.4 (Joules/Mol)
                                    0.38992 (Kcal/Mol)
 Warning -- explicit consideration of   1 degrees of freedom as
           vibrations may cause significant error
 Vibrational temperatures:    392.43
          (Kelvin)
 
 Zero-point correction=                           0.000621 (Hartree/Particle)
 Thermal correction to Energy=                    0.003437
 Thermal correction to Enthalpy=                  0.004381
 Thermal correction to Gibbs Free Energy=        -0.022738
 Sum of electronic and zero-point Energies=          -1060.280636
 Sum of electronic and thermal Energies=             -1060.277821
 Sum of electronic and thermal Enthalpies=           -1060.276876
 Sum of electronic and thermal Free Energies=        -1060.303996
 
                     E (Thermal)             CV                S
                      KCal/Mol        Cal/Mol-Kelvin    Cal/Mol-Kelvin
 Total                    2.157              6.692             57.078
 Electronic               0.000              0.000              0.000
 Translational            0.889              2.981             38.818
 Rotational               0.592              1.987             16.682
 Vibrational              0.676              1.724              1.579
 Vibration     1          0.676              1.724              1.579
                       Q            Log10(Q)             Ln(Q)
 Total Bot       0.287657D+11         10.458875         24.082450
 Total V=0       0.555509D+11         10.744691         24.740566
 Vib (Bot)       0.707552D+00         -0.150242         -0.345945
 Vib (Bot)    1  0.707552D+00         -0.150242         -0.345945
 Vib (V=0)       0.136639D+01          0.135574          0.312171
 Vib (V=0)    1  0.136639D+01          0.135574          0.312171
 Electronic      0.100000D+01          0.000000          0.000000
 Translational   0.249866D+08          7.397708         17.033851
 Rotational      0.162708D+04          3.211410          7.394544
 ***** Axes restored to original set *****
 -------------------------------------------------------------------
 Center     Atomic                   Forces (Hartrees/Bohr)
 Number     Number              X              Y              Z
 -------------------------------------------------------------------
      1       19          -0.000000000   -0.000000000    0.000033979
      2       17          -0.000000000   -0.000000000   -0.000033979
 -------------------------------------------------------------------
 Cartesian Forces:  Max     0.000033979 RMS     0.000019618
 FormGI is forming the generalized inverse of G from B-inverse, IUseBI=4.

 GradGradGradGradGradGradGradGradGradGradGradGradGradGradGradGradGradGrad
 Berny optimization.
 Internal  Forces:  Max     0.000033979 RMS     0.000033979
 Search for a local minimum.
 Step number   1 out of a maximum of    2
 All quantities printed in internal units (Hartrees-Bohrs-Radians)
 Second derivative matrix not updated -- analytic derivatives used.
 The second derivative matrix:
                          R1
           R1           0.05189
 ITU=  0
     Eigenvalues ---    0.05189
 Angle between quadratic step and forces=   0.00 degrees.
 Linear search not attempted -- first point.
 Iteration  1 RMS(Cart)=  0.00046308 RMS(Int)=  0.00000000
 Iteration  2 RMS(Cart)=  0.00000000 RMS(Int)=  0.00000000
 ClnCor:  largest displacement from symmetrization is 0.00D+00 for atom     0.
 Variable       Old X    -DE/DX   Delta X   Delta X   Delta X     New X
                                 (Linear)    (Quad)   (Total)
    R1        5.06440  -0.00003   0.00000  -0.00065  -0.00065   5.06375
         Item               Value     Threshold  Converged?
 Maximum Force            0.000034     0.000450     YES
 RMS     Force            0.000034     0.000300     YES
 Maximum Displacement     0.000327     0.001800     YES
 RMS     Displacement     0.000463     0.001200     YES
 Predicted change in Energy=-1.112623D-08
 Optimization completed.
    -- Stationary point found.
                           ----------------------------
                           !   Optimized Parameters   !
                           ! (Angstroms and Degrees)  !
 --------------------------                            --------------------------
 ! Name  Definition              Value          Derivative Info.                !
 --------------------------------------------------------------------------------
 ! R1    R(1,2)                  2.68           -DE/DX =    0.0                 !
 --------------------------------------------------------------------------------
 GradGradGradGradGradGradGradGradGradGradGradGradGradGradGradGradGradGrad


 ----------------------------------------------------------------------

 Electric dipole moment (input orientation):
 (Debye = 10**-18 statcoulomb cm , SI units = C m)
                  (au)            (Debye)         (10**-30 SI)
   Tot        0.391086D+01      0.994042D+01      0.331577D+02
   x          0.000000D+00      0.000000D+00      0.000000D+00
   y          0.000000D+00      0.000000D+00      0.000000D+00
   z         -0.391086D+01     -0.994042D+01     -0.331577D+02

 Dipole polarizability, Alpha (input orientation).
 (esu units = cm**3 , SI units = C**2 m**2 J**-1)
 Alpha(0;0):
               (au)            (10**-24 esu)      (10**-40 SI)
   iso        0.368514D+02      0.546081D+01      0.607597D+01
   aniso      0.163266D+02      0.241935D+01      0.269188D+01
   xx         0.314092D+02      0.465437D+01      0.517868D+01
   yx         0.000000D+00      0.000000D+00      0.000000D+00
   yy         0.314092D+02      0.465437D+01      0.517868D+01
   zx         0.000000D+00      0.000000D+00      0.000000D+00
   zy         0.000000D+00      0.000000D+00      0.000000D+00
   zz         0.477358D+02      0.707371D+01      0.787056D+01

 ----------------------------------------------------------------------

 Dipole orientation:
    19         17.00753512        -17.00753512        -14.47533341
    17         17.00753512        -17.00753512        -19.53973683

 Electric dipole moment (dipole orientation):
 (Debye = 10**-18 statcoulomb cm , SI units = C m)
                  (au)            (Debye)         (10**-30 SI)
   Tot        0.391086D+01      0.994042D+01      0.331577D+02
   x          0.000000D+00      0.000000D+00      0.000000D+00
   y          0.000000D+00      0.000000D+00      0.000000D+00
   z          0.391086D+01      0.994042D+01      0.331577D+02

 Dipole polarizability, Alpha (dipole orientation).
 (esu units = cm**3 , SI units = C**2 m**2 J**-1)
 Alpha(0;0):
               (au)            (10**-24 esu)      (10**-40 SI)
   iso        0.368514D+02      0.546081D+01      0.607597D+01
   aniso      0.163266D+02      0.241935D+01      0.269188D+01
   xx         0.314092D+02      0.465437D+01      0.517868D+01
   yx         0.000000D+00      0.000000D+00      0.000000D+00
   yy         0.314092D+02      0.465437D+01      0.517868D+01
   zx         0.000000D+00      0.000000D+00      0.000000D+00
   zy         0.000000D+00      0.000000D+00      0.000000D+00
   zz         0.477358D+02      0.707371D+01      0.787056D+01

 ----------------------------------------------------------------------
 Unable to Open any file for archive entry.
 1\1\GINC-TCOPT10\Freq\RTPSSTPSS\def2QZVPP\Cl1K1\HUTTER\31-Jul-2021\0\\
 #N Geom=AllCheck Guess=TCheck SCRF=Check GenChk RTPSSTPSS/def2QZVPP Fr
 eq\\Mol job 1\\0,1\K,9.,9.,7.6600165613\Cl,9.,9.,10.3399834387\\Versio
 n=ES64L-G16RevC.01\State=1-SG\HF=-1060.2812578\RMSD=1.143e-09\RMSF=1.9
 62e-05\Thermal=0.0034372\ETot=-1060.2778207\HTot=-1060.2768765\GTot=-1
 060.3039961\Dipole=0.,0.,-3.9108638\DipoleDeriv=0.77226,0.,0.,0.,0.772
 26,0.,0.,0.,1.0115937,-0.77226,0.,0.,0.,-0.77226,0.,0.,0.,-1.0115937\P
 olar=31.4092146,0.,31.4092146,0.,0.,47.7357659\Quadrupole=-0.2237212,-
 0.2237212,0.4474424,0.,0.,0.\PG=C*V [C*(Cl1K1)]\NImag=0\\0.00002651,0.
 ,0.00002651,0.,0.,0.05188536,-0.00002651,0.,0.,0.00002651,0.,-0.000026
 51,0.,0.,0.00002651,0.,0.,-0.05188536,0.,0.,0.05188536\\0.,0.,-0.00003
 398,0.,0.,0.00003398\\\@
 The archive entry for this job was punched.


 Sometimes the fool who rushes in gets the job done.
                                    -- Al Bernstein
 Job cpu time:       0 days  0 hours  5 minutes 15.7 seconds.
 Elapsed time:       0 days  0 hours  0 minutes 45.1 seconds.
 File lengths (MBytes):  RWF=     15 Int=      0 D2E=      0 Chk=      3 Scr=      1
 Normal termination of Gaussian 16 at Sat Jul 31 23:38:22 2021.
