 Entering Gaussian System, Link 0=g16
 Initial command:
 /sw-ng/spack/opt/spack/linux-opensuse_leap15-sandybridge/pgi-18.10/gaussian-src-16-C.01-zldqaomctopxhethwccpmxmwefdscg3m/g16/l1.exe "/data/hutter/SMG16/TPSS/Gau-76535.inp" -scrdir="/data/hutter/SMG16/TPSS/"
 Entering Link 1 = /sw-ng/spack/opt/spack/linux-opensuse_leap15-sandybridge/pgi-18.10/gaussian-src-16-C.01-zldqaomctopxhethwccpmxmwefdscg3m/g16/l1.exe PID=     76543.
  
 Copyright (c) 1988-2019, Gaussian, Inc.  All Rights Reserved.
  
 This is part of the Gaussian(R) 16 program.  It is based on
 the Gaussian(R) 09 system (copyright 2009, Gaussian, Inc.),
 the Gaussian(R) 03 system (copyright 2003, Gaussian, Inc.),
 the Gaussian(R) 98 system (copyright 1998, Gaussian, Inc.),
 the Gaussian(R) 94 system (copyright 1995, Gaussian, Inc.),
 the Gaussian 92(TM) system (copyright 1992, Gaussian, Inc.),
 the Gaussian 90(TM) system (copyright 1990, Gaussian, Inc.),
 the Gaussian 88(TM) system (copyright 1988, Gaussian, Inc.),
 the Gaussian 86(TM) system (copyright 1986, Carnegie Mellon
 University), and the Gaussian 82(TM) system (copyright 1983,
 Carnegie Mellon University). Gaussian is a federally registered
 trademark of Gaussian, Inc.
  
 This software contains proprietary and confidential information,
 including trade secrets, belonging to Gaussian, Inc.
  
 This software is provided under written license and may be
 used, copied, transmitted, or stored only in accord with that
 written license.
  
 The following legend is applicable only to US Government
 contracts under FAR:
  
                    RESTRICTED RIGHTS LEGEND
  
 Use, reproduction and disclosure by the US Government is
 subject to restrictions as set forth in subparagraphs (a)
 and (c) of the Commercial Computer Software - Restricted
 Rights clause in FAR 52.227-19.
  
 Gaussian, Inc.
 340 Quinnipiac St., Bldg. 40, Wallingford CT 06492
  
  
 ---------------------------------------------------------------
 Warning -- This program may not be used in any manner that
 competes with the business of Gaussian, Inc. or will provide
 assistance to any competitor of Gaussian, Inc.  The licensee
 of this program is prohibited from giving any competitor of
 Gaussian, Inc. access to this program.  By using this program,
 the user acknowledges that Gaussian, Inc. is engaged in the
 business of creating and licensing software in the field of
 computational chemistry and represents and warrants to the
 licensee that it is not a competitor of Gaussian, Inc. and that
 it will not use this program in any manner prohibited above.
 ---------------------------------------------------------------
  

 Cite this work as:
 Gaussian 16, Revision C.01,
 M. J. Frisch, G. W. Trucks, H. B. Schlegel, G. E. Scuseria, 
 M. A. Robb, J. R. Cheeseman, G. Scalmani, V. Barone, 
 G. A. Petersson, H. Nakatsuji, X. Li, M. Caricato, A. V. Marenich, 
 J. Bloino, B. G. Janesko, R. Gomperts, B. Mennucci, H. P. Hratchian, 
 J. V. Ortiz, A. F. Izmaylov, J. L. Sonnenberg, D. Williams-Young, 
 F. Ding, F. Lipparini, F. Egidi, J. Goings, B. Peng, A. Petrone, 
 T. Henderson, D. Ranasinghe, V. G. Zakrzewski, J. Gao, N. Rega, 
 G. Zheng, W. Liang, M. Hada, M. Ehara, K. Toyota, R. Fukuda, 
 J. Hasegawa, M. Ishida, T. Nakajima, Y. Honda, O. Kitao, H. Nakai, 
 T. Vreven, K. Throssell, J. A. Montgomery, Jr., J. E. Peralta, 
 F. Ogliaro, M. J. Bearpark, J. J. Heyd, E. N. Brothers, K. N. Kudin, 
 V. N. Staroverov, T. A. Keith, R. Kobayashi, J. Normand, 
 K. Raghavachari, A. P. Rendell, J. C. Burant, S. S. Iyengar, 
 J. Tomasi, M. Cossi, J. M. Millam, M. Klene, C. Adamo, R. Cammi, 
 J. W. Ochterski, R. L. Martin, K. Morokuma, O. Farkas, 
 J. B. Foresman, and D. J. Fox, Gaussian, Inc., Wallingford CT, 2019.
 
 ******************************************
 Gaussian 16:  ES64L-G16RevC.01  3-Jul-2019
                 1-Aug-2021 
 ******************************************
 %mem=8GB
 %NProcShare=8
 Will use up to    8 processors via shared memory.
 -------------------------------------------------------------
 #N RTPSSTPSS/Def2QZVPP scf=tight Int(Grid=ultrafine) OPT FREQ
 -------------------------------------------------------------
 1/18=20,19=15,26=4,38=1/1,3;
 2/9=110,12=2,17=6,18=5,40=1/2;
 3/5=45,7=202,11=2,25=1,30=1,71=1,74=2523,75=-5,116=1/1,2,3;
 4//1;
 5/5=2,32=2,38=5/2;
 6/7=2,8=2,9=2,10=2,28=1/1;
 7//1,2,3,16;
 1/18=20,19=15,26=4/3(2);
 2/9=110/2;
 99//99;
 2/9=110/2;
 3/5=45,7=202,11=2,25=1,30=1,71=1,74=2523,75=-5,116=1/1,2,3;
 4/5=5,16=3,69=1/1;
 5/5=2,32=2,38=5/2;
 7//1,2,3,16;
 1/18=20,19=15,26=4/3(-5);
 2/9=110/2;
 6/7=2,8=2,9=2,10=2,19=2,28=1/1;
 99/9=1/99;
 ---------
 Mol job 1
 ---------
 Symbolic Z-matrix:
 Charge =  0 Multiplicity = 1
 N                     8.01517   8.01517   8.01516 
 N                     6.98486   8.01513   6.98485 
 N                     6.98483   6.98483   8.01515 
 N                     8.01514   6.98485   6.98484 
 

 GradGradGradGradGradGradGradGradGradGradGradGradGradGradGradGradGradGrad
 Berny optimization.
 Initialization pass.
                           ----------------------------
                           !    Initial Parameters    !
                           ! (Angstroms and Degrees)  !
 --------------------------                            --------------------------
 ! Name  Definition              Value          Derivative Info.                !
 --------------------------------------------------------------------------------
 ! R1    R(1,2)                  1.4571         estimate D2E/DX2                !
 ! R2    R(1,3)                  1.4571         estimate D2E/DX2                !
 ! R3    R(1,4)                  1.4571         estimate D2E/DX2                !
 ! R4    R(2,3)                  1.4571         estimate D2E/DX2                !
 ! R5    R(2,4)                  1.457          estimate D2E/DX2                !
 ! R6    R(3,4)                  1.4571         estimate D2E/DX2                !
 ! D1    D(2,1,3,4)             70.5272         estimate D2E/DX2                !
 --------------------------------------------------------------------------------
 Trust Radius=3.00D-01 FncErr=1.00D-07 GrdErr=1.00D-06 EigMax=2.50D+02 EigMin=1.00D-04
 Number of steps in this run=     20 maximum allowed number of steps=    100.
 GradGradGradGradGradGradGradGradGradGradGradGradGradGradGradGradGradGrad

                          Input orientation:                          
 ---------------------------------------------------------------------
 Center     Atomic      Atomic             Coordinates (Angstroms)
 Number     Number       Type             X           Y           Z
 ---------------------------------------------------------------------
      1          7           0        8.015167    8.015167    8.015158
      2          7           0        6.984860    8.015128    6.984851
      3          7           0        6.984833    6.984833    8.015146
      4          7           0        8.015136    6.984852    6.984842
 ---------------------------------------------------------------------
                    Distance matrix (angstroms):
                    1          2          3          4
     1  N    0.000000
     2  N    1.457074   0.000000
     3  N    1.457113   1.457057   0.000000
     4  N    1.457086   1.457030   1.457069   0.000000
 Stoichiometry    N4
 Framework group  C1[X(N4)]
 Deg. of freedom     6
 Full point group                 C1      NOp   1
 Largest Abelian subgroup         C1      NOp   1
 Largest concise Abelian subgroup C1      NOp   1
                         Standard orientation:                         
 ---------------------------------------------------------------------
 Center     Atomic      Atomic             Coordinates (Angstroms)
 Number     Number       Type             X           Y           Z
 ---------------------------------------------------------------------
      1          7           0       -0.838773    0.293760   -0.079712
      2          7           0        0.117977   -0.345645    0.814075
      3          7           0        0.565778    0.679553   -0.119444
      4          7           0        0.155018   -0.627669   -0.614919
 ---------------------------------------------------------------------
 Rotational constants (GHZ):          16.9998682          16.9993314          16.9988442
 Standard basis: def2QZVPP (5D, 7F)
 There are   288 symmetry adapted cartesian basis functions of A   symmetry.
 There are   228 symmetry adapted basis functions of A   symmetry.
   228 basis functions,   368 primitive gaussians,   288 cartesian basis functions
    14 alpha electrons       14 beta electrons
       nuclear repulsion energy       106.7745345645 Hartrees.
 NAtoms=    4 NActive=    4 NUniq=    4 SFac= 1.00D+00 NAtFMM=   60 NAOKFM=F Big=F
 Integral buffers will be    131072 words long.
 Raffenetti 2 integral format.
 Two-electron integral symmetry is turned on.
 One-electron integrals computed using PRISM.
   1 Symmetry operations used in ECPInt.
 ECPInt:  NShTT=    2346 NPrTT=    6942 LenC2=    2323 LenP2D=    5922.
 LDataN:  DoStor=T MaxTD1= 8 Len=  415
 NBasis=   228 RedAO= T EigKep=  2.97D-04  NBF=   228
 NBsUse=   228 1.00D-06 EigRej= -1.00D+00 NBFU=   228
 ExpMin= 1.07D-01 ExpMax= 9.07D+04 ExpMxC= 8.76D+02 IAcc=3 IRadAn=         5 AccDes= 0.00D+00
 Harris functional with IExCor= 1009 and IRadAn=       5 diagonalized for initial guess.
 HarFok:  IExCor= 1009 AccDes= 0.00D+00 IRadAn=         5 IDoV= 1 UseB2=F ITyADJ=14
 ICtDFT=  3500011 ScaDFX=  1.000000  1.000000  1.000000  1.000000
 FoFCou: FMM=F IPFlag=           0 FMFlag=      100000 FMFlg1=           0
         NFxFlg=           0 DoJE=T BraDBF=F KetDBF=T FulRan=T
         wScrn=  0.000000 ICntrl=       500 IOpCl=  0 I1Cent=   200000004 NGrid=           0
         NMat0=    1 NMatS0=      1 NMatT0=    0 NMatD0=    1 NMtDS0=    0 NMtDT0=    0
 Petite list used in FoFCou.
 Keep J ints in memory in canonical form, NReq=352844491.
 Requested convergence on RMS density matrix=1.00D-08 within 128 cycles.
 Requested convergence on MAX density matrix=1.00D-06.
 Requested convergence on             energy=1.00D-06.
 No special actions if energy rises.
 Integral accuracy reduced to 1.0D-05 until final iterations.
 Initial convergence to 1.0D-05 achieved.  Increase integral accuracy.
 SCF Done:  E(RTPSS-TPSS) =  -218.938136686     A.U. after    9 cycles
            NFock=  9  Conv=0.46D-08     -V/T= 2.0037

 **********************************************************************

            Population analysis using the SCF Density.

 **********************************************************************

 Orbital symmetries:
       Occupied  (A) (A) (A) (A) (A) (A) (A) (A) (A) (A) (A) (A)
                 (A) (A)
       Virtual   (A) (A) (A) (A) (A) (A) (A) (A) (A) (A) (A) (A)
                 (A) (A) (A) (A) (A) (A) (A) (A) (A) (A) (A) (A)
                 (A) (A) (A) (A) (A) (A) (A) (A) (A) (A) (A) (A)
                 (A) (A) (A) (A) (A) (A) (A) (A) (A) (A) (A) (A)
                 (A) (A) (A) (A) (A) (A) (A) (A) (A) (A) (A) (A)
                 (A) (A) (A) (A) (A) (A) (A) (A) (A) (A) (A) (A)
                 (A) (A) (A) (A) (A) (A) (A) (A) (A) (A) (A) (A)
                 (A) (A) (A) (A) (A) (A) (A) (A) (A) (A) (A) (A)
                 (A) (A) (A) (A) (A) (A) (A) (A) (A) (A) (A) (A)
                 (A) (A) (A) (A) (A) (A) (A) (A) (A) (A) (A) (A)
                 (A) (A) (A) (A) (A) (A) (A) (A) (A) (A) (A) (A)
                 (A) (A) (A) (A) (A) (A) (A) (A) (A) (A) (A) (A)
                 (A) (A) (A) (A) (A) (A) (A) (A) (A) (A) (A) (A)
                 (A) (A) (A) (A) (A) (A) (A) (A) (A) (A) (A) (A)
                 (A) (A) (A) (A) (A) (A) (A) (A) (A) (A) (A) (A)
                 (A) (A) (A) (A) (A) (A) (A) (A) (A) (A) (A) (A)
                 (A) (A) (A) (A) (A) (A) (A) (A) (A) (A) (A) (A)
                 (A) (A) (A) (A) (A) (A) (A) (A) (A) (A)
 The electronic state is 1-A.
 Alpha  occ. eigenvalues --  -14.24990 -14.24985 -14.24985 -14.24985  -1.23711
 Alpha  occ. eigenvalues --   -0.72441  -0.72440  -0.72439  -0.45782  -0.37204
 Alpha  occ. eigenvalues --   -0.37203  -0.37202  -0.36046  -0.36046
 Alpha virt. eigenvalues --   -0.02049  -0.02048  -0.02047   0.01776   0.01778
 Alpha virt. eigenvalues --    0.01779   0.13840   0.18420   0.18421   0.18422
 Alpha virt. eigenvalues --    0.21952   0.21952   0.23325   0.23326   0.23327
 Alpha virt. eigenvalues --    0.33412   0.33412   0.33412   0.37869   0.51703
 Alpha virt. eigenvalues --    0.51704   0.51704   0.63710   0.63711   0.63712
 Alpha virt. eigenvalues --    0.81263   0.95240   0.95240   0.95491   0.95492
 Alpha virt. eigenvalues --    0.95493   0.96871   0.96871   1.03016   1.03016
 Alpha virt. eigenvalues --    1.03017   1.04727   1.04727   1.04728   1.13845
 Alpha virt. eigenvalues --    1.13845   1.13846   1.31989   1.31989   1.31989
 Alpha virt. eigenvalues --    1.42859   1.45678   1.45678   1.47149   1.47149
 Alpha virt. eigenvalues --    1.47150   1.59678   1.59678   1.59678   1.81251
 Alpha virt. eigenvalues --    2.05311   2.05311   2.05311   2.17223   2.32603
 Alpha virt. eigenvalues --    2.32603   2.44665   2.44666   2.44667   2.57501
 Alpha virt. eigenvalues --    2.57502   2.57503   2.68730   2.71050   2.71053
 Alpha virt. eigenvalues --    2.71056   2.80800   2.80801   2.80801   2.87550
 Alpha virt. eigenvalues --    2.87550   2.95536   2.95538   2.95539   3.13278
 Alpha virt. eigenvalues --    3.13280   3.13283   3.17573   3.17573   3.17574
 Alpha virt. eigenvalues --    3.21194   3.39966   3.39967   3.39967   3.44594
 Alpha virt. eigenvalues --    3.44595   3.53293   3.53293   3.53294   3.61406
 Alpha virt. eigenvalues --    3.61406   3.61406   3.65274   3.81350   3.81351
 Alpha virt. eigenvalues --    3.81351   3.88060   3.88061   3.88063   3.88362
 Alpha virt. eigenvalues --    3.88362   4.11440   4.11445   4.11449   4.11555
 Alpha virt. eigenvalues --    4.11555   4.23043   5.27551   5.27559   5.27568
 Alpha virt. eigenvalues --    5.67504   5.71585   5.71596   5.71606   6.06412
 Alpha virt. eigenvalues --    6.06413   6.06414   6.20601   6.43299   6.43301
 Alpha virt. eigenvalues --    6.43304   6.60925   6.60926   6.60926   6.63020
 Alpha virt. eigenvalues --    6.63020   7.07555   7.07555   7.14021   7.14027
 Alpha virt. eigenvalues --    7.14033   7.42758   7.42762   7.42767   7.74513
 Alpha virt. eigenvalues --    7.74522   7.74530   7.91984   7.91984   8.12265
 Alpha virt. eigenvalues --    8.12268   8.12271   8.13130   8.13132   8.13134
 Alpha virt. eigenvalues --    8.40829   8.41274   8.61925   8.61926   8.61928
 Alpha virt. eigenvalues --    8.62031   8.62031   8.62031   8.74830   8.74833
 Alpha virt. eigenvalues --    8.74837   8.78455   8.78457   8.78459   8.79800
 Alpha virt. eigenvalues --    8.79800   8.88613   8.88613   8.89912   8.89913
 Alpha virt. eigenvalues --    8.89913   8.91199   8.96469   8.96472   8.96474
 Alpha virt. eigenvalues --    9.05640   9.05644   9.05649   9.25290   9.45072
 Alpha virt. eigenvalues --    9.45074   9.45076   9.68793   9.68794   9.68795
 Alpha virt. eigenvalues --    9.74918  10.38696  10.38696  10.42486  10.42489
 Alpha virt. eigenvalues --   10.42492  10.44858  10.44859  10.48961  10.48969
 Alpha virt. eigenvalues --   10.48977  10.86876  10.86878  10.86880  11.12559
 Alpha virt. eigenvalues --   11.12567  11.12575  11.32103  11.95002  11.95017
 Alpha virt. eigenvalues --   11.95033  37.03765  37.23675  37.23678  37.23682
 Alpha virt. eigenvalues --  198.16425 198.38393 198.38396 198.38398
          Condensed to atoms (all electrons):
               1          2          3          4
     1  N    6.532872   0.155715   0.155712   0.155711
     2  N    0.155715   6.532849   0.155710   0.155718
     3  N    0.155712   0.155710   6.532873   0.155713
     4  N    0.155711   0.155718   0.155713   6.532849
 Mulliken charges:
               1
     1  N   -0.000010
     2  N    0.000009
     3  N   -0.000008
     4  N    0.000010
 Sum of Mulliken charges =  -0.00000
 Mulliken charges with hydrogens summed into heavy atoms:
               1
     1  N   -0.000010
     2  N    0.000009
     3  N   -0.000008
     4  N    0.000010
 Electronic spatial extent (au):  <R**2>=            128.6810
 Charge=             -0.0000 electrons
 Dipole moment (field-independent basis, Debye):
    X=              0.0000    Y=             -0.0000    Z=              0.0000  Tot=              0.0000
 Quadrupole moment (field-independent basis, Debye-Ang):
   XX=            -22.0021   YY=            -22.0023   ZZ=            -22.0024
   XY=             -0.0000   XZ=              0.0000   YZ=             -0.0000
 Traceless Quadrupole moment (field-independent basis, Debye-Ang):
   XX=              0.0002   YY=             -0.0000   ZZ=             -0.0002
   XY=             -0.0000   XZ=              0.0000   YZ=             -0.0000
 Octapole moment (field-independent basis, Debye-Ang**2):
  XXX=              1.3582  YYY=             -0.1704  ZZZ=             -1.0258  XYY=             -0.8886
  XXY=             -1.3605  XXZ=              0.3290  XZZ=             -0.4696  YZZ=              1.5308
  YYZ=              0.6968  XYZ=             -0.0012
 Hexadecapole moment (field-independent basis, Debye-Ang**3):
 XXXX=            -54.1226 YYYY=            -53.4854 ZZZZ=            -54.0715 XXXY=              0.1624
 XXXZ=             -0.0747 YYYX=             -0.3455 YYYZ=             -0.2413 ZZZX=             -0.0828
 ZZZY=              0.1280 XXYY=            -18.1025 XXZZ=            -17.5146 YYZZ=            -18.1499
 XXYZ=              0.1133 YYXZ=              0.1574 ZZXY=              0.1831
 N-N= 1.067745345645D+02 E-N=-7.253133099991D+02  KE= 2.181264562279D+02
   1 Symmetry operations used in ECPInt.
 ECPInt:  NShTT=    2346 NPrTT=    6942 LenC2=    2323 LenP2D=    5922.
 LDataN:  DoStor=T MaxTD1= 9 Len=  602
 Calling FoFJK, ICntrl=      2527 FMM=F ISym2X=0 I1Cent= 0 IOpClX= 0 NMat=1 NMatS=1 NMatT=0.
 ***** Axes restored to original set *****
 -------------------------------------------------------------------
 Center     Atomic                   Forces (Hartrees/Bohr)
 Number     Number              X              Y              Z
 -------------------------------------------------------------------
      1        7           0.001873626    0.001869040    0.001882026
      2        7          -0.001902389    0.001907319   -0.001892567
      3        7          -0.001874365   -0.001879847    0.001894203
      4        7           0.001903128   -0.001896511   -0.001883662
 -------------------------------------------------------------------
 Cartesian Forces:  Max     0.001907319 RMS     0.001888264

 GradGradGradGradGradGradGradGradGradGradGradGradGradGradGradGradGradGrad
 Berny optimization.
 FormGI is forming the generalized inverse of G from B-inverse, IUseBI=4.
 Internal  Forces:  Max     0.001352704 RMS     0.001236183
 Search for a local minimum.
 Step number   1 out of a maximum of   20
 All quantities printed in internal units (Hartrees-Bohrs-Radians)
 Mixed Optimization -- RFO/linear search
 Second derivative matrix not updated -- first step.
 The second derivative matrix:
                          R1        R2        R3        R4        R5
           R1           0.37333
           R2           0.00000   0.37328
           R3           0.00000   0.00000   0.37332
           R4           0.00000   0.00000   0.00000   0.37335
           R5           0.00000   0.00000   0.00000   0.00000   0.37339
           R6           0.00000   0.00000   0.00000   0.00000   0.00000
           D1           0.00000   0.00000   0.00000   0.00000   0.00000
                          R6        D1
           R6           0.37334
           D1           0.00000   0.00539
 ITU=  0
     Eigenvalues ---    0.26630   0.37329   0.37332   0.37333   0.37334
     Eigenvalues ---    0.37336
 RFO step:  Lambda=-2.86527912D-05 EMin= 2.66300537D-01
 Linear search not attempted -- first point.
 Iteration  1 RMS(Cart)=  0.00165554 RMS(Int)=  0.00000001
 Iteration  2 RMS(Cart)=  0.00000000 RMS(Int)=  0.00000001
 Variable       Old X    -DE/DX   Delta X   Delta X   Delta X     New X
                                 (Linear)    (Quad)   (Total)
    R1        2.75347   0.00134   0.00000   0.00357   0.00357   2.75704
    R2        2.75354   0.00131   0.00000   0.00352   0.00352   2.75707
    R3        2.75349   0.00133   0.00000   0.00356   0.00356   2.75705
    R4        2.75344   0.00134   0.00000   0.00360   0.00360   2.75703
    R5        2.75339   0.00135   0.00000   0.00363   0.00363   2.75702
    R6        2.75346   0.00134   0.00000   0.00358   0.00358   2.75704
    D1        1.23093   0.00000   0.00000   0.00002   0.00002   1.23095
         Item               Value     Threshold  Converged?
 Maximum Force            0.001353     0.000450     NO 
 RMS     Force            0.001236     0.000300     NO 
 Maximum Displacement     0.001290     0.001800     YES
 RMS     Displacement     0.001656     0.001200     NO 
 Predicted change in Energy=-1.432640D-05
 GradGradGradGradGradGradGradGradGradGradGradGradGradGradGradGradGradGrad

                          Input orientation:                          
 ---------------------------------------------------------------------
 Center     Atomic      Atomic             Coordinates (Angstroms)
 Number     Number       Type             X           Y           Z
 ---------------------------------------------------------------------
      1          7           0        8.015826    8.015822    8.015822
      2          7           0        6.984182    8.015810    6.984178
      3          7           0        6.984173    6.984170    8.015819
      4          7           0        8.015815    6.984177    6.984177
 ---------------------------------------------------------------------
                    Distance matrix (angstroms):
                    1          2          3          4
     1  N    0.000000
     2  N    1.458965   0.000000
     3  N    1.458977   1.458960   0.000000
     4  N    1.458967   1.458950   1.458962   0.000000
 Stoichiometry    N4
 Framework group  C1[X(N4)]
 Deg. of freedom     6
 Full point group                 C1      NOp   1
 Largest Abelian subgroup         C1      NOp   1
 Largest concise Abelian subgroup C1      NOp   1
                         Standard orientation:                         
 ---------------------------------------------------------------------
 Center     Atomic      Atomic             Coordinates (Angstroms)
 Number     Number       Type             X           Y           Z
 ---------------------------------------------------------------------
      1          7           0       -0.832741    0.321147   -0.040461
      2          7           0        0.125002   -0.405310    0.786322
      3          7           0        0.582757    0.671896   -0.084683
      4          7           0        0.124982   -0.587733   -0.661179
 ---------------------------------------------------------------------
 Rotational constants (GHZ):          16.9554456          16.9552685          16.9551192
 Standard basis: def2QZVPP (5D, 7F)
 There are   288 symmetry adapted cartesian basis functions of A   symmetry.
 There are   228 symmetry adapted basis functions of A   symmetry.
   228 basis functions,   368 primitive gaussians,   288 cartesian basis functions
    14 alpha electrons       14 beta electrons
       nuclear repulsion energy       106.6360402861 Hartrees.
 NAtoms=    4 NActive=    4 NUniq=    4 SFac= 1.00D+00 NAtFMM=   60 NAOKFM=F Big=F
 Integral buffers will be    131072 words long.
 Raffenetti 2 integral format.
 Two-electron integral symmetry is turned on.
 One-electron integrals computed using PRISM.
   1 Symmetry operations used in ECPInt.
 ECPInt:  NShTT=    2346 NPrTT=    6942 LenC2=    2323 LenP2D=    5922.
 LDataN:  DoStor=T MaxTD1= 8 Len=  415
 NBasis=   228 RedAO= T EigKep=  2.99D-04  NBF=   228
 NBsUse=   228 1.00D-06 EigRej= -1.00D+00 NBFU=   228
 Initial guess from the checkpoint file:  "/data/hutter/SMG16/TPSS/Gau-76543.chk"
 B after Tr=     0.000000   -0.000000   -0.000000
         Rot=    0.999242   -0.034880   -0.010682    0.013625 Ang=  -4.46 deg.
 Keep J ints in memory in canonical form, NReq=352844491.
 Requested convergence on RMS density matrix=1.00D-08 within 128 cycles.
 Requested convergence on MAX density matrix=1.00D-06.
 Requested convergence on             energy=1.00D-06.
 No special actions if energy rises.
 SCF Done:  E(RTPSS-TPSS) =  -218.938156450     A.U. after    6 cycles
            NFock=  6  Conv=0.63D-08     -V/T= 2.0038
   1 Symmetry operations used in ECPInt.
 ECPInt:  NShTT=    2346 NPrTT=    6942 LenC2=    2323 LenP2D=    5922.
 LDataN:  DoStor=T MaxTD1= 9 Len=  602
 Calling FoFJK, ICntrl=      2527 FMM=F ISym2X=0 I1Cent= 0 IOpClX= 0 NMat=1 NMatS=1 NMatT=0.
 ***** Axes restored to original set *****
 -------------------------------------------------------------------
 Center     Atomic                   Forces (Hartrees/Bohr)
 Number     Number              X              Y              Z
 -------------------------------------------------------------------
      1        7           0.000712977    0.000714930    0.000718117
      2        7          -0.000722455    0.000725841   -0.000720390
      3        7          -0.000715862   -0.000717698    0.000722114
      4        7           0.000725339   -0.000723073   -0.000719841
 -------------------------------------------------------------------
 Cartesian Forces:  Max     0.000725841 RMS     0.000719897

 GradGradGradGradGradGradGradGradGradGradGradGradGradGradGradGradGradGrad
 Berny optimization.
 Using GEDIIS/GDIIS optimizer.
 FormGI is forming the generalized inverse of G from B-inverse, IUseBI=4.
 Internal  Forces:  Max     0.000514291 RMS     0.000471290
 Search for a local minimum.
 Step number   2 out of a maximum of   20
 All quantities printed in internal units (Hartrees-Bohrs-Radians)
 Mixed Optimization -- En-DIIS/RFO-DIIS
 Update second derivatives using D2CorX and points    1    2
 DE= -1.98D-05 DEPred=-1.43D-05 R= 1.38D+00
 TightC=F SS=  1.41D+00  RLast= 8.76D-03 DXNew= 5.0454D-01 2.6280D-02
 Trust test= 1.38D+00 RLast= 8.76D-03 DXMaxT set to 3.00D-01
 The second derivative matrix:
                          R1        R2        R3        R4        R5
           R1           0.34989
           R2          -0.02331   0.35011
           R3          -0.02352  -0.02338   0.34973
           R4          -0.02368  -0.02354  -0.02376   0.34943
           R5          -0.02394  -0.02380  -0.02401  -0.02418   0.34894
           R6          -0.02359  -0.02346  -0.02367  -0.02383  -0.02409
           D1           0.00017   0.00016   0.00017   0.00017   0.00017
                          R6        D1
           R6           0.34959
           D1           0.00017   0.00539
 ITU=  1  0
 Use linear search instead of GDIIS.
     Eigenvalues ---    0.23102   0.26650   0.37330   0.37332   0.37333
     Eigenvalues ---    0.37335
 RFO step:  Lambda= 0.00000000D+00 EMin= 2.31018035D-01
 Quartic linear search produced a step of  0.62364.
 Iteration  1 RMS(Cart)=  0.00103247 RMS(Int)=  0.00000001
 Iteration  2 RMS(Cart)=  0.00000000 RMS(Int)=  0.00000001
 Variable       Old X    -DE/DX   Delta X   Delta X   Delta X     New X
                                 (Linear)    (Quad)   (Total)
    R1        2.75704   0.00051   0.00223  -0.00001   0.00222   2.75926
    R2        2.75707   0.00050   0.00220   0.00000   0.00220   2.75927
    R3        2.75705   0.00051   0.00222   0.00001   0.00223   2.75928
    R4        2.75703   0.00051   0.00224   0.00000   0.00224   2.75928
    R5        2.75702   0.00051   0.00226  -0.00001   0.00226   2.75927
    R6        2.75704   0.00051   0.00223   0.00000   0.00223   2.75927
    D1        1.23095   0.00000   0.00001  -0.00000   0.00001   1.23096
         Item               Value     Threshold  Converged?
 Maximum Force            0.000514     0.000450     NO 
 RMS     Force            0.000471     0.000300     NO 
 Maximum Displacement     0.000803     0.001800     YES
 RMS     Displacement     0.001032     0.001200     YES
 Predicted change in Energy=-3.364593D-06
 GradGradGradGradGradGradGradGradGradGradGradGradGradGradGradGradGradGrad

                          Input orientation:                          
 ---------------------------------------------------------------------
 Center     Atomic      Atomic             Coordinates (Angstroms)
 Number     Number       Type             X           Y           Z
 ---------------------------------------------------------------------
      1          7           0        8.016235    8.016234    8.016237
      2          7           0        6.983762    8.016235    6.983760
      3          7           0        6.983761    6.983755    8.016239
      4          7           0        8.016237    6.983755    6.983759
 ---------------------------------------------------------------------
                    Distance matrix (angstroms):
                    1          2          3          4
     1  N    0.000000
     2  N    1.460140   0.000000
     3  N    1.460142   1.460146   0.000000
     4  N    1.460146   1.460144   1.460145   0.000000
 Stoichiometry    N4
 Framework group  C1[X(N4)]
 Deg. of freedom     6
 Full point group                 C1      NOp   1
 Largest Abelian subgroup         C1      NOp   1
 Largest concise Abelian subgroup C1      NOp   1
                         Standard orientation:                         
 ---------------------------------------------------------------------
 Center     Atomic      Atomic             Coordinates (Angstroms)
 Number     Number       Type             X           Y           Z
 ---------------------------------------------------------------------
      1          7           0       -0.380617    0.383678   -0.712339
      2          7           0       -0.631198   -0.214257    0.595978
      3          7           0        0.579556    0.570479    0.371722
      4          7           0        0.432259   -0.739900   -0.255361
 ---------------------------------------------------------------------
 Rotational constants (GHZ):          16.9279150          16.9279050          16.9278195
 Standard basis: def2QZVPP (5D, 7F)
 There are   288 symmetry adapted cartesian basis functions of A   symmetry.
 There are   228 symmetry adapted basis functions of A   symmetry.
   228 basis functions,   368 primitive gaussians,   288 cartesian basis functions
    14 alpha electrons       14 beta electrons
       nuclear repulsion energy       106.5498492328 Hartrees.
 NAtoms=    4 NActive=    4 NUniq=    4 SFac= 1.00D+00 NAtFMM=   60 NAOKFM=F Big=F
 Integral buffers will be    131072 words long.
 Raffenetti 2 integral format.
 Two-electron integral symmetry is turned on.
 One-electron integrals computed using PRISM.
   1 Symmetry operations used in ECPInt.
 ECPInt:  NShTT=    2346 NPrTT=    6942 LenC2=    2323 LenP2D=    5922.
 LDataN:  DoStor=T MaxTD1= 8 Len=  415
 NBasis=   228 RedAO= T EigKep=  2.99D-04  NBF=   228
 NBsUse=   228 1.00D-06 EigRej= -1.00D+00 NBFU=   228
 Initial guess from the checkpoint file:  "/data/hutter/SMG16/TPSS/Gau-76543.chk"
 B after Tr=     0.000000    0.000000   -0.000000
         Rot=    0.887780    0.086552    0.441036    0.099209 Ang=  54.81 deg.
 Keep J ints in memory in canonical form, NReq=352844491.
 Requested convergence on RMS density matrix=1.00D-08 within 128 cycles.
 Requested convergence on MAX density matrix=1.00D-06.
 Requested convergence on             energy=1.00D-06.
 No special actions if energy rises.
 SCF Done:  E(RTPSS-TPSS) =  -218.938159876     A.U. after    6 cycles
            NFock=  6  Conv=0.42D-08     -V/T= 2.0038
   1 Symmetry operations used in ECPInt.
 ECPInt:  NShTT=    2346 NPrTT=    6942 LenC2=    2323 LenP2D=    5922.
 LDataN:  DoStor=T MaxTD1= 9 Len=  602
 Calling FoFJK, ICntrl=      2527 FMM=F ISym2X=0 I1Cent= 0 IOpClX= 0 NMat=1 NMatS=1 NMatT=0.
 ***** Axes restored to original set *****
 -------------------------------------------------------------------
 Center     Atomic                   Forces (Hartrees/Bohr)
 Number     Number              X              Y              Z
 -------------------------------------------------------------------
      1        7           0.000000598   -0.000001935   -0.000000160
      2        7          -0.000000010   -0.000003696    0.000001805
      3        7           0.000002661    0.000003522   -0.000004369
      4        7          -0.000003249    0.000002108    0.000002724
 -------------------------------------------------------------------
 Cartesian Forces:  Max     0.000004369 RMS     0.000002615

 GradGradGradGradGradGradGradGradGradGradGradGradGradGradGradGradGradGrad
 Berny optimization.
 Using GEDIIS/GDIIS optimizer.
 FormGI is forming the generalized inverse of G from B-inverse, IUseBI=4.
 Internal  Forces:  Max     0.000003786 RMS     0.000002051
 Search for a local minimum.
 Step number   3 out of a maximum of   20
 All quantities printed in internal units (Hartrees-Bohrs-Radians)
 Mixed Optimization -- En-DIIS/RFO-DIIS
 Swapping is turned off.
 Update second derivatives using D2CorX and points    1    2    3
 DE= -3.43D-06 DEPred=-3.36D-06 R= 1.02D+00
 TightC=F SS=  1.41D+00  RLast= 5.46D-03 DXNew= 5.0454D-01 1.6389D-02
 Trust test= 1.02D+00 RLast= 5.46D-03 DXMaxT set to 3.00D-01
 The second derivative matrix:
                          R1        R2        R3        R4        R5
           R1           0.34906
           R2          -0.02390   0.34974
           R3          -0.02412  -0.02375   0.34935
           R4          -0.02412  -0.02375  -0.02396   0.34939
           R5          -0.02449  -0.02412  -0.02434  -0.02434   0.34867
           R6          -0.02412  -0.02375  -0.02396  -0.02396  -0.02434
           D1           0.00009   0.00009   0.00009   0.00009   0.00009
                          R6        D1
           R6           0.34938
           D1           0.00009   0.00539
 ITU=  1  1  0
     Eigenvalues ---    0.22892   0.26662   0.37330   0.37332   0.37334
     Eigenvalues ---    0.37335
 En-DIIS/RFO-DIIS/Sim-DIIS IScMMF=       -3 using points:     3    2
 RFO step:  Lambda= 0.00000000D+00.
 DidBck=F Rises=F RFO-DIIS coefs:    0.99704    0.00296
 Iteration  1 RMS(Cart)=  0.00000444 RMS(Int)=  0.00000000
 Iteration  2 RMS(Cart)=  0.00000000 RMS(Int)=  0.00000000
 Variable       Old X    -DE/DX   Delta X   Delta X   Delta X     New X
                                 (Linear)    (Quad)   (Total)
    R1        2.75926   0.00000  -0.00001   0.00001   0.00000   2.75927
    R2        2.75927  -0.00000  -0.00001   0.00000  -0.00001   2.75926
    R3        2.75928  -0.00000  -0.00001   0.00000  -0.00001   2.75927
    R4        2.75928  -0.00000  -0.00001  -0.00001  -0.00001   2.75926
    R5        2.75927  -0.00000  -0.00001  -0.00000  -0.00001   2.75927
    R6        2.75927  -0.00000  -0.00001  -0.00000  -0.00001   2.75926
    D1        1.23096   0.00000  -0.00000   0.00000   0.00000   1.23096
         Item               Value     Threshold  Converged?
 Maximum Force            0.000004     0.000450     YES
 RMS     Force            0.000002     0.000300     YES
 Maximum Displacement     0.000006     0.001800     YES
 RMS     Displacement     0.000004     0.001200     YES
 Predicted change in Energy=-5.096099D-11
 Optimization completed.
    -- Stationary point found.
                           ----------------------------
                           !   Optimized Parameters   !
                           ! (Angstroms and Degrees)  !
 --------------------------                            --------------------------
 ! Name  Definition              Value          Derivative Info.                !
 --------------------------------------------------------------------------------
 ! R1    R(1,2)                  1.4601         -DE/DX =    0.0                 !
 ! R2    R(1,3)                  1.4601         -DE/DX =    0.0                 !
 ! R3    R(1,4)                  1.4601         -DE/DX =    0.0                 !
 ! R4    R(2,3)                  1.4601         -DE/DX =    0.0                 !
 ! R5    R(2,4)                  1.4601         -DE/DX =    0.0                 !
 ! R6    R(3,4)                  1.4601         -DE/DX =    0.0                 !
 ! D1    D(2,1,3,4)             70.5287         -DE/DX =    0.0                 !
 --------------------------------------------------------------------------------
 GradGradGradGradGradGradGradGradGradGradGradGradGradGradGradGradGradGrad

                          Input orientation:                          
 ---------------------------------------------------------------------
 Center     Atomic      Atomic             Coordinates (Angstroms)
 Number     Number       Type             X           Y           Z
 ---------------------------------------------------------------------
      1          7           0        8.016235    8.016234    8.016237
      2          7           0        6.983762    8.016235    6.983760
      3          7           0        6.983761    6.983755    8.016239
      4          7           0        8.016237    6.983755    6.983759
 ---------------------------------------------------------------------
                    Distance matrix (angstroms):
                    1          2          3          4
     1  N    0.000000
     2  N    1.460140   0.000000
     3  N    1.460142   1.460146   0.000000
     4  N    1.460146   1.460144   1.460145   0.000000
 Stoichiometry    N4
 Framework group  C1[X(N4)]
 Deg. of freedom     6
 Full point group                 C1      NOp   1
 Largest Abelian subgroup         C1      NOp   1
 Largest concise Abelian subgroup C1      NOp   1
                         Standard orientation:                         
 ---------------------------------------------------------------------
 Center     Atomic      Atomic             Coordinates (Angstroms)
 Number     Number       Type             X           Y           Z
 ---------------------------------------------------------------------
      1          7           0       -0.380617    0.383678   -0.712339
      2          7           0       -0.631198   -0.214257    0.595978
      3          7           0        0.579556    0.570479    0.371722
      4          7           0        0.432259   -0.739900   -0.255361
 ---------------------------------------------------------------------
 Rotational constants (GHZ):          16.9279150          16.9279050          16.9278195

 **********************************************************************

            Population analysis using the SCF Density.

 **********************************************************************

 Orbital symmetries:
       Occupied  (A) (A) (A) (A) (A) (A) (A) (A) (A) (A) (A) (A)
                 (A) (A)
       Virtual   (A) (A) (A) (A) (A) (A) (A) (A) (A) (A) (A) (A)
                 (A) (A) (A) (A) (A) (A) (A) (A) (A) (A) (A) (A)
                 (A) (A) (A) (A) (A) (A) (A) (A) (A) (A) (A) (A)
                 (A) (A) (A) (A) (A) (A) (A) (A) (A) (A) (A) (A)
                 (A) (A) (A) (A) (A) (A) (A) (A) (A) (A) (A) (A)
                 (A) (A) (A) (A) (A) (A) (A) (A) (A) (A) (A) (A)
                 (A) (A) (A) (A) (A) (A) (A) (A) (A) (A) (A) (A)
                 (A) (A) (A) (A) (A) (A) (A) (A) (A) (A) (A) (A)
                 (A) (A) (A) (A) (A) (A) (A) (A) (A) (A) (A) (A)
                 (A) (A) (A) (A) (A) (A) (A) (A) (A) (A) (A) (A)
                 (A) (A) (A) (A) (A) (A) (A) (A) (A) (A) (A) (A)
                 (A) (A) (A) (A) (A) (A) (A) (A) (A) (A) (A) (A)
                 (A) (A) (A) (A) (A) (A) (A) (A) (A) (A) (A) (A)
                 (A) (A) (A) (A) (A) (A) (A) (A) (A) (A) (A) (A)
                 (A) (A) (A) (A) (A) (A) (A) (A) (A) (A) (A) (A)
                 (A) (A) (A) (A) (A) (A) (A) (A) (A) (A) (A) (A)
                 (A) (A) (A) (A) (A) (A) (A) (A) (A) (A) (A) (A)
                 (A) (A) (A) (A) (A) (A) (A) (A) (A) (A)
 The electronic state is 1-A.
 Alpha  occ. eigenvalues --  -14.25013 -14.25008 -14.25008 -14.25008  -1.23357
 Alpha  occ. eigenvalues --   -0.72346  -0.72346  -0.72346  -0.45715  -0.37209
 Alpha  occ. eigenvalues --   -0.37209  -0.37209  -0.35994  -0.35993
 Alpha virt. eigenvalues --   -0.02191  -0.02191  -0.02191   0.01669   0.01669
 Alpha virt. eigenvalues --    0.01669   0.13857   0.18358   0.18358   0.18358
 Alpha virt. eigenvalues --    0.21955   0.21955   0.23268   0.23268   0.23268
 Alpha virt. eigenvalues --    0.33387   0.33387   0.33387   0.37841   0.51700
 Alpha virt. eigenvalues --    0.51700   0.51700   0.63664   0.63664   0.63665
 Alpha virt. eigenvalues --    0.81320   0.95146   0.95146   0.95506   0.95506
 Alpha virt. eigenvalues --    0.95506   0.96857   0.96857   1.02906   1.02906
 Alpha virt. eigenvalues --    1.02906   1.04651   1.04652   1.04652   1.13783
 Alpha virt. eigenvalues --    1.13783   1.13784   1.31902   1.31902   1.31902
 Alpha virt. eigenvalues --    1.43110   1.45570   1.45570   1.47089   1.47089
 Alpha virt. eigenvalues --    1.47089   1.59673   1.59673   1.59673   1.81216
 Alpha virt. eigenvalues --    2.05302   2.05302   2.05302   2.17202   2.32536
 Alpha virt. eigenvalues --    2.32536   2.44454   2.44455   2.44455   2.57399
 Alpha virt. eigenvalues --    2.57400   2.57400   2.67900   2.70832   2.70832
 Alpha virt. eigenvalues --    2.70833   2.80771   2.80771   2.80771   2.87485
 Alpha virt. eigenvalues --    2.87485   2.95419   2.95419   2.95420   3.12902
 Alpha virt. eigenvalues --    3.12902   3.12903   3.17261   3.17261   3.17261
 Alpha virt. eigenvalues --    3.20849   3.40151   3.40151   3.40151   3.44596
 Alpha virt. eigenvalues --    3.44596   3.52983   3.52984   3.52984   3.61423
 Alpha virt. eigenvalues --    3.61423   3.61423   3.64670   3.81828   3.81828
 Alpha virt. eigenvalues --    3.81828   3.87654   3.87655   3.87655   3.88445
 Alpha virt. eigenvalues --    3.88445   4.10957   4.10957   4.10958   4.11090
 Alpha virt. eigenvalues --    4.11091   4.24152   5.26477   5.26478   5.26478
 Alpha virt. eigenvalues --    5.67815   5.70175   5.70175   5.70176   6.06277
 Alpha virt. eigenvalues --    6.06278   6.06278   6.20530   6.43461   6.43461
 Alpha virt. eigenvalues --    6.43462   6.60514   6.60514   6.60514   6.62585
 Alpha virt. eigenvalues --    6.62586   7.07200   7.07202   7.13488   7.13488
 Alpha virt. eigenvalues --    7.13489   7.42186   7.42187   7.42187   7.73683
 Alpha virt. eigenvalues --    7.73684   7.73685   7.91224   7.91224   8.11652
 Alpha virt. eigenvalues --    8.11653   8.11653   8.12794   8.12794   8.12794
 Alpha virt. eigenvalues --    8.39957   8.41168   8.61199   8.61199   8.61200
 Alpha virt. eigenvalues --    8.61930   8.61930   8.61930   8.74607   8.74607
 Alpha virt. eigenvalues --    8.74608   8.78171   8.78171   8.78171   8.79988
 Alpha virt. eigenvalues --    8.79988   8.88681   8.88681   8.89828   8.89828
 Alpha virt. eigenvalues --    8.89828   8.90665   8.95963   8.95963   8.95964
 Alpha virt. eigenvalues --    9.05099   9.05100   9.05100   9.24467   9.44376
 Alpha virt. eigenvalues --    9.44376   9.44377   9.68359   9.68360   9.68360
 Alpha virt. eigenvalues --    9.74070  10.37529  10.37529  10.41029  10.41029
 Alpha virt. eigenvalues --   10.41030  10.43623  10.43624  10.48015  10.48015
 Alpha virt. eigenvalues --   10.48016  10.86335  10.86335  10.86335  11.10579
 Alpha virt. eigenvalues --   11.10579  11.10580  11.31609  11.92874  11.92875
 Alpha virt. eigenvalues --   11.92876  37.03151  37.23194  37.23195  37.23195
 Alpha virt. eigenvalues --  198.15463 198.37954 198.37954 198.37955
          Condensed to atoms (all electrons):
               1          2          3          4
     1  N    6.533130   0.155621   0.155624   0.155626
     2  N    0.155621   6.533130   0.155626   0.155625
     3  N    0.155624   0.155626   6.533122   0.155625
     4  N    0.155626   0.155625   0.155625   6.533124
 Mulliken charges:
               1
     1  N   -0.000001
     2  N   -0.000002
     3  N    0.000004
     4  N   -0.000001
 Sum of Mulliken charges =  -0.00000
 Mulliken charges with hydrogens summed into heavy atoms:
               1
     1  N   -0.000001
     2  N   -0.000002
     3  N    0.000004
     4  N   -0.000001
 Electronic spatial extent (au):  <R**2>=            129.0307
 Charge=             -0.0000 electrons
 Dipole moment (field-independent basis, Debye):
    X=             -0.0000    Y=              0.0000    Z=             -0.0000  Tot=              0.0000
 Quadrupole moment (field-independent basis, Debye-Ang):
   XX=            -22.0084   YY=            -22.0084   ZZ=            -22.0084
   XY=             -0.0000   XZ=              0.0000   YZ=             -0.0000
 Traceless Quadrupole moment (field-independent basis, Debye-Ang):
   XX=              0.0000   YY=              0.0000   ZZ=             -0.0000
   XY=             -0.0000   XZ=              0.0000   YZ=             -0.0000
 Octapole moment (field-independent basis, Debye-Ang**2):
  XXX=              0.1036  YYY=              0.5739  ZZZ=              0.3822  XYY=             -1.1302
  XXY=             -0.0784  XXZ=             -0.7022  XZZ=              1.0266  YZZ=             -0.4955
  YYZ=              0.3200  XYZ=             -1.2928
 Hexadecapole moment (field-independent basis, Debye-Ang**3):
 XXXX=            -53.4491 YYYY=            -53.7549 ZZZZ=            -53.6875 XXXY=             -0.2520
 XXXZ=              0.1766 YYYX=              0.2483 YYYZ=             -0.3790 ZZZX=             -0.0796
 ZZZY=              0.4272 XXYY=            -18.2425 XXZZ=            -18.3097 YYZZ=            -18.0039
 XXYZ=             -0.0482 YYXZ=             -0.0970 ZZXY=              0.0037
 N-N= 1.065498492328D+02 E-N=-7.248607867627D+02  KE= 2.181048115336D+02
 Unable to Open any file for archive entry.
 1\1\GINC-TCOPT10\FOpt\RTPSSTPSS\def2QZVPP\N4\HUTTER\01-Aug-2021\0\\#N 
 RTPSSTPSS/Def2QZVPP scf=tight Int(Grid=ultrafine) OPT FREQ\\Mol job 1\
 \0,1\N,8.0162352157,8.0162343339,8.0162373718\N,6.9837623257,8.0162351
 61,6.9837603894\N,6.983761304,6.9837552574,8.0162392908\N,8.0162374646
 ,6.9837549876,6.983759148\\Version=ES64L-G16RevC.01\State=1-A\HF=-218.
 9381599\RMSD=4.217e-09\RMSF=2.615e-06\Dipole=0.,0.0000007,0.0000004\Qu
 adrupole=-0.0000164,0.0000112,0.0000051,-0.0000021,-0.0000063,-0.00000
 12\PG=C01 [X(N4)]\\@
 The archive entry for this job was punched.


 MANHOOD BEGINS BY TRYING TO SHAVE FACE,
 AND ENDS BY TRYING TO SAVE FACE.
 Job cpu time:       0 days  0 hours 17 minutes  0.3 seconds.
 Elapsed time:       0 days  0 hours  2 minutes 55.4 seconds.
 File lengths (MBytes):  RWF=     26 Int=      0 D2E=      0 Chk=      5 Scr=      1
 Normal termination of Gaussian 16 at Sun Aug  1 00:06:01 2021.
 Link1:  Proceeding to internal job step number  2.
 ----------------------------------------------------------------------
 #N Geom=AllCheck Guess=TCheck SCRF=Check GenChk RTPSSTPSS/def2QZVPP Fr
 eq
 ----------------------------------------------------------------------
 1/10=4,29=7,30=1,38=1,40=1/1,3;
 2/12=2,40=1/2;
 3/5=45,7=202,11=2,14=-4,25=1,30=1,70=2,71=2,74=2523,75=-5,116=1,140=1/1,2,3;
 4/5=101/1;
 5/5=2,32=2,38=6,98=1/2;
 8/6=4,10=90,11=11/1;
 11/6=1,8=1,9=11,15=111,16=1/1,2,10;
 10/6=1/2;
 6/7=2,8=2,9=2,10=2,28=1/1;
 7/8=1,10=1,25=1/1,2,3,16;
 1/10=4,30=1/3;
 99//99;
 Structure from the checkpoint file:  "/data/hutter/SMG16/TPSS/Gau-76543.chk"
 ---------
 Mol job 1
 ---------
 Charge =  0 Multiplicity = 1
 Redundant internal coordinates found in file.  (old form).
 N,0,8.0162352157,8.0162343339,8.0162373718
 N,0,6.9837623257,8.016235161,6.9837603894
 N,0,6.983761304,6.9837552574,8.0162392908
 N,0,8.0162374646,6.9837549876,6.983759148
 Recover connectivity data from disk.

 GradGradGradGradGradGradGradGradGradGradGradGradGradGradGradGradGradGrad
 Berny optimization.
 Initialization pass.
                           ----------------------------
                           !    Initial Parameters    !
                           ! (Angstroms and Degrees)  !
 --------------------------                            --------------------------
 ! Name  Definition              Value          Derivative Info.                !
 --------------------------------------------------------------------------------
 ! R1    R(1,2)                  1.4601         calculate D2E/DX2 analytically  !
 ! R2    R(1,3)                  1.4601         calculate D2E/DX2 analytically  !
 ! R3    R(1,4)                  1.4601         calculate D2E/DX2 analytically  !
 ! R4    R(2,3)                  1.4601         calculate D2E/DX2 analytically  !
 ! R5    R(2,4)                  1.4601         calculate D2E/DX2 analytically  !
 ! R6    R(3,4)                  1.4601         calculate D2E/DX2 analytically  !
 ! D1    D(2,1,3,4)             70.5287         calculate D2E/DX2 analytically  !
 --------------------------------------------------------------------------------
 Trust Radius=3.00D-01 FncErr=1.00D-07 GrdErr=1.00D-07 EigMax=2.50D+02 EigMin=1.00D-04
 Number of steps in this run=      2 maximum allowed number of steps=      2.
 GradGradGradGradGradGradGradGradGradGradGradGradGradGradGradGradGradGrad

                          Input orientation:                          
 ---------------------------------------------------------------------
 Center     Atomic      Atomic             Coordinates (Angstroms)
 Number     Number       Type             X           Y           Z
 ---------------------------------------------------------------------
      1          7           0        8.016235    8.016234    8.016237
      2          7           0        6.983762    8.016235    6.983760
      3          7           0        6.983761    6.983755    8.016239
      4          7           0        8.016237    6.983755    6.983759
 ---------------------------------------------------------------------
                    Distance matrix (angstroms):
                    1          2          3          4
     1  N    0.000000
     2  N    1.460140   0.000000
     3  N    1.460142   1.460146   0.000000
     4  N    1.460146   1.460144   1.460145   0.000000
 Stoichiometry    N4
 Framework group  C1[X(N4)]
 Deg. of freedom     6
 Full point group                 C1      NOp   1
 Largest Abelian subgroup         C1      NOp   1
 Largest concise Abelian subgroup C1      NOp   1
                         Standard orientation:                         
 ---------------------------------------------------------------------
 Center     Atomic      Atomic             Coordinates (Angstroms)
 Number     Number       Type             X           Y           Z
 ---------------------------------------------------------------------
      1          7           0       -0.380617    0.383678   -0.712339
      2          7           0       -0.631198   -0.214257    0.595978
      3          7           0        0.579556    0.570479    0.371722
      4          7           0        0.432259   -0.739900   -0.255361
 ---------------------------------------------------------------------
 Rotational constants (GHZ):          16.9279150          16.9279050          16.9278195
 Standard basis: def2QZVPP (5D, 7F)
 There are   288 symmetry adapted cartesian basis functions of A   symmetry.
 There are   228 symmetry adapted basis functions of A   symmetry.
   228 basis functions,   368 primitive gaussians,   288 cartesian basis functions
    14 alpha electrons       14 beta electrons
       nuclear repulsion energy       106.5498492328 Hartrees.
 NAtoms=    4 NActive=    4 NUniq=    4 SFac= 1.00D+00 NAtFMM=   60 NAOKFM=F Big=F
 Integral buffers will be    131072 words long.
 Raffenetti 2 integral format.
 Two-electron integral symmetry is turned on.
 One-electron integrals computed using PRISM.
   1 Symmetry operations used in ECPInt.
 ECPInt:  NShTT=    2346 NPrTT=    6942 LenC2=    2323 LenP2D=    5922.
 LDataN:  DoStor=T MaxTD1= 8 Len=  415
 NBasis=   228 RedAO= T EigKep=  2.99D-04  NBF=   228
 NBsUse=   228 1.00D-06 EigRej= -1.00D+00 NBFU=   228
 Initial guess from the checkpoint file:  "/data/hutter/SMG16/TPSS/Gau-76543.chk"
 B after Tr=     0.000000    0.000000    0.000000
         Rot=    1.000000    0.000000    0.000000    0.000000 Ang=   0.00 deg.
 Keep J ints in memory in canonical form, NReq=352844491.
 Requested convergence on RMS density matrix=1.00D-08 within 128 cycles.
 Requested convergence on MAX density matrix=1.00D-06.
 Requested convergence on             energy=1.00D-06.
 No special actions if energy rises.
 SCF Done:  E(RTPSS-TPSS) =  -218.938159876     A.U. after    1 cycles
            NFock=  1  Conv=0.14D-08     -V/T= 2.0038
 DoSCS=F DFT=T ScalE2(SS,OS)=  1.000000  1.000000
 Range of M.O.s used for correlation:     1   228
 NBasis=   228 NAE=    14 NBE=    14 NFC=     0 NFV=     0
 NROrb=    228 NOA=    14 NOB=    14 NVA=   214 NVB=   214

 **** Warning!!: The largest alpha MO coefficient is  0.13302135D+02

   1 Symmetry operations used in ECPInt.
 ECPInt:  NShTT=    2346 NPrTT=    6942 LenC2=    2323 LenP2D=    5922.
 LDataN:  DoStor=T MaxTD1= 9 Len=  602
 Symmetrizing basis deriv contribution to polar:
 IMax=3 JMax=2 DiffMx= 0.00D+00
 G2DrvN: will do     5 centers at a time, making    1 passes.
 Calling FoFCou, ICntrl=  3507 FMM=F I1Cent=   0 AccDes= 0.00D+00.
 End of G2Drv F.D. properties file   721 does not exist.
 End of G2Drv F.D. properties file   722 does not exist.
 End of G2Drv F.D. properties file   788 does not exist.
          IDoAtm=1111
          Differentiating once with respect to electric field.
                with respect to dipole field.
          Differentiating once with respect to nuclear coordinates.
 Keep J ints in memory in canonical form, NReq=352846880.
          There are    15 degrees of freedom in the 1st order CPHF.  IDoFFX=6 NUNeed=     3.
     12 vectors produced by pass  0 Test12= 2.00D-14 6.67D-09 XBig12= 3.28D+01 2.71D+00.
 AX will form    12 AO Fock derivatives at one time.
     12 vectors produced by pass  1 Test12= 2.00D-14 6.67D-09 XBig12= 3.65D+01 1.89D+00.
     12 vectors produced by pass  2 Test12= 2.00D-14 6.67D-09 XBig12= 2.68D+00 4.75D-01.
     12 vectors produced by pass  3 Test12= 2.00D-14 6.67D-09 XBig12= 1.47D-02 2.54D-02.
     12 vectors produced by pass  4 Test12= 2.00D-14 6.67D-09 XBig12= 6.02D-05 1.84D-03.
     12 vectors produced by pass  5 Test12= 2.00D-14 6.67D-09 XBig12= 1.90D-07 1.11D-04.
      4 vectors produced by pass  6 Test12= 2.00D-14 6.67D-09 XBig12= 1.64D-10 4.00D-06.
      3 vectors produced by pass  7 Test12= 2.00D-14 6.67D-09 XBig12= 2.66D-13 1.69D-07.
 InvSVY:  IOpt=1 It=  1 EMax= 1.78D-15
 Solved reduced A of dimension    79 with    12 vectors.
 Isotropic polarizability for W=    0.000000       24.28 Bohr**3.
 End of Minotr F.D. properties file   721 does not exist.
 End of Minotr F.D. properties file   722 does not exist.
 End of Minotr F.D. properties file   788 does not exist.

 **********************************************************************

            Population analysis using the SCF Density.

 **********************************************************************

 Orbital symmetries:
       Occupied  (A) (A) (A) (A) (A) (A) (A) (A) (A) (A) (A) (A)
                 (A) (A)
       Virtual   (A) (A) (A) (A) (A) (A) (A) (A) (A) (A) (A) (A)
                 (A) (A) (A) (A) (A) (A) (A) (A) (A) (A) (A) (A)
                 (A) (A) (A) (A) (A) (A) (A) (A) (A) (A) (A) (A)
                 (A) (A) (A) (A) (A) (A) (A) (A) (A) (A) (A) (A)
                 (A) (A) (A) (A) (A) (A) (A) (A) (A) (A) (A) (A)
                 (A) (A) (A) (A) (A) (A) (A) (A) (A) (A) (A) (A)
                 (A) (A) (A) (A) (A) (A) (A) (A) (A) (A) (A) (A)
                 (A) (A) (A) (A) (A) (A) (A) (A) (A) (A) (A) (A)
                 (A) (A) (A) (A) (A) (A) (A) (A) (A) (A) (A) (A)
                 (A) (A) (A) (A) (A) (A) (A) (A) (A) (A) (A) (A)
                 (A) (A) (A) (A) (A) (A) (A) (A) (A) (A) (A) (A)
                 (A) (A) (A) (A) (A) (A) (A) (A) (A) (A) (A) (A)
                 (A) (A) (A) (A) (A) (A) (A) (A) (A) (A) (A) (A)
                 (A) (A) (A) (A) (A) (A) (A) (A) (A) (A) (A) (A)
                 (A) (A) (A) (A) (A) (A) (A) (A) (A) (A) (A) (A)
                 (A) (A) (A) (A) (A) (A) (A) (A) (A) (A) (A) (A)
                 (A) (A) (A) (A) (A) (A) (A) (A) (A) (A) (A) (A)
                 (A) (A) (A) (A) (A) (A) (A) (A) (A) (A)
 The electronic state is 1-A.
 Alpha  occ. eigenvalues --  -14.25013 -14.25008 -14.25008 -14.25008  -1.23357
 Alpha  occ. eigenvalues --   -0.72346  -0.72346  -0.72346  -0.45715  -0.37209
 Alpha  occ. eigenvalues --   -0.37209  -0.37209  -0.35994  -0.35993
 Alpha virt. eigenvalues --   -0.02191  -0.02191  -0.02191   0.01669   0.01669
 Alpha virt. eigenvalues --    0.01669   0.13857   0.18358   0.18358   0.18358
 Alpha virt. eigenvalues --    0.21955   0.21955   0.23268   0.23268   0.23268
 Alpha virt. eigenvalues --    0.33387   0.33387   0.33387   0.37841   0.51700
 Alpha virt. eigenvalues --    0.51700   0.51700   0.63664   0.63664   0.63665
 Alpha virt. eigenvalues --    0.81320   0.95146   0.95146   0.95506   0.95506
 Alpha virt. eigenvalues --    0.95506   0.96857   0.96857   1.02906   1.02906
 Alpha virt. eigenvalues --    1.02906   1.04651   1.04652   1.04652   1.13783
 Alpha virt. eigenvalues --    1.13783   1.13784   1.31902   1.31902   1.31902
 Alpha virt. eigenvalues --    1.43110   1.45570   1.45570   1.47089   1.47089
 Alpha virt. eigenvalues --    1.47089   1.59673   1.59673   1.59673   1.81216
 Alpha virt. eigenvalues --    2.05302   2.05302   2.05302   2.17202   2.32536
 Alpha virt. eigenvalues --    2.32536   2.44454   2.44455   2.44455   2.57399
 Alpha virt. eigenvalues --    2.57400   2.57400   2.67900   2.70832   2.70832
 Alpha virt. eigenvalues --    2.70833   2.80771   2.80771   2.80771   2.87485
 Alpha virt. eigenvalues --    2.87485   2.95419   2.95419   2.95420   3.12902
 Alpha virt. eigenvalues --    3.12902   3.12903   3.17261   3.17261   3.17261
 Alpha virt. eigenvalues --    3.20849   3.40151   3.40151   3.40151   3.44596
 Alpha virt. eigenvalues --    3.44596   3.52983   3.52984   3.52984   3.61423
 Alpha virt. eigenvalues --    3.61423   3.61423   3.64670   3.81828   3.81828
 Alpha virt. eigenvalues --    3.81828   3.87654   3.87655   3.87655   3.88445
 Alpha virt. eigenvalues --    3.88445   4.10957   4.10957   4.10958   4.11090
 Alpha virt. eigenvalues --    4.11091   4.24152   5.26477   5.26478   5.26478
 Alpha virt. eigenvalues --    5.67815   5.70175   5.70175   5.70176   6.06277
 Alpha virt. eigenvalues --    6.06278   6.06278   6.20530   6.43461   6.43461
 Alpha virt. eigenvalues --    6.43462   6.60514   6.60514   6.60514   6.62585
 Alpha virt. eigenvalues --    6.62586   7.07200   7.07202   7.13488   7.13488
 Alpha virt. eigenvalues --    7.13489   7.42186   7.42187   7.42187   7.73683
 Alpha virt. eigenvalues --    7.73684   7.73685   7.91224   7.91224   8.11652
 Alpha virt. eigenvalues --    8.11653   8.11653   8.12794   8.12794   8.12794
 Alpha virt. eigenvalues --    8.39957   8.41168   8.61199   8.61199   8.61200
 Alpha virt. eigenvalues --    8.61930   8.61930   8.61930   8.74607   8.74607
 Alpha virt. eigenvalues --    8.74608   8.78171   8.78171   8.78171   8.79988
 Alpha virt. eigenvalues --    8.79988   8.88681   8.88682   8.89828   8.89828
 Alpha virt. eigenvalues --    8.89828   8.90665   8.95963   8.95963   8.95964
 Alpha virt. eigenvalues --    9.05099   9.05100   9.05100   9.24467   9.44376
 Alpha virt. eigenvalues --    9.44376   9.44377   9.68359   9.68360   9.68360
 Alpha virt. eigenvalues --    9.74070  10.37529  10.37529  10.41029  10.41029
 Alpha virt. eigenvalues --   10.41030  10.43623  10.43624  10.48015  10.48015
 Alpha virt. eigenvalues --   10.48016  10.86335  10.86335  10.86335  11.10579
 Alpha virt. eigenvalues --   11.10579  11.10580  11.31609  11.92874  11.92875
 Alpha virt. eigenvalues --   11.92876  37.03151  37.23195  37.23195  37.23195
 Alpha virt. eigenvalues --  198.15463 198.37954 198.37954 198.37955
          Condensed to atoms (all electrons):
               1          2          3          4
     1  N    6.533130   0.155621   0.155624   0.155626
     2  N    0.155621   6.533130   0.155626   0.155625
     3  N    0.155624   0.155626   6.533122   0.155625
     4  N    0.155626   0.155625   0.155625   6.533124
 Mulliken charges:
               1
     1  N   -0.000001
     2  N   -0.000002
     3  N    0.000004
     4  N   -0.000000
 Sum of Mulliken charges =  -0.00000
 Mulliken charges with hydrogens summed into heavy atoms:
               1
     1  N   -0.000001
     2  N   -0.000002
     3  N    0.000004
     4  N   -0.000000
 APT charges:
               1
     1  N    0.000003
     2  N    0.000002
     3  N   -0.000006
     4  N    0.000001
 Sum of APT charges =   0.00000
 APT charges with hydrogens summed into heavy atoms:
               1
     1  N    0.000003
     2  N    0.000002
     3  N   -0.000006
     4  N    0.000001
 Electronic spatial extent (au):  <R**2>=            129.0307
 Charge=              0.0000 electrons
 Dipole moment (field-independent basis, Debye):
    X=             -0.0000    Y=              0.0000    Z=             -0.0000  Tot=              0.0000
 Quadrupole moment (field-independent basis, Debye-Ang):
   XX=            -22.0084   YY=            -22.0084   ZZ=            -22.0084
   XY=             -0.0000   XZ=              0.0000   YZ=             -0.0000
 Traceless Quadrupole moment (field-independent basis, Debye-Ang):
   XX=              0.0000   YY=              0.0000   ZZ=             -0.0000
   XY=             -0.0000   XZ=              0.0000   YZ=             -0.0000
 Octapole moment (field-independent basis, Debye-Ang**2):
  XXX=              0.1036  YYY=              0.5739  ZZZ=              0.3822  XYY=             -1.1302
  XXY=             -0.0784  XXZ=             -0.7022  XZZ=              1.0266  YZZ=             -0.4955
  YYZ=              0.3200  XYZ=             -1.2928
 Hexadecapole moment (field-independent basis, Debye-Ang**3):
 XXXX=            -53.4491 YYYY=            -53.7549 ZZZZ=            -53.6875 XXXY=             -0.2520
 XXXZ=              0.1766 YYYX=              0.2483 YYYZ=             -0.3790 ZZZX=             -0.0796
 ZZZY=              0.4272 XXYY=            -18.2425 XXZZ=            -18.3097 YYZZ=            -18.0039
 XXYZ=             -0.0482 YYXZ=             -0.0970 ZZXY=              0.0037
 N-N= 1.065498492328D+02 E-N=-7.248607795661D+02  KE= 2.181048077931D+02
  Exact polarizability:      24.275       0.000      24.276       0.000       0.000      24.275
 Approx polarizability:      55.058       0.000      55.057      -0.000       0.000      55.057
   1 Symmetry operations used in ECPInt.
 ECPInt:  NShTT=    2346 NPrTT=    6942 LenC2=    2323 LenP2D=    5922.
 LDataN:  DoStor=T MaxTD1=10 Len=  848
 Calling FoFJK, ICntrl=    100527 FMM=F ISym2X=0 I1Cent= 0 IOpClX= 0 NMat=1 NMatS=1 NMatT=0.
 Full mass-weighted force constant matrix:
 Low frequencies ---   -2.2495   -0.0011   -0.0011   -0.0006    1.4238    4.0249
 Low frequencies ---  763.0653  763.1045  961.8559
 Diagonal vibrational polarizability:
        0.0824513       0.0824476       0.0824484
 Harmonic frequencies (cm**-1), IR intensities (KM/Mole), Raman scattering
 activities (A**4/AMU), depolarization ratios for plane and unpolarized
 incident light, reduced masses (AMU), force constants (mDyne/A),
 and normal coordinates:
                      1                      2                      3
                      A                      A                      A
 Frequencies --    763.0653               763.1045               961.8559
 Red. masses --     14.0031                14.0031                14.0031
 Frc consts  --      4.8039                 4.8044                 7.6330
 IR Inten    --      0.0000                 0.0000                 2.8345
  Atom  AN      X      Y      Z        X      Y      Z        X      Y      Z
     1   7     0.42  -0.07  -0.26    -0.17  -0.45  -0.15     0.32  -0.20  -0.07
     2   7     0.35  -0.06   0.35    -0.04   0.48   0.13    -0.44  -0.31   0.35
     3   7    -0.38   0.26   0.19     0.01  -0.28   0.41     0.27  -0.03  -0.23
     4   7    -0.39  -0.13  -0.28     0.20   0.25  -0.39    -0.16   0.54  -0.05
                      4                      5                      6
                      A                      A                      A
 Frequencies --    961.8691               961.9006              1312.5315
 Red. masses --     14.0031                14.0031                14.0031
 Frc consts  --      7.6332                 7.6337                14.2132
 IR Inten    --      2.8342                 2.8350                 0.0000
  Atom  AN      X      Y      Z        X      Y      Z        X      Y      Z
     1   7     0.21  -0.29   0.59    -0.21  -0.26  -0.11     0.21  -0.21   0.40
     2   7    -0.29   0.13  -0.17     0.20  -0.18  -0.38     0.35   0.12  -0.33
     3   7     0.06   0.43  -0.05     0.45   0.30   0.37    -0.32  -0.32  -0.21
     4   7     0.02  -0.26  -0.37    -0.43   0.14   0.12    -0.24   0.41   0.14

 -------------------
 - Thermochemistry -
 -------------------
 Temperature   298.150 Kelvin.  Pressure   1.00000 Atm.
 Atom     1 has atomic number  7 and mass  14.00307
 Atom     2 has atomic number  7 and mass  14.00307
 Atom     3 has atomic number  7 and mass  14.00307
 Atom     4 has atomic number  7 and mass  14.00307
 Molecular mass:    56.01230 amu.
 Principal axes and moments of inertia in atomic units:
                           1         2         3
     Eigenvalues --   106.61332 106.61338 106.61392
           X            1.00000   0.00000  -0.00000
           Y           -0.00000   1.00000   0.00000
           Z            0.00000  -0.00000   1.00000
 This molecule is an asymmetric top.
 Rotational symmetry number  1.
 Rotational temperatures (Kelvin)      0.81241     0.81241     0.81241
 Rotational constants (GHZ):          16.92792    16.92791    16.92782
 Zero-point vibrational energy      34239.1 (Joules/Mol)
                                    8.18334 (Kcal/Mol)
 Vibrational temperatures:   1097.88  1097.94  1383.90  1383.92  1383.96
          (Kelvin)           1888.44
 
 Zero-point correction=                           0.013041 (Hartree/Particle)
 Thermal correction to Energy=                    0.016192
 Thermal correction to Enthalpy=                  0.017136
 Thermal correction to Gibbs Free Energy=        -0.011630
 Sum of electronic and zero-point Energies=           -218.925119
 Sum of electronic and thermal Energies=              -218.921968
 Sum of electronic and thermal Enthalpies=            -218.921024
 Sum of electronic and thermal Free Energies=         -218.949790
 
                     E (Thermal)             CV                S
                      KCal/Mol        Cal/Mol-Kelvin    Cal/Mol-Kelvin
 Total                   10.160              8.793             60.543
 Electronic               0.000              0.000              0.000
 Translational            0.889              2.981             37.990
 Rotational               0.889              2.981             21.721
 Vibrational              8.383              2.832              0.832
                       Q            Log10(Q)             Ln(Q)
 Total Bot       0.223638D+06          5.349545         12.317783
 Total V=0       0.222829D+12         11.347973         26.129672
 Vib (Bot)       0.108919D-05         -5.962898        -13.730080
 Vib (V=0)       0.108525D+01          0.035529          0.081810
 Electronic      0.100000D+01          0.000000          0.000000
 Translational   0.164770D+08          7.216879         16.617478
 Rotational      0.124613D+05          4.095564          9.430385
 ***** Axes restored to original set *****
 -------------------------------------------------------------------
 Center     Atomic                   Forces (Hartrees/Bohr)
 Number     Number              X              Y              Z
 -------------------------------------------------------------------
      1        7           0.000000614   -0.000001920   -0.000000151
      2        7          -0.000000008   -0.000003705    0.000001802
      3        7           0.000002651    0.000003513   -0.000004372
      4        7          -0.000003257    0.000002112    0.000002721
 -------------------------------------------------------------------
 Cartesian Forces:  Max     0.000004372 RMS     0.000002614
 FormGI is forming the generalized inverse of G from B-inverse, IUseBI=4.

 GradGradGradGradGradGradGradGradGradGradGradGradGradGradGradGradGradGrad
 Berny optimization.
 Internal  Forces:  Max     0.000003789 RMS     0.000002052
 Search for a local minimum.
 Step number   1 out of a maximum of    2
 All quantities printed in internal units (Hartrees-Bohrs-Radians)
 Second derivative matrix not updated -- analytic derivatives used.
 The second derivative matrix:
                          R1        R2        R3        R4        R5
           R1           0.25251
           R2          -0.00109   0.24984
           R3          -0.02437  -0.00110   0.25250
           R4          -0.02438  -0.00109   0.00734   0.25245
           R5           0.01827  -0.01727   0.01826   0.01825   0.17249
           R6           0.00734  -0.00109  -0.02438  -0.02437   0.01826
           D1          -0.02689   0.03458  -0.02689  -0.02689   0.07298
                          R6        D1
           R6           0.25244
           D1          -0.02688   0.06169
 ITU=  0
     Eigenvalues ---    0.20548   0.22823   0.24513   0.24514   0.26137
     Eigenvalues ---    0.30856
 Angle between quadratic step and forces=   5.39 degrees.
 Linear search not attempted -- first point.
 Iteration  1 RMS(Cart)=  0.00000544 RMS(Int)=  0.00000000
 Iteration  2 RMS(Cart)=  0.00000000 RMS(Int)=  0.00000000
 Variable       Old X    -DE/DX   Delta X   Delta X   Delta X     New X
                                 (Linear)    (Quad)   (Total)
    R1        2.75926   0.00000   0.00000   0.00000   0.00000   2.75927
    R2        2.75927  -0.00000   0.00000  -0.00000  -0.00000   2.75926
    R3        2.75928  -0.00000   0.00000  -0.00001  -0.00001   2.75927
    R4        2.75928  -0.00000   0.00000  -0.00002  -0.00002   2.75926
    R5        2.75927  -0.00000   0.00000  -0.00001  -0.00001   2.75926
    R6        2.75927  -0.00000   0.00000  -0.00001  -0.00001   2.75926
    D1        1.23096   0.00000   0.00000   0.00000   0.00000   1.23096
         Item               Value     Threshold  Converged?
 Maximum Force            0.000004     0.000450     YES
 RMS     Force            0.000002     0.000300     YES
 Maximum Displacement     0.000007     0.001800     YES
 RMS     Displacement     0.000005     0.001200     YES
 Predicted change in Energy=-6.029323D-11
 Optimization completed.
    -- Stationary point found.
                           ----------------------------
                           !   Optimized Parameters   !
                           ! (Angstroms and Degrees)  !
 --------------------------                            --------------------------
 ! Name  Definition              Value          Derivative Info.                !
 --------------------------------------------------------------------------------
 ! R1    R(1,2)                  1.4601         -DE/DX =    0.0                 !
 ! R2    R(1,3)                  1.4601         -DE/DX =    0.0                 !
 ! R3    R(1,4)                  1.4601         -DE/DX =    0.0                 !
 ! R4    R(2,3)                  1.4601         -DE/DX =    0.0                 !
 ! R5    R(2,4)                  1.4601         -DE/DX =    0.0                 !
 ! R6    R(3,4)                  1.4601         -DE/DX =    0.0                 !
 ! D1    D(2,1,3,4)             70.5287         -DE/DX =    0.0                 !
 --------------------------------------------------------------------------------
 GradGradGradGradGradGradGradGradGradGradGradGradGradGradGradGradGradGrad


 ----------------------------------------------------------------------

 Electric dipole moment (input orientation):
 (Debye = 10**-18 statcoulomb cm , SI units = C m)
                  (au)            (Debye)         (10**-30 SI)
   Tot        0.000000D+00      0.000000D+00      0.000000D+00
   x          0.000000D+00      0.000000D+00      0.000000D+00
   y          0.000000D+00      0.000000D+00      0.000000D+00
   z          0.000000D+00      0.000000D+00      0.000000D+00

 Dipole polarizability, Alpha (input orientation).
 (esu units = cm**3 , SI units = C**2 m**2 J**-1)
 Alpha(0;0):
               (au)            (10**-24 esu)      (10**-40 SI)
   iso        0.242754D+02      0.359725D+01      0.400248D+01
   aniso      0.384408D-03      0.569633D-04      0.633803D-04
   xx         0.242754D+02      0.359724D+01      0.400247D+01
   yx         0.100201D-03      0.148483D-04      0.165210D-04
   yy         0.242755D+02      0.359726D+01      0.400249D+01
   zx        -0.189059D-03     -0.280157D-04     -0.311716D-04
   zy         0.000000D+00      0.000000D+00      0.000000D+00
   zz         0.242754D+02      0.359724D+01      0.400247D+01

 ----------------------------------------------------------------------

 Dipole orientation:
     7         16.01948055         -8.68912310         18.87605951
     7         14.00312969         -6.90306587         18.27783622
     7         14.02317986         -9.40296330         17.11005242
     7         15.90558798         -7.52305687         16.37787675

 Electric dipole moment (dipole orientation):
 (Debye = 10**-18 statcoulomb cm , SI units = C m)
                  (au)            (Debye)         (10**-30 SI)
   Tot        0.000000D+00      0.000000D+00      0.000000D+00
   x          0.000000D+00      0.000000D+00      0.000000D+00
   y          0.000000D+00      0.000000D+00      0.000000D+00
   z          0.000000D+00      0.000000D+00      0.000000D+00

 Dipole polarizability, Alpha (dipole orientation).
 (esu units = cm**3 , SI units = C**2 m**2 J**-1)
 Alpha(0;0):
               (au)            (10**-24 esu)      (10**-40 SI)
   iso        0.242754D+02      0.359725D+01      0.400248D+01
   aniso      0.384408D-03      0.569633D-04      0.633803D-04
   xx         0.242754D+02      0.359724D+01      0.400247D+01
   yx         0.211018D-03      0.312697D-04      0.347922D-04
   yy         0.242754D+02      0.359725D+01      0.400248D+01
   zx         0.329772D-04      0.488672D-05      0.543721D-05
   zy         0.161901D-04      0.239913D-05      0.266939D-05
   zz         0.242755D+02      0.359725D+01      0.400248D+01

 ----------------------------------------------------------------------
 Unable to Open any file for archive entry.
 1\1\GINC-TCOPT10\Freq\RTPSSTPSS\def2QZVPP\N4\HUTTER\01-Aug-2021\0\\#N 
 Geom=AllCheck Guess=TCheck SCRF=Check GenChk RTPSSTPSS/def2QZVPP Freq\
 \Mol job 1\\0,1\N,8.0162352157,8.0162343339,8.0162373718\N,6.983762325
 7,8.016235161,6.9837603894\N,6.983761304,6.9837552574,8.0162392908\N,8
 .0162374646,6.9837549876,6.983759148\\Version=ES64L-G16RevC.01\State=1
 -A\HF=-218.9381599\RMSD=1.352e-09\RMSF=2.614e-06\ZeroPoint=0.013041\Th
 ermal=0.0161917\ETot=-218.9219682\HTot=-218.921024\GTot=-218.9497901\D
 ipole=0.,0.0000006,0.0000002\DipoleDeriv=-0.0000018,-0.0713347,-0.0713
 342,-0.0713322,-0.0000023,-0.0713399,-0.071341,-0.0713362,0.0000117,0.
 000009,0.0713435,-0.0713467,0.0713455,-0.0000056,0.0713269,-0.0713449,
 0.071331,0.0000021,0.0000006,-0.071345,0.0713396,-0.0713512,-0.0000064
 ,0.0713499,0.0713439,0.0713485,-0.0000115,-0.0000078,0.0713362,0.07134
 12,0.071338,0.0000144,-0.0713369,0.0713419,-0.0713433,-0.0000022\Polar
 =24.2753629,0.0001002,24.27548,-0.0001891,-0.0000004,24.2754103\Quadru
 pole=-0.0000163,0.0000112,0.0000051,-0.0000021,-0.0000063,-0.0000012\P
 G=C01 [X(N4)]\NImag=0\\0.25007881,0.11163622,0.25007015,0.11166557,0.1
 1164798,0.25013082,-0.12751417,0.01092182,-0.11166889,0.25012132,-0.01
 092013,0.00493463,-0.01091734,-0.11166437,0.25006708,-0.11166276,0.010
 92806,-0.12753481,0.11165522,-0.11164077,0.25009091,-0.12749742,-0.111
 64094,0.01092289,0.00493344,0.01092290,-0.01091616,0.25004866,-0.11163
 997,-0.12748945,0.01092731,-0.01092829,-0.12748439,0.11163364,0.111650
 86,0.25003837,-0.01093067,-0.01092076,0.00492691,0.01093223,0.11163321
 ,-0.12749215,-0.11163090,-0.11163612,0.25004501,0.00493278,-0.01091710
 ,-0.01091957,-0.12754059,0.11166161,0.01092370,-0.12748468,0.01091739,
 0.11162934,0.25009249,0.01092388,-0.12751533,-0.11165796,0.11167084,-0
 .12751732,-0.01092094,-0.01093282,0.00493547,0.01092367,-0.11166190,0.
 25009718,0.01092786,-0.11165528,-0.12752293,-0.01091855,0.01092490,0.0
 0493605,0.11162417,-0.01092484,-0.12747977,-0.11163347,0.11165522,0.25
 006665\\-0.00000061,0.00000192,0.00000015,0.,0.00000370,-0.00000180,-0
 .00000265,-0.00000351,0.00000437,0.00000326,-0.00000211,-0.00000272\\\
 @
 The archive entry for this job was punched.


 I SUPPOSE A BABY LLAMA HAS A MMAMA AND A PPOPA.
     -- RICHARD AMOUR
 Job cpu time:       0 days  0 hours 49 minutes 32.6 seconds.
 Elapsed time:       0 days  0 hours  6 minutes 32.2 seconds.
 File lengths (MBytes):  RWF=     27 Int=      0 D2E=      0 Chk=      5 Scr=      1
 Normal termination of Gaussian 16 at Sun Aug  1 00:12:34 2021.
