 Entering Gaussian System, Link 0=g16
 Initial command:
 /sw-ng/spack/opt/spack/linux-opensuse_leap15-sandybridge/pgi-18.10/gaussian-src-16-C.01-zldqaomctopxhethwccpmxmwefdscg3m/g16/l1.exe "/data/hutter/SMG16/TPSS/Gau-25704.inp" -scrdir="/data/hutter/SMG16/TPSS/"
 Entering Link 1 = /sw-ng/spack/opt/spack/linux-opensuse_leap15-sandybridge/pgi-18.10/gaussian-src-16-C.01-zldqaomctopxhethwccpmxmwefdscg3m/g16/l1.exe PID=     25714.
  
 Copyright (c) 1988-2019, Gaussian, Inc.  All Rights Reserved.
  
 This is part of the Gaussian(R) 16 program.  It is based on
 the Gaussian(R) 09 system (copyright 2009, Gaussian, Inc.),
 the Gaussian(R) 03 system (copyright 2003, Gaussian, Inc.),
 the Gaussian(R) 98 system (copyright 1998, Gaussian, Inc.),
 the Gaussian(R) 94 system (copyright 1995, Gaussian, Inc.),
 the Gaussian 92(TM) system (copyright 1992, Gaussian, Inc.),
 the Gaussian 90(TM) system (copyright 1990, Gaussian, Inc.),
 the Gaussian 88(TM) system (copyright 1988, Gaussian, Inc.),
 the Gaussian 86(TM) system (copyright 1986, Carnegie Mellon
 University), and the Gaussian 82(TM) system (copyright 1983,
 Carnegie Mellon University). Gaussian is a federally registered
 trademark of Gaussian, Inc.
  
 This software contains proprietary and confidential information,
 including trade secrets, belonging to Gaussian, Inc.
  
 This software is provided under written license and may be
 used, copied, transmitted, or stored only in accord with that
 written license.
  
 The following legend is applicable only to US Government
 contracts under FAR:
  
                    RESTRICTED RIGHTS LEGEND
  
 Use, reproduction and disclosure by the US Government is
 subject to restrictions as set forth in subparagraphs (a)
 and (c) of the Commercial Computer Software - Restricted
 Rights clause in FAR 52.227-19.
  
 Gaussian, Inc.
 340 Quinnipiac St., Bldg. 40, Wallingford CT 06492
  
  
 ---------------------------------------------------------------
 Warning -- This program may not be used in any manner that
 competes with the business of Gaussian, Inc. or will provide
 assistance to any competitor of Gaussian, Inc.  The licensee
 of this program is prohibited from giving any competitor of
 Gaussian, Inc. access to this program.  By using this program,
 the user acknowledges that Gaussian, Inc. is engaged in the
 business of creating and licensing software in the field of
 computational chemistry and represents and warrants to the
 licensee that it is not a competitor of Gaussian, Inc. and that
 it will not use this program in any manner prohibited above.
 ---------------------------------------------------------------
  

 Cite this work as:
 Gaussian 16, Revision C.01,
 M. J. Frisch, G. W. Trucks, H. B. Schlegel, G. E. Scuseria, 
 M. A. Robb, J. R. Cheeseman, G. Scalmani, V. Barone, 
 G. A. Petersson, H. Nakatsuji, X. Li, M. Caricato, A. V. Marenich, 
 J. Bloino, B. G. Janesko, R. Gomperts, B. Mennucci, H. P. Hratchian, 
 J. V. Ortiz, A. F. Izmaylov, J. L. Sonnenberg, D. Williams-Young, 
 F. Ding, F. Lipparini, F. Egidi, J. Goings, B. Peng, A. Petrone, 
 T. Henderson, D. Ranasinghe, V. G. Zakrzewski, J. Gao, N. Rega, 
 G. Zheng, W. Liang, M. Hada, M. Ehara, K. Toyota, R. Fukuda, 
 J. Hasegawa, M. Ishida, T. Nakajima, Y. Honda, O. Kitao, H. Nakai, 
 T. Vreven, K. Throssell, J. A. Montgomery, Jr., J. E. Peralta, 
 F. Ogliaro, M. J. Bearpark, J. J. Heyd, E. N. Brothers, K. N. Kudin, 
 V. N. Staroverov, T. A. Keith, R. Kobayashi, J. Normand, 
 K. Raghavachari, A. P. Rendell, J. C. Burant, S. S. Iyengar, 
 J. Tomasi, M. Cossi, J. M. Millam, M. Klene, C. Adamo, R. Cammi, 
 J. W. Ochterski, R. L. Martin, K. Morokuma, O. Farkas, 
 J. B. Foresman, and D. J. Fox, Gaussian, Inc., Wallingford CT, 2019.
 
 ******************************************
 Gaussian 16:  ES64L-G16RevC.01  3-Jul-2019
                 1-Aug-2021 
 ******************************************
 %mem=8GB
 %NProcShare=8
 Will use up to    8 processors via shared memory.
 -------------------------------------------------------------
 #N RTPSSTPSS/Def2QZVPP scf=tight Int(Grid=ultrafine) OPT FREQ
 -------------------------------------------------------------
 1/18=20,19=15,26=4,38=1/1,3;
 2/9=110,12=2,17=6,18=5,40=1/2;
 3/5=45,7=202,11=2,25=1,30=1,71=1,74=2523,75=-5,116=1/1,2,3;
 4//1;
 5/5=2,32=2,38=5/2;
 6/7=2,8=2,9=2,10=2,28=1/1;
 7//1,2,3,16;
 1/18=20,19=15,26=4/3(2);
 2/9=110/2;
 99//99;
 2/9=110/2;
 3/5=45,7=202,11=2,25=1,30=1,71=1,74=2523,75=-5,116=1/1,2,3;
 4/5=5,16=3,69=1/1;
 5/5=2,32=2,38=5/2;
 7//1,2,3,16;
 1/18=20,19=15,26=4/3(-5);
 2/9=110/2;
 6/7=2,8=2,9=2,10=2,19=2,28=1/1;
 99/9=1/99;
 ---------
 Mol job 1
 ---------
 Symbolic Z-matrix:
 Charge =  0 Multiplicity = 1
 Sb                    7.85697   7.5       7.99492 
 H                     8.57092   6.26341   7.00508 
 H                     8.57092   8.73659   7.00508 
 H                     6.42908   7.5       7.00508 
 

 GradGradGradGradGradGradGradGradGradGradGradGradGradGradGradGradGradGrad
 Berny optimization.
 Initialization pass.
                           ----------------------------
                           !    Initial Parameters    !
                           ! (Angstroms and Degrees)  !
 --------------------------                            --------------------------
 ! Name  Definition              Value          Derivative Info.                !
 --------------------------------------------------------------------------------
 ! R1    R(1,2)                  1.7374         estimate D2E/DX2                !
 ! R2    R(1,3)                  1.7374         estimate D2E/DX2                !
 ! R3    R(1,4)                  1.7374         estimate D2E/DX2                !
 ! A1    A(2,1,3)               90.7532         estimate D2E/DX2                !
 ! A2    A(2,1,4)               90.7532         estimate D2E/DX2                !
 ! A3    A(3,1,4)               90.7532         estimate D2E/DX2                !
 ! D1    D(2,1,4,3)            -90.7632         estimate D2E/DX2                !
 --------------------------------------------------------------------------------
 Trust Radius=3.00D-01 FncErr=1.00D-07 GrdErr=1.00D-06 EigMax=2.50D+02 EigMin=1.00D-04
 Number of steps in this run=     20 maximum allowed number of steps=    100.
 GradGradGradGradGradGradGradGradGradGradGradGradGradGradGradGradGradGrad

                          Input orientation:                          
 ---------------------------------------------------------------------
 Center     Atomic      Atomic             Coordinates (Angstroms)
 Number     Number       Type             X           Y           Z
 ---------------------------------------------------------------------
      1         51           0        7.856974    7.500000    7.994915
      2          1           0        8.570922    6.263406    7.005085
      3          1           0        8.570922    8.736594    7.005085
      4          1           0        6.429078    7.500000    7.005085
 ---------------------------------------------------------------------
                    Distance matrix (angstroms):
                    1          2          3          4
     1  Sb   0.000000
     2  H    1.737426   0.000000
     3  H    1.737426   2.473188   0.000000
     4  H    1.737426   2.473188   2.473188   0.000000
 Stoichiometry    H3Sb
 Framework group  C3V[C3(Sb),3SGV(H)]
 Deg. of freedom     2
 Full point group                 C3V     NOp   6
 Largest Abelian subgroup         CS      NOp   2
 Largest concise Abelian subgroup CS      NOp   2
                         Standard orientation:                         
 ---------------------------------------------------------------------
 Center     Atomic      Atomic             Coordinates (Angstroms)
 Number     Number       Type             X           Y           Z
 ---------------------------------------------------------------------
      1         51           0        0.000000    0.000000    0.054991
      2          1           0        0.000000    1.427896   -0.934840
      3          1           0       -1.236594   -0.713948   -0.934840
      4          1           0        1.236594   -0.713948   -0.934840
 ---------------------------------------------------------------------
 Rotational constants (GHZ):          84.6207581          84.6207581          81.9818729
 Standard basis: def2QZVPP (5D, 7F)
 There are   127 symmetry adapted cartesian basis functions of A'  symmetry.
 There are    82 symmetry adapted cartesian basis functions of A"  symmetry.
 There are   102 symmetry adapted basis functions of A'  symmetry.
 There are    70 symmetry adapted basis functions of A"  symmetry.
   172 basis functions,   294 primitive gaussians,   209 cartesian basis functions
    13 alpha electrons       13 beta electrons
       nuclear repulsion energy        21.6575950719 Hartrees.
 NAtoms=    4 NActive=    4 NUniq=    2 SFac= 4.00D+00 NAtFMM=   60 NAOKFM=F Big=F
 Integral buffers will be    131072 words long.
 Raffenetti 2 integral format.
 Two-electron integral symmetry is turned on.
 One-electron integrals computed using PRISM.
   6 Symmetry operations used in ECPInt.
 ECPInt:  NShTT=    1378 NPrTT=    3850 LenC2=    1379 LenP2D=    3697.
 LDataN:  DoStor=T MaxTD1= 8 Len=  415
 NBasis=   172 RedAO= T EigKep=  4.07D-04  NBF=   102    70
 NBsUse=   172 1.00D-06 EigRej= -1.00D+00 NBFU=   102    70
 Defaulting to unpruned grid for atomic number  51.
 ExpMin= 4.82D-02 ExpMax= 1.23D+04 ExpMxC= 2.86D+01 IAcc=3 IRadAn=         5 AccDes= 0.00D+00
 Harris functional with IExCor= 1009 and IRadAn=       5 diagonalized for initial guess.
 HarFok:  IExCor= 1009 AccDes= 0.00D+00 IRadAn=         5 IDoV= 1 UseB2=F ITyADJ=14
 ICtDFT=  3500011 ScaDFX=  1.000000  1.000000  1.000000  1.000000
 Defaulting to unpruned grid for atomic number  51.
 FoFCou: FMM=F IPFlag=           0 FMFlag=      100000 FMFlg1=           0
         NFxFlg=           0 DoJE=T BraDBF=F KetDBF=T FulRan=T
         wScrn=  0.000000 ICntrl=       500 IOpCl=  0 I1Cent=   200000004 NGrid=           0
         NMat0=    1 NMatS0=      1 NMatT0=    0 NMatD0=    1 NMtDS0=    0 NMtDT0=    0
 Petite list used in FoFCou.
 Initial guess orbital symmetries:
       Occupied  (A1) (E) (E) (A1) (E) (E) (E) (E) (A1) (A1) (E)
                 (E) (A1)
       Virtual   (E) (E) (A1) (A1) (E) (E) (E) (E) (A1) (A1) (E)
                 (E) (E) (E) (A1) (A2) (E) (E) (A1) (E) (E) (A1)
                 (A1) (E) (E) (A1) (E) (E) (E) (E) (A2) (A1) (E)
                 (E) (A1) (E) (E) (A1) (E) (E) (A2) (E) (E) (A1)
                 (E) (E) (A1) (E) (E) (A1) (E) (E) (A1) (E) (E)
                 (A2) (E) (E) (A1) (A2) (E) (E) (A1) (E) (E) (E)
                 (E) (E) (E) (A1) (E) (E) (A1) (A1) (A2) (E) (E)
                 (A1) (E) (E) (E) (E) (A2) (A1) (E) (E) (E) (E)
                 (A1) (A1) (A1) (E) (E) (E) (E) (A2) (E) (E) (A1)
                 (E) (E) (A1) (A2) (E) (E) (A2) (E) (E) (A1) (E)
                 (E) (E) (E) (A1) (A1) (E) (E) (E) (E) (A2) (A1)
                 (E) (E) (A2) (E) (E) (E) (E) (A1) (E) (E) (A2)
                 (E) (E) (A1) (E) (E) (A1) (E) (E) (A2) (A1) (E)
                 (E) (A1) (E) (E) (A1) (E) (E) (A2) (E) (E) (A1)
                 (A1) (A1) (E) (E) (A1)
 The electronic state of the initial guess is 1-A1.
 Keep J ints in memory in symmetry-blocked form, NReq=166153828.
 Requested convergence on RMS density matrix=1.00D-08 within 128 cycles.
 Requested convergence on MAX density matrix=1.00D-06.
 Requested convergence on             energy=1.00D-06.
 No special actions if energy rises.
 Defaulting to unpruned grid for atomic number  51.
 Defaulting to unpruned grid for atomic number  51.
 Defaulting to unpruned grid for atomic number  51.
 Defaulting to unpruned grid for atomic number  51.
 Defaulting to unpruned grid for atomic number  51.
 Defaulting to unpruned grid for atomic number  51.
 Defaulting to unpruned grid for atomic number  51.
 Defaulting to unpruned grid for atomic number  51.
 SCF Done:  E(RTPSS-TPSS) =  -241.944770525     A.U. after    9 cycles
            NFock=  9  Conv=0.45D-08     -V/T= 3.5832

 **********************************************************************

            Population analysis using the SCF Density.

 **********************************************************************

 Orbital symmetries:
       Occupied  (A1) (E) (E) (A1) (E) (E) (E) (E) (A1) (A1) (E)
                 (E) (A1)
       Virtual   (E) (E) (A1) (E) (E) (A1) (E) (E) (A1) (A1) (E)
                 (E) (A1) (E) (E) (A2) (E) (E) (E) (E) (A1) (A1)
                 (A1) (E) (E) (A1) (E) (E) (E) (E) (E) (E) (A2)
                 (A1) (A1) (E) (E) (A1) (E) (E) (A2) (A1) (E) (E)
                 (E) (E) (A1) (E) (E) (A1) (E) (E) (A1) (E) (E)
                 (A2) (E) (E) (A1) (E) (E) (A1) (A2) (E) (E) (E)
                 (E) (E) (E) (A1) (A1) (E) (E) (A1) (A2) (E) (E)
                 (A1) (E) (E) (E) (E) (A2) (A1) (E) (E) (E) (E)
                 (A1) (A1) (A1) (E) (E) (E) (E) (A2) (E) (E) (A1)
                 (A1) (E) (E) (A2) (E) (E) (A2) (E) (E) (A1) (E)
                 (E) (E) (E) (A1) (A1) (E) (E) (E) (E) (A2) (A1)
                 (E) (E) (A2) (E) (E) (E) (E) (A1) (E) (E) (A2)
                 (E) (E) (A1) (E) (E) (A1) (E) (E) (A2) (A1) (E)
                 (E) (A1) (E) (E) (A1) (E) (E) (A2) (E) (E) (A1)
                 (A1) (E) (E) (A1) (A1)
 The electronic state is 1-A1.
 Alpha  occ. eigenvalues --   -5.53054  -3.79030  -3.79030  -3.78544  -1.21048
 Alpha  occ. eigenvalues --   -1.21048  -1.20652  -1.20652  -1.20421  -0.53292
 Alpha  occ. eigenvalues --   -0.31127  -0.31127  -0.24683
 Alpha virt. eigenvalues --   -0.03632  -0.03632  -0.00370   0.06973   0.06973
 Alpha virt. eigenvalues --    0.07124   0.10204   0.10204   0.10265   0.16530
 Alpha virt. eigenvalues --    0.19144   0.19144   0.24870   0.26015   0.26015
 Alpha virt. eigenvalues --    0.41537   0.42630   0.42630   0.47370   0.47370
 Alpha virt. eigenvalues --    0.47783   0.49783   0.56060   0.57099   0.57099
 Alpha virt. eigenvalues --    0.60785   0.61911   0.61911   0.69001   0.69001
 Alpha virt. eigenvalues --    0.71523   0.71523   0.71608   0.72140   0.85790
 Alpha virt. eigenvalues --    0.87054   0.87054   0.96597   1.08958   1.08958
 Alpha virt. eigenvalues --    1.17759   1.19126   1.19131   1.19131   1.21740
 Alpha virt. eigenvalues --    1.21740   1.24216   1.26651   1.26651   1.30412
 Alpha virt. eigenvalues --    1.59336   1.59336   1.63146   1.70269   1.70269
 Alpha virt. eigenvalues --    1.71608   1.72778   1.72778   1.94696   1.95035
 Alpha virt. eigenvalues --    1.95035   1.97432   1.99302   2.00486   2.00486
 Alpha virt. eigenvalues --    2.07704   2.07704   2.22904   2.22904   2.26912
 Alpha virt. eigenvalues --    2.32642   2.33958   2.33958   2.38381   2.43673
 Alpha virt. eigenvalues --    2.46251   2.46251   2.48144   2.51001   2.51001
 Alpha virt. eigenvalues --    2.56884   2.56884   2.64156   2.68993   2.78834
 Alpha virt. eigenvalues --    2.78834   2.85318   2.85318   2.88294   2.90850
 Alpha virt. eigenvalues --    3.12569   3.18048   3.18048   3.21009   3.21009
 Alpha virt. eigenvalues --    3.22605   3.63604   3.63604   3.80518   5.78175
 Alpha virt. eigenvalues --    5.78367   5.78367   5.88570   5.89504   5.89504
 Alpha virt. eigenvalues --    5.90947   5.93597   5.93597   5.94617   6.02409
 Alpha virt. eigenvalues --    6.02409   6.11333   6.11333   6.12198   6.19513
 Alpha virt. eigenvalues --    6.22673   6.22673   6.40769   6.40769   6.44196
 Alpha virt. eigenvalues --    6.51648   6.55961   6.55961   7.91732   7.92230
 Alpha virt. eigenvalues --    7.92230   7.96148   7.96148   7.97531   8.15250
 Alpha virt. eigenvalues --    8.15250   8.22994   8.28928   8.28928   8.33024
 Alpha virt. eigenvalues --    8.47721   8.47721   8.47733   8.61842   8.61842
 Alpha virt. eigenvalues --    8.61874   8.78438   8.87154   8.87154   9.22496
 Alpha virt. eigenvalues --    9.26701   9.26701   9.94538  10.10080  10.10080
 Alpha virt. eigenvalues --   10.12346  10.41503  10.41503  10.51048  14.30519
 Alpha virt. eigenvalues --   40.38784  40.38784  40.38919  75.84703
          Condensed to atoms (all electrons):
               1          2          3          4
     1  Sb  21.713853   0.289407   0.289407   0.289407
     2  H    0.289407   0.855385  -0.002742  -0.002742
     3  H    0.289407  -0.002742   0.855385  -0.002742
     4  H    0.289407  -0.002742  -0.002742   0.855385
 Mulliken charges:
               1
     1  Sb   0.417925
     2  H   -0.139308
     3  H   -0.139308
     4  H   -0.139308
 Sum of Mulliken charges =  -0.00000
 Mulliken charges with hydrogens summed into heavy atoms:
               1
     1  Sb  -0.000000
 Electronic spatial extent (au):  <R**2>=             95.3028
 Charge=             -0.0000 electrons
 Dipole moment (field-independent basis, Debye):
    X=             -0.0000    Y=             -0.0000    Z=              0.4951  Tot=              0.4951
 Quadrupole moment (field-independent basis, Debye-Ang):
   XX=            -27.9709   YY=            -27.9709   ZZ=            -29.9373
   XY=              0.0000   XZ=              0.0000   YZ=              0.0000
 Traceless Quadrupole moment (field-independent basis, Debye-Ang):
   XX=              0.6555   YY=              0.6555   ZZ=             -1.3109
   XY=              0.0000   XZ=              0.0000   YZ=              0.0000
 Octapole moment (field-independent basis, Debye-Ang**2):
  XXX=              0.0000  YYY=             -1.0777  ZZZ=              5.3741  XYY=             -0.0000
  XXY=              1.0777  XXZ=              2.8351  XZZ=              0.0000  YZZ=             -0.0000
  YYZ=              2.8351  XYZ=             -0.0000
 Hexadecapole moment (field-independent basis, Debye-Ang**3):
 XXXX=            -58.9162 YYYY=            -58.9162 ZZZZ=            -65.4916 XXXY=             -0.0000
 XXXZ=             -0.0000 YYYX=             -0.0000 YYYZ=             -0.0234 ZZZX=             -0.0000
 ZZZY=              0.0000 XXYY=            -19.6387 XXZZ=            -20.7098 YYZZ=            -20.7098
 XXYZ=              0.0234 YYXZ=             -0.0000 ZZXY=             -0.0000
 N-N= 2.165759507186D+01 E-N=-5.583583985908D+02  KE= 9.366190173648D+01
 Symmetry A'   KE= 6.112530071153D+01
 Symmetry A"   KE= 3.253660102495D+01
   6 Symmetry operations used in ECPInt.
 ECPInt:  NShTT=    1378 NPrTT=    3850 LenC2=    1379 LenP2D=    3697.
 LDataN:  DoStor=T MaxTD1= 9 Len=  602
 Calling FoFJK, ICntrl=      2527 FMM=F ISym2X=1 I1Cent= 0 IOpClX= 0 NMat=1 NMatS=1 NMatT=0.
 Defaulting to unpruned grid for atomic number  51.
 Defaulting to unpruned grid for atomic number  51.
 Defaulting to unpruned grid for atomic number  51.
 Defaulting to unpruned grid for atomic number  51.
 Defaulting to unpruned grid for atomic number  51.
 Defaulting to unpruned grid for atomic number  51.
 Defaulting to unpruned grid for atomic number  51.
 Defaulting to unpruned grid for atomic number  51.
 ***** Axes restored to original set *****
 -------------------------------------------------------------------
 Center     Atomic                   Forces (Hartrees/Bohr)
 Number     Number              X              Y              Z
 -------------------------------------------------------------------
      1       51          -0.000000000    0.000000000   -0.010449915
      2        1          -0.002437723    0.004222260    0.003483305
      3        1          -0.002437723   -0.004222260    0.003483305
      4        1           0.004875446   -0.000000000    0.003483305
 -------------------------------------------------------------------
 Cartesian Forces:  Max     0.010449915 RMS     0.004251577

 GradGradGradGradGradGradGradGradGradGradGradGradGradGradGradGradGradGrad
 Berny optimization.
 FormGI is forming the generalized inverse of G from B-inverse, IUseBI=4.
 Internal  Forces:  Max     0.005991339 RMS     0.003924035
 Search for a local minimum.
 Step number   1 out of a maximum of   20
 All quantities printed in internal units (Hartrees-Bohrs-Radians)
 Mixed Optimization -- RFO/linear search
 Second derivative matrix not updated -- first step.
 The second derivative matrix:
                          R1        R2        R3        A1        A2
           R1           0.11794
           R2           0.00000   0.11794
           R3           0.00000   0.00000   0.11794
           A1           0.00000   0.00000   0.00000   0.16000
           A2           0.00000   0.00000   0.00000   0.00000   0.16000
           A3           0.00000   0.00000   0.00000   0.00000   0.00000
           D1           0.00000   0.00000   0.00000   0.00000   0.00000
                          A3        D1
           A3           0.16000
           D1           0.00000   0.00230
 ITU=  0
     Eigenvalues ---    0.08112   0.11794   0.11794   0.11794   0.16000
     Eigenvalues ---    0.16000
 RFO step:  Lambda=-9.06808843D-04 EMin= 8.11222059D-02
 Linear search not attempted -- first point.
 Iteration  1 RMS(Cart)=  0.02796704 RMS(Int)=  0.00001456
 Iteration  2 RMS(Cart)=  0.00002056 RMS(Int)=  0.00000043
 Iteration  3 RMS(Cart)=  0.00000000 RMS(Int)=  0.00000043
 ClnCor:  largest displacement from symmetrization is 2.80D-05 for atom     4.
 Variable       Old X    -DE/DX   Delta X   Delta X   Delta X     New X
                                 (Linear)    (Quad)   (Total)
    R1        3.28326  -0.00599   0.00000  -0.05041  -0.05042   3.23284
    R2        3.28326  -0.00599   0.00000  -0.05041  -0.05042   3.23284
    R3        3.28326  -0.00599   0.00000  -0.05041  -0.05042   3.23284
    A1        1.58394   0.00010   0.00000   0.00121   0.00122   1.58517
    A2        1.58394   0.00020   0.00000   0.00124   0.00122   1.58517
    A3        1.58394   0.00020   0.00000   0.00124   0.00122   1.58517
    D1       -1.58412  -0.00010   0.00000  -0.00125  -0.00126  -1.58538
         Item               Value     Threshold  Converged?
 Maximum Force            0.005991     0.000450     NO 
 RMS     Force            0.003924     0.000300     NO 
 Maximum Displacement     0.039829     0.001800     NO 
 RMS     Displacement     0.027984     0.001200     NO 
 Predicted change in Energy=-4.568644D-04
 GradGradGradGradGradGradGradGradGradGradGradGradGradGradGradGradGradGrad

                          Input orientation:                          
 ---------------------------------------------------------------------
 Center     Atomic      Atomic             Coordinates (Angstroms)
 Number     Number       Type             X           Y           Z
 ---------------------------------------------------------------------
      1         51           0        7.856974    7.500000    7.982595
      2          1           0        8.560384    6.281659    7.009190
      3          1           0        8.560384    8.718341    7.009190
      4          1           0        6.450155    7.500000    7.009190
 ---------------------------------------------------------------------
                    Distance matrix (angstroms):
                    1          2          3          4
     1  Sb   0.000000
     2  H    1.710747   0.000000
     3  H    1.710747   2.436682   0.000000
     4  H    1.710747   2.436682   2.436682   0.000000
 Stoichiometry    H3Sb
 Framework group  C3V[C3(Sb),3SGV(H)]
 Deg. of freedom     2
 Full point group                 C3V     NOp   6
 Largest Abelian subgroup         CS      NOp   2
 Largest concise Abelian subgroup CS      NOp   2
                         Standard orientation:                         
 ---------------------------------------------------------------------
 Center     Atomic      Atomic             Coordinates (Angstroms)
 Number     Number       Type             X           Y           Z
 ---------------------------------------------------------------------
      1         51           0        0.000000    0.000000    0.054078
      2          1           0        0.000000    1.406819   -0.919327
      3          1           0       -1.218341   -0.703410   -0.919327
      4          1           0        1.218341   -0.703410   -0.919327
 ---------------------------------------------------------------------
 Rotational constants (GHZ):          87.3324567          87.3324567          84.4567203
 Standard basis: def2QZVPP (5D, 7F)
 There are   127 symmetry adapted cartesian basis functions of A'  symmetry.
 There are    82 symmetry adapted cartesian basis functions of A"  symmetry.
 There are   102 symmetry adapted basis functions of A'  symmetry.
 There are    70 symmetry adapted basis functions of A"  symmetry.
   172 basis functions,   294 primitive gaussians,   209 cartesian basis functions
    13 alpha electrons       13 beta electrons
       nuclear repulsion energy        21.9949487264 Hartrees.
 NAtoms=    4 NActive=    4 NUniq=    2 SFac= 4.00D+00 NAtFMM=   60 NAOKFM=F Big=F
 Integral buffers will be    131072 words long.
 Raffenetti 2 integral format.
 Two-electron integral symmetry is turned on.
 One-electron integrals computed using PRISM.
   6 Symmetry operations used in ECPInt.
 ECPInt:  NShTT=    1378 NPrTT=    3850 LenC2=    1379 LenP2D=    3697.
 LDataN:  DoStor=T MaxTD1= 8 Len=  415
 NBasis=   172 RedAO= T EigKep=  3.72D-04  NBF=   102    70
 NBsUse=   172 1.00D-06 EigRej= -1.00D+00 NBFU=   102    70
 Defaulting to unpruned grid for atomic number  51.
 Initial guess from the checkpoint file:  "/data/hutter/SMG16/TPSS/Gau-25714.chk"
 B after Tr=     0.000000   -0.000000    0.000000
         Rot=    1.000000    0.000000   -0.000000   -0.000000 Ang=   0.00 deg.
 Initial guess orbital symmetries:
       Occupied  (A1) (E) (E) (A1) (E) (E) (E) (E) (A1) (A1) (E)
                 (E) (A1)
       Virtual   (E) (E) (A1) (E) (E) (A1) (E) (E) (A1) (A1) (E)
                 (E) (A1) (E) (E) (A2) (E) (E) (E) (E) (A1) (A1)
                 (A1) (E) (E) (A1) (E) (E) (E) (E) (E) (E) (A2)
                 (A1) (A1) (E) (E) (A1) (E) (E) (A2) (A1) (E) (E)
                 (E) (E) (A1) (E) (E) (A1) (E) (E) (A1) (E) (E)
                 (A2) (E) (E) (A1) (E) (E) (A1) (A2) (E) (E) (E)
                 (E) (E) (E) (A1) (A1) (E) (E) (A1) (A2) (E) (E)
                 (A1) (E) (E) (E) (E) (A2) (A1) (E) (E) (E) (E)
                 (A1) (A1) (A1) (E) (E) (E) (E) (A2) (E) (E) (A1)
                 (A1) (E) (E) (A2) (E) (E) (A2) (E) (E) (A1) (E)
                 (E) (E) (E) (A1) (A1) (E) (E) (E) (E) (A2) (A1)
                 (E) (E) (A2) (E) (E) (E) (E) (A1) (E) (E) (A2)
                 (E) (E) (A1) (E) (E) (A1) (E) (E) (A2) (A1) (E)
                 (E) (A1) (E) (E) (A1) (E) (E) (A2) (E) (E) (A1)
                 (A1) (E) (E) (A1) (A1)
 ExpMin= 4.82D-02 ExpMax= 1.23D+04 ExpMxC= 2.86D+01 IAcc=3 IRadAn=         5 AccDes= 0.00D+00
 Harris functional with IExCor= 1009 and IRadAn=       5 diagonalized for initial guess.
 HarFok:  IExCor= 1009 AccDes= 0.00D+00 IRadAn=         5 IDoV= 1 UseB2=F ITyADJ=14
 ICtDFT=  3500011 ScaDFX=  1.000000  1.000000  1.000000  1.000000
 Defaulting to unpruned grid for atomic number  51.
 FoFCou: FMM=F IPFlag=           0 FMFlag=      100000 FMFlg1=           0
         NFxFlg=           0 DoJE=T BraDBF=F KetDBF=T FulRan=T
         wScrn=  0.000000 ICntrl=       500 IOpCl=  0 I1Cent=   200000004 NGrid=           0
         NMat0=    1 NMatS0=      1 NMatT0=    0 NMatD0=    1 NMtDS0=    0 NMtDT0=    0
 Petite list used in FoFCou.
 Keep J ints in memory in symmetry-blocked form, NReq=166153828.
 Requested convergence on RMS density matrix=1.00D-08 within 128 cycles.
 Requested convergence on MAX density matrix=1.00D-06.
 Requested convergence on             energy=1.00D-06.
 No special actions if energy rises.
 Defaulting to unpruned grid for atomic number  51.
 Defaulting to unpruned grid for atomic number  51.
 Defaulting to unpruned grid for atomic number  51.
 Defaulting to unpruned grid for atomic number  51.
 Defaulting to unpruned grid for atomic number  51.
 Defaulting to unpruned grid for atomic number  51.
 Defaulting to unpruned grid for atomic number  51.
 Defaulting to unpruned grid for atomic number  51.
 SCF Done:  E(RTPSS-TPSS) =  -241.945173764     A.U. after    8 cycles
            NFock=  8  Conv=0.71D-08     -V/T= 3.5820
   6 Symmetry operations used in ECPInt.
 ECPInt:  NShTT=    1378 NPrTT=    3850 LenC2=    1379 LenP2D=    3697.
 LDataN:  DoStor=T MaxTD1= 9 Len=  602
 Calling FoFJK, ICntrl=      2527 FMM=F ISym2X=1 I1Cent= 0 IOpClX= 0 NMat=1 NMatS=1 NMatT=0.
 Defaulting to unpruned grid for atomic number  51.
 Defaulting to unpruned grid for atomic number  51.
 Defaulting to unpruned grid for atomic number  51.
 Defaulting to unpruned grid for atomic number  51.
 Defaulting to unpruned grid for atomic number  51.
 Defaulting to unpruned grid for atomic number  51.
 Defaulting to unpruned grid for atomic number  51.
 Defaulting to unpruned grid for atomic number  51.
 ***** Axes restored to original set *****
 -------------------------------------------------------------------
 Center     Atomic                   Forces (Hartrees/Bohr)
 Number     Number              X              Y              Z
 -------------------------------------------------------------------
      1       51           0.000000000    0.000000000    0.000833215
      2        1           0.000389741   -0.000675051   -0.000277738
      3        1           0.000389741    0.000675051   -0.000277738
      4        1          -0.000779482    0.000000000   -0.000277738
 -------------------------------------------------------------------
 Cartesian Forces:  Max     0.000833215 RMS     0.000478578

 GradGradGradGradGradGradGradGradGradGradGradGradGradGradGradGradGradGrad
 Berny optimization.
 Using GEDIIS/GDIIS optimizer.
 FormGI is forming the generalized inverse of G from B-inverse, IUseBI=4.
 Internal  Forces:  Max     0.000799032 RMS     0.000600194
 Search for a local minimum.
 Step number   2 out of a maximum of   20
 All quantities printed in internal units (Hartrees-Bohrs-Radians)
 Mixed Optimization -- En-DIIS/RFO-DIIS
 Update second derivatives using D2CorX and points    1    2
 DE= -4.03D-04 DEPred=-4.57D-04 R= 8.83D-01
 TightC=F SS=  1.41D+00  RLast= 8.74D-02 DXNew= 5.0454D-01 2.6207D-01
 Trust test= 8.83D-01 RLast= 8.74D-02 DXMaxT set to 3.00D-01
 The second derivative matrix:
                          R1        R2        R3        A1        A2
           R1           0.12360
           R2           0.00566   0.12360
           R3           0.00566   0.00566   0.12360
           A1           0.00225   0.00225   0.00225   0.15998
           A2           0.00324   0.00324   0.00324  -0.00000   0.16004
           A3           0.00324   0.00324   0.00324  -0.00000   0.00004
           D1          -0.00103  -0.00103  -0.00103  -0.00002  -0.00004
                          A3        D1
           A3           0.16004
           D1          -0.00004   0.00232
 ITU=  1  0
 Use linear search instead of GDIIS.
     Eigenvalues ---    0.08082   0.11794   0.11794   0.13297   0.16000
     Eigenvalues ---    0.16235
 RFO step:  Lambda=-4.01651207D-06 EMin= 8.08201975D-02
 Quartic linear search produced a step of -0.11063.
 Iteration  1 RMS(Cart)=  0.00534003 RMS(Int)=  0.00000568
 Iteration  2 RMS(Cart)=  0.00000630 RMS(Int)=  0.00000209
 Iteration  3 RMS(Cart)=  0.00000000 RMS(Int)=  0.00000209
 ClnCor:  largest displacement from symmetrization is 4.45D-05 for atom     4.
 Variable       Old X    -DE/DX   Delta X   Delta X   Delta X     New X
                                 (Linear)    (Quad)   (Total)
    R1        3.23284   0.00080   0.00558  -0.00013   0.00544   3.23829
    R2        3.23284   0.00080   0.00558  -0.00013   0.00544   3.23829
    R3        3.23284   0.00080   0.00558  -0.00013   0.00544   3.23829
    A1        1.58517   0.00024  -0.00014   0.00287   0.00275   1.58791
    A2        1.58517   0.00049  -0.00014   0.00290   0.00275   1.58791
    A3        1.58517   0.00049  -0.00014   0.00290   0.00275   1.58791
    D1       -1.58538  -0.00025   0.00014  -0.00295  -0.00284  -1.58821
         Item               Value     Threshold  Converged?
 Maximum Force            0.000799     0.000450     NO 
 RMS     Force            0.000600     0.000300     NO 
 Maximum Displacement     0.008079     0.001800     NO 
 RMS     Displacement     0.005335     0.001200     NO 
 Predicted change in Energy=-8.875046D-06
 GradGradGradGradGradGradGradGradGradGradGradGradGradGradGradGradGradGrad

                          Input orientation:                          
 ---------------------------------------------------------------------
 Center     Atomic      Atomic             Coordinates (Angstroms)
 Number     Number       Type             X           Y           Z
 ---------------------------------------------------------------------
      1         51           0        7.856974    7.500000    7.981750
      2          1           0        8.562521    6.277956    7.009469
      3          1           0        8.562521    8.722044    7.009469
      4          1           0        6.445879    7.500000    7.009469
 ---------------------------------------------------------------------
                    Distance matrix (angstroms):
                    1          2          3          4
     1  Sb   0.000000
     2  H    1.713628   0.000000
     3  H    1.713628   2.444088   0.000000
     4  H    1.713628   2.444088   2.444088   0.000000
 Stoichiometry    H3Sb
 Framework group  C3V[C3(Sb),3SGV(H)]
 Deg. of freedom     2
 Full point group                 C3V     NOp   6
 Largest Abelian subgroup         CS      NOp   2
 Largest concise Abelian subgroup CS      NOp   2
                         Standard orientation:                         
 ---------------------------------------------------------------------
 Center     Atomic      Atomic             Coordinates (Angstroms)
 Number     Number       Type             X           Y           Z
 ---------------------------------------------------------------------
      1         51           0        0.000000    0.000000    0.054016
      2          1           0        0.000000    1.411095   -0.918266
      3          1           0       -1.222044   -0.705547   -0.918266
      4          1           0        1.222044   -0.705547   -0.918266
 ---------------------------------------------------------------------
 Rotational constants (GHZ):          87.1552204          87.1552204          83.9457077
 Standard basis: def2QZVPP (5D, 7F)
 There are   127 symmetry adapted cartesian basis functions of A'  symmetry.
 There are    82 symmetry adapted cartesian basis functions of A"  symmetry.
 There are   102 symmetry adapted basis functions of A'  symmetry.
 There are    70 symmetry adapted basis functions of A"  symmetry.
   172 basis functions,   294 primitive gaussians,   209 cartesian basis functions
    13 alpha electrons       13 beta electrons
       nuclear repulsion energy        21.9571017535 Hartrees.
 NAtoms=    4 NActive=    4 NUniq=    2 SFac= 4.00D+00 NAtFMM=   60 NAOKFM=F Big=F
 Integral buffers will be    131072 words long.
 Raffenetti 2 integral format.
 Two-electron integral symmetry is turned on.
 One-electron integrals computed using PRISM.
   6 Symmetry operations used in ECPInt.
 ECPInt:  NShTT=    1378 NPrTT=    3850 LenC2=    1379 LenP2D=    3697.
 LDataN:  DoStor=T MaxTD1= 8 Len=  415
 NBasis=   172 RedAO= T EigKep=  3.75D-04  NBF=   102    70
 NBsUse=   172 1.00D-06 EigRej= -1.00D+00 NBFU=   102    70
 Defaulting to unpruned grid for atomic number  51.
 Initial guess from the checkpoint file:  "/data/hutter/SMG16/TPSS/Gau-25714.chk"
 B after Tr=     0.000000    0.000000   -0.000000
         Rot=    1.000000   -0.000000    0.000000   -0.000000 Ang=   0.00 deg.
 Initial guess orbital symmetries:
       Occupied  (A1) (E) (E) (A1) (E) (E) (E) (E) (A1) (A1) (E)
                 (E) (A1)
       Virtual   (E) (E) (A1) (E) (E) (A1) (E) (E) (A1) (A1) (E)
                 (E) (A1) (E) (E) (A2) (E) (E) (E) (E) (A1) (A1)
                 (A1) (E) (E) (A1) (E) (E) (E) (E) (E) (E) (A2)
                 (A1) (A1) (E) (E) (A1) (E) (E) (A2) (E) (E) (A1)
                 (E) (E) (A1) (E) (E) (A1) (E) (E) (A1) (E) (E)
                 (A2) (E) (E) (A1) (E) (E) (A1) (A2) (E) (E) (E)
                 (E) (E) (E) (A1) (E) (E) (A1) (A1) (A2) (E) (E)
                 (A1) (E) (E) (E) (E) (A2) (A1) (E) (E) (E) (E)
                 (A1) (A1) (A1) (E) (E) (E) (E) (A2) (E) (E) (A1)
                 (E) (E) (A1) (A2) (E) (E) (A2) (E) (E) (A1) (E)
                 (E) (E) (E) (A1) (A1) (E) (E) (E) (E) (A2) (A1)
                 (E) (E) (A2) (E) (E) (E) (E) (A1) (E) (E) (A2)
                 (E) (E) (A1) (A1) (E) (E) (A2) (E) (E) (A1) (E)
                 (E) (A1) (E) (E) (A1) (E) (E) (A2) (E) (E) (A1)
                 (A1) (E) (E) (A1) (A1)
 Keep J ints in memory in symmetry-blocked form, NReq=166153828.
 Requested convergence on RMS density matrix=1.00D-08 within 128 cycles.
 Requested convergence on MAX density matrix=1.00D-06.
 Requested convergence on             energy=1.00D-06.
 No special actions if energy rises.
 Defaulting to unpruned grid for atomic number  51.
 Defaulting to unpruned grid for atomic number  51.
 Defaulting to unpruned grid for atomic number  51.
 Defaulting to unpruned grid for atomic number  51.
 Defaulting to unpruned grid for atomic number  51.
 Defaulting to unpruned grid for atomic number  51.
 Defaulting to unpruned grid for atomic number  51.
 Defaulting to unpruned grid for atomic number  51.
 SCF Done:  E(RTPSS-TPSS) =  -241.945182710     A.U. after    7 cycles
            NFock=  7  Conv=0.35D-08     -V/T= 3.5821
   6 Symmetry operations used in ECPInt.
 ECPInt:  NShTT=    1378 NPrTT=    3850 LenC2=    1379 LenP2D=    3697.
 LDataN:  DoStor=T MaxTD1= 9 Len=  602
 Calling FoFJK, ICntrl=      2527 FMM=F ISym2X=1 I1Cent= 0 IOpClX= 0 NMat=1 NMatS=1 NMatT=0.
 Defaulting to unpruned grid for atomic number  51.
 Defaulting to unpruned grid for atomic number  51.
 Defaulting to unpruned grid for atomic number  51.
 Defaulting to unpruned grid for atomic number  51.
 Defaulting to unpruned grid for atomic number  51.
 Defaulting to unpruned grid for atomic number  51.
 Defaulting to unpruned grid for atomic number  51.
 Defaulting to unpruned grid for atomic number  51.
 ***** Axes restored to original set *****
 -------------------------------------------------------------------
 Center     Atomic                   Forces (Hartrees/Bohr)
 Number     Number              X              Y              Z
 -------------------------------------------------------------------
      1       51           0.000000000   -0.000000000   -0.000092256
      2        1           0.000012198   -0.000021127    0.000030752
      3        1           0.000012198    0.000021127    0.000030752
      4        1          -0.000024396   -0.000000000    0.000030752
 -------------------------------------------------------------------
 Cartesian Forces:  Max     0.000092256 RMS     0.000033083

 GradGradGradGradGradGradGradGradGradGradGradGradGradGradGradGradGradGrad
 Berny optimization.
 Using GEDIIS/GDIIS optimizer.
 FormGI is forming the generalized inverse of G from B-inverse, IUseBI=4.
 Internal  Forces:  Max     0.000089656 RMS     0.000053710
 Search for a local minimum.
 Step number   3 out of a maximum of   20
 All quantities printed in internal units (Hartrees-Bohrs-Radians)
 Mixed Optimization -- En-DIIS/RFO-DIIS
 Swapping is turned off.
 Update second derivatives using D2CorX and points    1    2    3
 DE= -8.95D-06 DEPred=-8.88D-06 R= 1.01D+00
 TightC=F SS=  1.41D+00  RLast= 1.09D-02 DXNew= 5.0454D-01 3.2803D-02
 Trust test= 1.01D+00 RLast= 1.09D-02 DXMaxT set to 3.00D-01
 The second derivative matrix:
                          R1        R2        R3        A1        A2
           R1           0.12718
           R2           0.00923   0.12718
           R3           0.00923   0.00923   0.12718
           A1          -0.00947  -0.00947  -0.00947   0.14662
           A2           0.00039   0.00039   0.00039  -0.01065   0.15466
           A3           0.00039   0.00039   0.00039  -0.01065  -0.00534
           D1          -0.00972  -0.00972  -0.00972  -0.00253  -0.00515
                          A3        D1
           A3           0.15466
           D1          -0.00515   0.00495
 ITU=  1  1  0
     Eigenvalues ---    0.07766   0.11794   0.11794   0.14529   0.15082
     Eigenvalues ---    0.16000
 En-DIIS/RFO-DIIS/Sim-DIIS IScMMF=       -3 using points:     3    2
 RFO step:  Lambda=-1.69609576D-07.
 DidBck=F Rises=F RFO-DIIS coefs:    1.05999   -0.05999
 Iteration  1 RMS(Cart)=  0.00066608 RMS(Int)=  0.00000033
 Iteration  2 RMS(Cart)=  0.00000021 RMS(Int)=  0.00000024
 ClnCor:  largest displacement from symmetrization is 7.21D-06 for atom     4.
 Variable       Old X    -DE/DX   Delta X   Delta X   Delta X     New X
                                 (Linear)    (Quad)   (Total)
    R1        3.23829   0.00000   0.00033  -0.00031   0.00001   3.23830
    R2        3.23829   0.00000   0.00033  -0.00031   0.00001   3.23830
    R3        3.23829   0.00000   0.00033  -0.00031   0.00001   3.23830
    A1        1.58791   0.00004   0.00016   0.00046   0.00062   1.58854
    A2        1.58791   0.00009   0.00016   0.00046   0.00062   1.58854
    A3        1.58791   0.00009   0.00016   0.00046   0.00062   1.58854
    D1       -1.58821  -0.00005  -0.00017  -0.00047  -0.00065  -1.58886
         Item               Value     Threshold  Converged?
 Maximum Force            0.000090     0.000450     YES
 RMS     Force            0.000054     0.000300     YES
 Maximum Displacement     0.000886     0.001800     YES
 RMS     Displacement     0.000665     0.001200     YES
 Predicted change in Energy=-8.481663D-08
 Optimization completed.
    -- Stationary point found.
                           ----------------------------
                           !   Optimized Parameters   !
                           ! (Angstroms and Degrees)  !
 --------------------------                            --------------------------
 ! Name  Definition              Value          Derivative Info.                !
 --------------------------------------------------------------------------------
 ! R1    R(1,2)                  1.7136         -DE/DX =    0.0                 !
 ! R2    R(1,3)                  1.7136         -DE/DX =    0.0                 !
 ! R3    R(1,4)                  1.7136         -DE/DX =    0.0                 !
 ! A1    A(2,1,3)               90.9807         -DE/DX =    0.0                 !
 ! A2    A(2,1,4)               90.9807         -DE/DX =    0.0001              !
 ! A3    A(3,1,4)               90.9807         -DE/DX =    0.0001              !
 ! D1    D(2,1,4,3)            -90.9978         -DE/DX =    0.0                 !
 --------------------------------------------------------------------------------
 GradGradGradGradGradGradGradGradGradGradGradGradGradGradGradGradGradGrad

                          Input orientation:                          
 ---------------------------------------------------------------------
 Center     Atomic      Atomic             Coordinates (Angstroms)
 Number     Number       Type             X           Y           Z
 ---------------------------------------------------------------------
      1         51           0        7.856974    7.500000    7.981750
      2          1           0        8.562521    6.277956    7.009469
      3          1           0        8.562521    8.722044    7.009469
      4          1           0        6.445879    7.500000    7.009469
 ---------------------------------------------------------------------
                    Distance matrix (angstroms):
                    1          2          3          4
     1  Sb   0.000000
     2  H    1.713628   0.000000
     3  H    1.713628   2.444088   0.000000
     4  H    1.713628   2.444088   2.444088   0.000000
 Stoichiometry    H3Sb
 Framework group  C3V[C3(Sb),3SGV(H)]
 Deg. of freedom     2
 Full point group                 C3V     NOp   6
 Largest Abelian subgroup         CS      NOp   2
 Largest concise Abelian subgroup CS      NOp   2
                         Standard orientation:                         
 ---------------------------------------------------------------------
 Center     Atomic      Atomic             Coordinates (Angstroms)
 Number     Number       Type             X           Y           Z
 ---------------------------------------------------------------------
      1         51           0        0.000000    0.000000    0.054016
      2          1           0        0.000000    1.411095   -0.918266
      3          1           0       -1.222044   -0.705547   -0.918266
      4          1           0        1.222044   -0.705547   -0.918266
 ---------------------------------------------------------------------
 Rotational constants (GHZ):          87.1552204          87.1552204          83.9457077

 **********************************************************************

            Population analysis using the SCF Density.

 **********************************************************************

 Orbital symmetries:
       Occupied  (A1) (E) (E) (A1) (E) (E) (E) (E) (A1) (A1) (E)
                 (E) (A1)
       Virtual   (E) (E) (A1) (E) (E) (A1) (E) (E) (A1) (A1) (E)
                 (E) (A1) (E) (E) (A2) (E) (E) (E) (E) (A1) (A1)
                 (A1) (E) (E) (A1) (E) (E) (E) (E) (E) (E) (A2)
                 (A1) (A1) (E) (E) (A1) (E) (E) (A2) (E) (E) (A1)
                 (E) (E) (A1) (E) (E) (A1) (E) (E) (A1) (E) (E)
                 (A2) (E) (E) (A1) (E) (E) (A1) (A2) (E) (E) (E)
                 (E) (E) (E) (A1) (E) (E) (A1) (A1) (A2) (E) (E)
                 (A1) (E) (E) (E) (E) (A2) (A1) (E) (E) (E) (E)
                 (A1) (A1) (A1) (E) (E) (E) (E) (A2) (E) (E) (A1)
                 (E) (E) (A1) (A2) (E) (E) (A2) (E) (E) (A1) (E)
                 (E) (E) (E) (A1) (A1) (E) (E) (E) (E) (A2) (A1)
                 (E) (E) (A2) (E) (E) (E) (E) (A1) (E) (E) (A2)
                 (E) (E) (A1) (A1) (E) (E) (A2) (E) (E) (A1) (E)
                 (E) (A1) (E) (E) (A1) (E) (E) (A2) (E) (E) (A1)
                 (A1) (E) (E) (A1) (A1)
 The electronic state is 1-A1.
 Alpha  occ. eigenvalues --   -5.52869  -3.78852  -3.78852  -3.78357  -1.20903
 Alpha  occ. eigenvalues --   -1.20903  -1.20495  -1.20495  -1.20248  -0.53607
 Alpha  occ. eigenvalues --   -0.31360  -0.31360  -0.24542
 Alpha virt. eigenvalues --   -0.03305  -0.03305  -0.00025   0.06993   0.06993
 Alpha virt. eigenvalues --    0.07097   0.10237   0.10237   0.10288   0.16771
 Alpha virt. eigenvalues --    0.19234   0.19234   0.25323   0.26191   0.26191
 Alpha virt. eigenvalues --    0.41711   0.42797   0.42797   0.47449   0.47449
 Alpha virt. eigenvalues --    0.47685   0.49809   0.55899   0.56994   0.56994
 Alpha virt. eigenvalues --    0.60899   0.62014   0.62014   0.69566   0.69566
 Alpha virt. eigenvalues --    0.72035   0.72035   0.72120   0.72280   0.86419
 Alpha virt. eigenvalues --    0.87811   0.87811   0.97447   1.09593   1.09593
 Alpha virt. eigenvalues --    1.17707   1.18856   1.18856   1.19232   1.21652
 Alpha virt. eigenvalues --    1.21652   1.24612   1.27332   1.27332   1.29215
 Alpha virt. eigenvalues --    1.59527   1.59527   1.63613   1.70655   1.70655
 Alpha virt. eigenvalues --    1.72746   1.73922   1.73922   1.94924   1.95290
 Alpha virt. eigenvalues --    1.95290   1.98473   2.00084   2.00541   2.00541
 Alpha virt. eigenvalues --    2.08650   2.08650   2.24633   2.24633   2.27632
 Alpha virt. eigenvalues --    2.34788   2.34788   2.35412   2.39099   2.44784
 Alpha virt. eigenvalues --    2.47273   2.47273   2.48441   2.52084   2.52084
 Alpha virt. eigenvalues --    2.57282   2.57282   2.63934   2.68652   2.79248
 Alpha virt. eigenvalues --    2.79248   2.86832   2.86832   2.90485   2.91117
 Alpha virt. eigenvalues --    3.13616   3.20554   3.20554   3.24130   3.24130
 Alpha virt. eigenvalues --    3.26197   3.63188   3.63188   3.79796   5.81006
 Alpha virt. eigenvalues --    5.81006   5.81545   5.87902   5.89006   5.89006
 Alpha virt. eigenvalues --    5.90500   5.94306   5.94306   5.96106   6.03183
 Alpha virt. eigenvalues --    6.03183   6.12770   6.12770   6.13895   6.21018
 Alpha virt. eigenvalues --    6.24225   6.24225   6.43195   6.43195   6.45892
 Alpha virt. eigenvalues --    6.53132   6.58418   6.58418   7.92464   7.93050
 Alpha virt. eigenvalues --    7.93050   7.96793   7.96793   7.98103   8.15525
 Alpha virt. eigenvalues --    8.15525   8.24164   8.29870   8.29870   8.34141
 Alpha virt. eigenvalues --    8.50930   8.51620   8.51620   8.63402   8.63527
 Alpha virt. eigenvalues --    8.63527   8.80119   8.89511   8.89511   9.22599
 Alpha virt. eigenvalues --    9.27036   9.27036   9.95074  10.11268  10.11268
 Alpha virt. eigenvalues --   10.14097  10.42446  10.42446  10.52137  14.32402
 Alpha virt. eigenvalues --   40.39146  40.39146  40.39241  75.86370
          Condensed to atoms (all electrons):
               1          2          3          4
     1  Sb  21.714132   0.291294   0.291294   0.291294
     2  H    0.291294   0.851823  -0.002894  -0.002894
     3  H    0.291294  -0.002894   0.851823  -0.002894
     4  H    0.291294  -0.002894  -0.002894   0.851823
 Mulliken charges:
               1
     1  Sb   0.411987
     2  H   -0.137329
     3  H   -0.137329
     4  H   -0.137329
 Sum of Mulliken charges =  -0.00000
 Mulliken charges with hydrogens summed into heavy atoms:
               1
     1  Sb  -0.000000
 Electronic spatial extent (au):  <R**2>=             94.2849
 Charge=              0.0000 electrons
 Dipole moment (field-independent basis, Debye):
    X=              0.0000    Y=              0.0000    Z=              0.4118  Tot=              0.4118
 Quadrupole moment (field-independent basis, Debye-Ang):
   XX=            -27.8693   YY=            -27.8693   ZZ=            -29.9128
   XY=              0.0000   XZ=              0.0000   YZ=             -0.0000
 Traceless Quadrupole moment (field-independent basis, Debye-Ang):
   XX=              0.6811   YY=              0.6811   ZZ=             -1.3623
   XY=              0.0000   XZ=              0.0000   YZ=             -0.0000
 Octapole moment (field-independent basis, Debye-Ang**2):
  XXX=              0.0000  YYY=             -1.0656  ZZZ=              4.9789  XYY=             -0.0000
  XXY=              1.0656  XXZ=              2.6858  XZZ=              0.0000  YZZ=              0.0000
  YYZ=              2.6858  XYZ=             -0.0000
 Hexadecapole moment (field-independent basis, Debye-Ang**3):
 XXXX=            -57.8653 YYYY=            -57.8653 ZZZZ=            -64.6966 XXXY=              0.0000
 XXXZ=             -0.0000 YYYX=              0.0000 YYYZ=             -0.0002 ZZZX=             -0.0000
 ZZZY=              0.0000 XXYY=            -19.2884 XXZZ=            -20.4312 YYZZ=            -20.4312
 XXYZ=              0.0002 YYXZ=             -0.0000 ZZXY=              0.0000
 N-N= 2.195710175347D+01 E-N=-5.590054174180D+02  KE= 9.370097290013D+01
 Symmetry A'   KE= 6.114886565228D+01
 Symmetry A"   KE= 3.255210724785D+01
 Unable to Open any file for archive entry.
 1\1\GINC-TCOPT10\FOpt\RTPSSTPSS\def2QZVPP\H3Sb1\HUTTER\01-Aug-2021\0\\
 #N RTPSSTPSS/Def2QZVPP scf=tight Int(Grid=ultrafine) OPT FREQ\\Mol job
  1\\0,1\Sb,7.8569739202,7.5,7.9817504369\H,8.5625212587,6.2779561626,7
 .0094688382\H,8.5625212587,8.7220438374,7.0094688382\H,6.4458792432,7.
 5,7.0094688382\\Version=ES64L-G16RevC.01\State=1-A1\HF=-241.9451827\RM
 SD=3.517e-09\RMSF=3.308e-05\Dipole=0.,0.,0.1620051\Quadrupole=0.506414
 6,0.5064146,-1.0128292,0.,0.,0.\PG=C03V [C3(Sb1),3SGV(H1)]\\@
 The archive entry for this job was punched.


 "PERFECTION IS NOT AN ACCIDENT"
         --  EAGLE ELECTRIC MANUFACTURING CO.,INC. NY
 Job cpu time:       0 days  0 hours 10 minutes 33.1 seconds.
 Elapsed time:       0 days  0 hours  1 minutes 55.6 seconds.
 File lengths (MBytes):  RWF=     20 Int=      0 D2E=      0 Chk=      3 Scr=      1
 Normal termination of Gaussian 16 at Sun Aug  1 02:42:57 2021.
 Link1:  Proceeding to internal job step number  2.
 ----------------------------------------------------------------------
 #N Geom=AllCheck Guess=TCheck SCRF=Check GenChk RTPSSTPSS/def2QZVPP Fr
 eq
 ----------------------------------------------------------------------
 1/10=4,29=7,30=1,38=1,40=1/1,3;
 2/12=2,40=1/2;
 3/5=45,7=202,11=2,14=-4,25=1,30=1,70=2,71=2,74=2523,75=-5,116=1,140=1/1,2,3;
 4/5=101/1;
 5/5=2,32=2,38=6,98=1/2;
 8/6=4,10=90,11=11/1;
 11/6=1,8=1,9=11,15=111,16=1/1,2,10;
 10/6=1/2;
 6/7=2,8=2,9=2,10=2,28=1/1;
 7/8=1,10=1,25=1/1,2,3,16;
 1/10=4,30=1/3;
 99//99;
 Structure from the checkpoint file:  "/data/hutter/SMG16/TPSS/Gau-25714.chk"
 ---------
 Mol job 1
 ---------
 Charge =  0 Multiplicity = 1
 Redundant internal coordinates found in file.  (old form).
 Sb,0,7.8569739202,7.5,7.9817504369
 H,0,8.5625212587,6.2779561626,7.0094688382
 H,0,8.5625212587,8.7220438374,7.0094688382
 H,0,6.4458792432,7.5,7.0094688382
 Recover connectivity data from disk.

 GradGradGradGradGradGradGradGradGradGradGradGradGradGradGradGradGradGrad
 Berny optimization.
 Initialization pass.
                           ----------------------------
                           !    Initial Parameters    !
                           ! (Angstroms and Degrees)  !
 --------------------------                            --------------------------
 ! Name  Definition              Value          Derivative Info.                !
 --------------------------------------------------------------------------------
 ! R1    R(1,2)                  1.7136         calculate D2E/DX2 analytically  !
 ! R2    R(1,3)                  1.7136         calculate D2E/DX2 analytically  !
 ! R3    R(1,4)                  1.7136         calculate D2E/DX2 analytically  !
 ! A1    A(2,1,3)               90.9807         calculate D2E/DX2 analytically  !
 ! A2    A(2,1,4)               90.9807         calculate D2E/DX2 analytically  !
 ! A3    A(3,1,4)               90.9807         calculate D2E/DX2 analytically  !
 ! D1    D(2,1,4,3)            -90.9978         calculate D2E/DX2 analytically  !
 --------------------------------------------------------------------------------
 Trust Radius=3.00D-01 FncErr=1.00D-07 GrdErr=1.00D-07 EigMax=2.50D+02 EigMin=1.00D-04
 Number of steps in this run=      2 maximum allowed number of steps=      2.
 GradGradGradGradGradGradGradGradGradGradGradGradGradGradGradGradGradGrad

                          Input orientation:                          
 ---------------------------------------------------------------------
 Center     Atomic      Atomic             Coordinates (Angstroms)
 Number     Number       Type             X           Y           Z
 ---------------------------------------------------------------------
      1         51           0        7.856974    7.500000    7.981750
      2          1           0        8.562521    6.277956    7.009469
      3          1           0        8.562521    8.722044    7.009469
      4          1           0        6.445879    7.500000    7.009469
 ---------------------------------------------------------------------
                    Distance matrix (angstroms):
                    1          2          3          4
     1  Sb   0.000000
     2  H    1.713628   0.000000
     3  H    1.713628   2.444088   0.000000
     4  H    1.713628   2.444088   2.444088   0.000000
 Stoichiometry    H3Sb
 Framework group  C3V[C3(Sb),3SGV(H)]
 Deg. of freedom     2
 Full point group                 C3V     NOp   6
 Largest Abelian subgroup         CS      NOp   2
 Largest concise Abelian subgroup CS      NOp   2
                         Standard orientation:                         
 ---------------------------------------------------------------------
 Center     Atomic      Atomic             Coordinates (Angstroms)
 Number     Number       Type             X           Y           Z
 ---------------------------------------------------------------------
      1         51           0        0.000000    0.000000    0.054016
      2          1           0        0.000000    1.411095   -0.918266
      3          1           0       -1.222044   -0.705547   -0.918266
      4          1           0        1.222044   -0.705547   -0.918266
 ---------------------------------------------------------------------
 Rotational constants (GHZ):          87.1552204          87.1552204          83.9457077
 Standard basis: def2QZVPP (5D, 7F)
 There are   127 symmetry adapted cartesian basis functions of A'  symmetry.
 There are    82 symmetry adapted cartesian basis functions of A"  symmetry.
 There are   102 symmetry adapted basis functions of A'  symmetry.
 There are    70 symmetry adapted basis functions of A"  symmetry.
   172 basis functions,   294 primitive gaussians,   209 cartesian basis functions
    13 alpha electrons       13 beta electrons
       nuclear repulsion energy        21.9571017535 Hartrees.
 NAtoms=    4 NActive=    4 NUniq=    2 SFac= 4.00D+00 NAtFMM=   60 NAOKFM=F Big=F
 Integral buffers will be    131072 words long.
 Raffenetti 2 integral format.
 Two-electron integral symmetry is turned on.
 One-electron integrals computed using PRISM.
   6 Symmetry operations used in ECPInt.
 ECPInt:  NShTT=    1378 NPrTT=    3850 LenC2=    1379 LenP2D=    3697.
 LDataN:  DoStor=T MaxTD1= 8 Len=  415
 NBasis=   172 RedAO= T EigKep=  3.75D-04  NBF=   102    70
 NBsUse=   172 1.00D-06 EigRej= -1.00D+00 NBFU=   102    70
 Defaulting to unpruned grid for atomic number  51.
 Initial guess from the checkpoint file:  "/data/hutter/SMG16/TPSS/Gau-25714.chk"
 B after Tr=     0.000000    0.000000    0.000000
         Rot=    1.000000    0.000000    0.000000    0.000000 Ang=   0.00 deg.
 Initial guess orbital symmetries:
       Occupied  (A1) (E) (E) (A1) (E) (E) (E) (E) (A1) (A1) (E)
                 (E) (A1)
       Virtual   (E) (E) (A1) (E) (E) (A1) (E) (E) (A1) (A1) (E)
                 (E) (A1) (E) (E) (A2) (E) (E) (E) (E) (A1) (A1)
                 (A1) (E) (E) (A1) (E) (E) (E) (E) (E) (E) (A2)
                 (A1) (A1) (E) (E) (A1) (E) (E) (A2) (E) (E) (A1)
                 (E) (E) (A1) (E) (E) (A1) (E) (E) (A1) (E) (E)
                 (A2) (E) (E) (A1) (E) (E) (A1) (A2) (E) (E) (E)
                 (E) (E) (E) (A1) (E) (E) (A1) (A1) (A2) (E) (E)
                 (A1) (E) (E) (E) (E) (A2) (A1) (E) (E) (E) (E)
                 (A1) (A1) (A1) (E) (E) (E) (E) (A2) (E) (E) (A1)
                 (E) (E) (A1) (A2) (E) (E) (A2) (E) (E) (A1) (E)
                 (E) (E) (E) (A1) (A1) (E) (E) (E) (E) (A2) (A1)
                 (E) (E) (A2) (E) (E) (E) (E) (A1) (E) (E) (A2)
                 (E) (E) (A1) (A1) (E) (E) (A2) (E) (E) (A1) (E)
                 (E) (A1) (E) (E) (A1) (E) (E) (A2) (E) (E) (A1)
                 (A1) (E) (E) (A1) (A1)
 Keep J ints in memory in symmetry-blocked form, NReq=166153828.
 Requested convergence on RMS density matrix=1.00D-08 within 128 cycles.
 Requested convergence on MAX density matrix=1.00D-06.
 Requested convergence on             energy=1.00D-06.
 No special actions if energy rises.
 Defaulting to unpruned grid for atomic number  51.
 Defaulting to unpruned grid for atomic number  51.
 Defaulting to unpruned grid for atomic number  51.
 Defaulting to unpruned grid for atomic number  51.
 Defaulting to unpruned grid for atomic number  51.
 Defaulting to unpruned grid for atomic number  51.
 Defaulting to unpruned grid for atomic number  51.
 Defaulting to unpruned grid for atomic number  51.
 SCF Done:  E(RTPSS-TPSS) =  -241.945182710     A.U. after    1 cycles
            NFock=  1  Conv=0.11D-08     -V/T= 3.5821
 DoSCS=F DFT=T ScalE2(SS,OS)=  1.000000  1.000000
 Range of M.O.s used for correlation:     1   172
 NBasis=   172 NAE=    13 NBE=    13 NFC=     0 NFV=     0
 NROrb=    172 NOA=    13 NOB=    13 NVA=   159 NVB=   159

 **** Warning!!: The largest alpha MO coefficient is  0.22451999D+02

   6 Symmetry operations used in ECPInt.
 ECPInt:  NShTT=    1378 NPrTT=    3850 LenC2=    1379 LenP2D=    3697.
 LDataN:  DoStor=T MaxTD1= 9 Len=  602
 Symmetrizing basis deriv contribution to polar:
 IMax=3 JMax=2 DiffMx= 0.00D+00
 G2DrvN: will do     5 centers at a time, making    1 passes.
 Calling FoFCou, ICntrl=  3507 FMM=F I1Cent=   0 AccDes= 0.00D+00.
 Defaulting to unpruned grid for atomic number  51.
 Defaulting to unpruned grid for atomic number  51.
 Defaulting to unpruned grid for atomic number  51.
 Defaulting to unpruned grid for atomic number  51.
 Defaulting to unpruned grid for atomic number  51.
 Defaulting to unpruned grid for atomic number  51.
 Defaulting to unpruned grid for atomic number  51.
 Defaulting to unpruned grid for atomic number  51.
 End of G2Drv F.D. properties file   721 does not exist.
 End of G2Drv F.D. properties file   722 does not exist.
 End of G2Drv F.D. properties file   788 does not exist.
          IDoAtm=1111
          Differentiating once with respect to electric field.
                with respect to dipole field.
          Differentiating once with respect to nuclear coordinates.
 Defaulting to unpruned grid for atomic number  51.
 Keep J ints in memory in symmetry-blocked form, NReq=166156097.
 Defaulting to unpruned grid for atomic number  51.
 Defaulting to unpruned grid for atomic number  51.
 Defaulting to unpruned grid for atomic number  51.
 Defaulting to unpruned grid for atomic number  51.
 Defaulting to unpruned grid for atomic number  51.
 Defaulting to unpruned grid for atomic number  51.
 Defaulting to unpruned grid for atomic number  51.
 Defaulting to unpruned grid for atomic number  51.
          There are     9 degrees of freedom in the 1st order CPHF.  IDoFFX=4 NUNeed=     9.
      9 vectors produced by pass  0 Test12= 2.30D-14 1.11D-08 XBig12= 7.22D+01 5.62D+00.
 AX will form     9 AO Fock derivatives at one time.
      9 vectors produced by pass  1 Test12= 2.30D-14 1.11D-08 XBig12= 7.87D+00 1.13D+00.
      9 vectors produced by pass  2 Test12= 2.30D-14 1.11D-08 XBig12= 3.42D-01 1.81D-01.
      9 vectors produced by pass  3 Test12= 2.30D-14 1.11D-08 XBig12= 4.45D-03 1.88D-02.
      9 vectors produced by pass  4 Test12= 2.30D-14 1.11D-08 XBig12= 2.95D-05 1.66D-03.
      9 vectors produced by pass  5 Test12= 2.30D-14 1.11D-08 XBig12= 9.74D-08 5.96D-05.
      5 vectors produced by pass  6 Test12= 2.30D-14 1.11D-08 XBig12= 3.62D-10 2.76D-06.
      3 vectors produced by pass  7 Test12= 2.30D-14 1.11D-08 XBig12= 2.43D-12 3.41D-07.
      2 vectors produced by pass  8 Test12= 2.30D-14 1.11D-08 XBig12= 1.35D-14 2.37D-08.
 InvSVY:  IOpt=1 It=  1 EMax= 2.66D-15
 Solved reduced A of dimension    64 with     9 vectors.
 Isotropic polarizability for W=    0.000000       45.69 Bohr**3.
 End of Minotr F.D. properties file   721 does not exist.
 End of Minotr F.D. properties file   722 does not exist.
 End of Minotr F.D. properties file   788 does not exist.

 **********************************************************************

            Population analysis using the SCF Density.

 **********************************************************************

 Orbital symmetries:
       Occupied  (A1) (E) (E) (A1) (E) (E) (E) (E) (A1) (A1) (E)
                 (E) (A1)
       Virtual   (E) (E) (A1) (E) (E) (A1) (E) (E) (A1) (A1) (E)
                 (E) (A1) (E) (E) (A2) (E) (E) (E) (E) (A1) (A1)
                 (A1) (E) (E) (A1) (E) (E) (E) (E) (E) (E) (A2)
                 (A1) (A1) (E) (E) (A1) (E) (E) (A2) (E) (E) (A1)
                 (E) (E) (A1) (E) (E) (A1) (E) (E) (A1) (E) (E)
                 (A2) (E) (E) (A1) (E) (E) (A1) (A2) (E) (E) (E)
                 (E) (E) (E) (A1) (E) (E) (A1) (A1) (A2) (E) (E)
                 (A1) (E) (E) (E) (E) (A2) (A1) (E) (E) (E) (E)
                 (A1) (A1) (A1) (E) (E) (E) (E) (A2) (E) (E) (A1)
                 (E) (E) (A1) (A2) (E) (E) (A2) (E) (E) (A1) (E)
                 (E) (E) (E) (A1) (A1) (E) (E) (E) (E) (A2) (A1)
                 (E) (E) (A2) (E) (E) (E) (E) (A1) (E) (E) (A2)
                 (E) (E) (A1) (A1) (E) (E) (A2) (E) (E) (A1) (E)
                 (E) (A1) (E) (E) (A1) (E) (E) (A2) (E) (E) (A1)
                 (A1) (E) (E) (A1) (A1)
 The electronic state is 1-A1.
 Alpha  occ. eigenvalues --   -5.52869  -3.78852  -3.78852  -3.78357  -1.20903
 Alpha  occ. eigenvalues --   -1.20903  -1.20495  -1.20495  -1.20248  -0.53607
 Alpha  occ. eigenvalues --   -0.31360  -0.31360  -0.24542
 Alpha virt. eigenvalues --   -0.03305  -0.03305  -0.00025   0.06993   0.06993
 Alpha virt. eigenvalues --    0.07097   0.10237   0.10237   0.10288   0.16771
 Alpha virt. eigenvalues --    0.19234   0.19234   0.25323   0.26191   0.26191
 Alpha virt. eigenvalues --    0.41711   0.42797   0.42797   0.47449   0.47449
 Alpha virt. eigenvalues --    0.47685   0.49809   0.55899   0.56994   0.56994
 Alpha virt. eigenvalues --    0.60899   0.62014   0.62014   0.69566   0.69566
 Alpha virt. eigenvalues --    0.72035   0.72035   0.72120   0.72280   0.86419
 Alpha virt. eigenvalues --    0.87811   0.87811   0.97447   1.09593   1.09593
 Alpha virt. eigenvalues --    1.17707   1.18856   1.18856   1.19232   1.21652
 Alpha virt. eigenvalues --    1.21652   1.24612   1.27332   1.27332   1.29215
 Alpha virt. eigenvalues --    1.59527   1.59527   1.63613   1.70655   1.70655
 Alpha virt. eigenvalues --    1.72746   1.73922   1.73922   1.94924   1.95290
 Alpha virt. eigenvalues --    1.95290   1.98473   2.00084   2.00541   2.00541
 Alpha virt. eigenvalues --    2.08650   2.08650   2.24633   2.24633   2.27632
 Alpha virt. eigenvalues --    2.34788   2.34788   2.35412   2.39099   2.44784
 Alpha virt. eigenvalues --    2.47273   2.47273   2.48441   2.52084   2.52084
 Alpha virt. eigenvalues --    2.57282   2.57282   2.63934   2.68652   2.79248
 Alpha virt. eigenvalues --    2.79248   2.86832   2.86832   2.90485   2.91117
 Alpha virt. eigenvalues --    3.13616   3.20554   3.20554   3.24130   3.24130
 Alpha virt. eigenvalues --    3.26197   3.63188   3.63188   3.79796   5.81006
 Alpha virt. eigenvalues --    5.81006   5.81545   5.87902   5.89006   5.89006
 Alpha virt. eigenvalues --    5.90500   5.94306   5.94306   5.96106   6.03183
 Alpha virt. eigenvalues --    6.03183   6.12770   6.12770   6.13895   6.21018
 Alpha virt. eigenvalues --    6.24225   6.24225   6.43195   6.43195   6.45892
 Alpha virt. eigenvalues --    6.53132   6.58418   6.58418   7.92464   7.93050
 Alpha virt. eigenvalues --    7.93050   7.96793   7.96793   7.98103   8.15525
 Alpha virt. eigenvalues --    8.15525   8.24164   8.29870   8.29870   8.34141
 Alpha virt. eigenvalues --    8.50930   8.51620   8.51620   8.63402   8.63527
 Alpha virt. eigenvalues --    8.63527   8.80119   8.89511   8.89511   9.22599
 Alpha virt. eigenvalues --    9.27036   9.27036   9.95074  10.11268  10.11268
 Alpha virt. eigenvalues --   10.14097  10.42446  10.42446  10.52137  14.32402
 Alpha virt. eigenvalues --   40.39146  40.39146  40.39241  75.86370
          Condensed to atoms (all electrons):
               1          2          3          4
     1  Sb  21.714131   0.291294   0.291294   0.291294
     2  H    0.291294   0.851824  -0.002894  -0.002894
     3  H    0.291294  -0.002894   0.851824  -0.002894
     4  H    0.291294  -0.002894  -0.002894   0.851824
 Mulliken charges:
               1
     1  Sb   0.411988
     2  H   -0.137329
     3  H   -0.137329
     4  H   -0.137329
 Sum of Mulliken charges =   0.00000
 Mulliken charges with hydrogens summed into heavy atoms:
               1
     1  Sb   0.000000
 APT charges:
               1
     1  Sb   0.605603
     2  H   -0.201867
     3  H   -0.201867
     4  H   -0.201867
 Sum of APT charges =   0.00000
 APT charges with hydrogens summed into heavy atoms:
               1
     1  Sb   0.000002
 Electronic spatial extent (au):  <R**2>=             94.2849
 Charge=              0.0000 electrons
 Dipole moment (field-independent basis, Debye):
    X=             -0.0000    Y=              0.0000    Z=              0.4118  Tot=              0.4118
 Quadrupole moment (field-independent basis, Debye-Ang):
   XX=            -27.8694   YY=            -27.8694   ZZ=            -29.9128
   XY=              0.0000   XZ=              0.0000   YZ=              0.0000
 Traceless Quadrupole moment (field-independent basis, Debye-Ang):
   XX=              0.6811   YY=              0.6811   ZZ=             -1.3623
   XY=              0.0000   XZ=              0.0000   YZ=              0.0000
 Octapole moment (field-independent basis, Debye-Ang**2):
  XXX=             -0.0000  YYY=             -1.0656  ZZZ=              4.9789  XYY=              0.0000
  XXY=              1.0656  XXZ=              2.6858  XZZ=              0.0000  YZZ=              0.0000
  YYZ=              2.6858  XYZ=              0.0000
 Hexadecapole moment (field-independent basis, Debye-Ang**3):
 XXXX=            -57.8653 YYYY=            -57.8653 ZZZZ=            -64.6966 XXXY=              0.0000
 XXXZ=              0.0000 YYYX=              0.0000 YYYZ=             -0.0002 ZZZX=             -0.0000
 ZZZY=              0.0000 XXYY=            -19.2884 XXZZ=            -20.4312 YYZZ=            -20.4312
 XXYZ=              0.0002 YYXZ=              0.0000 ZZXY=              0.0000
 N-N= 2.195710175347D+01 E-N=-5.590054150514D+02  KE= 9.370097254526D+01
 Symmetry A'   KE= 6.114886538657D+01
 Symmetry A"   KE= 3.255210715869D+01
  Exact polarizability:      45.317       0.000      45.316       0.000       0.000      46.438
 Approx polarizability:      83.663      -0.000      83.663       0.000       0.000      78.648
   6 Symmetry operations used in ECPInt.
 ECPInt:  NShTT=    1378 NPrTT=    3850 LenC2=    1379 LenP2D=    3697.
 LDataN:  DoStor=T MaxTD1=10 Len=  848
 Calling FoFJK, ICntrl=    100527 FMM=F ISym2X=1 I1Cent= 0 IOpClX= 0 NMat=1 NMatS=1 NMatT=0.
 Defaulting to unpruned grid for atomic number  51.
 Defaulting to unpruned grid for atomic number  51.
 Defaulting to unpruned grid for atomic number  51.
 Defaulting to unpruned grid for atomic number  51.
 Defaulting to unpruned grid for atomic number  51.
 Defaulting to unpruned grid for atomic number  51.
 Defaulting to unpruned grid for atomic number  51.
 Defaulting to unpruned grid for atomic number  51.
 Full mass-weighted force constant matrix:
 Low frequencies ---  -20.6631  -20.6620  -17.6023   -0.0005    0.0033    0.0138
 Low frequencies ---  799.9778  833.7152  833.7153
 Diagonal vibrational polarizability:
        1.9144368       1.9144222       3.4284209
 Harmonic frequencies (cm**-1), IR intensities (KM/Mole), Raman scattering
 activities (A**4/AMU), depolarization ratios for plane and unpolarized
 incident light, reduced masses (AMU), force constants (mDyne/A),
 and normal coordinates:
                      1                      2                      3
                     A1                      E                      E
 Frequencies --    799.9778               833.7151               833.7151
 Red. masses --      1.0253                 1.0122                 1.0122
 Frc consts  --      0.3866                 0.4145                 0.4145
 IR Inten    --     58.7354                17.9576                17.9582
  Atom  AN      X      Y      Z        X      Y      Z        X      Y      Z
     1  51    -0.00   0.00  -0.01    -0.01   0.00   0.00    -0.00  -0.01  -0.00
     2   1     0.00   0.32   0.48     0.71   0.00   0.00     0.00  -0.23  -0.33
     3   1    -0.27  -0.16   0.48     0.01  -0.41   0.29    -0.41   0.48   0.17
     4   1     0.27  -0.16   0.48     0.01   0.41  -0.29     0.41   0.48   0.17
                      4                      5                      6
                     A1                      E                      E
 Frequencies --   1928.3032              1935.3928              1935.3928
 Red. masses --      1.0151                 1.0162                 1.0162
 Frc consts  --      2.2239                 2.2427                 2.2427
 IR Inten    --    132.4416               169.6964               169.6910
  Atom  AN      X      Y      Z        X      Y      Z        X      Y      Z
     1  51    -0.00   0.00   0.01    -0.01   0.00  -0.00    -0.00  -0.01   0.00
     2   1    -0.00   0.49  -0.31    -0.01  -0.00   0.00    -0.00   0.67  -0.46
     3   1    -0.42  -0.24  -0.31     0.50   0.29   0.40     0.29   0.16   0.23
     4   1     0.42  -0.24  -0.31     0.50  -0.29  -0.40    -0.29   0.16   0.23

 -------------------
 - Thermochemistry -
 -------------------
 Temperature   298.150 Kelvin.  Pressure   1.00000 Atm.
 Atom     1 has atomic number 51 and mass 120.90380
 Atom     2 has atomic number  1 and mass   1.00783
 Atom     3 has atomic number  1 and mass   1.00783
 Atom     4 has atomic number  1 and mass   1.00783
 Molecular mass:   123.92728 amu.
 Principal axes and moments of inertia in atomic units:
                           1         2         3
     Eigenvalues --    20.70721  20.70721  21.49891
           X           -0.25997   0.96562  -0.00000
           Y            0.96562   0.25997  -0.00000
           Z            0.00000   0.00000   1.00000
 This molecule is an oblate symmetric top.
 Rotational symmetry number  3.
 Rotational temperatures (Kelvin)      4.18279     4.18279     4.02876
 Rotational constants (GHZ):          87.15522    87.15522    83.94571
 Zero-point vibrational energy      49444.6 (Joules/Mol)
                                   11.81755 (Kcal/Mol)
 Vibrational temperatures:   1150.99  1199.53  1199.53  2774.40  2784.60
          (Kelvin)           2784.60
 
 Zero-point correction=                           0.018832 (Hartree/Particle)
 Thermal correction to Energy=                    0.021884
 Thermal correction to Enthalpy=                  0.022828
 Thermal correction to Gibbs Free Energy=        -0.003600
 Sum of electronic and zero-point Energies=           -241.926350
 Sum of electronic and thermal Energies=              -241.923299
 Sum of electronic and thermal Enthalpies=            -241.922354
 Sum of electronic and thermal Free Energies=         -241.948783
 
                     E (Thermal)             CV                S
                      KCal/Mol        Cal/Mol-Kelvin    Cal/Mol-Kelvin
 Total                   13.733              7.852             55.624
 Electronic               0.000              0.000              0.000
 Translational            0.889              2.981             40.357
 Rotational               0.889              2.981             14.690
 Vibrational             11.955              1.890              0.576
                       Q            Log10(Q)             Ln(Q)
 Total Bot       0.452873D+02          1.655976          3.813027
 Total V=0       0.208114D+11         10.318302         23.758767
 Vib (Bot)       0.230525D-08         -8.637282        -19.888077
 Vib (V=0)       0.105936D+01          0.025043          0.057664
 Electronic      0.100000D+01          0.000000          0.000000
 Translational   0.542256D+08          7.734204         17.808663
 Rotational      0.362288D+03          2.559054          5.892440
 ***** Axes restored to original set *****
 -------------------------------------------------------------------
 Center     Atomic                   Forces (Hartrees/Bohr)
 Number     Number              X              Y              Z
 -------------------------------------------------------------------
      1       51           0.000000000    0.000000000   -0.000092258
      2        1           0.000012199   -0.000021129    0.000030753
      3        1           0.000012199    0.000021129    0.000030753
      4        1          -0.000024398    0.000000000    0.000030753
 -------------------------------------------------------------------
 Cartesian Forces:  Max     0.000092258 RMS     0.000033084
 FormGI is forming the generalized inverse of G from B-inverse, IUseBI=4.

 GradGradGradGradGradGradGradGradGradGradGradGradGradGradGradGradGradGrad
 Berny optimization.
 Internal  Forces:  Max     0.000089660 RMS     0.000053713
 Search for a local minimum.
 Step number   1 out of a maximum of    2
 All quantities printed in internal units (Hartrees-Bohrs-Radians)
 Second derivative matrix not updated -- analytic derivatives used.
 The second derivative matrix:
                          R1        R2        R3        A1        A2
           R1           0.14132
           R2          -0.00034   0.14132
           R3          -0.00034  -0.00034   0.14132
           A1           0.00191   0.00191   0.00073   0.03368
           A2           0.00388   0.00156   0.00390  -0.00316   0.13445
           A3           0.00156   0.00388   0.00390  -0.00316  -0.00279
           D1          -0.00200  -0.00200  -0.00087  -0.03358   0.00087
                          A3        D1
           A3           0.13445
           D1           0.00087   0.03356
 ITU=  0
     Eigenvalues ---    0.06667   0.12769   0.13625   0.14168   0.14265
     Eigenvalues ---    0.14516
 Angle between quadratic step and forces=  19.12 degrees.
 Linear search not attempted -- first point.
 Iteration  1 RMS(Cart)=  0.00073802 RMS(Int)=  0.00000032
 Iteration  2 RMS(Cart)=  0.00000027 RMS(Int)=  0.00000014
 ClnCor:  largest displacement from symmetrization is 1.56D-08 for atom     2.
 Variable       Old X    -DE/DX   Delta X   Delta X   Delta X     New X
                                 (Linear)    (Quad)   (Total)
    R1        3.23829   0.00000   0.00000  -0.00003  -0.00003   3.23826
    R2        3.23829   0.00000   0.00000  -0.00003  -0.00003   3.23826
    R3        3.23829   0.00000   0.00000  -0.00003  -0.00003   3.23826
    A1        1.58791   0.00004   0.00000   0.00070   0.00070   1.58862
    A2        1.58791   0.00009   0.00000   0.00070   0.00070   1.58862
    A3        1.58791   0.00009   0.00000   0.00070   0.00070   1.58862
    D1       -1.58821  -0.00005   0.00000  -0.00073  -0.00073  -1.58894
         Item               Value     Threshold  Converged?
 Maximum Force            0.000090     0.000450     YES
 RMS     Force            0.000054     0.000300     YES
 Maximum Displacement     0.001018     0.001800     YES
 RMS     Displacement     0.000738     0.001200     YES
 Predicted change in Energy=-9.554049D-08
 Optimization completed.
    -- Stationary point found.
                           ----------------------------
                           !   Optimized Parameters   !
                           ! (Angstroms and Degrees)  !
 --------------------------                            --------------------------
 ! Name  Definition              Value          Derivative Info.                !
 --------------------------------------------------------------------------------
 ! R1    R(1,2)                  1.7136         -DE/DX =    0.0                 !
 ! R2    R(1,3)                  1.7136         -DE/DX =    0.0                 !
 ! R3    R(1,4)                  1.7136         -DE/DX =    0.0                 !
 ! A1    A(2,1,3)               90.9807         -DE/DX =    0.0                 !
 ! A2    A(2,1,4)               90.9807         -DE/DX =    0.0001              !
 ! A3    A(3,1,4)               90.9807         -DE/DX =    0.0001              !
 ! D1    D(2,1,4,3)            -90.9978         -DE/DX =    0.0                 !
 --------------------------------------------------------------------------------
 GradGradGradGradGradGradGradGradGradGradGradGradGradGradGradGradGradGrad


 ----------------------------------------------------------------------

 Electric dipole moment (input orientation):
 (Debye = 10**-18 statcoulomb cm , SI units = C m)
                  (au)            (Debye)         (10**-30 SI)
   Tot        0.162006D+00      0.411779D+00      0.137355D+01
   x          0.000000D+00      0.000000D+00      0.000000D+00
   y          0.000000D+00      0.000000D+00      0.000000D+00
   z          0.162006D+00      0.411779D+00      0.137355D+01

 Dipole polarizability, Alpha (input orientation).
 (esu units = cm**3 , SI units = C**2 m**2 J**-1)
 Alpha(0;0):
               (au)            (10**-24 esu)      (10**-40 SI)
   iso        0.456903D+02      0.677060D+01      0.753331D+01
   aniso      0.112212D+01      0.166280D+00      0.185012D+00
   xx         0.453165D+02      0.671521D+01      0.747168D+01
   yx         0.343528D-03      0.509056D-04      0.566402D-04
   yy         0.453161D+02      0.671515D+01      0.747161D+01
   zx         0.465119D-04      0.689235D-05      0.766877D-05
   zy        -0.805609D-04     -0.119379D-04     -0.132827D-04
   zz         0.464384D+02      0.688146D+01      0.765665D+01

 ----------------------------------------------------------------------

 Dipole orientation:
    51         14.84752888         14.17294593         15.08332232
     1         16.18082011         11.86361777         13.24597638
     1         16.18082011         16.48227410         13.24597638
     1         12.18094640         14.17294593         13.24597638

 Electric dipole moment (dipole orientation):
 (Debye = 10**-18 statcoulomb cm , SI units = C m)
                  (au)            (Debye)         (10**-30 SI)
   Tot        0.162006D+00      0.411779D+00      0.137355D+01
   x          0.000000D+00      0.000000D+00      0.000000D+00
   y          0.000000D+00      0.000000D+00      0.000000D+00
   z          0.162006D+00      0.411779D+00      0.137355D+01

 Dipole polarizability, Alpha (dipole orientation).
 (esu units = cm**3 , SI units = C**2 m**2 J**-1)
 Alpha(0;0):
               (au)            (10**-24 esu)      (10**-40 SI)
   iso        0.456903D+02      0.677060D+01      0.753331D+01
   aniso      0.112212D+01      0.166280D+00      0.185012D+00
   xx         0.453165D+02      0.671521D+01      0.747168D+01
   yx         0.343528D-03      0.509056D-04      0.566402D-04
   yy         0.453161D+02      0.671515D+01      0.747161D+01
   zx         0.465119D-04      0.689235D-05      0.766877D-05
   zy        -0.805609D-04     -0.119379D-04     -0.132827D-04
   zz         0.464384D+02      0.688146D+01      0.765665D+01

 ----------------------------------------------------------------------
 Unable to Open any file for archive entry.
 1\1\GINC-TCOPT10\Freq\RTPSSTPSS\def2QZVPP\H3Sb1\HUTTER\01-Aug-2021\0\\
 #N Geom=AllCheck Guess=TCheck SCRF=Check GenChk RTPSSTPSS/def2QZVPP Fr
 eq\\Mol job 1\\0,1\Sb,7.8569739202,7.5,7.9817504369\H,8.5625212587,6.2
 779561626,7.0094688382\H,8.5625212587,8.7220438374,7.0094688382\H,6.44
 58792432,7.5,7.0094688382\\Version=ES64L-G16RevC.01\State=1-A1\HF=-241
 .9451827\RMSD=1.120e-09\RMSF=3.308e-05\ZeroPoint=0.0188325\Thermal=0.0
 218842\ETot=-241.9232985\HTot=-241.9223543\GTot=-241.9487829\Dipole=0.
 ,0.,0.1620062\DipoleDeriv=0.5591947,-0.0000057,-0.0000023,-0.0000057,0
 .5592013,0.000004,-0.0000054,0.0000094,0.6984123,-0.1474374,0.0674862,
 0.0508128,0.0674862,-0.2253637,-0.0880103,0.1081748,-0.1873642,-0.2327
 986,-0.1474341,-0.0674822,0.0508114,-0.0674891,-0.2253652,0.0880082,0.
 1081809,0.1873646,-0.2328027,-0.2643267,-0.0000011,-0.101623,0.0000058
 ,-0.1084726,0.0000001,-0.2163529,-0.0000051,-0.2328027\Polar=45.316461
 6,0.0003435,45.3160649,0.0000465,-0.0000806,46.4383782\Quadrupole=0.50
 64148,0.5064148,-1.0128296,0.,0.,0.\PG=C03V [C3(Sb1),3SGV(H1)]\NImag=0
 \\0.15639922,-0.00000024,0.15639950,-0.00000002,0.00000003,0.17344890,
 -0.03247974,0.03404074,0.02649141,0.03533559,0.03404074,-0.07178660,-0
 .04588446,-0.03813418,0.07936915,0.03592112,-0.06221720,-0.05781636,-0
 .02983543,0.05167648,0.05225196,-0.03247976,-0.03404053,0.02649121,0.0
 0211720,0.00374506,-0.00274159,0.03533559,-0.03404071,-0.07178650,0.04
 588434,-0.00374506,-0.00733640,0.00544426,0.03813418,0.07936915,0.0359
 2110,0.06221718,-0.05781632,-0.00274159,-0.00544426,0.00278220,-0.0298
 3543,-0.05167648,0.05225196,-0.09143986,-0.00000009,-0.05298261,-0.004
 97300,0.00034846,-0.00334407,-0.00497300,-0.00034846,-0.00334407,0.101
 38593,0.00000009,-0.01282640,0.00000011,0.00783859,-0.00024620,0.00509
 642,-0.00783859,-0.00024620,-0.00509642,0.,0.01331882,-0.07184221,0.,-
 0.05781632,0.00608566,-0.00034784,0.00278220,0.00608566,0.00034784,0.0
 0278220,0.05967085,0.,0.05225196\\0.,0.,0.00009226,-0.00001220,0.00002
 113,-0.00003075,-0.00001220,-0.00002113,-0.00003075,0.00002440,0.,-0.0
 0003075\\\@
 The archive entry for this job was punched.


 THEORY:  SUPPOSITION WHICH HAS SCIENTIFIC BASIS,
          BUT NOT EXPERIMENTALLY PROVEN.
 FACT:    A THEORY WHICH HAS BEEN PROVEN BY ENOUGH 
          MONEY TO PAY FOR THE EXPERIMENTS.

                          --  THE WIZARD OF ID
 Job cpu time:       0 days  0 hours 14 minutes  3.7 seconds.
 Elapsed time:       0 days  0 hours  2 minutes 25.3 seconds.
 File lengths (MBytes):  RWF=     20 Int=      0 D2E=      0 Chk=      3 Scr=      1
 Normal termination of Gaussian 16 at Sun Aug  1 02:45:23 2021.
