 Entering Gaussian System, Link 0=g16
 Initial command:
 /sw-ng/spack/opt/spack/linux-opensuse_leap15-sandybridge/pgi-18.10/gaussian-src-16-C.01-zldqaomctopxhethwccpmxmwefdscg3m/g16/l1.exe "/data/hutter/SMG16/TPSS/Gau-76539.inp" -scrdir="/data/hutter/SMG16/TPSS/"
 Entering Link 1 = /sw-ng/spack/opt/spack/linux-opensuse_leap15-sandybridge/pgi-18.10/gaussian-src-16-C.01-zldqaomctopxhethwccpmxmwefdscg3m/g16/l1.exe PID=     76546.
  
 Copyright (c) 1988-2019, Gaussian, Inc.  All Rights Reserved.
  
 This is part of the Gaussian(R) 16 program.  It is based on
 the Gaussian(R) 09 system (copyright 2009, Gaussian, Inc.),
 the Gaussian(R) 03 system (copyright 2003, Gaussian, Inc.),
 the Gaussian(R) 98 system (copyright 1998, Gaussian, Inc.),
 the Gaussian(R) 94 system (copyright 1995, Gaussian, Inc.),
 the Gaussian 92(TM) system (copyright 1992, Gaussian, Inc.),
 the Gaussian 90(TM) system (copyright 1990, Gaussian, Inc.),
 the Gaussian 88(TM) system (copyright 1988, Gaussian, Inc.),
 the Gaussian 86(TM) system (copyright 1986, Carnegie Mellon
 University), and the Gaussian 82(TM) system (copyright 1983,
 Carnegie Mellon University). Gaussian is a federally registered
 trademark of Gaussian, Inc.
  
 This software contains proprietary and confidential information,
 including trade secrets, belonging to Gaussian, Inc.
  
 This software is provided under written license and may be
 used, copied, transmitted, or stored only in accord with that
 written license.
  
 The following legend is applicable only to US Government
 contracts under FAR:
  
                    RESTRICTED RIGHTS LEGEND
  
 Use, reproduction and disclosure by the US Government is
 subject to restrictions as set forth in subparagraphs (a)
 and (c) of the Commercial Computer Software - Restricted
 Rights clause in FAR 52.227-19.
  
 Gaussian, Inc.
 340 Quinnipiac St., Bldg. 40, Wallingford CT 06492
  
  
 ---------------------------------------------------------------
 Warning -- This program may not be used in any manner that
 competes with the business of Gaussian, Inc. or will provide
 assistance to any competitor of Gaussian, Inc.  The licensee
 of this program is prohibited from giving any competitor of
 Gaussian, Inc. access to this program.  By using this program,
 the user acknowledges that Gaussian, Inc. is engaged in the
 business of creating and licensing software in the field of
 computational chemistry and represents and warrants to the
 licensee that it is not a competitor of Gaussian, Inc. and that
 it will not use this program in any manner prohibited above.
 ---------------------------------------------------------------
  

 Cite this work as:
 Gaussian 16, Revision C.01,
 M. J. Frisch, G. W. Trucks, H. B. Schlegel, G. E. Scuseria, 
 M. A. Robb, J. R. Cheeseman, G. Scalmani, V. Barone, 
 G. A. Petersson, H. Nakatsuji, X. Li, M. Caricato, A. V. Marenich, 
 J. Bloino, B. G. Janesko, R. Gomperts, B. Mennucci, H. P. Hratchian, 
 J. V. Ortiz, A. F. Izmaylov, J. L. Sonnenberg, D. Williams-Young, 
 F. Ding, F. Lipparini, F. Egidi, J. Goings, B. Peng, A. Petrone, 
 T. Henderson, D. Ranasinghe, V. G. Zakrzewski, J. Gao, N. Rega, 
 G. Zheng, W. Liang, M. Hada, M. Ehara, K. Toyota, R. Fukuda, 
 J. Hasegawa, M. Ishida, T. Nakajima, Y. Honda, O. Kitao, H. Nakai, 
 T. Vreven, K. Throssell, J. A. Montgomery, Jr., J. E. Peralta, 
 F. Ogliaro, M. J. Bearpark, J. J. Heyd, E. N. Brothers, K. N. Kudin, 
 V. N. Staroverov, T. A. Keith, R. Kobayashi, J. Normand, 
 K. Raghavachari, A. P. Rendell, J. C. Burant, S. S. Iyengar, 
 J. Tomasi, M. Cossi, J. M. Millam, M. Klene, C. Adamo, R. Cammi, 
 J. W. Ochterski, R. L. Martin, K. Morokuma, O. Farkas, 
 J. B. Foresman, and D. J. Fox, Gaussian, Inc., Wallingford CT, 2019.
 
 ******************************************
 Gaussian 16:  ES64L-G16RevC.01  3-Jul-2019
                 1-Aug-2021 
 ******************************************
 %mem=8GB
 %NProcShare=8
 Will use up to    8 processors via shared memory.
 -------------------------------------------------------------
 #N RTPSSTPSS/Def2QZVPP scf=tight Int(Grid=ultrafine) OPT FREQ
 -------------------------------------------------------------
 1/18=20,19=15,26=4,38=1/1,3;
 2/9=110,12=2,17=6,18=5,40=1/2;
 3/5=45,7=202,11=2,25=1,30=1,71=1,74=2523,75=-5,116=1/1,2,3;
 4//1;
 5/5=2,32=2,38=5/2;
 6/7=2,8=2,9=2,10=2,28=1/1;
 7//1,2,3,16;
 1/18=20,19=15,26=4/3(2);
 2/9=110/2;
 99//99;
 2/9=110/2;
 3/5=45,7=202,11=2,25=1,30=1,71=1,74=2523,75=-5,116=1/1,2,3;
 4/5=5,16=3,69=1/1;
 5/5=2,32=2,38=5/2;
 7//1,2,3,16;
 1/18=20,19=15,26=4/3(-5);
 2/9=110/2;
 6/7=2,8=2,9=2,10=2,19=2,28=1/1;
 99/9=1/99;
 ---------
 Mol job 1
 ---------
 Symbolic Z-matrix:
 Charge =  0 Multiplicity = 1
 P                     9.9243    9.66565   10.1574 
 Na                    10.72705   7.55607   8.8426 
 Na                    11.31923   11.44393   8.84516 
 Na                    7.68077   10.01658   8.85258 
 

 GradGradGradGradGradGradGradGradGradGradGradGradGradGradGradGradGradGrad
 Berny optimization.
 Initialization pass.
                           ----------------------------
                           !    Initial Parameters    !
                           ! (Angstroms and Degrees)  !
 --------------------------                            --------------------------
 ! Name  Definition              Value          Derivative Info.                !
 --------------------------------------------------------------------------------
 ! R1    R(1,2)                  2.6122         estimate D2E/DX2                !
 ! R2    R(1,3)                  2.6134         estimate D2E/DX2                !
 ! R3    R(1,4)                  2.619          estimate D2E/DX2                !
 ! A1    A(2,1,3)               97.629          estimate D2E/DX2                !
 ! A2    A(2,1,4)               96.9323         estimate D2E/DX2                !
 ! A3    A(3,1,4)               96.6553         estimate D2E/DX2                !
 ! D1    D(2,1,4,3)            -98.5591         estimate D2E/DX2                !
 --------------------------------------------------------------------------------
 Trust Radius=3.00D-01 FncErr=1.00D-07 GrdErr=1.00D-06 EigMax=2.50D+02 EigMin=1.00D-04
 Number of steps in this run=     20 maximum allowed number of steps=    100.
 GradGradGradGradGradGradGradGradGradGradGradGradGradGradGradGradGradGrad

                          Input orientation:                          
 ---------------------------------------------------------------------
 Center     Atomic      Atomic             Coordinates (Angstroms)
 Number     Number       Type             X           Y           Z
 ---------------------------------------------------------------------
      1         15           0        9.924305    9.665648   10.157402
      2         11           0       10.727046    7.556073    8.842598
      3         11           0       11.319229   11.443927    8.845160
      4         11           0        7.680771   10.016580    8.852580
 ---------------------------------------------------------------------
                    Distance matrix (angstroms):
                    1          2          3          4
     1  P    0.000000
     2  Na   2.612165   0.000000
     3  Na   2.613441   3.932695   0.000000
     4  Na   2.618999   3.915864   3.908421   0.000000
 Stoichiometry    Na3P
 Framework group  C1[X(Na3P)]
 Deg. of freedom     6
 Full point group                 C1      NOp   1
 Largest Abelian subgroup         C1      NOp   1
 Largest concise Abelian subgroup C1      NOp   1
                         Standard orientation:                         
 ---------------------------------------------------------------------
 Center     Atomic      Atomic             Coordinates (Angstroms)
 Number     Number       Type             X           Y           Z
 ---------------------------------------------------------------------
      1         15           0       -0.004500   -0.010511    0.901053
      2         11           0       -2.114080   -0.813239   -0.413751
      3         11           0        1.773769   -1.405448   -0.411189
      4         11           0        0.346448    2.233020   -0.403769
 ---------------------------------------------------------------------
 Rotational constants (GHZ):           2.3841792           2.3554456           1.4312808
 Standard basis: def2QZVPP (5D, 7F)
 There are   290 symmetry adapted cartesian basis functions of A   symmetry.
 There are   244 symmetry adapted basis functions of A   symmetry.
   244 basis functions,   421 primitive gaussians,   290 cartesian basis functions
    24 alpha electrons       24 beta electrons
       nuclear repulsion energy       149.1902748664 Hartrees.
 NAtoms=    4 NActive=    4 NUniq=    4 SFac= 1.00D+00 NAtFMM=   60 NAOKFM=F Big=F
 Integral buffers will be    131072 words long.
 Raffenetti 2 integral format.
 Two-electron integral symmetry is turned on.
 One-electron integrals computed using PRISM.
   1 Symmetry operations used in ECPInt.
 ECPInt:  NShTT=    3403 NPrTT=   12395 LenC2=    3203 LenP2D=    8839.
 LDataN:  DoStor=T MaxTD1= 8 Len=  415
 NBasis=   244 RedAO= T EigKep=  3.33D-04  NBF=   244
 NBsUse=   244 1.00D-06 EigRej= -1.00D+00 NBFU=   244
 ExpMin= 1.55D-02 ExpMax= 1.09D+06 ExpMxC= 1.24D+03 IAcc=3 IRadAn=         5 AccDes= 0.00D+00
 Harris functional with IExCor= 1009 and IRadAn=       5 diagonalized for initial guess.
 HarFok:  IExCor= 1009 AccDes= 0.00D+00 IRadAn=         5 IDoV= 1 UseB2=F ITyADJ=14
 ICtDFT=  3500011 ScaDFX=  1.000000  1.000000  1.000000  1.000000
 FoFCou: FMM=F IPFlag=           0 FMFlag=      100000 FMFlg1=           0
         NFxFlg=           0 DoJE=T BraDBF=F KetDBF=T FulRan=T
         wScrn=  0.000000 ICntrl=       500 IOpCl=  0 I1Cent=   200000004 NGrid=           0
         NMat0=    1 NMatS0=      1 NMatT0=    0 NMatD0=    1 NMtDS0=    0 NMtDT0=    0
 Petite list used in FoFCou.
 Keep J ints in memory in canonical form, NReq=459043149.
 Requested convergence on RMS density matrix=1.00D-08 within 128 cycles.
 Requested convergence on MAX density matrix=1.00D-06.
 Requested convergence on             energy=1.00D-06.
 No special actions if energy rises.
 SCF Done:  E(RTPSS-TPSS) =  -828.351133931     A.U. after   15 cycles
            NFock= 15  Conv=0.48D-08     -V/T= 2.0033

 **********************************************************************

            Population analysis using the SCF Density.

 **********************************************************************

 Orbital symmetries:
       Occupied  (A) (A) (A) (A) (A) (A) (A) (A) (A) (A) (A) (A)
                 (A) (A) (A) (A) (A) (A) (A) (A) (A) (A) (A) (A)
       Virtual   (A) (A) (A) (A) (A) (A) (A) (A) (A) (A) (A) (A)
                 (A) (A) (A) (A) (A) (A) (A) (A) (A) (A) (A) (A)
                 (A) (A) (A) (A) (A) (A) (A) (A) (A) (A) (A) (A)
                 (A) (A) (A) (A) (A) (A) (A) (A) (A) (A) (A) (A)
                 (A) (A) (A) (A) (A) (A) (A) (A) (A) (A) (A) (A)
                 (A) (A) (A) (A) (A) (A) (A) (A) (A) (A) (A) (A)
                 (A) (A) (A) (A) (A) (A) (A) (A) (A) (A) (A) (A)
                 (A) (A) (A) (A) (A) (A) (A) (A) (A) (A) (A) (A)
                 (A) (A) (A) (A) (A) (A) (A) (A) (A) (A) (A) (A)
                 (A) (A) (A) (A) (A) (A) (A) (A) (A) (A) (A) (A)
                 (A) (A) (A) (A) (A) (A) (A) (A) (A) (A) (A) (A)
                 (A) (A) (A) (A) (A) (A) (A) (A) (A) (A) (A) (A)
                 (A) (A) (A) (A) (A) (A) (A) (A) (A) (A) (A) (A)
                 (A) (A) (A) (A) (A) (A) (A) (A) (A) (A) (A) (A)
                 (A) (A) (A) (A) (A) (A) (A) (A) (A) (A) (A) (A)
                 (A) (A) (A) (A) (A) (A) (A) (A) (A) (A) (A) (A)
                 (A) (A) (A) (A) (A) (A) (A) (A) (A) (A) (A) (A)
                 (A) (A) (A) (A) (A) (A) (A) (A) (A) (A) (A) (A)
                 (A) (A) (A) (A)
 The electronic state is 1-A.
 Alpha  occ. eigenvalues --  -76.46165 -38.11156 -38.11135 -38.11133  -6.24264
 Alpha  occ. eigenvalues --   -4.42048  -4.41830  -4.41828  -2.07651  -2.07633
 Alpha  occ. eigenvalues --   -2.07631  -1.02585  -1.02581  -1.02568  -1.02562
 Alpha  occ. eigenvalues --   -1.02560  -1.02557  -1.02444  -1.02414  -1.02406
 Alpha  occ. eigenvalues --   -0.38688  -0.11274  -0.11239  -0.10963
 Alpha virt. eigenvalues --   -0.05922  -0.03935  -0.03927  -0.00897  -0.00615
 Alpha virt. eigenvalues --   -0.00583   0.01041   0.01163   0.01176   0.02489
 Alpha virt. eigenvalues --    0.02498   0.02647   0.03188   0.05018   0.05028
 Alpha virt. eigenvalues --    0.05050   0.05256   0.05268   0.07419   0.07437
 Alpha virt. eigenvalues --    0.08001   0.08662   0.10854   0.10861   0.11818
 Alpha virt. eigenvalues --    0.14649   0.14747   0.15756   0.15827   0.15842
 Alpha virt. eigenvalues --    0.17199   0.17225   0.18056   0.18956   0.20694
 Alpha virt. eigenvalues --    0.21117   0.21231   0.23869   0.23920   0.26195
 Alpha virt. eigenvalues --    0.26206   0.26964   0.27443   0.27452   0.27531
 Alpha virt. eigenvalues --    0.29163   0.29181   0.29502   0.29594   0.29607
 Alpha virt. eigenvalues --    0.31483   0.33340   0.35255   0.35282   0.39037
 Alpha virt. eigenvalues --    0.39115   0.39303   0.45223   0.46276   0.46975
 Alpha virt. eigenvalues --    0.46983   0.48931   0.49030   0.52360   0.52444
 Alpha virt. eigenvalues --    0.53750   0.54014   0.55885   0.55888   0.61704
 Alpha virt. eigenvalues --    0.61736   0.61940   0.62559   0.63015   0.63178
 Alpha virt. eigenvalues --    0.64278   0.64374   0.65161   0.67318   0.67377
 Alpha virt. eigenvalues --    0.68008   0.69198   0.69557   0.69641   0.69770
 Alpha virt. eigenvalues --    0.71518   0.71561   0.72876   0.73019   0.74090
 Alpha virt. eigenvalues --    0.74406   0.77900   0.78046   0.80569   0.82633
 Alpha virt. eigenvalues --    0.82759   0.96922   0.96934   0.97035   0.99431
 Alpha virt. eigenvalues --    0.99672   0.99682   1.00257   1.00344   1.01771
 Alpha virt. eigenvalues --    1.03624   1.03663   1.09542   1.10598   1.10738
 Alpha virt. eigenvalues --    1.15995   1.20150   1.25411   1.25504   1.26275
 Alpha virt. eigenvalues --    1.30803   1.31099   1.32403   1.51050   1.51556
 Alpha virt. eigenvalues --    1.52200   1.64487   1.64507   1.73160   2.39367
 Alpha virt. eigenvalues --    2.39402   2.39655   2.47379   2.47542   2.71860
 Alpha virt. eigenvalues --    2.72714   2.72728   2.73100   2.73535   2.73573
 Alpha virt. eigenvalues --    2.76824   2.79703   2.79739   2.83009   2.92866
 Alpha virt. eigenvalues --    2.93102   2.94456   3.02901   3.03117   3.07460
 Alpha virt. eigenvalues --    3.40067   3.40186   3.40197   3.40554   3.40749
 Alpha virt. eigenvalues --    3.40762   3.47586   3.47858   3.47867   3.49323
 Alpha virt. eigenvalues --    3.49358   3.49626   3.58897   3.59188   3.59246
 Alpha virt. eigenvalues --    3.82621   3.91305   3.91454   5.55695   5.71084
 Alpha virt. eigenvalues --    5.71319   5.81734   7.21333   7.21761   7.21794
 Alpha virt. eigenvalues --    7.27054   7.27136  13.99171  13.99445  13.99455
 Alpha virt. eigenvalues --   13.99612  13.99623  13.99645  14.02179  14.02537
 Alpha virt. eigenvalues --   14.02547  14.03788  14.03798  14.04033  14.12030
 Alpha virt. eigenvalues --   14.12048  14.12467  14.57258  14.57261  14.57273
 Alpha virt. eigenvalues --   14.57287  14.57295  14.57301  14.57350  14.57393
 Alpha virt. eigenvalues --   14.57405  14.57425  14.57433  14.57457  14.57478
 Alpha virt. eigenvalues --   14.57509  14.57513  14.57539  14.57545  14.57633
 Alpha virt. eigenvalues --   14.57795  14.57975  14.57987  17.63399  17.71308
 Alpha virt. eigenvalues --   17.71660  20.06057  20.92567  21.05176  21.05426
 Alpha virt. eigenvalues --   70.23573 126.32065 126.53856 126.54316 381.95816
          Condensed to atoms (all electrons):
               1          2          3          4
     1  P   14.764149   0.316270   0.315930   0.314800
     2  Na   0.316270  10.502471  -0.027975  -0.028091
     3  Na   0.315930  -0.027975  10.503103  -0.028293
     4  Na   0.314800  -0.028091  -0.028293  10.504996
 Mulliken charges:
               1
     1  P   -0.711149
     2  Na   0.237325
     3  Na   0.237235
     4  Na   0.236589
 Sum of Mulliken charges =  -0.00000
 Mulliken charges with hydrogens summed into heavy atoms:
               1
     1  P   -0.711149
     2  Na   0.237325
     3  Na   0.237235
     4  Na   0.236589
 Electronic spatial extent (au):  <R**2>=            731.2064
 Charge=             -0.0000 electrons
 Dipole moment (field-independent basis, Debye):
    X=              0.0225    Y=              0.0540    Z=             -5.2312  Tot=              5.2316
 Quadrupole moment (field-independent basis, Debye-Ang):
   XX=            -20.7573   YY=            -21.1247   ZZ=            -45.0413
   XY=             -0.0014   XZ=              0.0284   YZ=              0.0656
 Traceless Quadrupole moment (field-independent basis, Debye-Ang):
   XX=              8.2171   YY=              7.8498   ZZ=            -16.0669
   XY=             -0.0014   XZ=              0.0284   YZ=              0.0656
 Octapole moment (field-independent basis, Debye-Ang**2):
  XXX=            -14.1630  YYY=             29.1674  ZZZ=            -16.9238  XYY=             14.2535
  XXY=            -28.8897  XXZ=            -15.6673  XZZ=             -0.0101  YZZ=             -0.0198
  YYZ=            -15.3961  XYZ=              0.0060
 Hexadecapole moment (field-independent basis, Debye-Ang**3):
 XXXX=           -294.9998 YYYY=           -293.9407 ZZZZ=           -241.1365 XXXY=             -0.2709
 XXXZ=              5.8180 YYYX=              0.2663 YYYZ=            -10.7151 ZZZX=              0.1176
 ZZZY=              0.2706 XXYY=            -98.4669 XXZZ=           -106.4536 YYZZ=           -105.9964
 XXYZ=             11.5023 YYXZ=             -5.4682 ZZXY=             -0.0052
 N-N= 1.491902748664D+02 E-N=-2.282371256999D+03  KE= 8.256575857844D+02
   1 Symmetry operations used in ECPInt.
 ECPInt:  NShTT=    3403 NPrTT=   12395 LenC2=    3203 LenP2D=    8839.
 LDataN:  DoStor=T MaxTD1= 9 Len=  602
 Calling FoFJK, ICntrl=      2527 FMM=F ISym2X=0 I1Cent= 0 IOpClX= 0 NMat=1 NMatS=1 NMatT=0.
 ***** Axes restored to original set *****
 -------------------------------------------------------------------
 Center     Atomic                   Forces (Hartrees/Bohr)
 Number     Number              X              Y              Z
 -------------------------------------------------------------------
      1       15          -0.000455580    0.000165668   -0.001396021
      2       11          -0.000303100    0.000982927    0.000349014
      3       11          -0.000594644   -0.000911773    0.000408877
      4       11           0.001353324   -0.000236823    0.000638130
 -------------------------------------------------------------------
 Cartesian Forces:  Max     0.001396021 RMS     0.000764340

 GradGradGradGradGradGradGradGradGradGradGradGradGradGradGradGradGradGrad
 Berny optimization.
 FormGI is forming the generalized inverse of G from B-inverse, IUseBI=4.
 Internal  Forces:  Max     0.001509495 RMS     0.000894369
 Search for a local minimum.
 Step number   1 out of a maximum of   20
 All quantities printed in internal units (Hartrees-Bohrs-Radians)
 Mixed Optimization -- En-DIIS/RFO-DIIS
 Second derivative matrix not updated -- first step.
 The second derivative matrix:
                          R1        R2        R3        A1        A2
           R1           0.07348
           R2           0.00000   0.07330
           R3           0.00000   0.00000   0.07250
           A1           0.00000   0.00000   0.00000   0.25000
           A2           0.00000   0.00000   0.00000   0.00000   0.25000
           A3           0.00000   0.00000   0.00000   0.00000   0.00000
           D1           0.00000   0.00000   0.00000   0.00000   0.00000
                          A3        D1
           A3           0.25000
           D1           0.00000   0.00230
 ITU=  0
     Eigenvalues ---    0.07250   0.07330   0.07348   0.12186   0.25000
     Eigenvalues ---    0.25000
 RFO step:  Lambda=-7.07422074D-05 EMin= 7.24990975D-02
 Linear search not attempted -- first point.
 Iteration  1 RMS(Cart)=  0.01301971 RMS(Int)=  0.00001179
 Iteration  2 RMS(Cart)=  0.00001491 RMS(Int)=  0.00000184
 Iteration  3 RMS(Cart)=  0.00000000 RMS(Int)=  0.00000184
 Variable       Old X    -DE/DX   Delta X   Delta X   Delta X     New X
                                 (Linear)    (Quad)   (Total)
    R1        4.93628  -0.00106   0.00000  -0.01445  -0.01445   4.92183
    R2        4.93869  -0.00114   0.00000  -0.01557  -0.01557   4.92311
    R3        4.94919  -0.00151   0.00000  -0.02080  -0.02080   4.92839
    A1        1.70395  -0.00045   0.00000  -0.00408  -0.00408   1.69986
    A2        1.69179  -0.00050   0.00000  -0.00231  -0.00231   1.68948
    A3        1.68695  -0.00032   0.00000  -0.00161  -0.00161   1.68534
    D1       -1.72018   0.00057   0.00000   0.00469   0.00469  -1.71550
         Item               Value     Threshold  Converged?
 Maximum Force            0.001509     0.000450     NO 
 RMS     Force            0.000894     0.000300     NO 
 Maximum Displacement     0.019489     0.001800     NO 
 RMS     Displacement     0.013013     0.001200     NO 
 Predicted change in Energy=-3.540012D-05
 GradGradGradGradGradGradGradGradGradGradGradGradGradGradGradGradGradGrad

                          Input orientation:                          
 ---------------------------------------------------------------------
 Center     Atomic      Atomic             Coordinates (Angstroms)
 Number     Number       Type             X           Y           Z
 ---------------------------------------------------------------------
      1         15           0        9.922523    9.666343   10.157483
      2         11           0       10.723998    7.566127    8.842090
      3         11           0       11.313746   11.435164    8.844915
      4         11           0        7.691084   10.014595    8.853251
 ---------------------------------------------------------------------
                    Distance matrix (angstroms):
                    1          2          3          4
     1  P    0.000000
     2  Na   2.604521   0.000000
     3  Na   2.605199   3.913727   0.000000
     4  Na   2.607992   3.897908   3.891242   0.000000
 Stoichiometry    Na3P
 Framework group  C1[X(Na3P)]
 Deg. of freedom     6
 Full point group                 C1      NOp   1
 Largest Abelian subgroup         C1      NOp   1
 Largest concise Abelian subgroup C1      NOp   1
                         Standard orientation:                         
 ---------------------------------------------------------------------
 Center     Atomic      Atomic             Coordinates (Angstroms)
 Number     Number       Type             X           Y           Z
 ---------------------------------------------------------------------
      1         15           0       -0.003533   -0.008153    0.901136
      2         11           0       -2.099512   -0.822784   -0.412933
      3         11           0        1.772854   -1.390269   -0.410835
      4         11           0        0.331476    2.224169   -0.405054
 ---------------------------------------------------------------------
 Rotational constants (GHZ):           2.4013835           2.3744044           1.4445539
 Standard basis: def2QZVPP (5D, 7F)
 There are   290 symmetry adapted cartesian basis functions of A   symmetry.
 There are   244 symmetry adapted basis functions of A   symmetry.
   244 basis functions,   421 primitive gaussians,   290 cartesian basis functions
    24 alpha electrons       24 beta electrons
       nuclear repulsion energy       149.7613389931 Hartrees.
 NAtoms=    4 NActive=    4 NUniq=    4 SFac= 1.00D+00 NAtFMM=   60 NAOKFM=F Big=F
 Integral buffers will be    131072 words long.
 Raffenetti 2 integral format.
 Two-electron integral symmetry is turned on.
 One-electron integrals computed using PRISM.
   1 Symmetry operations used in ECPInt.
 ECPInt:  NShTT=    3403 NPrTT=   12395 LenC2=    3203 LenP2D=    8848.
 LDataN:  DoStor=T MaxTD1= 8 Len=  415
 NBasis=   244 RedAO= T EigKep=  3.26D-04  NBF=   244
 NBsUse=   244 1.00D-06 EigRej= -1.00D+00 NBFU=   244
 Initial guess from the checkpoint file:  "/data/hutter/SMG16/TPSS/Gau-76546.chk"
 B after Tr=    -0.000000    0.000000    0.000000
         Rot=    0.999996    0.000446   -0.000168   -0.002879 Ang=   0.33 deg.
 Keep J ints in memory in canonical form, NReq=459043149.
 Requested convergence on RMS density matrix=1.00D-08 within 128 cycles.
 Requested convergence on MAX density matrix=1.00D-06.
 Requested convergence on             energy=1.00D-06.
 No special actions if energy rises.
 SCF Done:  E(RTPSS-TPSS) =  -828.351185026     A.U. after    9 cycles
            NFock=  9  Conv=0.24D-08     -V/T= 2.0032
   1 Symmetry operations used in ECPInt.
 ECPInt:  NShTT=    3403 NPrTT=   12395 LenC2=    3203 LenP2D=    8848.
 LDataN:  DoStor=T MaxTD1= 9 Len=  602
 Calling FoFJK, ICntrl=      2527 FMM=F ISym2X=0 I1Cent= 0 IOpClX= 0 NMat=1 NMatS=1 NMatT=0.
 ***** Axes restored to original set *****
 -------------------------------------------------------------------
 Center     Atomic                   Forces (Hartrees/Bohr)
 Number     Number              X              Y              Z
 -------------------------------------------------------------------
      1       15          -0.000253525    0.000098006   -0.000531132
      2       11          -0.000104415    0.000444574    0.000108821
      3       11          -0.000226367   -0.000428131    0.000146609
      4       11           0.000584307   -0.000114449    0.000275702
 -------------------------------------------------------------------
 Cartesian Forces:  Max     0.000584307 RMS     0.000324414

 GradGradGradGradGradGradGradGradGradGradGradGradGradGradGradGradGradGrad
 Berny optimization.
 Using GEDIIS/GDIIS optimizer.
 FormGI is forming the generalized inverse of G from B-inverse, IUseBI=4.
 Internal  Forces:  Max     0.000653435 RMS     0.000409966
 Search for a local minimum.
 Step number   2 out of a maximum of   20
 All quantities printed in internal units (Hartrees-Bohrs-Radians)
 Mixed Optimization -- En-DIIS/RFO-DIIS
 Swapping is turned off.
 Update second derivatives using D2CorX and points    1    2
 DE= -5.11D-05 DEPred=-3.54D-05 R= 1.44D+00
 TightC=F SS=  1.41D+00  RLast= 3.05D-02 DXNew= 5.0454D-01 9.1511D-02
 Trust test= 1.44D+00 RLast= 3.05D-02 DXMaxT set to 3.00D-01
 The second derivative matrix:
                          R1        R2        R3        A1        A2
           R1           0.06722
           R2          -0.00684   0.06584
           R3          -0.00923  -0.01005   0.05895
           A1          -0.01338  -0.01440  -0.01907   0.23565
           A2          -0.00468  -0.00507  -0.00678  -0.00753   0.24693
           A3          -0.00235  -0.00256  -0.00346  -0.00508  -0.00176
           D1          -0.00291  -0.00310  -0.00403  -0.00047  -0.00118
                          A3        D1
           A3           0.24912
           D1          -0.00112   0.00327
 ITU=  1  0
     Eigenvalues ---    0.04200   0.07294   0.07341   0.11837   0.24888
     Eigenvalues ---    0.25030
 En-DIIS/RFO-DIIS/Sim-DIIS IScMMF=       -3 using points:     2    1
 RFO step:  Lambda=-2.59139227D-05.
 DidBck=F Rises=F RFO-DIIS coefs:    1.79955   -0.79955
 Iteration  1 RMS(Cart)=  0.01128180 RMS(Int)=  0.00001306
 Iteration  2 RMS(Cart)=  0.00001314 RMS(Int)=  0.00000285
 Iteration  3 RMS(Cart)=  0.00000000 RMS(Int)=  0.00000285
 Variable       Old X    -DE/DX   Delta X   Delta X   Delta X     New X
                                 (Linear)    (Quad)   (Total)
    R1        4.92183  -0.00045  -0.01155   0.00048  -0.01107   4.91076
    R2        4.92311  -0.00049  -0.01245   0.00037  -0.01208   4.91103
    R3        4.92839  -0.00065  -0.01663   0.00018  -0.01645   4.91194
    A1        1.69986  -0.00033  -0.00327  -0.00182  -0.00509   1.69477
    A2        1.68948  -0.00025  -0.00185  -0.00031  -0.00216   1.68732
    A3        1.68534  -0.00009  -0.00129   0.00027  -0.00102   1.68432
    D1       -1.71550   0.00038   0.00375   0.00186   0.00560  -1.70990
         Item               Value     Threshold  Converged?
 Maximum Force            0.000653     0.000450     NO 
 RMS     Force            0.000410     0.000300     NO 
 Maximum Displacement     0.017850     0.001800     NO 
 RMS     Displacement     0.011278     0.001200     NO 
 Predicted change in Energy=-1.296241D-05
 GradGradGradGradGradGradGradGradGradGradGradGradGradGradGradGradGradGrad

                          Input orientation:                          
 ---------------------------------------------------------------------
 Center     Atomic      Atomic             Coordinates (Angstroms)
 Number     Number       Type             X           Y           Z
 ---------------------------------------------------------------------
      1         15           0        9.920338    9.667245   10.158397
      2         11           0       10.722124    7.575572    8.841168
      3         11           0       11.310049   11.426726    8.844353
      4         11           0        7.698840   10.012684    8.853823
 ---------------------------------------------------------------------
                    Distance matrix (angstroms):
                    1          2          3          4
     1  P    0.000000
     2  Na   2.598662   0.000000
     3  Na   2.598804   3.895774   0.000000
     4  Na   2.599287   3.883287   3.878200   0.000000
 Stoichiometry    Na3P
 Framework group  C1[X(Na3P)]
 Deg. of freedom     6
 Full point group                 C1      NOp   1
 Largest Abelian subgroup         C1      NOp   1
 Largest concise Abelian subgroup C1      NOp   1
                         Standard orientation:                         
 ---------------------------------------------------------------------
 Center     Atomic      Atomic             Coordinates (Angstroms)
 Number     Number       Type             X           Y           Z
 ---------------------------------------------------------------------
      1         15           0       -0.002311   -0.005180    0.901978
      2         11           0       -2.087070   -0.829727   -0.412154
      3         11           0        1.769606   -1.380274   -0.410733
      4         11           0        0.320616    2.217065   -0.407083
 ---------------------------------------------------------------------
 Rotational constants (GHZ):           2.4132076           2.3918994           1.4558915
 Standard basis: def2QZVPP (5D, 7F)
 There are   290 symmetry adapted cartesian basis functions of A   symmetry.
 There are   244 symmetry adapted basis functions of A   symmetry.
   244 basis functions,   421 primitive gaussians,   290 cartesian basis functions
    24 alpha electrons       24 beta electrons
       nuclear repulsion energy       150.2240897194 Hartrees.
 NAtoms=    4 NActive=    4 NUniq=    4 SFac= 1.00D+00 NAtFMM=   60 NAOKFM=F Big=F
 Integral buffers will be    131072 words long.
 Raffenetti 2 integral format.
 Two-electron integral symmetry is turned on.
 One-electron integrals computed using PRISM.
   1 Symmetry operations used in ECPInt.
 ECPInt:  NShTT=    3403 NPrTT=   12395 LenC2=    3203 LenP2D=    8854.
 LDataN:  DoStor=T MaxTD1= 8 Len=  415
 NBasis=   244 RedAO= T EigKep=  3.21D-04  NBF=   244
 NBsUse=   244 1.00D-06 EigRej= -1.00D+00 NBFU=   244
 Initial guess from the checkpoint file:  "/data/hutter/SMG16/TPSS/Gau-76546.chk"
 B after Tr=     0.000000   -0.000000   -0.000000
         Rot=    0.999998    0.000579   -0.000229   -0.001973 Ang=   0.24 deg.
 Keep J ints in memory in canonical form, NReq=459043149.
 Requested convergence on RMS density matrix=1.00D-08 within 128 cycles.
 Requested convergence on MAX density matrix=1.00D-06.
 Requested convergence on             energy=1.00D-06.
 No special actions if energy rises.
 SCF Done:  E(RTPSS-TPSS) =  -828.351198023     A.U. after    8 cycles
            NFock=  8  Conv=0.88D-08     -V/T= 2.0032
   1 Symmetry operations used in ECPInt.
 ECPInt:  NShTT=    3403 NPrTT=   12395 LenC2=    3203 LenP2D=    8854.
 LDataN:  DoStor=T MaxTD1= 9 Len=  602
 Calling FoFJK, ICntrl=      2527 FMM=F ISym2X=0 I1Cent= 0 IOpClX= 0 NMat=1 NMatS=1 NMatT=0.
 ***** Axes restored to original set *****
 -------------------------------------------------------------------
 Center     Atomic                   Forces (Hartrees/Bohr)
 Number     Number              X              Y              Z
 -------------------------------------------------------------------
      1       15          -0.000070083    0.000033515    0.000158305
      2       11           0.000049249    0.000003349   -0.000074973
      3       11           0.000064779   -0.000025752   -0.000059776
      4       11          -0.000043945   -0.000011112   -0.000023557
 -------------------------------------------------------------------
 Cartesian Forces:  Max     0.000158305 RMS     0.000064675

 GradGradGradGradGradGradGradGradGradGradGradGradGradGradGradGradGradGrad
 Berny optimization.
 Using GEDIIS/GDIIS optimizer.
 FormGI is forming the generalized inverse of G from B-inverse, IUseBI=4.
 Internal  Forces:  Max     0.000186060 RMS     0.000109121
 Search for a local minimum.
 Step number   3 out of a maximum of   20
 All quantities printed in internal units (Hartrees-Bohrs-Radians)
 Mixed Optimization -- En-DIIS/RFO-DIIS
 Swapping is turned off.
 Update second derivatives using D2CorX and points    1    2    3
 DE= -1.30D-05 DEPred=-1.30D-05 R= 1.00D+00
 TightC=F SS=  1.41D+00  RLast= 2.45D-02 DXNew= 5.0454D-01 7.3618D-02
 Trust test= 1.00D+00 RLast= 2.45D-02 DXMaxT set to 3.00D-01
 The second derivative matrix:
                          R1        R2        R3        A1        A2
           R1           0.06913
           R2          -0.00491   0.06778
           R3          -0.00696  -0.00781   0.06151
           A1          -0.02053  -0.02216  -0.02944   0.22832
           A2          -0.00537  -0.00587  -0.00797  -0.01166   0.24586
           A3          -0.00093  -0.00108  -0.00160  -0.00715  -0.00164
           D1          -0.00390  -0.00412  -0.00527   0.00201  -0.00106
                          A3        D1
           A3           0.24987
           D1          -0.00174   0.00374
 ITU=  1  1  0
     Eigenvalues ---    0.04262   0.07297   0.07342   0.11780   0.24880
     Eigenvalues ---    0.25149
 En-DIIS/RFO-DIIS/Sim-DIIS IScMMF=       -3 using points:     3    2    1
 RFO step:  Lambda=-6.49712869D-07.
 DIIS inversion failure, remove point   3.
 RFO-DIIS uses    2 points instead of    3
 DidBck=F Rises=F RFO-DIIS coefs:    1.00868   -0.00868    0.00000
 Iteration  1 RMS(Cart)=  0.00161922 RMS(Int)=  0.00000083
 Iteration  2 RMS(Cart)=  0.00000095 RMS(Int)=  0.00000001
 Variable       Old X    -DE/DX   Delta X   Delta X   Delta X     New X
                                 (Linear)    (Quad)   (Total)
    R1        4.91076   0.00005  -0.00010   0.00048   0.00039   4.91115
    R2        4.91103   0.00005  -0.00010   0.00043   0.00032   4.91135
    R3        4.91194   0.00005  -0.00014   0.00037   0.00022   4.91217
    A1        1.69477  -0.00019  -0.00004  -0.00151  -0.00155   1.69322
    A2        1.68732  -0.00003  -0.00002  -0.00025  -0.00027   1.68705
    A3        1.68432   0.00009  -0.00001   0.00023   0.00022   1.68454
    D1       -1.70990   0.00018   0.00005   0.00153   0.00158  -1.70832
         Item               Value     Threshold  Converged?
 Maximum Force            0.000186     0.000450     YES
 RMS     Force            0.000109     0.000300     YES
 Maximum Displacement     0.002312     0.001800     NO 
 RMS     Displacement     0.001620     0.001200     NO 
 Predicted change in Energy=-3.248618D-07
 GradGradGradGradGradGradGradGradGradGradGradGradGradGradGradGradGradGrad

                          Input orientation:                          
 ---------------------------------------------------------------------
 Center     Atomic      Atomic             Coordinates (Angstroms)
 Number     Number       Type             X           Y           Z
 ---------------------------------------------------------------------
      1         15           0        9.919704    9.667532   10.159145
      2         11           0       10.722602    7.576784    8.840723
      3         11           0       11.310635   11.425503    8.844032
      4         11           0        7.698410   10.012409    8.853840
 ---------------------------------------------------------------------
                    Distance matrix (angstroms):
                    1          2          3          4
     1  P    0.000000
     2  Na   2.598867   0.000000
     3  Na   2.598975   3.893383   0.000000
     4  Na   2.599406   3.883063   3.878802   0.000000
 Stoichiometry    Na3P
 Framework group  C1[X(Na3P)]
 Deg. of freedom     6
 Full point group                 C1      NOp   1
 Largest Abelian subgroup         C1      NOp   1
 Largest concise Abelian subgroup C1      NOp   1
                         Standard orientation:                         
 ---------------------------------------------------------------------
 Center     Atomic      Atomic             Coordinates (Angstroms)
 Number     Number       Type             X           Y           Z
 ---------------------------------------------------------------------
      1         15           0       -0.001933   -0.004303    0.902665
      2         11           0       -2.087186   -0.827231   -0.412106
      3         11           0        1.766221   -1.383725   -0.410917
      4         11           0        0.323602    2.216823   -0.407884
 ---------------------------------------------------------------------
 Rotational constants (GHZ):           2.4114205           2.3937563           1.4563974
 Standard basis: def2QZVPP (5D, 7F)
 There are   290 symmetry adapted cartesian basis functions of A   symmetry.
 There are   244 symmetry adapted basis functions of A   symmetry.
   244 basis functions,   421 primitive gaussians,   290 cartesian basis functions
    24 alpha electrons       24 beta electrons
       nuclear repulsion energy       150.2261718830 Hartrees.
 NAtoms=    4 NActive=    4 NUniq=    4 SFac= 1.00D+00 NAtFMM=   60 NAOKFM=F Big=F
 Integral buffers will be    131072 words long.
 Raffenetti 2 integral format.
 Two-electron integral symmetry is turned on.
 One-electron integrals computed using PRISM.
   1 Symmetry operations used in ECPInt.
 ECPInt:  NShTT=    3403 NPrTT=   12395 LenC2=    3203 LenP2D=    8854.
 LDataN:  DoStor=T MaxTD1= 8 Len=  415
 NBasis=   244 RedAO= T EigKep=  3.21D-04  NBF=   244
 NBsUse=   244 1.00D-06 EigRej= -1.00D+00 NBFU=   244
 Initial guess from the checkpoint file:  "/data/hutter/SMG16/TPSS/Gau-76546.chk"
 B after Tr=    -0.000000    0.000000   -0.000000
         Rot=    1.000000    0.000172   -0.000075    0.000754 Ang=   0.09 deg.
 Keep J ints in memory in canonical form, NReq=459043149.
 Requested convergence on RMS density matrix=1.00D-08 within 128 cycles.
 Requested convergence on MAX density matrix=1.00D-06.
 Requested convergence on             energy=1.00D-06.
 No special actions if energy rises.
 SCF Done:  E(RTPSS-TPSS) =  -828.351198632     A.U. after    7 cycles
            NFock=  7  Conv=0.22D-08     -V/T= 2.0032
   1 Symmetry operations used in ECPInt.
 ECPInt:  NShTT=    3403 NPrTT=   12395 LenC2=    3203 LenP2D=    8854.
 LDataN:  DoStor=T MaxTD1= 9 Len=  602
 Calling FoFJK, ICntrl=      2527 FMM=F ISym2X=0 I1Cent= 0 IOpClX= 0 NMat=1 NMatS=1 NMatT=0.
 ***** Axes restored to original set *****
 -------------------------------------------------------------------
 Center     Atomic                   Forces (Hartrees/Bohr)
 Number     Number              X              Y              Z
 -------------------------------------------------------------------
      1       15          -0.000060017    0.000027788    0.000133430
      2       11           0.000041329    0.000001678   -0.000063117
      3       11           0.000054726   -0.000020406   -0.000050724
      4       11          -0.000036038   -0.000009060   -0.000019588
 -------------------------------------------------------------------
 Cartesian Forces:  Max     0.000133430 RMS     0.000054483

 GradGradGradGradGradGradGradGradGradGradGradGradGradGradGradGradGradGrad
 Berny optimization.
 Using GEDIIS/GDIIS optimizer.
 FormGI is forming the generalized inverse of G from B-inverse, IUseBI=4.
 Internal  Forces:  Max     0.000154856 RMS     0.000090913
 Search for a local minimum.
 Step number   4 out of a maximum of   20
 All quantities printed in internal units (Hartrees-Bohrs-Radians)
 Mixed Optimization -- En-DIIS/RFO-DIIS
 Swapping is turned off.
 Update second derivatives using D2CorX and points    1    2    3    4
 DE= -6.09D-07 DEPred=-3.25D-07 R= 1.88D+00
 Trust test= 1.88D+00 RLast= 2.31D-03 DXMaxT set to 3.00D-01
 The second derivative matrix:
                          R1        R2        R3        A1        A2
           R1           0.06573
           R2          -0.00811   0.06477
           R3          -0.01006  -0.01073   0.05870
           A1           0.00579   0.00258  -0.00542   0.02464
           A2          -0.00141  -0.00214  -0.00437  -0.04243   0.24123
           A3          -0.00491  -0.00488  -0.00514   0.02430   0.00299
           D1          -0.00242  -0.00291  -0.00364  -0.00737  -0.00285
                          A3        D1
           A3           0.24596
           D1           0.00269   0.01269
 ITU=  0  1  1  0
     Eigenvalues ---    0.01998   0.04346   0.07318   0.07351   0.24160
     Eigenvalues ---    0.24891
 En-DIIS/RFO-DIIS/Sim-DIIS IScMMF=       -3 using points:     4    3    2    1
 RFO step:  Lambda=-2.72472230D-06.
 DIIS inversion failure, remove point   4.
 RFO-DIIS uses    3 points instead of    4
 DidBck=F Rises=F RFO-DIIS coefs:    2.99696   -2.00000    0.00304    0.00000
 Iteration  1 RMS(Cart)=  0.00807306 RMS(Int)=  0.00002081
 Iteration  2 RMS(Cart)=  0.00002434 RMS(Int)=  0.00000014
 Iteration  3 RMS(Cart)=  0.00000000 RMS(Int)=  0.00000014
 Variable       Old X    -DE/DX   Delta X   Delta X   Delta X     New X
                                 (Linear)    (Quad)   (Total)
    R1        4.91115   0.00004   0.00081   0.00128   0.00208   4.91323
    R2        4.91135   0.00004   0.00068   0.00110   0.00179   4.91314
    R3        4.91217   0.00004   0.00050   0.00062   0.00112   4.91329
    A1        1.69322  -0.00015  -0.00309  -0.00469  -0.00777   1.68545
    A2        1.68705  -0.00003  -0.00053  -0.00082  -0.00135   1.68570
    A3        1.68454   0.00007   0.00045   0.00064   0.00109   1.68563
    D1       -1.70832   0.00015   0.00314   0.00478   0.00793  -1.70039
         Item               Value     Threshold  Converged?
 Maximum Force            0.000155     0.000450     YES
 RMS     Force            0.000091     0.000300     YES
 Maximum Displacement     0.011503     0.001800     NO 
 RMS     Displacement     0.008091     0.001200     NO 
 Predicted change in Energy=-1.362436D-06
 GradGradGradGradGradGradGradGradGradGradGradGradGradGradGradGradGradGrad

                          Input orientation:                          
 ---------------------------------------------------------------------
 Center     Atomic      Atomic             Coordinates (Angstroms)
 Number     Number       Type             X           Y           Z
 ---------------------------------------------------------------------
      1         15           0        9.916511    9.668968   10.162914
      2         11           0       10.725006    7.582804    8.838489
      3         11           0       11.313578   11.419416    8.842414
      4         11           0        7.696257   10.011041    8.853923
 ---------------------------------------------------------------------
                    Distance matrix (angstroms):
                    1          2          3          4
     1  P    0.000000
     2  Na   2.599970   0.000000
     3  Na   2.599921   3.881498   0.000000
     4  Na   2.600000   3.881996   3.881837   0.000000
 Stoichiometry    Na3P
 Framework group  C1[X(Na3P)]
 Deg. of freedom     6
 Full point group                 C1      NOp   1
 Largest Abelian subgroup         C1      NOp   1
 Largest concise Abelian subgroup C1      NOp   1
                         Standard orientation:                         
 ---------------------------------------------------------------------
 Center     Atomic      Atomic             Coordinates (Angstroms)
 Number     Number       Type             X           Y           Z
 ---------------------------------------------------------------------
      1         15           0        0.000101    0.000033    0.906113
      2         11           0       -1.412155    1.740250   -0.411850
      3         11           0       -0.801333   -2.092885   -0.411834
      4         11           0        2.213351    0.352590   -0.411926
 ---------------------------------------------------------------------
 Rotational constants (GHZ):           2.4030171           2.4024180           1.4588863
 Standard basis: def2QZVPP (5D, 7F)
 There are   290 symmetry adapted cartesian basis functions of A   symmetry.
 There are   244 symmetry adapted basis functions of A   symmetry.
   244 basis functions,   421 primitive gaussians,   290 cartesian basis functions
    24 alpha electrons       24 beta electrons
       nuclear repulsion energy       150.2340317697 Hartrees.
 NAtoms=    4 NActive=    4 NUniq=    4 SFac= 1.00D+00 NAtFMM=   60 NAOKFM=F Big=F
 Integral buffers will be    131072 words long.
 Raffenetti 2 integral format.
 Two-electron integral symmetry is turned on.
 One-electron integrals computed using PRISM.
   1 Symmetry operations used in ECPInt.
 ECPInt:  NShTT=    3403 NPrTT=   12395 LenC2=    3203 LenP2D=    8852.
 LDataN:  DoStor=T MaxTD1= 8 Len=  415
 NBasis=   244 RedAO= T EigKep=  3.21D-04  NBF=   244
 NBsUse=   244 1.00D-06 EigRej= -1.00D+00 NBFU=   244
 Initial guess from the checkpoint file:  "/data/hutter/SMG16/TPSS/Gau-76546.chk"
 B after Tr=    -0.000000    0.000000   -0.000000
         Rot=    0.805445    0.000474   -0.000816    0.592670 Ang=  72.69 deg.
 Keep J ints in memory in canonical form, NReq=459043149.
 Requested convergence on RMS density matrix=1.00D-08 within 128 cycles.
 Requested convergence on MAX density matrix=1.00D-06.
 Requested convergence on             energy=1.00D-06.
 No special actions if energy rises.
 SCF Done:  E(RTPSS-TPSS) =  -828.351200110     A.U. after    8 cycles
            NFock=  8  Conv=0.42D-08     -V/T= 2.0032
   1 Symmetry operations used in ECPInt.
 ECPInt:  NShTT=    3403 NPrTT=   12395 LenC2=    3203 LenP2D=    8852.
 LDataN:  DoStor=T MaxTD1= 9 Len=  602
 Calling FoFJK, ICntrl=      2527 FMM=F ISym2X=0 I1Cent= 0 IOpClX= 0 NMat=1 NMatS=1 NMatT=0.
 ***** Axes restored to original set *****
 -------------------------------------------------------------------
 Center     Atomic                   Forces (Hartrees/Bohr)
 Number     Number              X              Y              Z
 -------------------------------------------------------------------
      1       15          -0.000002551   -0.000001512    0.000004034
      2       11          -0.000001348   -0.000000815   -0.000001045
      3       11           0.000002637    0.000005177   -0.000002304
      4       11           0.000001262   -0.000002850   -0.000000685
 -------------------------------------------------------------------
 Cartesian Forces:  Max     0.000005177 RMS     0.000002548

 GradGradGradGradGradGradGradGradGradGradGradGradGradGradGradGradGradGrad
 Berny optimization.
 Using GEDIIS/GDIIS optimizer.
 FormGI is forming the generalized inverse of G from B-inverse, IUseBI=4.
 Internal  Forces:  Max     0.000010984 RMS     0.000004960
 Search for a local minimum.
 Step number   5 out of a maximum of   20
 All quantities printed in internal units (Hartrees-Bohrs-Radians)
 Mixed Optimization -- En-DIIS/RFO-DIIS
 Swapping is turned off.
 Update second derivatives using D2CorX and points    1    2    3    4    5
 DE= -1.48D-06 DEPred=-1.36D-06 R= 1.09D+00
 TightC=F SS=  1.41D+00  RLast= 1.16D-02 DXNew= 5.0454D-01 3.4862D-02
 Trust test= 1.09D+00 RLast= 1.16D-02 DXMaxT set to 3.00D-01
 The second derivative matrix:
                          R1        R2        R3        A1        A2
           R1           0.06564
           R2          -0.00820   0.06471
           R3          -0.01013  -0.01077   0.05864
           A1           0.00649   0.00366  -0.00455   0.02520
           A2          -0.00135  -0.00204  -0.00438  -0.04280   0.24096
           A3          -0.00483  -0.00489  -0.00495   0.02460   0.00332
           D1          -0.00179  -0.00256  -0.00264  -0.00774  -0.00193
                          A3        D1
           A3           0.24599
           D1           0.00284   0.01238
 ITU=  1  0  1  1  0
     Eigenvalues ---    0.02005   0.04333   0.07324   0.07350   0.24168
     Eigenvalues ---    0.24886
 En-DIIS/RFO-DIIS/Sim-DIIS IScMMF=       -3 using points:     5    4    3    2    1
 RFO step:  Lambda=-8.99989106D-10.
 DIIS inversion failure, remove point   5.
 DIIS inversion failure, remove point   4.
 DIIS inversion failure, remove point   3.
 RFO-DIIS uses    2 points instead of    5
 DidBck=F Rises=F RFO-DIIS coefs:    0.99746    0.00254    0.00000    0.00000    0.00000
 Iteration  1 RMS(Cart)=  0.00007620 RMS(Int)=  0.00000000
 Iteration  2 RMS(Cart)=  0.00000000 RMS(Int)=  0.00000000
 Variable       Old X    -DE/DX   Delta X   Delta X   Delta X     New X
                                 (Linear)    (Quad)   (Total)
    R1        4.91323   0.00000  -0.00001   0.00002   0.00002   4.91325
    R2        4.91314   0.00001  -0.00000   0.00010   0.00009   4.91323
    R3        4.91329  -0.00000  -0.00000   0.00000  -0.00000   4.91329
    A1        1.68545   0.00000   0.00002   0.00002   0.00004   1.68549
    A2        1.68570  -0.00001   0.00000  -0.00004  -0.00004   1.68566
    A3        1.68563   0.00000  -0.00000   0.00001   0.00000   1.68563
    D1       -1.70039  -0.00000  -0.00002  -0.00002  -0.00004  -1.70043
         Item               Value     Threshold  Converged?
 Maximum Force            0.000011     0.000450     YES
 RMS     Force            0.000005     0.000300     YES
 Maximum Displacement     0.000131     0.001800     YES
 RMS     Displacement     0.000076     0.001200     YES
 Predicted change in Energy=-5.843042D-10
 Optimization completed.
    -- Stationary point found.
                           ----------------------------
                           !   Optimized Parameters   !
                           ! (Angstroms and Degrees)  !
 --------------------------                            --------------------------
 ! Name  Definition              Value          Derivative Info.                !
 --------------------------------------------------------------------------------
 ! R1    R(1,2)                  2.6            -DE/DX =    0.0                 !
 ! R2    R(1,3)                  2.5999         -DE/DX =    0.0                 !
 ! R3    R(1,4)                  2.6            -DE/DX =    0.0                 !
 ! A1    A(2,1,3)               96.5689         -DE/DX =    0.0                 !
 ! A2    A(2,1,4)               96.5834         -DE/DX =    0.0                 !
 ! A3    A(3,1,4)               96.5794         -DE/DX =    0.0                 !
 ! D1    D(2,1,4,3)            -97.4252         -DE/DX =    0.0                 !
 --------------------------------------------------------------------------------
 GradGradGradGradGradGradGradGradGradGradGradGradGradGradGradGradGradGrad

                          Input orientation:                          
 ---------------------------------------------------------------------
 Center     Atomic      Atomic             Coordinates (Angstroms)
 Number     Number       Type             X           Y           Z
 ---------------------------------------------------------------------
      1         15           0        9.916511    9.668968   10.162914
      2         11           0       10.725006    7.582804    8.838489
      3         11           0       11.313578   11.419416    8.842414
      4         11           0        7.696257   10.011041    8.853923
 ---------------------------------------------------------------------
                    Distance matrix (angstroms):
                    1          2          3          4
     1  P    0.000000
     2  Na   2.599970   0.000000
     3  Na   2.599921   3.881498   0.000000
     4  Na   2.600000   3.881996   3.881837   0.000000
 Stoichiometry    Na3P
 Framework group  C1[X(Na3P)]
 Deg. of freedom     6
 Full point group                 C1      NOp   1
 Largest Abelian subgroup         C1      NOp   1
 Largest concise Abelian subgroup C1      NOp   1
                         Standard orientation:                         
 ---------------------------------------------------------------------
 Center     Atomic      Atomic             Coordinates (Angstroms)
 Number     Number       Type             X           Y           Z
 ---------------------------------------------------------------------
      1         15           0        0.000101    0.000033    0.906113
      2         11           0       -1.412155    1.740250   -0.411850
      3         11           0       -0.801333   -2.092885   -0.411834
      4         11           0        2.213351    0.352590   -0.411926
 ---------------------------------------------------------------------
 Rotational constants (GHZ):           2.4030171           2.4024180           1.4588863

 **********************************************************************

            Population analysis using the SCF Density.

 **********************************************************************

 Orbital symmetries:
       Occupied  (A) (A) (A) (A) (A) (A) (A) (A) (A) (A) (A) (A)
                 (A) (A) (A) (A) (A) (A) (A) (A) (A) (A) (A) (A)
       Virtual   (A) (A) (A) (A) (A) (A) (A) (A) (A) (A) (A) (A)
                 (A) (A) (A) (A) (A) (A) (A) (A) (A) (A) (A) (A)
                 (A) (A) (A) (A) (A) (A) (A) (A) (A) (A) (A) (A)
                 (A) (A) (A) (A) (A) (A) (A) (A) (A) (A) (A) (A)
                 (A) (A) (A) (A) (A) (A) (A) (A) (A) (A) (A) (A)
                 (A) (A) (A) (A) (A) (A) (A) (A) (A) (A) (A) (A)
                 (A) (A) (A) (A) (A) (A) (A) (A) (A) (A) (A) (A)
                 (A) (A) (A) (A) (A) (A) (A) (A) (A) (A) (A) (A)
                 (A) (A) (A) (A) (A) (A) (A) (A) (A) (A) (A) (A)
                 (A) (A) (A) (A) (A) (A) (A) (A) (A) (A) (A) (A)
                 (A) (A) (A) (A) (A) (A) (A) (A) (A) (A) (A) (A)
                 (A) (A) (A) (A) (A) (A) (A) (A) (A) (A) (A) (A)
                 (A) (A) (A) (A) (A) (A) (A) (A) (A) (A) (A) (A)
                 (A) (A) (A) (A) (A) (A) (A) (A) (A) (A) (A) (A)
                 (A) (A) (A) (A) (A) (A) (A) (A) (A) (A) (A) (A)
                 (A) (A) (A) (A) (A) (A) (A) (A) (A) (A) (A) (A)
                 (A) (A) (A) (A) (A) (A) (A) (A) (A) (A) (A) (A)
                 (A) (A) (A) (A) (A) (A) (A) (A) (A) (A) (A) (A)
                 (A) (A) (A) (A)
 The electronic state is 1-A.
 Alpha  occ. eigenvalues --  -76.46121 -38.11065 -38.11065 -38.11064  -6.24238
 Alpha  occ. eigenvalues --   -4.42024  -4.41800  -4.41800  -2.07578  -2.07578
 Alpha  occ. eigenvalues --   -2.07577  -1.02513  -1.02513  -1.02510  -1.02502
 Alpha  occ. eigenvalues --   -1.02501  -1.02501  -1.02389  -1.02356  -1.02356
 Alpha  occ. eigenvalues --   -0.38745  -0.11288  -0.11287  -0.11048
 Alpha virt. eigenvalues --   -0.05932  -0.03903  -0.03902  -0.00910  -0.00586
 Alpha virt. eigenvalues --   -0.00586   0.01037   0.01191   0.01191   0.02511
 Alpha virt. eigenvalues --    0.02511   0.02685   0.03215   0.04999   0.05038
 Alpha virt. eigenvalues --    0.05039   0.05275   0.05275   0.07465   0.07466
 Alpha virt. eigenvalues --    0.08025   0.08716   0.10904   0.10905   0.11830
 Alpha virt. eigenvalues --    0.14716   0.14717   0.15743   0.15856   0.15856
 Alpha virt. eigenvalues --    0.17266   0.17267   0.18068   0.18930   0.20811
 Alpha virt. eigenvalues --    0.21280   0.21283   0.23982   0.23983   0.26137
 Alpha virt. eigenvalues --    0.26137   0.26975   0.27425   0.27457   0.27457
 Alpha virt. eigenvalues --    0.29146   0.29146   0.29434   0.29758   0.29758
 Alpha virt. eigenvalues --    0.31621   0.33634   0.35431   0.35432   0.39142
 Alpha virt. eigenvalues --    0.39142   0.39376   0.45315   0.46312   0.47134
 Alpha virt. eigenvalues --    0.47135   0.49064   0.49065   0.52498   0.52500
 Alpha virt. eigenvalues --    0.53958   0.53975   0.56109   0.56110   0.61821
 Alpha virt. eigenvalues --    0.61822   0.62279   0.62772   0.63390   0.63394
 Alpha virt. eigenvalues --    0.64565   0.64567   0.65266   0.67305   0.67306
 Alpha virt. eigenvalues --    0.67906   0.69361   0.69653   0.69923   0.69925
 Alpha virt. eigenvalues --    0.71648   0.71648   0.73026   0.73028   0.74192
 Alpha virt. eigenvalues --    0.74471   0.78083   0.78086   0.80970   0.82890
 Alpha virt. eigenvalues --    0.82890   0.97058   0.97058   0.97187   0.99493
 Alpha virt. eigenvalues --    0.99642   0.99642   1.00466   1.00466   1.01427
 Alpha virt. eigenvalues --    1.03946   1.03947   1.09747   1.10955   1.10956
 Alpha virt. eigenvalues --    1.16657   1.20308   1.25775   1.25776   1.26441
 Alpha virt. eigenvalues --    1.31584   1.31589   1.32431   1.51362   1.51367
 Alpha virt. eigenvalues --    1.52374   1.65420   1.65426   1.74040   2.39277
 Alpha virt. eigenvalues --    2.39277   2.39638   2.47731   2.47731   2.71782
 Alpha virt. eigenvalues --    2.72680   2.72682   2.73056   2.73503   2.73504
 Alpha virt. eigenvalues --    2.77082   2.79809   2.79809   2.83085   2.93421
 Alpha virt. eigenvalues --    2.93422   2.94675   3.03384   3.03388   3.07649
 Alpha virt. eigenvalues --    3.40172   3.40264   3.40264   3.40651   3.40872
 Alpha virt. eigenvalues --    3.40873   3.47917   3.48157   3.48158   3.49435
 Alpha virt. eigenvalues --    3.49435   3.49860   3.59359   3.59785   3.59788
 Alpha virt. eigenvalues --    3.82469   3.90939   3.90945   5.56231   5.72348
 Alpha virt. eigenvalues --    5.72356   5.82459   7.21396   7.21734   7.21734
 Alpha virt. eigenvalues --    7.27248   7.27248  13.99258  13.99521  13.99521
 Alpha virt. eigenvalues --   13.99720  13.99725  13.99726  14.02375  14.02732
 Alpha virt. eigenvalues --   14.02733  14.03895  14.03896  14.04231  14.12159
 Alpha virt. eigenvalues --   14.12160  14.12507  14.57329  14.57331  14.57331
 Alpha virt. eigenvalues --   14.57354  14.57355  14.57365  14.57414  14.57464
 Alpha virt. eigenvalues --   14.57465  14.57495  14.57496  14.57522  14.57544
 Alpha virt. eigenvalues --   14.57580  14.57581  14.57602  14.57602  14.57694
 Alpha virt. eigenvalues --   14.57883  14.58082  14.58083  17.63929  17.71643
 Alpha virt. eigenvalues --   17.71648  20.06649  20.92950  21.06230  21.06237
 Alpha virt. eigenvalues --   70.24137 126.32560 126.55564 126.55577 381.96748
          Condensed to atoms (all electrons):
               1          2          3          4
     1  P   14.763744   0.317015   0.317024   0.317018
     2  Na   0.317015  10.503598  -0.029460  -0.029425
     3  Na   0.317024  -0.029460  10.503612  -0.029437
     4  Na   0.317018  -0.029425  -0.029437  10.503573
 Mulliken charges:
               1
     1  P   -0.714802
     2  Na   0.238271
     3  Na   0.238260
     4  Na   0.238271
 Sum of Mulliken charges =  -0.00000
 Mulliken charges with hydrogens summed into heavy atoms:
               1
     1  P   -0.714802
     2  Na   0.238271
     3  Na   0.238260
     4  Na   0.238271
 Electronic spatial extent (au):  <R**2>=            720.8220
 Charge=              0.0000 electrons
 Dipole moment (field-independent basis, Debye):
    X=             -0.0004    Y=             -0.0001    Z=             -5.2942  Tot=              5.2942
 Quadrupole moment (field-independent basis, Debye-Ang):
   XX=            -21.1933   YY=            -21.2003   ZZ=            -44.9623
   XY=              0.0001   XZ=             -0.0007   YZ=             -0.0002
 Traceless Quadrupole moment (field-independent basis, Debye-Ang):
   XX=              7.9253   YY=              7.9183   ZZ=            -15.8437
   XY=              0.0001   XZ=             -0.0007   YZ=             -0.0002
 Octapole moment (field-independent basis, Debye-Ang**2):
  XXX=             28.1239  YYY=            -14.4252  ZZZ=            -17.1965  XYY=            -28.1218
  XXY=             14.4276  XXZ=            -15.6544  XZZ=              0.0004  YZZ=              0.0003
  YYZ=            -15.6511  XYZ=             -0.0001
 Hexadecapole moment (field-independent basis, Debye-Ang**3):
 XXXX=           -290.9126 YYYY=           -290.8924 ZZZZ=           -241.2402 XXXY=             -0.0023
 XXXZ=            -11.0866 YYYX=              0.0026 YYYZ=              5.6809 ZZZX=             -0.0028
 ZZZY=             -0.0010 XXYY=            -96.9645 XXZZ=           -105.0108 YYZZ=           -104.9995
 XXYZ=             -5.6849 YYXZ=             11.0770 ZZXY=              0.0002
 N-N= 1.502340317697D+02 E-N=-2.284492606424D+03  KE= 8.256764333607D+02
 Unable to Open any file for archive entry.
 1\1\GINC-TCOPT10\FOpt\RTPSSTPSS\def2QZVPP\Na3P1\HUTTER\01-Aug-2021\0\\
 #N RTPSSTPSS/Def2QZVPP scf=tight Int(Grid=ultrafine) OPT FREQ\\Mol job
  1\\0,1\P,9.9165105099,9.668967535,10.1629141299\Na,10.7250055296,7.58
 28038518,8.8384894589\Na,11.3135778605,11.4194157038,8.8424137863\Na,7
 .69625713,10.0110407694,8.853922765\\Version=ES64L-G16RevC.01\State=1-
 A\HF=-828.3512001\RMSD=4.154e-09\RMSF=2.548e-06\Dipole=-0.007822,0.003
 3241,-2.0828972\Quadrupole=5.8915837,5.8875,-11.7790837,-0.0013783,-0.
 0672104,0.0284113\PG=C01 [X(Na3P1)]\\@
 The archive entry for this job was punched.


 LET US LEARN TO DREAM, GENTLEMEN, THEN PERHAPS WE SHALL
 DISCOVER THE TRUTH;  BUT LET US BEWARE OF PUBLISHING
 OUR DREAMS ABROAD BEFORE THEY HAVE BEEN SCRUTINIZED
 BY OUR VIGILANT INTELLECT ... LET US ALWAYS ALLOW
 THE FRUIT TO HANG UNTIL IT IS RIPE.  UNRIPE FRUIT
 BRINGS EVEN THE GROWER BUT LITTLE PROFIT; IT DAMAGES
 THE HEALTH OF THOSE WHO CONSUME IT; IT ENDANGERS
 PARTICULARLY THE YOUTH WHO CANNOT YET DISTINGUISH
 BETWEEN RIPE AND UNRIPE FRUIT.

                                  -- KEKULE, 1890
 Job cpu time:       0 days  0 hours 30 minutes 53.7 seconds.
 Elapsed time:       0 days  0 hours  5 minutes 32.4 seconds.
 File lengths (MBytes):  RWF=     32 Int=      0 D2E=      0 Chk=      5 Scr=      1
 Normal termination of Gaussian 16 at Sun Aug  1 00:08:38 2021.
 Link1:  Proceeding to internal job step number  2.
 ----------------------------------------------------------------------
 #N Geom=AllCheck Guess=TCheck SCRF=Check GenChk RTPSSTPSS/def2QZVPP Fr
 eq
 ----------------------------------------------------------------------
 1/10=4,29=7,30=1,38=1,40=1/1,3;
 2/12=2,40=1/2;
 3/5=45,7=202,11=2,14=-4,25=1,30=1,70=2,71=2,74=2523,75=-5,116=1,140=1/1,2,3;
 4/5=101/1;
 5/5=2,32=2,38=6,98=1/2;
 8/6=4,10=90,11=11/1;
 11/6=1,8=1,9=11,15=111,16=1/1,2,10;
 10/6=1/2;
 6/7=2,8=2,9=2,10=2,28=1/1;
 7/8=1,10=1,25=1/1,2,3,16;
 1/10=4,30=1/3;
 99//99;
 Structure from the checkpoint file:  "/data/hutter/SMG16/TPSS/Gau-76546.chk"
 ---------
 Mol job 1
 ---------
 Charge =  0 Multiplicity = 1
 Redundant internal coordinates found in file.  (old form).
 P,0,9.9165105099,9.668967535,10.1629141299
 Na,0,10.7250055296,7.5828038518,8.8384894589
 Na,0,11.3135778605,11.4194157038,8.8424137863
 Na,0,7.69625713,10.0110407694,8.853922765
 Recover connectivity data from disk.

 GradGradGradGradGradGradGradGradGradGradGradGradGradGradGradGradGradGrad
 Berny optimization.
 Initialization pass.
                           ----------------------------
                           !    Initial Parameters    !
                           ! (Angstroms and Degrees)  !
 --------------------------                            --------------------------
 ! Name  Definition              Value          Derivative Info.                !
 --------------------------------------------------------------------------------
 ! R1    R(1,2)                  2.6            calculate D2E/DX2 analytically  !
 ! R2    R(1,3)                  2.5999         calculate D2E/DX2 analytically  !
 ! R3    R(1,4)                  2.6            calculate D2E/DX2 analytically  !
 ! A1    A(2,1,3)               96.5689         calculate D2E/DX2 analytically  !
 ! A2    A(2,1,4)               96.5834         calculate D2E/DX2 analytically  !
 ! A3    A(3,1,4)               96.5794         calculate D2E/DX2 analytically  !
 ! D1    D(2,1,4,3)            -97.4252         calculate D2E/DX2 analytically  !
 --------------------------------------------------------------------------------
 Trust Radius=3.00D-01 FncErr=1.00D-07 GrdErr=1.00D-07 EigMax=2.50D+02 EigMin=1.00D-04
 Number of steps in this run=      2 maximum allowed number of steps=      2.
 GradGradGradGradGradGradGradGradGradGradGradGradGradGradGradGradGradGrad

                          Input orientation:                          
 ---------------------------------------------------------------------
 Center     Atomic      Atomic             Coordinates (Angstroms)
 Number     Number       Type             X           Y           Z
 ---------------------------------------------------------------------
      1         15           0        9.916511    9.668968   10.162914
      2         11           0       10.725006    7.582804    8.838489
      3         11           0       11.313578   11.419416    8.842414
      4         11           0        7.696257   10.011041    8.853923
 ---------------------------------------------------------------------
                    Distance matrix (angstroms):
                    1          2          3          4
     1  P    0.000000
     2  Na   2.599970   0.000000
     3  Na   2.599921   3.881498   0.000000
     4  Na   2.600000   3.881996   3.881837   0.000000
 Stoichiometry    Na3P
 Framework group  C1[X(Na3P)]
 Deg. of freedom     6
 Full point group                 C1      NOp   1
 Largest Abelian subgroup         C1      NOp   1
 Largest concise Abelian subgroup C1      NOp   1
                         Standard orientation:                         
 ---------------------------------------------------------------------
 Center     Atomic      Atomic             Coordinates (Angstroms)
 Number     Number       Type             X           Y           Z
 ---------------------------------------------------------------------
      1         15           0        0.000101    0.000033    0.906113
      2         11           0       -1.412155    1.740250   -0.411850
      3         11           0       -0.801333   -2.092885   -0.411834
      4         11           0        2.213351    0.352590   -0.411926
 ---------------------------------------------------------------------
 Rotational constants (GHZ):           2.4030171           2.4024180           1.4588863
 Standard basis: def2QZVPP (5D, 7F)
 There are   290 symmetry adapted cartesian basis functions of A   symmetry.
 There are   244 symmetry adapted basis functions of A   symmetry.
   244 basis functions,   421 primitive gaussians,   290 cartesian basis functions
    24 alpha electrons       24 beta electrons
       nuclear repulsion energy       150.2340317697 Hartrees.
 NAtoms=    4 NActive=    4 NUniq=    4 SFac= 1.00D+00 NAtFMM=   60 NAOKFM=F Big=F
 Integral buffers will be    131072 words long.
 Raffenetti 2 integral format.
 Two-electron integral symmetry is turned on.
 One-electron integrals computed using PRISM.
   1 Symmetry operations used in ECPInt.
 ECPInt:  NShTT=    3403 NPrTT=   12395 LenC2=    3203 LenP2D=    8852.
 LDataN:  DoStor=T MaxTD1= 8 Len=  415
 NBasis=   244 RedAO= T EigKep=  3.21D-04  NBF=   244
 NBsUse=   244 1.00D-06 EigRej= -1.00D+00 NBFU=   244
 Initial guess from the checkpoint file:  "/data/hutter/SMG16/TPSS/Gau-76546.chk"
 B after Tr=     0.000000    0.000000    0.000000
         Rot=    1.000000    0.000000    0.000000    0.000000 Ang=   0.00 deg.
 Keep J ints in memory in canonical form, NReq=459043149.
 Requested convergence on RMS density matrix=1.00D-08 within 128 cycles.
 Requested convergence on MAX density matrix=1.00D-06.
 Requested convergence on             energy=1.00D-06.
 No special actions if energy rises.
 SCF Done:  E(RTPSS-TPSS) =  -828.351200110     A.U. after    1 cycles
            NFock=  1  Conv=0.13D-08     -V/T= 2.0032
 DoSCS=F DFT=T ScalE2(SS,OS)=  1.000000  1.000000
 Range of M.O.s used for correlation:     1   244
 NBasis=   244 NAE=    24 NBE=    24 NFC=     0 NFV=     0
 NROrb=    244 NOA=    24 NOB=    24 NVA=   220 NVB=   220

 **** Warning!!: The largest alpha MO coefficient is  0.18140283D+02


 **** Warning!!: The smallest alpha delta epsilon is  0.51159805D-01

   1 Symmetry operations used in ECPInt.
 ECPInt:  NShTT=    3403 NPrTT=   12395 LenC2=    3203 LenP2D=    8852.
 LDataN:  DoStor=T MaxTD1= 9 Len=  602
 Symmetrizing basis deriv contribution to polar:
 IMax=3 JMax=2 DiffMx= 0.00D+00
 G2DrvN: will do     5 centers at a time, making    1 passes.
 Calling FoFCou, ICntrl=  3507 FMM=F I1Cent=   0 AccDes= 0.00D+00.
 End of G2Drv F.D. properties file   721 does not exist.
 End of G2Drv F.D. properties file   722 does not exist.
 End of G2Drv F.D. properties file   788 does not exist.
          IDoAtm=1111
          Differentiating once with respect to electric field.
                with respect to dipole field.
          Differentiating once with respect to nuclear coordinates.
 Keep J ints in memory in canonical form, NReq=459045579.
          There are    15 degrees of freedom in the 1st order CPHF.  IDoFFX=6 NUNeed=     3.
     12 vectors produced by pass  0 Test12= 3.52D-14 6.67D-09 XBig12= 1.98D+03 3.51D+01.
 AX will form    12 AO Fock derivatives at one time.
     12 vectors produced by pass  1 Test12= 3.52D-14 6.67D-09 XBig12= 2.20D+03 1.54D+01.
     12 vectors produced by pass  2 Test12= 3.52D-14 6.67D-09 XBig12= 2.79D+01 1.45D+00.
     12 vectors produced by pass  3 Test12= 3.52D-14 6.67D-09 XBig12= 7.01D-01 2.42D-01.
     12 vectors produced by pass  4 Test12= 3.52D-14 6.67D-09 XBig12= 2.02D-02 2.54D-02.
     12 vectors produced by pass  5 Test12= 3.52D-14 6.67D-09 XBig12= 1.90D-04 4.03D-03.
     12 vectors produced by pass  6 Test12= 3.52D-14 6.67D-09 XBig12= 1.70D-06 2.74D-04.
      4 vectors produced by pass  7 Test12= 3.52D-14 6.67D-09 XBig12= 1.16D-08 3.40D-05.
      3 vectors produced by pass  8 Test12= 3.52D-14 6.67D-09 XBig12= 2.67D-11 1.54D-06.
      3 vectors produced by pass  9 Test12= 3.52D-14 6.67D-09 XBig12= 1.05D-13 7.63D-08.
 InvSVY:  IOpt=1 It=  1 EMax= 1.22D-15
 Solved reduced A of dimension    94 with    12 vectors.
 Isotropic polarizability for W=    0.000000      274.56 Bohr**3.
 End of Minotr F.D. properties file   721 does not exist.
 End of Minotr F.D. properties file   722 does not exist.
 End of Minotr F.D. properties file   788 does not exist.

 **********************************************************************

            Population analysis using the SCF Density.

 **********************************************************************

 Orbital symmetries:
       Occupied  (A) (A) (A) (A) (A) (A) (A) (A) (A) (A) (A) (A)
                 (A) (A) (A) (A) (A) (A) (A) (A) (A) (A) (A) (A)
       Virtual   (A) (A) (A) (A) (A) (A) (A) (A) (A) (A) (A) (A)
                 (A) (A) (A) (A) (A) (A) (A) (A) (A) (A) (A) (A)
                 (A) (A) (A) (A) (A) (A) (A) (A) (A) (A) (A) (A)
                 (A) (A) (A) (A) (A) (A) (A) (A) (A) (A) (A) (A)
                 (A) (A) (A) (A) (A) (A) (A) (A) (A) (A) (A) (A)
                 (A) (A) (A) (A) (A) (A) (A) (A) (A) (A) (A) (A)
                 (A) (A) (A) (A) (A) (A) (A) (A) (A) (A) (A) (A)
                 (A) (A) (A) (A) (A) (A) (A) (A) (A) (A) (A) (A)
                 (A) (A) (A) (A) (A) (A) (A) (A) (A) (A) (A) (A)
                 (A) (A) (A) (A) (A) (A) (A) (A) (A) (A) (A) (A)
                 (A) (A) (A) (A) (A) (A) (A) (A) (A) (A) (A) (A)
                 (A) (A) (A) (A) (A) (A) (A) (A) (A) (A) (A) (A)
                 (A) (A) (A) (A) (A) (A) (A) (A) (A) (A) (A) (A)
                 (A) (A) (A) (A) (A) (A) (A) (A) (A) (A) (A) (A)
                 (A) (A) (A) (A) (A) (A) (A) (A) (A) (A) (A) (A)
                 (A) (A) (A) (A) (A) (A) (A) (A) (A) (A) (A) (A)
                 (A) (A) (A) (A) (A) (A) (A) (A) (A) (A) (A) (A)
                 (A) (A) (A) (A) (A) (A) (A) (A) (A) (A) (A) (A)
                 (A) (A) (A) (A)
 The electronic state is 1-A.
 Alpha  occ. eigenvalues --  -76.46121 -38.11065 -38.11065 -38.11064  -6.24238
 Alpha  occ. eigenvalues --   -4.42024  -4.41800  -4.41800  -2.07578  -2.07578
 Alpha  occ. eigenvalues --   -2.07577  -1.02513  -1.02513  -1.02510  -1.02502
 Alpha  occ. eigenvalues --   -1.02501  -1.02501  -1.02389  -1.02356  -1.02356
 Alpha  occ. eigenvalues --   -0.38744  -0.11288  -0.11287  -0.11048
 Alpha virt. eigenvalues --   -0.05932  -0.03903  -0.03902  -0.00910  -0.00586
 Alpha virt. eigenvalues --   -0.00586   0.01037   0.01191   0.01191   0.02511
 Alpha virt. eigenvalues --    0.02511   0.02685   0.03215   0.04999   0.05038
 Alpha virt. eigenvalues --    0.05039   0.05275   0.05275   0.07465   0.07466
 Alpha virt. eigenvalues --    0.08025   0.08716   0.10904   0.10905   0.11830
 Alpha virt. eigenvalues --    0.14716   0.14717   0.15743   0.15856   0.15856
 Alpha virt. eigenvalues --    0.17266   0.17267   0.18068   0.18930   0.20811
 Alpha virt. eigenvalues --    0.21280   0.21283   0.23982   0.23983   0.26137
 Alpha virt. eigenvalues --    0.26137   0.26975   0.27425   0.27457   0.27457
 Alpha virt. eigenvalues --    0.29146   0.29146   0.29434   0.29758   0.29758
 Alpha virt. eigenvalues --    0.31621   0.33634   0.35431   0.35432   0.39142
 Alpha virt. eigenvalues --    0.39142   0.39376   0.45315   0.46312   0.47134
 Alpha virt. eigenvalues --    0.47135   0.49064   0.49065   0.52498   0.52500
 Alpha virt. eigenvalues --    0.53958   0.53975   0.56109   0.56110   0.61821
 Alpha virt. eigenvalues --    0.61822   0.62279   0.62772   0.63390   0.63394
 Alpha virt. eigenvalues --    0.64565   0.64567   0.65266   0.67305   0.67306
 Alpha virt. eigenvalues --    0.67906   0.69361   0.69653   0.69923   0.69925
 Alpha virt. eigenvalues --    0.71648   0.71648   0.73026   0.73028   0.74192
 Alpha virt. eigenvalues --    0.74471   0.78083   0.78086   0.80970   0.82890
 Alpha virt. eigenvalues --    0.82890   0.97058   0.97058   0.97187   0.99493
 Alpha virt. eigenvalues --    0.99642   0.99642   1.00466   1.00466   1.01427
 Alpha virt. eigenvalues --    1.03946   1.03947   1.09747   1.10955   1.10956
 Alpha virt. eigenvalues --    1.16657   1.20308   1.25775   1.25776   1.26441
 Alpha virt. eigenvalues --    1.31584   1.31589   1.32431   1.51362   1.51367
 Alpha virt. eigenvalues --    1.52374   1.65420   1.65426   1.74040   2.39277
 Alpha virt. eigenvalues --    2.39277   2.39638   2.47731   2.47731   2.71782
 Alpha virt. eigenvalues --    2.72680   2.72682   2.73056   2.73503   2.73504
 Alpha virt. eigenvalues --    2.77082   2.79809   2.79809   2.83085   2.93421
 Alpha virt. eigenvalues --    2.93422   2.94675   3.03384   3.03388   3.07649
 Alpha virt. eigenvalues --    3.40172   3.40264   3.40264   3.40651   3.40872
 Alpha virt. eigenvalues --    3.40873   3.47917   3.48157   3.48158   3.49435
 Alpha virt. eigenvalues --    3.49435   3.49860   3.59359   3.59785   3.59788
 Alpha virt. eigenvalues --    3.82469   3.90939   3.90945   5.56231   5.72348
 Alpha virt. eigenvalues --    5.72356   5.82459   7.21396   7.21734   7.21734
 Alpha virt. eigenvalues --    7.27248   7.27248  13.99258  13.99521  13.99521
 Alpha virt. eigenvalues --   13.99720  13.99725  13.99726  14.02375  14.02732
 Alpha virt. eigenvalues --   14.02733  14.03895  14.03896  14.04231  14.12159
 Alpha virt. eigenvalues --   14.12160  14.12507  14.57329  14.57331  14.57331
 Alpha virt. eigenvalues --   14.57354  14.57355  14.57365  14.57414  14.57464
 Alpha virt. eigenvalues --   14.57465  14.57495  14.57496  14.57522  14.57544
 Alpha virt. eigenvalues --   14.57580  14.57581  14.57602  14.57602  14.57694
 Alpha virt. eigenvalues --   14.57883  14.58082  14.58083  17.63929  17.71643
 Alpha virt. eigenvalues --   17.71648  20.06649  20.92950  21.06230  21.06237
 Alpha virt. eigenvalues --   70.24137 126.32560 126.55564 126.55577 381.96748
          Condensed to atoms (all electrons):
               1          2          3          4
     1  P   14.763743   0.317015   0.317024   0.317018
     2  Na   0.317015  10.503599  -0.029460  -0.029425
     3  Na   0.317024  -0.029460  10.503612  -0.029437
     4  Na   0.317018  -0.029425  -0.029437  10.503573
 Mulliken charges:
               1
     1  P   -0.714801
     2  Na   0.238271
     3  Na   0.238260
     4  Na   0.238270
 Sum of Mulliken charges =  -0.00000
 Mulliken charges with hydrogens summed into heavy atoms:
               1
     1  P   -0.714801
     2  Na   0.238271
     3  Na   0.238260
     4  Na   0.238270
 APT charges:
               1
     1  P   -0.874868
     2  Na   0.291609
     3  Na   0.291608
     4  Na   0.291651
 Sum of APT charges =  -0.00000
 APT charges with hydrogens summed into heavy atoms:
               1
     1  P   -0.874868
     2  Na   0.291609
     3  Na   0.291608
     4  Na   0.291651
 Electronic spatial extent (au):  <R**2>=            720.8221
 Charge=             -0.0000 electrons
 Dipole moment (field-independent basis, Debye):
    X=             -0.0004    Y=             -0.0001    Z=             -5.2942  Tot=              5.2942
 Quadrupole moment (field-independent basis, Debye-Ang):
   XX=            -21.1933   YY=            -21.2003   ZZ=            -44.9623
   XY=              0.0001   XZ=             -0.0007   YZ=             -0.0002
 Traceless Quadrupole moment (field-independent basis, Debye-Ang):
   XX=              7.9253   YY=              7.9183   ZZ=            -15.8437
   XY=              0.0001   XZ=             -0.0007   YZ=             -0.0002
 Octapole moment (field-independent basis, Debye-Ang**2):
  XXX=             28.1239  YYY=            -14.4252  ZZZ=            -17.1965  XYY=            -28.1218
  XXY=             14.4276  XXZ=            -15.6544  XZZ=              0.0004  YZZ=              0.0003
  YYZ=            -15.6511  XYZ=             -0.0001
 Hexadecapole moment (field-independent basis, Debye-Ang**3):
 XXXX=           -290.9129 YYYY=           -290.8926 ZZZZ=           -241.2403 XXXY=             -0.0023
 XXXZ=            -11.0866 YYYX=              0.0026 YYYZ=              5.6809 ZZZX=             -0.0028
 ZZZY=             -0.0010 XXYY=            -96.9646 XXZZ=           -105.0108 YYZZ=           -104.9996
 XXYZ=             -5.6849 YYXZ=             11.0770 ZZXY=              0.0002
 N-N= 1.502340317697D+02 E-N=-2.284492600008D+03  KE= 8.256764326661D+02
  Exact polarizability:     305.978      -0.001     305.945       0.005       0.002     211.758
 Approx polarizability:     565.085      -0.002     564.998       0.026       0.008     565.978
   1 Symmetry operations used in ECPInt.
 ECPInt:  NShTT=    3403 NPrTT=   12395 LenC2=    3203 LenP2D=    8852.
 LDataN:  DoStor=T MaxTD1=10 Len=  848
 Calling FoFJK, ICntrl=    100527 FMM=F ISym2X=0 I1Cent= 0 IOpClX= 0 NMat=1 NMatS=1 NMatT=0.
 Full mass-weighted force constant matrix:
 Low frequencies ---   -2.1741   -1.2578   -0.0023   -0.0021   -0.0019    2.8427
 Low frequencies ---   74.2272   74.2327   86.7035
 Diagonal vibrational polarizability:
       20.6836479      20.6212847      85.3334809
 Harmonic frequencies (cm**-1), IR intensities (KM/Mole), Raman scattering
 activities (A**4/AMU), depolarization ratios for plane and unpolarized
 incident light, reduced masses (AMU), force constants (mDyne/A),
 and normal coordinates:
                      1                      2                      3
                      A                      A                      A
 Frequencies --     74.2271                74.2327                86.7033
 Red. masses --     23.7067                23.7065                25.2449
 Frc consts  --      0.0770                 0.0770                 0.1118
 IR Inten    --      2.3315                 2.3309                22.8686
  Atom  AN      X      Y      Z        X      Y      Z        X      Y      Z
     1  15    -0.28   0.10  -0.00    -0.10  -0.28  -0.00    -0.00  -0.00   0.53
     2  11     0.07   0.48   0.13     0.56   0.19  -0.08     0.27  -0.33  -0.24
     3  11     0.61  -0.25   0.01    -0.16  -0.35   0.16     0.15   0.40  -0.24
     4  11    -0.29  -0.36  -0.14    -0.27   0.55  -0.07    -0.42  -0.07  -0.24
                      4                      5                      6
                      A                      A                      A
 Frequencies --    267.4063               297.9239               298.1520
 Red. masses --     25.2233                26.0118                26.0155
 Frc consts  --      1.0627                 1.3603                 1.3626
 IR Inten    --      9.2142                30.5813                30.5933
  Atom  AN      X      Y      Z        X      Y      Z        X      Y      Z
     1  15     0.00   0.00   0.53     0.47   0.40  -0.00    -0.40   0.47   0.00
     2  11    -0.27   0.33  -0.24     0.01  -0.01   0.01     0.35  -0.43   0.32
     3  11    -0.15  -0.40  -0.24    -0.17  -0.45  -0.28    -0.10  -0.25  -0.16
     4  11     0.42   0.07  -0.24    -0.47  -0.07   0.28     0.28   0.05  -0.17

 -------------------
 - Thermochemistry -
 -------------------
 Temperature   298.150 Kelvin.  Pressure   1.00000 Atm.
 Atom     1 has atomic number 15 and mass  30.97376
 Atom     2 has atomic number 11 and mass  22.98977
 Atom     3 has atomic number 11 and mass  22.98977
 Atom     4 has atomic number 11 and mass  22.98977
 Molecular mass:    99.94307 amu.
 Principal axes and moments of inertia in atomic units:
                           1         2         3
     Eigenvalues --   751.03136 751.218641237.06775
           X            1.00000   0.00000   0.00000
           Y           -0.00000   1.00000   0.00000
           Z           -0.00000  -0.00000   1.00000
 This molecule is an asymmetric top.
 Rotational symmetry number  1.
 Warning -- assumption of classical behavior for rotation
           may cause significant error
 Rotational temperatures (Kelvin)      0.11533     0.11530     0.07002
 Rotational constants (GHZ):           2.40302     2.40242     1.45889
 Zero-point vibrational energy       6571.4 (Joules/Mol)
                                    1.57059 (Kcal/Mol)
 Warning -- explicit consideration of   6 degrees of freedom as
           vibrations may cause significant error
 Vibrational temperatures:    106.80   106.80   124.75   384.74   428.65
          (Kelvin)            428.97
 
 Zero-point correction=                           0.002503 (Hartree/Particle)
 Thermal correction to Energy=                    0.008974
 Thermal correction to Enthalpy=                  0.009918
 Thermal correction to Gibbs Free Energy=        -0.030007
 Sum of electronic and zero-point Energies=           -828.348697
 Sum of electronic and thermal Energies=              -828.342226
 Sum of electronic and thermal Enthalpies=            -828.341282
 Sum of electronic and thermal Free Energies=         -828.381208
 
                     E (Thermal)             CV                S
                      KCal/Mol        Cal/Mol-Kelvin    Cal/Mol-Kelvin
 Total                    5.631             16.940             84.030
 Electronic               0.000              0.000              0.000
 Translational            0.889              2.981             39.716
 Rotational               0.889              2.981             28.036
 Vibrational              3.854             10.978             16.278
 Vibration     1          0.599              1.966              4.038
 Vibration     2          0.599              1.966              4.038
 Vibration     3          0.601              1.958              3.733
 Vibration     4          0.673              1.733              1.613
 Vibration     5          0.691              1.678              1.429
 Vibration     6          0.691              1.677              1.427
                       Q            Log10(Q)             Ln(Q)
 Total Bot       0.634508D+14         13.802437         31.781285
 Total V=0       0.898854D+15         14.953689         34.432142
 Vib (Bot)       0.540256D+01          0.732599          1.686873
 Vib (Bot)    1  0.277689D+01          0.443559          1.021333
 Vib (Bot)    2  0.277668D+01          0.443526          1.021257
 Vib (Bot)    3  0.237270D+01          0.375242          0.864027
 Vib (Bot)    4  0.723677D+00         -0.140455         -0.323410
 Vib (Bot)    5  0.639083D+00         -0.194443         -0.447721
 Vib (Bot)    6  0.638513D+00         -0.194831         -0.448614
 Vib (V=0)       0.765335D+02          1.883852          4.337729
 Vib (V=0)    1  0.332155D+01          0.521341          1.200431
 Vib (V=0)    2  0.332134D+01          0.521314          1.200369
 Vib (V=0)    3  0.292481D+01          0.466097          1.073229
 Vib (V=0)    4  0.137961D+01          0.139755          0.321799
 Vib (V=0)    5  0.131144D+01          0.117747          0.271122
 Vib (V=0)    6  0.131099D+01          0.117598          0.270780
 Electronic      0.100000D+01          0.000000          0.000000
 Translational   0.392720D+08          7.594083         17.486022
 Rotational      0.299057D+06          5.475755         12.608391
 ***** Axes restored to original set *****
 -------------------------------------------------------------------
 Center     Atomic                   Forces (Hartrees/Bohr)
 Number     Number              X              Y              Z
 -------------------------------------------------------------------
      1       15          -0.000002542   -0.000001515    0.000004014
      2       11          -0.000001350   -0.000000813   -0.000001036
      3       11           0.000002635    0.000005177   -0.000002296
      4       11           0.000001257   -0.000002849   -0.000000681
 -------------------------------------------------------------------
 Cartesian Forces:  Max     0.000005177 RMS     0.000002543
 FormGI is forming the generalized inverse of G from B-inverse, IUseBI=4.

 GradGradGradGradGradGradGradGradGradGradGradGradGradGradGradGradGradGrad
 Berny optimization.
 Internal  Forces:  Max     0.000010965 RMS     0.000004955
 Search for a local minimum.
 Step number   1 out of a maximum of    2
 All quantities printed in internal units (Hartrees-Bohrs-Radians)
 Second derivative matrix not updated -- analytic derivatives used.
 The second derivative matrix:
                          R1        R2        R3        A1        A2
           R1           0.04256
           R2          -0.00033   0.04252
           R3          -0.00033  -0.00031   0.04257
           A1           0.00235   0.00233  -0.00056   0.01120
           A2           0.00479  -0.00016   0.00530  -0.00392   0.04282
           A3          -0.00016   0.00481   0.00509  -0.00393  -0.00008
           D1          -0.00299  -0.00298  -0.00080  -0.01034  -0.00163
                          A3        D1
           A3           0.04279
           D1          -0.00163   0.01092
 ITU=  0
     Eigenvalues ---    0.01955   0.03490   0.03792   0.04362   0.04784
     Eigenvalues ---    0.05156
 Angle between quadratic step and forces=   8.82 degrees.
 Linear search not attempted -- first point.
 Iteration  1 RMS(Cart)=  0.00030454 RMS(Int)=  0.00000002
 Iteration  2 RMS(Cart)=  0.00000002 RMS(Int)=  0.00000000
 Variable       Old X    -DE/DX   Delta X   Delta X   Delta X     New X
                                 (Linear)    (Quad)   (Total)
    R1        4.91323   0.00000   0.00000   0.00004   0.00004   4.91327
    R2        4.91314   0.00001   0.00000   0.00013   0.00013   4.91327
    R3        4.91329  -0.00000   0.00000   0.00000   0.00000   4.91329
    A1        1.68545   0.00000   0.00000   0.00008   0.00008   1.68553
    A2        1.68570  -0.00001   0.00000  -0.00025  -0.00025   1.68544
    A3        1.68563   0.00000   0.00000   0.00002   0.00002   1.68565
    D1       -1.70039  -0.00000   0.00000  -0.00005  -0.00005  -1.70045
         Item               Value     Threshold  Converged?
 Maximum Force            0.000011     0.000450     YES
 RMS     Force            0.000005     0.000300     YES
 Maximum Displacement     0.000495     0.001800     YES
 RMS     Displacement     0.000305     0.001200     YES
 Predicted change in Energy=-1.991607D-09
 Optimization completed.
    -- Stationary point found.
                           ----------------------------
                           !   Optimized Parameters   !
                           ! (Angstroms and Degrees)  !
 --------------------------                            --------------------------
 ! Name  Definition              Value          Derivative Info.                !
 --------------------------------------------------------------------------------
 ! R1    R(1,2)                  2.6            -DE/DX =    0.0                 !
 ! R2    R(1,3)                  2.5999         -DE/DX =    0.0                 !
 ! R3    R(1,4)                  2.6            -DE/DX =    0.0                 !
 ! A1    A(2,1,3)               96.5689         -DE/DX =    0.0                 !
 ! A2    A(2,1,4)               96.5834         -DE/DX =    0.0                 !
 ! A3    A(3,1,4)               96.5794         -DE/DX =    0.0                 !
 ! D1    D(2,1,4,3)            -97.4252         -DE/DX =    0.0                 !
 --------------------------------------------------------------------------------
 GradGradGradGradGradGradGradGradGradGradGradGradGradGradGradGradGradGrad


 ----------------------------------------------------------------------

 Electric dipole moment (input orientation):
 (Debye = 10**-18 statcoulomb cm , SI units = C m)
                  (au)            (Debye)         (10**-30 SI)
   Tot        0.208291D+01      0.529424D+01      0.176597D+02
   x         -0.782051D-02     -0.198778D-01     -0.663051D-01
   y          0.332347D-02      0.844743D-02      0.281776D-01
   z         -0.208290D+01     -0.529419D+01     -0.176595D+02

 Dipole polarizability, Alpha (input orientation).
 (esu units = cm**3 , SI units = C**2 m**2 J**-1)
 Alpha(0;0):
               (au)            (10**-24 esu)      (10**-40 SI)
   iso        0.274561D+03      0.406857D+02      0.452689D+02
   aniso      0.942036D+02      0.139595D+02      0.155321D+02
   xx         0.305973D+03      0.453405D+02      0.504481D+02
   yx        -0.103619D-01     -0.153547D-02     -0.170845D-02
   yy         0.305949D+03      0.453369D+02      0.504441D+02
   zx        -0.366132D+00     -0.542552D-01     -0.603670D-01
   zy         0.151183D+00      0.224030D-01      0.249267D-01
   zz         0.211760D+03      0.313796D+02      0.349145D+02

 ----------------------------------------------------------------------

 Dipole orientation:
    15         18.66730397        -18.30237692        -19.24616976
    11         20.20451257        -14.35611506        -16.75541736
    11         21.31673912        -21.60626664        -16.75544097
    11         14.48095218        -18.94484135        -16.75577065

 Electric dipole moment (dipole orientation):
 (Debye = 10**-18 statcoulomb cm , SI units = C m)
                  (au)            (Debye)         (10**-30 SI)
   Tot        0.208291D+01      0.529424D+01      0.176597D+02
   x          0.000000D+00      0.000000D+00      0.000000D+00
   y          0.000000D+00      0.000000D+00      0.000000D+00
   z          0.208291D+01      0.529424D+01      0.176597D+02

 Dipole polarizability, Alpha (dipole orientation).
 (esu units = cm**3 , SI units = C**2 m**2 J**-1)
 Alpha(0;0):
               (au)            (10**-24 esu)      (10**-40 SI)
   iso        0.274561D+03      0.406857D+02      0.452689D+02
   aniso      0.942036D+02      0.139595D+02      0.155321D+02
   xx         0.305974D+03      0.453407D+02      0.504484D+02
   yx         0.109493D-01      0.162252D-02      0.180529D-02
   yy         0.305949D+03      0.453370D+02      0.504442D+02
   zx         0.123726D-01      0.183344D-02      0.203997D-02
   zy         0.853239D-03      0.126437D-03      0.140680D-03
   zz         0.211758D+03      0.313793D+02      0.349142D+02

 ----------------------------------------------------------------------
 Unable to Open any file for archive entry.
 1\1\GINC-TCOPT10\Freq\RTPSSTPSS\def2QZVPP\Na3P1\HUTTER\01-Aug-2021\0\\
 #N Geom=AllCheck Guess=TCheck SCRF=Check GenChk RTPSSTPSS/def2QZVPP Fr
 eq\\Mol job 1\\0,1\P,9.9165105099,9.668967535,10.1629141299\Na,10.7250
 055296,7.5828038518,8.8384894589\Na,11.3135778605,11.4194157038,8.8424
 137863\Na,7.69625713,10.0110407694,8.853922765\\Version=ES64L-G16RevC.
 01\State=1-A\HF=-828.3512001\RMSD=1.303e-09\RMSF=2.543e-06\ZeroPoint=0
 .0025029\Thermal=0.0089739\ETot=-828.3422262\HTot=-828.341282\GTot=-82
 8.3812075\Dipole=-0.0078205,0.0033235,-2.0828952\DipoleDeriv=-0.902882
 3,0.0000235,0.0002295,-0.0000295,-0.9028007,-0.0000876,0.0003667,-0.00
 011,-0.8189217,0.2258113,-0.0690914,0.0394575,-0.0695241,0.3762743,-0.
 1005854,-0.0094224,0.02475,0.2727403,0.2789044,0.0995406,0.0680251,0.1
 001705,0.3230521,0.0842401,-0.0161869,-0.0206844,0.272869,0.3981666,-0
 .0304727,-0.1077122,-0.030617,0.2034743,0.0164329,0.0252425,-0.0039556
 ,0.2733124\Polar=305.9730727,-0.0103619,305.948712,-0.3661319,0.151182
 8,211.7598135\Quadrupole=5.8915798,5.8874989,-11.7790787,-0.0013782,-0
 .0672096,0.0284109\PG=C01 [X(Na3P1)]\NImag=0\\0.04764523,-0.00003880,0
 .04776922,-0.00003055,0.00000985,0.03184725,-0.00491304,0.00992119,0.0
 0559502,0.00604889,0.00992932,-0.02680097,-0.01451926,-0.01047201,0.02
 913138,0.00676181,-0.01751270,-0.01071693,-0.00622257,0.01612416,0.010
 97770,-0.01255589,-0.01440742,0.00966471,-0.00009345,0.00047805,0.0002
 5095,0.01411314,-0.01441937,-0.01918069,0.01213478,-0.00096378,-0.0016
 3962,0.00090114,0.01520354,0.02109066,0.01167311,0.01464100,-0.0106475
 1,-0.00003239,-0.00093771,-0.00013075,-0.01074245,-0.01347440,0.010908
 16,-0.03017630,0.00452503,-0.01522919,-0.00104240,0.00006464,-0.000790
 20,-0.00146380,0.00017961,-0.00089826,0.03268250,0.00452885,-0.0017875
 6,0.00237464,0.00151460,-0.00069080,0.00048740,-0.00127417,-0.00027035
 ,-0.00022889,-0.00476928,0.00274872,-0.01840437,0.00286184,-0.01048281
 ,0.00065993,-0.00066719,-0.00013002,0.00082679,0.00043848,-0.00012990,
 0.01691765,-0.00263314,0.01074273\\0.00000254,0.00000152,-0.00000401,0
 .00000135,0.00000081,0.00000104,-0.00000264,-0.00000518,0.00000230,-0.
 00000126,0.00000285,0.00000068\\\@
 The archive entry for this job was punched.


 TELEVISION IS CALLED A MEDIUM BECAUSE IT ISN'T
 RARE, AND IT ISN'T WELL DONE.
 Job cpu time:       0 days  0 hours 36 minutes 55.3 seconds.
 Elapsed time:       0 days  0 hours  4 minutes 41.8 seconds.
 File lengths (MBytes):  RWF=     36 Int=      0 D2E=      0 Chk=      6 Scr=      1
 Normal termination of Gaussian 16 at Sun Aug  1 00:13:20 2021.
