 Entering Gaussian System, Link 0=g16
 Initial command:
 /sw-ng/spack/opt/spack/linux-opensuse_leap15-sandybridge/pgi-18.10/gaussian-src-16-C.01-zldqaomctopxhethwccpmxmwefdscg3m/g16/l1.exe "/data/hutter/SMG16/TPSS/Gau-33438.inp" -scrdir="/data/hutter/SMG16/TPSS/"
 Entering Link 1 = /sw-ng/spack/opt/spack/linux-opensuse_leap15-sandybridge/pgi-18.10/gaussian-src-16-C.01-zldqaomctopxhethwccpmxmwefdscg3m/g16/l1.exe PID=     33450.
  
 Copyright (c) 1988-2019, Gaussian, Inc.  All Rights Reserved.
  
 This is part of the Gaussian(R) 16 program.  It is based on
 the Gaussian(R) 09 system (copyright 2009, Gaussian, Inc.),
 the Gaussian(R) 03 system (copyright 2003, Gaussian, Inc.),
 the Gaussian(R) 98 system (copyright 1998, Gaussian, Inc.),
 the Gaussian(R) 94 system (copyright 1995, Gaussian, Inc.),
 the Gaussian 92(TM) system (copyright 1992, Gaussian, Inc.),
 the Gaussian 90(TM) system (copyright 1990, Gaussian, Inc.),
 the Gaussian 88(TM) system (copyright 1988, Gaussian, Inc.),
 the Gaussian 86(TM) system (copyright 1986, Carnegie Mellon
 University), and the Gaussian 82(TM) system (copyright 1983,
 Carnegie Mellon University). Gaussian is a federally registered
 trademark of Gaussian, Inc.
  
 This software contains proprietary and confidential information,
 including trade secrets, belonging to Gaussian, Inc.
  
 This software is provided under written license and may be
 used, copied, transmitted, or stored only in accord with that
 written license.
  
 The following legend is applicable only to US Government
 contracts under FAR:
  
                    RESTRICTED RIGHTS LEGEND
  
 Use, reproduction and disclosure by the US Government is
 subject to restrictions as set forth in subparagraphs (a)
 and (c) of the Commercial Computer Software - Restricted
 Rights clause in FAR 52.227-19.
  
 Gaussian, Inc.
 340 Quinnipiac St., Bldg. 40, Wallingford CT 06492
  
  
 ---------------------------------------------------------------
 Warning -- This program may not be used in any manner that
 competes with the business of Gaussian, Inc. or will provide
 assistance to any competitor of Gaussian, Inc.  The licensee
 of this program is prohibited from giving any competitor of
 Gaussian, Inc. access to this program.  By using this program,
 the user acknowledges that Gaussian, Inc. is engaged in the
 business of creating and licensing software in the field of
 computational chemistry and represents and warrants to the
 licensee that it is not a competitor of Gaussian, Inc. and that
 it will not use this program in any manner prohibited above.
 ---------------------------------------------------------------
  

 Cite this work as:
 Gaussian 16, Revision C.01,
 M. J. Frisch, G. W. Trucks, H. B. Schlegel, G. E. Scuseria, 
 M. A. Robb, J. R. Cheeseman, G. Scalmani, V. Barone, 
 G. A. Petersson, H. Nakatsuji, X. Li, M. Caricato, A. V. Marenich, 
 J. Bloino, B. G. Janesko, R. Gomperts, B. Mennucci, H. P. Hratchian, 
 J. V. Ortiz, A. F. Izmaylov, J. L. Sonnenberg, D. Williams-Young, 
 F. Ding, F. Lipparini, F. Egidi, J. Goings, B. Peng, A. Petrone, 
 T. Henderson, D. Ranasinghe, V. G. Zakrzewski, J. Gao, N. Rega, 
 G. Zheng, W. Liang, M. Hada, M. Ehara, K. Toyota, R. Fukuda, 
 J. Hasegawa, M. Ishida, T. Nakajima, Y. Honda, O. Kitao, H. Nakai, 
 T. Vreven, K. Throssell, J. A. Montgomery, Jr., J. E. Peralta, 
 F. Ogliaro, M. J. Bearpark, J. J. Heyd, E. N. Brothers, K. N. Kudin, 
 V. N. Staroverov, T. A. Keith, R. Kobayashi, J. Normand, 
 K. Raghavachari, A. P. Rendell, J. C. Burant, S. S. Iyengar, 
 J. Tomasi, M. Cossi, J. M. Millam, M. Klene, C. Adamo, R. Cammi, 
 J. W. Ochterski, R. L. Martin, K. Morokuma, O. Farkas, 
 J. B. Foresman, and D. J. Fox, Gaussian, Inc., Wallingford CT, 2019.
 
 ******************************************
 Gaussian 16:  ES64L-G16RevC.01  3-Jul-2019
                31-Jul-2021 
 ******************************************
 %mem=8GB
 %NProcShare=8
 Will use up to    8 processors via shared memory.
 ---------------------------------------------------------------------
 #N UTPSSTPSS/Def2QZVPP scf=tight scf=XQC Int(Grid=ultrafine) OPT FREQ
 ---------------------------------------------------------------------
 1/18=20,19=15,26=4,38=1/1,3;
 2/9=110,12=2,17=6,18=5,40=1/2;
 3/5=45,7=202,11=2,25=1,30=1,71=1,74=2523,75=-5,116=2/1,2,3;
 4//1;
 5/5=2,8=3,13=1,32=2,38=5/2,8;
 6/7=2,8=2,9=2,10=2,28=1/1;
 7//1,2,3,16;
 1/18=20,19=15,26=4/3(2);
 2/9=110/2;
 99//99;
 2/9=110/2;
 3/5=45,7=202,11=2,25=1,30=1,71=1,74=2523,75=-5,116=2/1,2,3;
 4/5=5,16=3,69=1/1;
 5/5=2,8=3,13=1,32=2,38=5/2,8;
 7//1,2,3,16;
 1/18=20,19=15,26=4/3(-5);
 2/9=110/2;
 6/7=2,8=2,9=2,10=2,19=2,28=1/1;
 99/9=1/99;
 ---------
 Mol job 1
 ---------
 Symbolic Z-matrix:
 Charge =  0 Multiplicity = 5
 Fe                    6.70501   7.5       7.5 
 O                     8.29499   7.5       7.5 
 

 GradGradGradGradGradGradGradGradGradGradGradGradGradGradGradGradGradGrad
 Berny optimization.
 Initialization pass.
                           ----------------------------
                           !    Initial Parameters    !
                           ! (Angstroms and Degrees)  !
 --------------------------                            --------------------------
 ! Name  Definition              Value          Derivative Info.                !
 --------------------------------------------------------------------------------
 ! R1    R(1,2)                  1.59           estimate D2E/DX2                !
 --------------------------------------------------------------------------------
 Trust Radius=3.00D-01 FncErr=1.00D-07 GrdErr=1.00D-06 EigMax=2.50D+02 EigMin=1.00D-04
 Number of steps in this run=     20 maximum allowed number of steps=    100.
 GradGradGradGradGradGradGradGradGradGradGradGradGradGradGradGradGradGrad

                          Input orientation:                          
 ---------------------------------------------------------------------
 Center     Atomic      Atomic             Coordinates (Angstroms)
 Number     Number       Type             X           Y           Z
 ---------------------------------------------------------------------
      1         26           0        6.705007    7.500000    7.500000
      2          8           0        8.294993    7.500000    7.500000
 ---------------------------------------------------------------------
 Stoichiometry    FeO(5)
 Framework group  C*V[C*(OFe)]
 Deg. of freedom     1
 Full point group                 C*V     NOp   4
 Largest Abelian subgroup         C2V     NOp   4
 Largest concise Abelian subgroup C1      NOp   1
                         Standard orientation:                         
 ---------------------------------------------------------------------
 Center     Atomic      Atomic             Coordinates (Angstroms)
 Number     Number       Type             X           Y           Z
 ---------------------------------------------------------------------
      1         26           0        0.000000    0.000000    0.374114
      2          8           0        0.000000    0.000000   -1.215871
 ---------------------------------------------------------------------
 Rotational constants (GHZ):           0.0000000          16.0721930          16.0721930
 Standard basis: def2QZVPP (5D, 7F)
 There are    88 symmetry adapted cartesian basis functions of A1  symmetry.
 There are    23 symmetry adapted cartesian basis functions of A2  symmetry.
 There are    45 symmetry adapted cartesian basis functions of B1  symmetry.
 There are    45 symmetry adapted cartesian basis functions of B2  symmetry.
 There are    65 symmetry adapted basis functions of A1  symmetry.
 There are    20 symmetry adapted basis functions of A2  symmetry.
 There are    36 symmetry adapted basis functions of B1  symmetry.
 There are    36 symmetry adapted basis functions of B2  symmetry.
   157 basis functions,   300 primitive gaussians,   201 cartesian basis functions
    19 alpha electrons       15 beta electrons
       nuclear repulsion energy        69.2263441448 Hartrees.
 NAtoms=    2 NActive=    2 NUniq=    2 SFac= 1.00D+00 NAtFMM=   60 NAOKFM=F Big=F
 Integral buffers will be    131072 words long.
 Raffenetti 2 integral format.
 Two-electron integral symmetry is turned on.
 One-electron integrals computed using PRISM.
   4 Symmetry operations used in ECPInt.
 ECPInt:  NShTT=    1035 NPrTT=    3989 LenC2=    1025 LenP2D=    3558.
 LDataN:  DoStor=T MaxTD1= 8 Len=  415
 NBasis=   157 RedAO= T EigKep=  3.47D-04  NBF=    65    20    36    36
 NBsUse=   157 1.00D-06 EigRej= -1.00D+00 NBFU=    65    20    36    36
 ExpMin= 2.80D-02 ExpMax= 4.31D+06 ExpMxC= 4.90D+03 IAcc=3 IRadAn=         5 AccDes= 0.00D+00
 Harris functional with IExCor= 1009 and IRadAn=       5 diagonalized for initial guess.
 HarFok:  IExCor= 1009 AccDes= 0.00D+00 IRadAn=         5 IDoV= 1 UseB2=F ITyADJ=14
 ICtDFT=  3500011 ScaDFX=  1.000000  1.000000  1.000000  1.000000
 FoFCou: FMM=F IPFlag=           0 FMFlag=      100000 FMFlg1=           0
         NFxFlg=           0 DoJE=T BraDBF=F KetDBF=T FulRan=T
         wScrn=  0.000000 ICntrl=       500 IOpCl=  0 I1Cent=   200000004 NGrid=           0
         NMat0=    1 NMatS0=      1 NMatT0=    0 NMatD0=    1 NMtDS0=    0 NMtDT0=    0
 Petite list used in FoFCou.
 Initial guess orbital symmetries:
 Alpha Orbitals:
       Occupied  (SG) (SG) (SG) (PI) (PI) (SG) (SG) (SG) (PI) (PI)
                 (SG) (SG) (PI) (PI) (DLTA) (DLTA) (PI) (PI) (SG)
       Virtual   (SG) (PI) (PI) (SG) (SG) (PI) (PI) (DLTA) (DLTA)
                 (SG) (PI) (PI) (SG) (SG) (PI) (PI) (SG) (PI) (PI)
                 (SG) (DLTA) (DLTA) (PI) (PI) (DLTA) (DLTA) (PHI)
                 (PHI) (SG) (PI) (PI) (SG) (SG) (DLTA) (DLTA) (SG)
                 (PI) (PI) (PI) (PI) (PI) (PI) (SG) (DLTA) (DLTA)
                 (PI) (PI) (SG) (DLTA) (DLTA) (PHI) (PHI) (SG)
                 (PI) (PI) (SG) (SG) (PHI) (PHI) (DLTA) (DLTA)
                 (SG) (PI) (PI) (DLTA) (DLTA) (SG) (PI) (PI) (SG)
                 (DLTA) (DLTA) (PI) (PI) (?A) (?A) (PHI) (PHI)
                 (SG) (DLTA) (DLTA) (PI) (PI) (PHI) (PHI) (PI)
                 (PI) (DLTA) (DLTA) (SG) (SG) (PI) (PI) (SG) (PHI)
                 (PHI) (?A) (?A) (DLTA) (DLTA) (PI) (PI) (SG) (SG)
                 (PHI) (PHI) (DLTA) (DLTA) (PI) (PI) (SG) (DLTA)
                 (DLTA) (PI) (PI) (SG) (SG) (PHI) (PHI) (DLTA)
                 (DLTA) (PI) (PI) (SG) (?A) (?A) (PHI) (PHI) (DLTA)
                 (DLTA) (PI) (PI) (SG) (SG) (SG) (SG) (SG) (SG)
 Beta  Orbitals:
       Occupied  (SG) (SG) (SG) (PI) (PI) (SG) (SG) (SG) (PI) (PI)
                 (SG) (SG) (PI) (PI) (DLTA)
       Virtual   (DLTA) (PI) (PI) (SG) (SG) (PI) (PI) (SG) (SG)
                 (PI) (PI) (DLTA) (DLTA) (SG) (PI) (PI) (SG) (SG)
                 (PI) (PI) (SG) (PI) (PI) (SG) (DLTA) (DLTA) (PI)
                 (PI) (DLTA) (DLTA) (PHI) (PHI) (SG) (PI) (PI)
                 (SG) (SG) (DLTA) (DLTA) (SG) (PI) (PI) (PI) (PI)
                 (PI) (PI) (SG) (DLTA) (DLTA) (PI) (PI) (SG) (DLTA)
                 (DLTA) (PHI) (PHI) (SG) (PI) (PI) (SG) (SG) (PHI)
                 (PHI) (DLTA) (DLTA) (SG) (PI) (PI) (DLTA) (DLTA)
                 (SG) (PI) (PI) (SG) (DLTA) (DLTA) (PI) (PI) (?A)
                 (?A) (PHI) (PHI) (SG) (DLTA) (DLTA) (PI) (PI)
                 (PHI) (PHI) (PI) (PI) (DLTA) (DLTA) (SG) (SG)
                 (PI) (PI) (SG) (PHI) (PHI) (?A) (?A) (DLTA) (DLTA)
                 (PI) (PI) (SG) (SG) (PHI) (PHI) (DLTA) (DLTA)
                 (PI) (PI) (SG) (DLTA) (DLTA) (PI) (PI) (SG) (SG)
                 (PHI) (PHI) (DLTA) (DLTA) (PI) (PI) (SG) (?A)
                 (?A) (PHI) (PHI) (DLTA) (DLTA) (PI) (PI) (SG)
                 (SG) (SG) (SG) (SG) (SG)
 Initial guess <Sx>= 0.0000 <Sy>= 0.0000 <Sz>= 2.0000 <S**2>= 6.0000 S= 2.0000
 Keep J ints in memory in symmetry-blocked form, NReq=96492262.
 Requested convergence on RMS density matrix=1.00D-08 within  32 cycles.
 Requested convergence on MAX density matrix=1.00D-06.
 Requested convergence on             energy=1.00D-06.
 No special actions if energy rises.
 EnCoef did   100 forward-backward iterations
 EnCoef did     7 forward-backward iterations
 EnCoef did     2 forward-backward iterations
 SCF Done:  E(UTPSS-TPSS) =  -1339.02432449     A.U. after   14 cycles
            NFock= 14  Conv=0.56D-08     -V/T= 2.0017
 <Sx>= 0.0000 <Sy>= 0.0000 <Sz>= 2.0000 <S**2>= 6.0186 S= 2.0037
 <L.S>=  0.00000000000    
 Annihilation of the first spin contaminant:
 S**2 before annihilation     6.0186,   after     6.0000
 QCSCF skips out because SCF is already converged.

 **********************************************************************

            Population analysis using the SCF Density.

 **********************************************************************

 Orbital symmetries:
 Alpha Orbitals:
       Occupied  (SG) (SG) (SG) (PI) (PI) (SG) (SG) (SG) (PI) (PI)
                 (SG) (SG) (PI) (PI) (DLTA) (DLTA) (SG) (PI) (PI)
       Virtual   (SG) (PI) (PI) (SG) (SG) (PI) (PI) (DLTA) (DLTA)
                 (SG) (PI) (PI) (SG) (SG) (PI) (PI) (SG) (PI) (PI)
                 (SG) (?A) (?A) (PI) (PI) (?A) (?A) (PHI) (PHI)
                 (SG) (PI) (PI) (SG) (SG) (DLTA) (DLTA) (SG) (PI)
                 (PI) (PI) (PI) (DLTA) (SG) (DLTA) (PI) (PI) (?B)
                 (?B) (SG) (DLTA) (DLTA) (?B) (?B) (PI) (PI) (SG)
                 (SG) (SG) (PHI) (PHI) (DLTA) (DLTA) (SG) (PI)
                 (PI) (DLTA) (DLTA) (SG) (PI) (PI) (SG) (DLTA)
                 (PI) (PI) (DLTA) (?C) (PHI) (PHI) (?C) (?C) (?A)
                 (?A) (?B) (?B) (?B) (?B) (?A) (?A) (PI) (PI) (SG)
                 (SG) (PI) (PI) (SG) (PHI) (PHI) (?D) (?D) (DLTA)
                 (DLTA) (SG) (PI) (PI) (SG) (PHI) (PHI) (DLTA)
                 (DLTA) (PI) (PI) (SG) (DLTA) (DLTA) (PI) (PI)
                 (SG) (SG) (DLTA) (?B) (?B) (DLTA) (?B) (?B) (SG)
                 (?B) (?B) (?E) (?E) (DLTA) (DLTA) (?B) (?B) (?E)
                 (SG) (SG) (SG) (SG) (SG)
 Beta  Orbitals:
       Occupied  (SG) (SG) (SG) (PI) (PI) (SG) (SG) (SG) (PI) (PI)
                 (SG) (SG) (PI) (PI) (?A)
       Virtual   (SG) (PI) (PI) (?A) (SG) (PI) (PI) (SG) (SG) (PI)
                 (PI) (?A) (?A) (SG) (PI) (PI) (SG) (SG) (SG) (PI)
                 (PI) (PI) (PI) (SG) (?A) (?A) (?A) (?B) (?B) (?A)
                 (?B) (?B) (SG) (PI) (PI) (SG) (SG) (DLTA) (DLTA)
                 (SG) (PI) (PI) (?C) (?C) (PI) (PI) (SG) (DLTA)
                 (DLTA) (?C) (?C) (SG) (DLTA) (DLTA) (?C) (?C)
                 (PI) (PI) (SG) (SG) (SG) (PHI) (PHI) (DLTA) (DLTA)
                 (SG) (PI) (PI) (DLTA) (DLTA) (SG) (PI) (PI) (?D)
                 (DLTA) (?B) (?B) (DLTA) (?D) (?D) (?B) (?B) (?D)
                 (DLTA) (DLTA) (?B) (?B) (?B) (?B) (DLTA) (DLTA)
                 (PI) (PI) (SG) (SG) (PI) (PI) (SG) (PHI) (PHI)
                 (?E) (?E) (DLTA) (DLTA) (PI) (PI) (SG) (SG) (PHI)
                 (PHI) (DLTA) (DLTA) (PI) (PI) (SG) (DLTA) (DLTA)
                 (PI) (PI) (SG) (SG) (DLTA) (?B) (?B) (DLTA) (?B)
                 (?B) (SG) (PHI) (PHI) (?E) (?E) (DLTA) (DLTA)
                 (PI) (PI) (SG) (SG) (SG) (SG) (SG) (SG)
 Unable to determine electronic state:  an orbital has unidentified symmetry.
 Alpha  occ. eigenvalues -- -255.26078 -29.67261 -25.55799 -25.53885 -25.53885
 Alpha  occ. eigenvalues --  -18.86839  -3.38132  -2.20694  -2.16094  -2.16094
 Alpha  occ. eigenvalues --   -0.82784  -0.33531  -0.32601  -0.32601  -0.26036
 Alpha  occ. eigenvalues --   -0.22118  -0.21029  -0.19895  -0.19895
 Alpha virt. eigenvalues --   -0.12426  -0.02690  -0.02690   0.01816   0.03011
 Alpha virt. eigenvalues --    0.06995   0.06995   0.10336   0.10441   0.11477
 Alpha virt. eigenvalues --    0.12036   0.12036   0.18111   0.31486   0.34719
 Alpha virt. eigenvalues --    0.34719   0.35111   0.39536   0.39536   0.41650
 Alpha virt. eigenvalues --    0.43349   0.43691   0.45641   0.45641   0.46593
 Alpha virt. eigenvalues --    0.46674   0.47562   0.47562   0.53738   0.63255
 Alpha virt. eigenvalues --    0.63255   0.78725   0.94862   1.17983   1.18013
 Alpha virt. eigenvalues --    1.23142   1.29965   1.29965   1.38827   1.38827
 Alpha virt. eigenvalues --    1.46116   1.47436   1.47640   1.48139   1.48139
 Alpha virt. eigenvalues --    1.54495   1.54495   1.56823   1.65084   1.65863
 Alpha virt. eigenvalues --    1.66871   1.66871   2.02321   2.02321   2.02619
 Alpha virt. eigenvalues --    2.18146   2.60641   3.10700   3.10700   3.18659
 Alpha virt. eigenvalues --    3.18873   3.27781   3.56302   3.56302   3.83694
 Alpha virt. eigenvalues --    3.83727   3.85284   4.16077   4.16077   4.26306
 Alpha virt. eigenvalues --    4.35357   4.37521   4.37521   4.38222   4.67573
 Alpha virt. eigenvalues --    4.67688   4.67688   4.67764   4.68857   4.81409
 Alpha virt. eigenvalues --    4.83186   4.91388   4.91388   4.94099   4.94099
 Alpha virt. eigenvalues --    4.97787   4.99796   5.06995   5.06995   5.11362
 Alpha virt. eigenvalues --    5.50979   5.68339   5.68339   6.25999   8.94934
 Alpha virt. eigenvalues --    8.94934   8.96804   8.96804   9.04409   9.04464
 Alpha virt. eigenvalues --    9.29273   9.30567   9.30567  10.09720  10.95328
 Alpha virt. eigenvalues --   10.95328  11.06009  11.06037  11.53204  11.53204
 Alpha virt. eigenvalues --   11.73745  11.96527  11.96533  12.18517  12.18517
 Alpha virt. eigenvalues --   12.45137  13.24272  14.95322  14.98304  14.98304
 Alpha virt. eigenvalues --   14.98606  15.03976  15.03976  15.31642  16.48393
 Alpha virt. eigenvalues --   16.48393  16.50543  16.50585  16.53585  16.56559
 Alpha virt. eigenvalues --   16.86206  16.86206  16.88559  34.35703  47.27885
 Alpha virt. eigenvalues --  116.27308 254.26878 740.40806
  Beta  occ. eigenvalues -- -255.25942 -29.62572 -25.51884 -25.50141 -25.50141
  Beta  occ. eigenvalues --  -18.85774  -3.26121  -2.07547  -2.04682  -2.04682
  Beta  occ. eigenvalues --   -0.80371  -0.30188  -0.26212  -0.26212  -0.17241
  Beta virt. eigenvalues --   -0.13768  -0.10335  -0.10335  -0.09915  -0.07832
  Beta virt. eigenvalues --    0.00821   0.00821   0.03328   0.05784   0.09662
  Beta virt. eigenvalues --    0.09662   0.12277   0.13322   0.13501   0.14091
  Beta virt. eigenvalues --    0.14091   0.19766   0.34041   0.37073   0.38580
  Beta virt. eigenvalues --    0.38580   0.41250   0.41250   0.45038   0.47351
  Beta virt. eigenvalues --    0.48374   0.48580   0.49252   0.49252   0.49634
  Beta virt. eigenvalues --    0.50615   0.50615   0.55934   0.65454   0.65454
  Beta virt. eigenvalues --    0.80738   0.96712   1.19978   1.20049   1.25929
  Beta virt. eigenvalues --    1.32178   1.32178   1.45929   1.45929   1.51079
  Beta virt. eigenvalues --    1.51079   1.51351   1.52035   1.55722   1.60752
  Beta virt. eigenvalues --    1.60752   1.62298   1.70686   1.73076   1.74143
  Beta virt. eigenvalues --    1.74143   2.06618   2.06618   2.06883   2.23875
  Beta virt. eigenvalues --    2.63917   3.12968   3.12968   3.21013   3.21497
  Beta virt. eigenvalues --    3.29642   3.58974   3.58974   3.87237   3.87272
  Beta virt. eigenvalues --    3.89794   4.18913   4.18913   4.30783   4.43601
  Beta virt. eigenvalues --    4.46781   4.46781   4.47395   4.75093   4.75263
  Beta virt. eigenvalues --    4.75897   4.75897   4.76831   4.89526   4.92138
  Beta virt. eigenvalues --    5.00813   5.00813   5.03361   5.03361   5.06893
  Beta virt. eigenvalues --    5.09557   5.10053   5.10053   5.15486   5.57487
  Beta virt. eigenvalues --    5.74552   5.74552   6.30178   8.97504   8.97504
  Beta virt. eigenvalues --    8.99107   8.99108   9.07131   9.07197   9.33344
  Beta virt. eigenvalues --    9.33344   9.33535  10.19969  10.98937  10.98937
  Beta virt. eigenvalues --   11.09263  11.09286  11.56427  11.56427  11.77142
  Beta virt. eigenvalues --   12.01151  12.01156  12.21871  12.21871  12.48305
  Beta virt. eigenvalues --   13.28204  15.12796  15.12872  15.12872  15.15167
  Beta virt. eigenvalues --   15.20057  15.20057  15.46665  16.66333  16.66333
  Beta virt. eigenvalues --   16.66750  16.67384  16.72497  16.72919  17.03030
  Beta virt. eigenvalues --   17.03030  17.05091  34.47113  47.29658 116.35971
  Beta virt. eigenvalues --  254.28798 740.43188
          Condensed to atoms (all electrons):
               1          2
     1  Fe  24.987965   0.451862
     2  O    0.451862   8.108311
          Atomic-Atomic Spin Densities.
               1          2
     1  Fe   3.595063  -0.032931
     2  O   -0.032931   0.470799
 Mulliken charges and spin densities:
               1          2
     1  Fe   0.560173   3.562132
     2  O   -0.560173   0.437868
 Sum of Mulliken charges =  -0.00000   4.00000
 Mulliken charges and spin densities with hydrogens summed into heavy atoms:
               1          2
     1  Fe   0.560173   3.562132
     2  O   -0.560173   0.437868
 Electronic spatial extent (au):  <R**2>=            100.1085
 Charge=             -0.0000 electrons
 Dipole moment (field-independent basis, Debye):
    X=              0.0000    Y=              0.0000    Z=              4.2772  Tot=              4.2772
 Quadrupole moment (field-independent basis, Debye-Ang):
   XX=            -19.7691   YY=            -19.7691   ZZ=            -20.8261
   XY=              0.0000   XZ=              0.0000   YZ=              0.0000
 Traceless Quadrupole moment (field-independent basis, Debye-Ang):
   XX=              0.3523   YY=              0.3523   ZZ=             -0.7047
   XY=              0.0000   XZ=              0.0000   YZ=              0.0000
 Octapole moment (field-independent basis, Debye-Ang**2):
  XXX=              0.0000  YYY=              0.0000  ZZZ=             12.2131  XYY=              0.0000
  XXY=              0.0000  XXZ=              2.3547  XZZ=              0.0000  YZZ=              0.0000
  YYZ=              2.3547  XYZ=              0.0000
 Hexadecapole moment (field-independent basis, Debye-Ang**3):
 XXXX=            -25.2309 YYYY=            -25.2309 ZZZZ=            -85.2917 XXXY=              0.0000
 XXXZ=              0.0000 YYYX=              0.0000 YYYZ=              0.0000 ZZZX=              0.0000
 ZZZY=              0.0000 XXYY=             -8.8112 XXZZ=            -18.9163 YYZZ=            -18.9163
 XXYZ=              0.0000 YYXZ=              0.0000 ZZXY=              0.0000
 N-N= 6.922634414485D+01 E-N=-3.324913765497D+03  KE= 1.336801612620D+03
 Symmetry A1   KE= 1.019286300341D+03
 Symmetry A2   KE= 1.333029362210D+01
 Symmetry B1   KE= 1.520925093285D+02
 Symmetry B2   KE= 1.520925093285D+02
 Symmetry A1   SP= 2.000000000000D+00
 Symmetry A2   SP=-7.327726072410D-15
 Symmetry B1   SP= 1.000000000000D+00
 Symmetry B2   SP= 1.000000000000D+00
                          Isotropic Fermi Contact Couplings
        Atom                 a.u.       MegaHertz       Gauss      10(-4) cm-1
     1  Fe(57)             2.50492      90.82812      32.40973      30.29700
     2  O(17)              0.06443      -9.76366      -3.48392      -3.25681
 --------------------------------------------------------
       Center         ----  Spin Dipole Couplings  ----
                      3XX-RR        3YY-RR        3ZZ-RR
 --------------------------------------------------------
     1   Atom       -0.338549     -0.338549      0.677098
     2   Atom        0.513949      0.513949     -1.027897
 --------------------------------------------------------
                        XY            XZ            YZ
 --------------------------------------------------------
     1   Atom        0.000000      0.000000      0.000000
     2   Atom        0.000000      0.000000      0.000000
 --------------------------------------------------------


 ---------------------------------------------------------------------------------
              Anisotropic Spin Dipole Couplings in Principal Axis System
 ---------------------------------------------------------------------------------

       Atom             a.u.   MegaHertz   Gauss  10(-4) cm-1        Axes

              Baa    -0.3385    -5.861    -2.091    -1.955 -0.0000  1.0000  0.0000
     1 Fe(57) Bbb    -0.3385    -5.861    -2.091    -1.955  1.0000  0.0000  0.0000
              Bcc     0.6771    11.723     4.183     3.910  0.0000  0.0000  1.0000
 
              Baa    -1.0279    74.378    26.540    24.810  0.0000  0.0000  1.0000
     2 O(17)  Bbb     0.5139   -37.189   -13.270   -12.405 -0.0000  1.0000  0.0000
              Bcc     0.5139   -37.189   -13.270   -12.405  1.0000  0.0000  0.0000
 

 ---------------------------------------------------------------------------------

   4 Symmetry operations used in ECPInt.
 ECPInt:  NShTT=    1035 NPrTT=    3989 LenC2=    1025 LenP2D=    3558.
 LDataN:  DoStor=T MaxTD1= 9 Len=  602
 Calling FoFJK, ICntrl=      2527 FMM=F ISym2X=1 I1Cent= 0 IOpClX= 0 NMat=1 NMatS=1 NMatT=0.
 ***** Axes restored to original set *****
 -------------------------------------------------------------------
 Center     Atomic                   Forces (Hartrees/Bohr)
 Number     Number              X              Y              Z
 -------------------------------------------------------------------
      1       26          -0.012241530   -0.000000000   -0.000000000
      2        8           0.012241530   -0.000000000   -0.000000000
 -------------------------------------------------------------------
 Cartesian Forces:  Max     0.012241530 RMS     0.007067651

 GradGradGradGradGradGradGradGradGradGradGradGradGradGradGradGradGradGrad
 Berny optimization.
 FormGI is forming the generalized inverse of G from B-inverse, IUseBI=4.
 Internal  Forces:  Max     0.012241530 RMS     0.012241530
 Search for a local minimum.
 Step number   1 out of a maximum of   20
 All quantities printed in internal units (Hartrees-Bohrs-Radians)
 Mixed Optimization -- RFO/linear search
 Second derivative matrix not updated -- first step.
 The second derivative matrix:
                          R1
           R1           0.48212
 ITU=  0
     Eigenvalues ---    0.48212
 RFO step:  Lambda=-3.10623984D-04 EMin= 4.82121747D-01
 Linear search not attempted -- first point.
 Iteration  1 RMS(Cart)=  0.01794255 RMS(Int)=  0.00000000
 Iteration  2 RMS(Cart)=  0.00000000 RMS(Int)=  0.00000000
 ClnCor:  largest displacement from symmetrization is 0.00D+00 for atom     0.
 Variable       Old X    -DE/DX   Delta X   Delta X   Delta X     New X
                                 (Linear)    (Quad)   (Total)
    R1        3.00464   0.01224   0.00000   0.02537   0.02537   3.03001
         Item               Value     Threshold  Converged?
 Maximum Force            0.012242     0.000450     NO 
 RMS     Force            0.012242     0.000300     NO 
 Maximum Displacement     0.012687     0.001800     NO 
 RMS     Displacement     0.017943     0.001200     NO 
 Predicted change in Energy=-1.554120D-04
 GradGradGradGradGradGradGradGradGradGradGradGradGradGradGradGradGradGrad

                          Input orientation:                          
 ---------------------------------------------------------------------
 Center     Atomic      Atomic             Coordinates (Angstroms)
 Number     Number       Type             X           Y           Z
 ---------------------------------------------------------------------
      1         26           0        6.698294    7.500000    7.500000
      2          8           0        8.301706    7.500000    7.500000
 ---------------------------------------------------------------------
 Stoichiometry    FeO(5)
 Framework group  C*V[C*(OFe)]
 Deg. of freedom     1
 Full point group                 C*V     NOp   4
 Largest Abelian subgroup         C2V     NOp   4
 Largest concise Abelian subgroup C1      NOp   1
                         Standard orientation:                         
 ---------------------------------------------------------------------
 Center     Atomic      Atomic             Coordinates (Angstroms)
 Number     Number       Type             X           Y           Z
 ---------------------------------------------------------------------
      1         26           0        0.000000    0.000000    0.377274
      2          8           0        0.000000    0.000000   -1.226139
 ---------------------------------------------------------------------
 Rotational constants (GHZ):           0.0000000          15.8041294          15.8041294
 Standard basis: def2QZVPP (5D, 7F)
 There are    88 symmetry adapted cartesian basis functions of A1  symmetry.
 There are    23 symmetry adapted cartesian basis functions of A2  symmetry.
 There are    45 symmetry adapted cartesian basis functions of B1  symmetry.
 There are    45 symmetry adapted cartesian basis functions of B2  symmetry.
 There are    65 symmetry adapted basis functions of A1  symmetry.
 There are    20 symmetry adapted basis functions of A2  symmetry.
 There are    36 symmetry adapted basis functions of B1  symmetry.
 There are    36 symmetry adapted basis functions of B2  symmetry.
   157 basis functions,   300 primitive gaussians,   201 cartesian basis functions
    19 alpha electrons       15 beta electrons
       nuclear repulsion energy        68.6466132430 Hartrees.
 NAtoms=    2 NActive=    2 NUniq=    2 SFac= 1.00D+00 NAtFMM=   60 NAOKFM=F Big=F
 Integral buffers will be    131072 words long.
 Raffenetti 2 integral format.
 Two-electron integral symmetry is turned on.
 One-electron integrals computed using PRISM.
   4 Symmetry operations used in ECPInt.
 ECPInt:  NShTT=    1035 NPrTT=    3989 LenC2=    1025 LenP2D=    3556.
 LDataN:  DoStor=T MaxTD1= 8 Len=  415
 NBasis=   157 RedAO= T EigKep=  3.73D-04  NBF=    65    20    36    36
 NBsUse=   157 1.00D-06 EigRej= -1.00D+00 NBFU=    65    20    36    36
 Initial guess from the checkpoint file:  "/data/hutter/SMG16/TPSS/Gau-33450.chk"
 B after Tr=     0.000000    0.000000    0.000000
         Rot=    1.000000    0.000000    0.000000    0.000000 Ang=   0.00 deg.
 Initial guess orbital symmetries:
 Alpha Orbitals:
       Occupied  (SG) (SG) (SG) (PI) (PI) (SG) (SG) (SG) (PI) (PI)
                 (SG) (SG) (PI) (PI) (DLTA) (DLTA) (SG) (PI) (PI)
       Virtual   (SG) (PI) (PI) (SG) (SG) (PI) (PI) (DLTA) (DLTA)
                 (SG) (PI) (PI) (SG) (SG) (PI) (PI) (SG) (PI) (PI)
                 (SG) (?A) (?A) (PI) (PI) (?A) (?A) (PHI) (PHI)
                 (SG) (PI) (PI) (SG) (SG) (DLTA) (DLTA) (SG) (PI)
                 (PI) (PI) (PI) (DLTA) (SG) (DLTA) (PI) (PI) (?B)
                 (?B) (SG) (DLTA) (DLTA) (?B) (?B) (PI) (PI) (SG)
                 (SG) (SG) (PHI) (PHI) (DLTA) (DLTA) (SG) (PI)
                 (PI) (DLTA) (DLTA) (SG) (PI) (PI) (SG) (DLTA)
                 (PI) (PI) (DLTA) (?C) (PHI) (PHI) (?C) (?C) (?A)
                 (?A) (?B) (?B) (?B) (?B) (?A) (?A) (PI) (PI) (SG)
                 (SG) (PI) (PI) (SG) (PHI) (PHI) (?D) (?D) (DLTA)
                 (DLTA) (SG) (PI) (PI) (SG) (PHI) (PHI) (DLTA)
                 (DLTA) (PI) (PI) (SG) (DLTA) (DLTA) (PI) (PI)
                 (SG) (SG) (DLTA) (?B) (?B) (DLTA) (?B) (?B) (SG)
                 (?B) (?B) (?E) (?E) (DLTA) (DLTA) (?B) (?B) (?E)
                 (SG) (SG) (SG) (SG) (SG)
 Beta  Orbitals:
       Occupied  (SG) (SG) (SG) (PI) (PI) (SG) (SG) (SG) (PI) (PI)
                 (SG) (SG) (PI) (PI) (?A)
       Virtual   (SG) (PI) (PI) (?A) (SG) (PI) (PI) (SG) (SG) (PI)
                 (PI) (?A) (?A) (SG) (PI) (PI) (SG) (SG) (SG) (PI)
                 (PI) (PI) (PI) (SG) (?A) (?A) (?A) (?B) (?B) (?A)
                 (?B) (?B) (SG) (PI) (PI) (SG) (SG) (DLTA) (DLTA)
                 (SG) (PI) (PI) (?C) (?C) (PI) (PI) (SG) (DLTA)
                 (DLTA) (?C) (?C) (SG) (DLTA) (DLTA) (?C) (?C)
                 (PI) (PI) (SG) (SG) (SG) (PHI) (PHI) (DLTA) (DLTA)
                 (SG) (PI) (PI) (DLTA) (DLTA) (SG) (PI) (PI) (?D)
                 (DLTA) (?B) (?B) (DLTA) (?D) (?D) (?B) (?B) (?D)
                 (DLTA) (DLTA) (?B) (?B) (?B) (?B) (DLTA) (DLTA)
                 (PI) (PI) (SG) (SG) (PI) (PI) (SG) (PHI) (PHI)
                 (?E) (?E) (DLTA) (DLTA) (PI) (PI) (SG) (SG) (PHI)
                 (PHI) (DLTA) (DLTA) (PI) (PI) (SG) (DLTA) (DLTA)
                 (PI) (PI) (SG) (SG) (DLTA) (?B) (?B) (DLTA) (?B)
                 (?B) (SG) (PHI) (PHI) (?E) (?E) (DLTA) (DLTA)
                 (PI) (PI) (SG) (SG) (SG) (SG) (SG) (SG)
 Initial guess <Sx>= 0.0000 <Sy>= 0.0000 <Sz>= 2.0000 <S**2>= 6.0187 S= 2.0037
 Keep J ints in memory in symmetry-blocked form, NReq=96492262.
 Requested convergence on RMS density matrix=1.00D-08 within  32 cycles.
 Requested convergence on MAX density matrix=1.00D-06.
 Requested convergence on             energy=1.00D-06.
 No special actions if energy rises.
 SCF Done:  E(UTPSS-TPSS) =  -1339.02449769     A.U. after   11 cycles
            NFock= 11  Conv=0.16D-08     -V/T= 2.0017
 <Sx>= 0.0000 <Sy>= 0.0000 <Sz>= 2.0000 <S**2>= 6.0196 S= 2.0039
 <L.S>=  0.00000000000    
 Annihilation of the first spin contaminant:
 S**2 before annihilation     6.0196,   after     6.0000
 QCSCF skips out because SCF is already converged.
   4 Symmetry operations used in ECPInt.
 ECPInt:  NShTT=    1035 NPrTT=    3989 LenC2=    1025 LenP2D=    3556.
 LDataN:  DoStor=T MaxTD1= 9 Len=  602
 Calling FoFJK, ICntrl=      2527 FMM=F ISym2X=1 I1Cent= 0 IOpClX= 0 NMat=1 NMatS=1 NMatT=0.
 ***** Axes restored to original set *****
 -------------------------------------------------------------------
 Center     Atomic                   Forces (Hartrees/Bohr)
 Number     Number              X              Y              Z
 -------------------------------------------------------------------
      1       26          -0.001545986   -0.000000000   -0.000000000
      2        8           0.001545986   -0.000000000   -0.000000000
 -------------------------------------------------------------------
 Cartesian Forces:  Max     0.001545986 RMS     0.000892576

 GradGradGradGradGradGradGradGradGradGradGradGradGradGradGradGradGradGrad
 Berny optimization.
 Using GEDIIS/GDIIS optimizer.
 Internal  Forces:  Max     0.001545986 RMS     0.001545986
 Search for a local minimum.
 Step number   2 out of a maximum of   20
 All quantities printed in internal units (Hartrees-Bohrs-Radians)
 Mixed Optimization -- RFO/linear search
 Update second derivatives using D2CorX and points    1    2
 DE= -1.73D-04 DEPred=-1.55D-04 R= 1.11D+00
 TightC=F SS=  1.41D+00  RLast= 2.54D-02 DXNew= 5.0454D-01 7.6124D-02
 Trust test= 1.11D+00 RLast= 2.54D-02 DXMaxT set to 3.00D-01
 The second derivative matrix:
                          R1
           R1           0.42151
 ITU=  1  0
 Use linear search instead of GDIIS.
     Eigenvalues ---    0.42151
 RFO step:  Lambda= 0.00000000D+00 EMin= 4.21505851D-01
 Quartic linear search produced a step of  0.15112.
 Iteration  1 RMS(Cart)=  0.00271146 RMS(Int)=  0.00000000
 Iteration  2 RMS(Cart)=  0.00000000 RMS(Int)=  0.00000000
 ClnCor:  largest displacement from symmetrization is 0.00D+00 for atom     0.
 Variable       Old X    -DE/DX   Delta X   Delta X   Delta X     New X
                                 (Linear)    (Quad)   (Total)
    R1        3.03001   0.00155   0.00383   0.00000   0.00383   3.03385
         Item               Value     Threshold  Converged?
 Maximum Force            0.001546     0.000450     NO 
 RMS     Force            0.001546     0.000300     NO 
 Maximum Displacement     0.001917     0.001800     NO 
 RMS     Displacement     0.002711     0.001200     NO 
 Predicted change in Energy=-2.829296D-06
 GradGradGradGradGradGradGradGradGradGradGradGradGradGradGradGradGradGrad

                          Input orientation:                          
 ---------------------------------------------------------------------
 Center     Atomic      Atomic             Coordinates (Angstroms)
 Number     Number       Type             X           Y           Z
 ---------------------------------------------------------------------
      1         26           0        6.697279    7.500000    7.500000
      2          8           0        8.302721    7.500000    7.500000
 ---------------------------------------------------------------------
 Stoichiometry    FeO(5)
 Framework group  C*V[C*(OFe)]
 Deg. of freedom     1
 Full point group                 C*V     NOp   4
 Largest Abelian subgroup         C2V     NOp   4
 Largest concise Abelian subgroup C1      NOp   1
                         Standard orientation:                         
 ---------------------------------------------------------------------
 Center     Atomic      Atomic             Coordinates (Angstroms)
 Number     Number       Type             X           Y           Z
 ---------------------------------------------------------------------
      1         26           0        0.000000    0.000000    0.377751
      2          8           0        0.000000    0.000000   -1.227691
 ---------------------------------------------------------------------
 Rotational constants (GHZ):           0.0000000          15.7642038          15.7642038
 Standard basis: def2QZVPP (5D, 7F)
 There are    88 symmetry adapted cartesian basis functions of A1  symmetry.
 There are    23 symmetry adapted cartesian basis functions of A2  symmetry.
 There are    45 symmetry adapted cartesian basis functions of B1  symmetry.
 There are    45 symmetry adapted cartesian basis functions of B2  symmetry.
 There are    65 symmetry adapted basis functions of A1  symmetry.
 There are    20 symmetry adapted basis functions of A2  symmetry.
 There are    36 symmetry adapted basis functions of B1  symmetry.
 There are    36 symmetry adapted basis functions of B2  symmetry.
   157 basis functions,   300 primitive gaussians,   201 cartesian basis functions
    19 alpha electrons       15 beta electrons
       nuclear repulsion energy        68.5598484409 Hartrees.
 NAtoms=    2 NActive=    2 NUniq=    2 SFac= 1.00D+00 NAtFMM=   60 NAOKFM=F Big=F
 Integral buffers will be    131072 words long.
 Raffenetti 2 integral format.
 Two-electron integral symmetry is turned on.
 One-electron integrals computed using PRISM.
   4 Symmetry operations used in ECPInt.
 ECPInt:  NShTT=    1035 NPrTT=    3989 LenC2=    1025 LenP2D=    3556.
 LDataN:  DoStor=T MaxTD1= 8 Len=  415
 NBasis=   157 RedAO= T EigKep=  3.77D-04  NBF=    65    20    36    36
 NBsUse=   157 1.00D-06 EigRej= -1.00D+00 NBFU=    65    20    36    36
 Initial guess from the checkpoint file:  "/data/hutter/SMG16/TPSS/Gau-33450.chk"
 B after Tr=     0.000000    0.000000   -0.000000
         Rot=    1.000000    0.000000    0.000000    0.000000 Ang=   0.00 deg.
 Initial guess orbital symmetries:
 Alpha Orbitals:
       Occupied  (SG) (SG) (SG) (PI) (PI) (SG) (SG) (SG) (PI) (PI)
                 (SG) (SG) (PI) (PI) (DLTA) (DLTA) (SG) (PI) (PI)
       Virtual   (SG) (PI) (PI) (SG) (SG) (PI) (PI) (DLTA) (DLTA)
                 (SG) (PI) (PI) (SG) (SG) (PI) (PI) (SG) (PI) (PI)
                 (SG) (?A) (?A) (PI) (PI) (?A) (?A) (PHI) (PHI)
                 (SG) (PI) (PI) (SG) (SG) (DLTA) (DLTA) (SG) (PI)
                 (PI) (PI) (PI) (DLTA) (SG) (DLTA) (PI) (PI) (?B)
                 (?B) (SG) (DLTA) (DLTA) (?B) (?B) (SG) (PI) (PI)
                 (SG) (SG) (PHI) (PHI) (DLTA) (DLTA) (SG) (PI)
                 (PI) (DLTA) (DLTA) (SG) (PI) (PI) (SG) (DLTA)
                 (PI) (PI) (DLTA) (?C) (PHI) (PHI) (?C) (?C) (?A)
                 (?A) (?B) (?B) (?B) (?B) (?A) (?A) (PI) (PI) (SG)
                 (SG) (PI) (PI) (SG) (PHI) (PHI) (?D) (?D) (DLTA)
                 (DLTA) (SG) (PI) (PI) (SG) (PHI) (PHI) (DLTA)
                 (DLTA) (PI) (PI) (SG) (DLTA) (DLTA) (PI) (PI)
                 (SG) (SG) (DLTA) (?B) (?B) (DLTA) (?B) (?B) (SG)
                 (?B) (?B) (?E) (?E) (DLTA) (DLTA) (?B) (?B) (?E)
                 (SG) (SG) (SG) (SG) (SG)
 Beta  Orbitals:
       Occupied  (SG) (SG) (SG) (PI) (PI) (SG) (SG) (SG) (PI) (PI)
                 (SG) (SG) (PI) (PI) (?A)
       Virtual   (SG) (PI) (PI) (?A) (SG) (PI) (PI) (SG) (SG) (PI)
                 (PI) (?A) (?A) (SG) (PI) (PI) (SG) (SG) (SG) (PI)
                 (PI) (PI) (PI) (SG) (?A) (?A) (?A) (?B) (?B) (?A)
                 (?B) (?B) (SG) (PI) (PI) (SG) (SG) (DLTA) (DLTA)
                 (SG) (PI) (PI) (?C) (?C) (PI) (PI) (SG) (DLTA)
                 (DLTA) (?C) (?C) (SG) (DLTA) (DLTA) (?C) (?C)
                 (SG) (PI) (PI) (SG) (SG) (PHI) (PHI) (DLTA) (DLTA)
                 (SG) (PI) (PI) (DLTA) (DLTA) (SG) (PI) (PI) (?D)
                 (DLTA) (?B) (?B) (DLTA) (?D) (?D) (?B) (?B) (?D)
                 (DLTA) (DLTA) (?B) (?B) (?B) (?B) (DLTA) (DLTA)
                 (PI) (PI) (SG) (SG) (PI) (PI) (SG) (PHI) (PHI)
                 (?E) (?E) (DLTA) (DLTA) (SG) (PI) (PI) (SG) (PHI)
                 (PHI) (DLTA) (DLTA) (PI) (PI) (SG) (DLTA) (DLTA)
                 (PI) (PI) (SG) (SG) (DLTA) (?B) (?B) (DLTA) (?B)
                 (?B) (SG) (PHI) (PHI) (?E) (?E) (DLTA) (DLTA)
                 (PI) (PI) (SG) (SG) (SG) (SG) (SG) (SG)
 Initial guess <Sx>= 0.0000 <Sy>= 0.0000 <Sz>= 2.0000 <S**2>= 6.0196 S= 2.0039
 Keep J ints in memory in symmetry-blocked form, NReq=96492262.
 Requested convergence on RMS density matrix=1.00D-08 within  32 cycles.
 Requested convergence on MAX density matrix=1.00D-06.
 Requested convergence on             energy=1.00D-06.
 No special actions if energy rises.
 SCF Done:  E(UTPSS-TPSS) =  -1339.02450065     A.U. after    9 cycles
            NFock=  9  Conv=0.81D-08     -V/T= 2.0017
 <Sx>= 0.0000 <Sy>= 0.0000 <Sz>= 2.0000 <S**2>= 6.0198 S= 2.0040
 <L.S>=  0.00000000000    
 Annihilation of the first spin contaminant:
 S**2 before annihilation     6.0198,   after     6.0000
 QCSCF skips out because SCF is already converged.
   4 Symmetry operations used in ECPInt.
 ECPInt:  NShTT=    1035 NPrTT=    3989 LenC2=    1025 LenP2D=    3556.
 LDataN:  DoStor=T MaxTD1= 9 Len=  602
 Calling FoFJK, ICntrl=      2527 FMM=F ISym2X=1 I1Cent= 0 IOpClX= 0 NMat=1 NMatS=1 NMatT=0.
 ***** Axes restored to original set *****
 -------------------------------------------------------------------
 Center     Atomic                   Forces (Hartrees/Bohr)
 Number     Number              X              Y              Z
 -------------------------------------------------------------------
      1       26           0.000000357   -0.000000000   -0.000000000
      2        8          -0.000000357   -0.000000000   -0.000000000
 -------------------------------------------------------------------
 Cartesian Forces:  Max     0.000000357 RMS     0.000000206

 GradGradGradGradGradGradGradGradGradGradGradGradGradGradGradGradGradGrad
 Berny optimization.
 Using GEDIIS/GDIIS optimizer.
 Internal  Forces:  Max     0.000000357 RMS     0.000000357
 Search for a local minimum.
 Step number   3 out of a maximum of   20
 All quantities printed in internal units (Hartrees-Bohrs-Radians)
 Mixed Optimization -- En-DIIS/RFO-DIIS
 Update second derivatives using D2CorX and points    2    3
 DE= -2.96D-06 DEPred=-2.83D-06 R= 1.05D+00
 TightC=F SS=  1.41D+00  RLast= 3.83D-03 DXNew= 5.0454D-01 1.1504D-02
 Trust test= 1.05D+00 RLast= 3.83D-03 DXMaxT set to 3.00D-01
 The second derivative matrix:
                          R1
           R1           0.40326
 ITU=  1  1
 Use linear search instead of GDIIS.
     Eigenvalues ---    0.40326
 RFO step:  Lambda= 0.00000000D+00 EMin= 4.03262588D-01
 Quartic linear search produced a step of -0.00023.
 Iteration  1 RMS(Cart)=  0.00000063 RMS(Int)=  0.00000000
 ClnCor:  largest displacement from symmetrization is 0.00D+00 for atom     0.
 Variable       Old X    -DE/DX   Delta X   Delta X   Delta X     New X
                                 (Linear)    (Quad)   (Total)
    R1        3.03385  -0.00000  -0.00000   0.00000  -0.00000   3.03384
         Item               Value     Threshold  Converged?
 Maximum Force            0.000000     0.000450     YES
 RMS     Force            0.000000     0.000300     YES
 Maximum Displacement     0.000000     0.001800     YES
 RMS     Displacement     0.000001     0.001200     YES
 Predicted change in Energy=-1.579090D-13
 Optimization completed.
    -- Stationary point found.
                           ----------------------------
                           !   Optimized Parameters   !
                           ! (Angstroms and Degrees)  !
 --------------------------                            --------------------------
 ! Name  Definition              Value          Derivative Info.                !
 --------------------------------------------------------------------------------
 ! R1    R(1,2)                  1.6054         -DE/DX =    0.0                 !
 --------------------------------------------------------------------------------
 GradGradGradGradGradGradGradGradGradGradGradGradGradGradGradGradGradGrad

                          Input orientation:                          
 ---------------------------------------------------------------------
 Center     Atomic      Atomic             Coordinates (Angstroms)
 Number     Number       Type             X           Y           Z
 ---------------------------------------------------------------------
      1         26           0        6.697279    7.500000    7.500000
      2          8           0        8.302721    7.500000    7.500000
 ---------------------------------------------------------------------
 Stoichiometry    FeO(5)
 Framework group  C*V[C*(OFe)]
 Deg. of freedom     1
 Full point group                 C*V     NOp   4
 Largest Abelian subgroup         C2V     NOp   4
 Largest concise Abelian subgroup C1      NOp   1
                         Standard orientation:                         
 ---------------------------------------------------------------------
 Center     Atomic      Atomic             Coordinates (Angstroms)
 Number     Number       Type             X           Y           Z
 ---------------------------------------------------------------------
      1         26           0        0.000000    0.000000    0.377751
      2          8           0        0.000000    0.000000   -1.227691
 ---------------------------------------------------------------------
 Rotational constants (GHZ):           0.0000000          15.7642038          15.7642038

 **********************************************************************

            Population analysis using the SCF Density.

 **********************************************************************

 Orbital symmetries:
 Alpha Orbitals:
       Occupied  (SG) (SG) (SG) (PI) (PI) (SG) (SG) (SG) (PI) (PI)
                 (SG) (SG) (PI) (PI) (DLTA) (DLTA) (SG) (PI) (PI)
       Virtual   (SG) (PI) (PI) (SG) (SG) (PI) (PI) (DLTA) (DLTA)
                 (SG) (PI) (PI) (SG) (SG) (PI) (PI) (SG) (PI) (PI)
                 (SG) (?A) (?A) (PI) (PI) (?A) (?A) (PHI) (PHI)
                 (SG) (PI) (PI) (SG) (SG) (DLTA) (DLTA) (SG) (PI)
                 (PI) (PI) (PI) (DLTA) (SG) (DLTA) (PI) (PI) (?B)
                 (?B) (SG) (DLTA) (DLTA) (?B) (?B) (SG) (PI) (PI)
                 (SG) (SG) (PHI) (PHI) (DLTA) (DLTA) (SG) (PI)
                 (PI) (DLTA) (DLTA) (SG) (PI) (PI) (SG) (DLTA)
                 (PI) (PI) (DLTA) (?C) (PHI) (PHI) (?C) (?C) (?A)
                 (?A) (?B) (?B) (?B) (?B) (?A) (?A) (PI) (PI) (SG)
                 (SG) (PI) (PI) (SG) (PHI) (PHI) (?D) (?D) (DLTA)
                 (DLTA) (SG) (PI) (PI) (SG) (PHI) (PHI) (DLTA)
                 (DLTA) (PI) (PI) (SG) (DLTA) (DLTA) (PI) (PI)
                 (SG) (SG) (DLTA) (?B) (?B) (DLTA) (?B) (?B) (SG)
                 (?B) (?B) (?E) (?E) (DLTA) (DLTA) (?B) (?B) (?E)
                 (SG) (SG) (SG) (SG) (SG)
 Beta  Orbitals:
       Occupied  (SG) (SG) (SG) (PI) (PI) (SG) (SG) (SG) (PI) (PI)
                 (SG) (SG) (PI) (PI) (?A)
       Virtual   (SG) (PI) (PI) (?A) (SG) (PI) (PI) (SG) (SG) (PI)
                 (PI) (?A) (?A) (SG) (PI) (PI) (SG) (SG) (SG) (PI)
                 (PI) (PI) (PI) (SG) (?A) (?A) (?A) (?B) (?B) (?A)
                 (?B) (?B) (SG) (PI) (PI) (SG) (SG) (DLTA) (DLTA)
                 (SG) (PI) (PI) (?C) (?C) (PI) (PI) (SG) (DLTA)
                 (DLTA) (?C) (?C) (SG) (DLTA) (DLTA) (?C) (?C)
                 (SG) (PI) (PI) (SG) (SG) (PHI) (PHI) (DLTA) (DLTA)
                 (SG) (PI) (PI) (DLTA) (DLTA) (SG) (PI) (PI) (?D)
                 (DLTA) (?B) (?B) (DLTA) (?D) (?D) (?B) (?B) (?D)
                 (DLTA) (DLTA) (?B) (?B) (?B) (?B) (DLTA) (DLTA)
                 (PI) (PI) (SG) (SG) (PI) (PI) (SG) (PHI) (PHI)
                 (?E) (?E) (DLTA) (DLTA) (SG) (PI) (PI) (SG) (PHI)
                 (PHI) (DLTA) (DLTA) (PI) (PI) (SG) (DLTA) (DLTA)
                 (PI) (PI) (SG) (SG) (DLTA) (?B) (?B) (DLTA) (?B)
                 (?B) (SG) (PHI) (PHI) (?E) (?E) (DLTA) (DLTA)
                 (PI) (PI) (SG) (SG) (SG) (SG) (SG) (SG)
 Unable to determine electronic state:  an orbital has unidentified symmetry.
 Alpha  occ. eigenvalues -- -255.26101 -29.67252 -25.55786 -25.53881 -25.53881
 Alpha  occ. eigenvalues --  -18.86695  -3.38128  -2.20631  -2.16105  -2.16105
 Alpha  occ. eigenvalues --   -0.82450  -0.33237  -0.32246  -0.32246  -0.26057
 Alpha  occ. eigenvalues --   -0.22140  -0.21107  -0.19946  -0.19946
 Alpha virt. eigenvalues --   -0.12598  -0.02741  -0.02741   0.01785   0.03005
 Alpha virt. eigenvalues --    0.06983   0.06983   0.10332   0.10437   0.11452
 Alpha virt. eigenvalues --    0.12043   0.12043   0.18067   0.31483   0.34713
 Alpha virt. eigenvalues --    0.34713   0.35156   0.39524   0.39524   0.41489
 Alpha virt. eigenvalues --    0.43349   0.43687   0.45649   0.45649   0.46652
 Alpha virt. eigenvalues --    0.46733   0.47568   0.47568   0.53632   0.63041
 Alpha virt. eigenvalues --    0.63041   0.78547   0.94964   1.17886   1.17914
 Alpha virt. eigenvalues --    1.23032   1.30089   1.30089   1.38751   1.38751
 Alpha virt. eigenvalues --    1.46093   1.47211   1.47613   1.48007   1.48007
 Alpha virt. eigenvalues --    1.54102   1.54102   1.56706   1.65022   1.65799
 Alpha virt. eigenvalues --    1.66837   1.66837   2.00731   2.01355   2.01355
 Alpha virt. eigenvalues --    2.19295   2.60084   3.11009   3.11009   3.18311
 Alpha virt. eigenvalues --    3.18518   3.28017   3.55483   3.55483   3.83596
 Alpha virt. eigenvalues --    3.83627   3.84031   4.15557   4.15557   4.25866
 Alpha virt. eigenvalues --    4.35349   4.37171   4.37171   4.38213   4.67401
 Alpha virt. eigenvalues --    4.67566   4.67566   4.67710   4.68406   4.80960
 Alpha virt. eigenvalues --    4.82685   4.91266   4.91266   4.93583   4.93583
 Alpha virt. eigenvalues --    4.96836   4.98896   5.07316   5.07316   5.12486
 Alpha virt. eigenvalues --    5.47734   5.65634   5.65634   6.23315   8.95251
 Alpha virt. eigenvalues --    8.95251   8.97140   8.97141   9.03789   9.03839
 Alpha virt. eigenvalues --    9.26957   9.28639   9.28639  10.06605  10.95561
 Alpha virt. eigenvalues --   10.95561  11.05591  11.05618  11.51249  11.51249
 Alpha virt. eigenvalues --   11.73315  11.96560  11.96566  12.18538  12.18538
 Alpha virt. eigenvalues --   12.44792  13.21419  14.95340  14.98251  14.98251
 Alpha virt. eigenvalues --   14.98622  15.03654  15.03654  15.28909  16.48331
 Alpha virt. eigenvalues --   16.48331  16.50501  16.50543  16.52875  16.55849
 Alpha virt. eigenvalues --   16.84417  16.84417  16.87592  34.32736  47.26497
 Alpha virt. eigenvalues --  116.24558 254.25244 740.35856
  Beta  occ. eigenvalues -- -255.25968 -29.62540 -25.51840 -25.50126 -25.50126
  Beta  occ. eigenvalues --  -18.85633  -3.26052  -2.07361  -2.04653  -2.04653
  Beta  occ. eigenvalues --   -0.80056  -0.29891  -0.25796  -0.25796  -0.17233
  Beta virt. eigenvalues --   -0.13798  -0.10432  -0.10432  -0.09899  -0.07999
  Beta virt. eigenvalues --    0.00742   0.00742   0.03308   0.05723   0.09613
  Beta virt. eigenvalues --    0.09613   0.12250   0.13285   0.13443   0.14073
  Beta virt. eigenvalues --    0.14073   0.19718   0.34056   0.37058   0.38564
  Beta virt. eigenvalues --    0.38564   0.41213   0.41213   0.44859   0.47313
  Beta virt. eigenvalues --    0.48346   0.48618   0.49239   0.49239   0.49665
  Beta virt. eigenvalues --    0.50596   0.50596   0.55822   0.65215   0.65215
  Beta virt. eigenvalues --    0.80551   0.96803   1.19881   1.19951   1.25795
  Beta virt. eigenvalues --    1.32252   1.32252   1.45873   1.45873   1.50867
  Beta virt. eigenvalues --    1.50867   1.51156   1.52012   1.55705   1.60433
  Beta virt. eigenvalues --    1.60433   1.62149   1.70607   1.73017   1.74112
  Beta virt. eigenvalues --    1.74112   2.05051   2.05674   2.05674   2.25151
  Beta virt. eigenvalues --    2.63281   3.13281   3.13281   3.20639   3.21106
  Beta virt. eigenvalues --    3.29868   3.58146   3.58146   3.87145   3.87181
  Beta virt. eigenvalues --    3.88526   4.18346   4.18346   4.30351   4.43620
  Beta virt. eigenvalues --    4.46482   4.46482   4.47424   4.74817   4.75233
  Beta virt. eigenvalues --    4.75780   4.75780   4.76525   4.88910   4.91522
  Beta virt. eigenvalues --    5.00723   5.00723   5.02934   5.02934   5.06159
  Beta virt. eigenvalues --    5.08848   5.10348   5.10348   5.16779   5.54219
  Beta virt. eigenvalues --    5.71953   5.71953   6.27525   8.97803   8.97803
  Beta virt. eigenvalues --    8.99425   8.99426   9.06500   9.06560   9.31292
  Beta virt. eigenvalues --    9.31411   9.31411  10.16870  10.99156  10.99156
  Beta virt. eigenvalues --   11.08823  11.08845  11.54442  11.54442  11.76696
  Beta virt. eigenvalues --   12.01183  12.01187  12.21860  12.21860  12.47939
  Beta virt. eigenvalues --   13.25262  15.12839  15.12893  15.12893  15.15217
  Beta virt. eigenvalues --   15.19841  15.19841  15.44138  16.66324  16.66324
  Beta virt. eigenvalues --   16.66779  16.67413  16.71879  16.72302  17.01369
  Beta virt. eigenvalues --   17.01369  17.04275  34.44201  47.28260 116.33261
  Beta virt. eigenvalues --  254.27156 740.38246
          Condensed to atoms (all electrons):
               1          2
     1  Fe  24.986951   0.449239
     2  O    0.449239   8.114570
          Atomic-Atomic Spin Densities.
               1          2
     1  Fe   3.599039  -0.034061
     2  O   -0.034061   0.469082
 Mulliken charges and spin densities:
               1          2
     1  Fe   0.563810   3.564979
     2  O   -0.563810   0.435021
 Sum of Mulliken charges =   0.00000   4.00000
 Mulliken charges and spin densities with hydrogens summed into heavy atoms:
               1          2
     1  Fe   0.563810   3.564979
     2  O   -0.563810   0.435021
 Electronic spatial extent (au):  <R**2>=            101.1964
 Charge=             -0.0000 electrons
 Dipole moment (field-independent basis, Debye):
    X=              0.0000    Y=              0.0000    Z=              4.3798  Tot=              4.3798
 Quadrupole moment (field-independent basis, Debye-Ang):
   XX=            -19.7487   YY=            -19.7487   ZZ=            -20.8789
   XY=              0.0000   XZ=              0.0000   YZ=              0.0000
 Traceless Quadrupole moment (field-independent basis, Debye-Ang):
   XX=              0.3767   YY=              0.3767   ZZ=             -0.7535
   XY=              0.0000   XZ=              0.0000   YZ=              0.0000
 Octapole moment (field-independent basis, Debye-Ang**2):
  XXX=              0.0000  YYY=              0.0000  ZZZ=             12.6087  XYY=              0.0000
  XXY=              0.0000  XXZ=              2.4670  XZZ=              0.0000  YZZ=              0.0000
  YYZ=              2.4670  XYZ=              0.0000
 Hexadecapole moment (field-independent basis, Debye-Ang**3):
 XXXX=            -25.1154 YYYY=            -25.1154 ZZZZ=            -86.6615 XXXY=              0.0000
 XXXZ=              0.0000 YYYX=              0.0000 YYYZ=              0.0000 ZZZX=              0.0000
 ZZZY=              0.0000 XXYY=             -8.7734 XXZZ=            -19.1059 YYZZ=            -19.1059
 XXYZ=              0.0000 YYXZ=              0.0000 ZZXY=              0.0000
 N-N= 6.855984844088D+01 E-N=-3.323580109595D+03  KE= 1.336764263557D+03
 Symmetry A1   KE= 1.019266910561D+03
 Symmetry A2   KE= 1.332858048221D+01
 Symmetry B1   KE= 1.520843862570D+02
 Symmetry B2   KE= 1.520843862570D+02
 Symmetry A1   SP= 2.000000000000D+00
 Symmetry A2   SP= 3.355853057463D-15
 Symmetry B1   SP= 1.000000000000D+00
 Symmetry B2   SP= 1.000000000000D+00
                          Isotropic Fermi Contact Couplings
        Atom                 a.u.       MegaHertz       Gauss      10(-4) cm-1
     1  Fe(57)             2.44759      88.74953      31.66804      29.60366
     2  O(17)              0.06525      -9.88860      -3.52850      -3.29848
 --------------------------------------------------------
       Center         ----  Spin Dipole Couplings  ----
                      3XX-RR        3YY-RR        3ZZ-RR
 --------------------------------------------------------
     1   Atom       -0.365350     -0.365350      0.730699
     2   Atom        0.527613      0.527613     -1.055226
 --------------------------------------------------------
                        XY            XZ            YZ
 --------------------------------------------------------
     1   Atom        0.000000      0.000000      0.000000
     2   Atom        0.000000      0.000000      0.000000
 --------------------------------------------------------


 ---------------------------------------------------------------------------------
              Anisotropic Spin Dipole Couplings in Principal Axis System
 ---------------------------------------------------------------------------------

       Atom             a.u.   MegaHertz   Gauss  10(-4) cm-1        Axes

              Baa    -0.3653    -6.325    -2.257    -2.110 -0.0000  1.0000  0.0000
     1 Fe(57) Bbb    -0.3653    -6.325    -2.257    -2.110  1.0000  0.0000  0.0000
              Bcc     0.7307    12.650     4.514     4.220  0.0000  0.0000  1.0000
 
              Baa    -1.0552    76.355    27.246    25.469  0.0000  0.0000  1.0000
     2 O(17)  Bbb     0.5276   -38.178   -13.623   -12.735  1.0000  0.0000  0.0000
              Bcc     0.5276   -38.178   -13.623   -12.735 -0.0000  1.0000  0.0000
 

 ---------------------------------------------------------------------------------

 Unable to Open any file for archive entry.
 1\1\GINC-TCOPT10\FOpt\UTPSSTPSS\def2QZVPP\Fe1O1(5)\HUTTER\31-Jul-2021\
 0\\#N UTPSSTPSS/Def2QZVPP scf=tight scf=XQC Int(Grid=ultrafine) OPT FR
 EQ\\Mol job 1\\0,5\Fe,6.6972790024,7.5,7.5\O,8.3027209976,7.5,7.5\\Ver
 sion=ES64L-G16RevC.01\HF=-1339.0245006\S2=6.019785\S2-1=0.\S2A=6.00004
 9\RMSD=8.080e-09\RMSF=2.060e-07\Dipole=-1.7231643,0.,0.\Quadrupole=-0.
 5601767,0.2800883,0.2800883,0.,0.,0.\PG=C*V [C*(O1Fe1)]\\@
 The archive entry for this job was punched.


 MEMORIES ARE LIKE AN ENGLISH GRAMMER LESSON -
 PRESENT TENSE, AND PAST PERFECT.
 Job cpu time:       0 days  0 hours 11 minutes 26.6 seconds.
 Elapsed time:       0 days  0 hours  1 minutes 56.6 seconds.
 File lengths (MBytes):  RWF=     22 Int=      0 D2E=      0 Chk=      3 Scr=      1
 Normal termination of Gaussian 16 at Sat Jul 31 22:53:52 2021.
 Link1:  Proceeding to internal job step number  2.
 ----------------------------------------------------------------------
 #N Geom=AllCheck Guess=TCheck SCRF=Check GenChk UTPSSTPSS/def2QZVPP Fr
 eq
 ----------------------------------------------------------------------
 1/10=4,29=7,30=1,38=1,40=1/1,3;
 2/12=2,40=1/2;
 3/5=45,7=202,11=2,14=-4,25=1,30=1,70=2,71=2,74=2523,75=-5,116=2,140=1/1,2,3;
 4/5=101/1;
 5/5=2,8=3,13=1,32=2,38=6,98=1/2,8;
 8/6=4,10=90,11=11/1;
 11/6=1,8=1,9=11,15=111,16=1/1,2,10;
 10/6=1/2;
 6/7=2,8=2,9=2,10=2,28=1/1;
 7/8=1,10=1,25=1/1,2,3,16;
 1/10=4,30=1/3;
 99//99;
 Structure from the checkpoint file:  "/data/hutter/SMG16/TPSS/Gau-33450.chk"
 ---------
 Mol job 1
 ---------
 Charge =  0 Multiplicity = 5
 Redundant internal coordinates found in file.  (old form).
 Fe,0,6.6972790024,7.5,7.5
 O,0,8.3027209976,7.5,7.5
 Recover connectivity data from disk.

 GradGradGradGradGradGradGradGradGradGradGradGradGradGradGradGradGradGrad
 Berny optimization.
 Initialization pass.
                           ----------------------------
                           !    Initial Parameters    !
                           ! (Angstroms and Degrees)  !
 --------------------------                            --------------------------
 ! Name  Definition              Value          Derivative Info.                !
 --------------------------------------------------------------------------------
 ! R1    R(1,2)                  1.6054         calculate D2E/DX2 analytically  !
 --------------------------------------------------------------------------------
 Trust Radius=3.00D-01 FncErr=1.00D-07 GrdErr=1.00D-07 EigMax=2.50D+02 EigMin=1.00D-04
 Number of steps in this run=      2 maximum allowed number of steps=      2.
 GradGradGradGradGradGradGradGradGradGradGradGradGradGradGradGradGradGrad

                          Input orientation:                          
 ---------------------------------------------------------------------
 Center     Atomic      Atomic             Coordinates (Angstroms)
 Number     Number       Type             X           Y           Z
 ---------------------------------------------------------------------
      1         26           0        6.697279    7.500000    7.500000
      2          8           0        8.302721    7.500000    7.500000
 ---------------------------------------------------------------------
 Stoichiometry    FeO(5)
 Framework group  C*V[C*(OFe)]
 Deg. of freedom     1
 Full point group                 C*V     NOp   4
 Largest Abelian subgroup         C2V     NOp   4
 Largest concise Abelian subgroup C1      NOp   1
                         Standard orientation:                         
 ---------------------------------------------------------------------
 Center     Atomic      Atomic             Coordinates (Angstroms)
 Number     Number       Type             X           Y           Z
 ---------------------------------------------------------------------
      1         26           0        0.000000    0.000000    0.377751
      2          8           0        0.000000    0.000000   -1.227691
 ---------------------------------------------------------------------
 Rotational constants (GHZ):           0.0000000          15.7642038          15.7642038
 Standard basis: def2QZVPP (5D, 7F)
 There are    88 symmetry adapted cartesian basis functions of A1  symmetry.
 There are    23 symmetry adapted cartesian basis functions of A2  symmetry.
 There are    45 symmetry adapted cartesian basis functions of B1  symmetry.
 There are    45 symmetry adapted cartesian basis functions of B2  symmetry.
 There are    65 symmetry adapted basis functions of A1  symmetry.
 There are    20 symmetry adapted basis functions of A2  symmetry.
 There are    36 symmetry adapted basis functions of B1  symmetry.
 There are    36 symmetry adapted basis functions of B2  symmetry.
   157 basis functions,   300 primitive gaussians,   201 cartesian basis functions
    19 alpha electrons       15 beta electrons
       nuclear repulsion energy        68.5598484409 Hartrees.
 NAtoms=    2 NActive=    2 NUniq=    2 SFac= 1.00D+00 NAtFMM=   60 NAOKFM=F Big=F
 Integral buffers will be    131072 words long.
 Raffenetti 2 integral format.
 Two-electron integral symmetry is turned on.
 One-electron integrals computed using PRISM.
   4 Symmetry operations used in ECPInt.
 ECPInt:  NShTT=    1035 NPrTT=    3989 LenC2=    1025 LenP2D=    3556.
 LDataN:  DoStor=T MaxTD1= 8 Len=  415
 NBasis=   157 RedAO= T EigKep=  3.77D-04  NBF=    65    20    36    36
 NBsUse=   157 1.00D-06 EigRej= -1.00D+00 NBFU=    65    20    36    36
 Initial guess from the checkpoint file:  "/data/hutter/SMG16/TPSS/Gau-33450.chk"
 B after Tr=     0.000000    0.000000    0.000000
         Rot=    1.000000    0.000000    0.000000    0.000000 Ang=   0.00 deg.
 Initial guess orbital symmetries:
 Alpha Orbitals:
       Occupied  (SG) (SG) (SG) (PI) (PI) (SG) (SG) (SG) (PI) (PI)
                 (SG) (SG) (PI) (PI) (DLTA) (DLTA) (SG) (PI) (PI)
       Virtual   (SG) (PI) (PI) (SG) (SG) (PI) (PI) (DLTA) (DLTA)
                 (SG) (PI) (PI) (SG) (SG) (PI) (PI) (SG) (PI) (PI)
                 (SG) (?A) (?A) (PI) (PI) (?A) (?A) (PHI) (PHI)
                 (SG) (PI) (PI) (SG) (SG) (DLTA) (DLTA) (SG) (PI)
                 (PI) (PI) (PI) (DLTA) (SG) (DLTA) (PI) (PI) (?B)
                 (?B) (SG) (DLTA) (DLTA) (?B) (?B) (SG) (PI) (PI)
                 (SG) (SG) (PHI) (PHI) (DLTA) (DLTA) (SG) (PI)
                 (PI) (DLTA) (DLTA) (SG) (PI) (PI) (SG) (DLTA)
                 (PI) (PI) (DLTA) (?C) (PHI) (PHI) (?C) (?C) (?A)
                 (?A) (?B) (?B) (?B) (?B) (?A) (?A) (PI) (PI) (SG)
                 (SG) (PI) (PI) (SG) (PHI) (PHI) (?D) (?D) (DLTA)
                 (DLTA) (SG) (PI) (PI) (SG) (PHI) (PHI) (DLTA)
                 (DLTA) (PI) (PI) (SG) (DLTA) (DLTA) (PI) (PI)
                 (SG) (SG) (DLTA) (?B) (?B) (DLTA) (?B) (?B) (SG)
                 (?B) (?B) (?E) (?E) (DLTA) (DLTA) (?B) (?B) (?E)
                 (SG) (SG) (SG) (SG) (SG)
 Beta  Orbitals:
       Occupied  (SG) (SG) (SG) (PI) (PI) (SG) (SG) (SG) (PI) (PI)
                 (SG) (SG) (PI) (PI) (?A)
       Virtual   (SG) (PI) (PI) (?A) (SG) (PI) (PI) (SG) (SG) (PI)
                 (PI) (?A) (?A) (SG) (PI) (PI) (SG) (SG) (SG) (PI)
                 (PI) (PI) (PI) (SG) (?A) (?A) (?A) (?B) (?B) (?A)
                 (?B) (?B) (SG) (PI) (PI) (SG) (SG) (DLTA) (DLTA)
                 (SG) (PI) (PI) (?C) (?C) (PI) (PI) (SG) (DLTA)
                 (DLTA) (?C) (?C) (SG) (DLTA) (DLTA) (?C) (?C)
                 (SG) (PI) (PI) (SG) (SG) (PHI) (PHI) (DLTA) (DLTA)
                 (SG) (PI) (PI) (DLTA) (DLTA) (SG) (PI) (PI) (?D)
                 (DLTA) (?B) (?B) (DLTA) (?D) (?D) (?B) (?B) (?D)
                 (DLTA) (DLTA) (?B) (?B) (?B) (?B) (DLTA) (DLTA)
                 (PI) (PI) (SG) (SG) (PI) (PI) (SG) (PHI) (PHI)
                 (?E) (?E) (DLTA) (DLTA) (SG) (PI) (PI) (SG) (PHI)
                 (PHI) (DLTA) (DLTA) (PI) (PI) (SG) (DLTA) (DLTA)
                 (PI) (PI) (SG) (SG) (DLTA) (?B) (?B) (DLTA) (?B)
                 (?B) (SG) (PHI) (PHI) (?E) (?E) (DLTA) (DLTA)
                 (PI) (PI) (SG) (SG) (SG) (SG) (SG) (SG)
 Initial guess <Sx>= 0.0000 <Sy>= 0.0000 <Sz>= 2.0000 <S**2>= 6.0198 S= 2.0040
 Keep J ints in memory in symmetry-blocked form, NReq=96492262.
 Requested convergence on RMS density matrix=1.00D-08 within  32 cycles.
 Requested convergence on MAX density matrix=1.00D-06.
 Requested convergence on             energy=1.00D-06.
 No special actions if energy rises.
 SCF Done:  E(UTPSS-TPSS) =  -1339.02450065     A.U. after    1 cycles
            NFock=  1  Conv=0.44D-08     -V/T= 2.0017
 <Sx>= 0.0000 <Sy>= 0.0000 <Sz>= 2.0000 <S**2>= 6.0198 S= 2.0040
 <L.S>=  0.00000000000    
 Annihilation of the first spin contaminant:
 S**2 before annihilation     6.0198,   after     6.0000
 QCSCF skips out because SCF is already converged.
 DoSCS=F DFT=T ScalE2(SS,OS)=  1.000000  1.000000
 Range of M.O.s used for correlation:     1   157
 NBasis=   157 NAE=    19 NBE=    15 NFC=     0 NFV=     0
 NROrb=    157 NOA=    19 NOB=    15 NVA=   138 NVB=   142

 **** Warning!!: The largest alpha MO coefficient is  0.16851818D+02


 **** Warning!!: The smallest alpha delta epsilon is  0.73486846D-01


 **** Warning!!: The largest beta MO coefficient is  0.16449490D+02


 **** Warning!!: The smallest beta delta epsilon is  0.34348355D-01

   4 Symmetry operations used in ECPInt.
 ECPInt:  NShTT=    1035 NPrTT=    3989 LenC2=    1025 LenP2D=    3556.
 LDataN:  DoStor=T MaxTD1= 9 Len=  602
 Symmetrizing basis deriv contribution to polar:
 IMax=3 JMax=2 DiffMx= 0.00D+00
 G2DrvN: will do     3 centers at a time, making    1 passes.
 Calling FoFCou, ICntrl=  3507 FMM=F I1Cent=   0 AccDes= 0.00D+00.
 End of G2Drv F.D. properties file   721 does not exist.
 End of G2Drv F.D. properties file   722 does not exist.
 End of G2Drv F.D. properties file   788 does not exist.
          IDoAtm=11
          Differentiating once with respect to electric field.
                with respect to dipole field.
          Differentiating once with respect to nuclear coordinates.
 Keep J ints in memory in symmetry-blocked form, NReq=96493858.
          There are     9 degrees of freedom in the 1st order CPHF.  IDoFFX=6 NUNeed=     3.
      6 vectors produced by pass  0 Test12= 5.28D-14 1.11D-08 XBig12= 4.97D+02 1.52D+01.
 AX will form     6 AO Fock derivatives at one time.
      6 vectors produced by pass  1 Test12= 5.28D-14 1.11D-08 XBig12= 1.76D+03 2.54D+01.
      6 vectors produced by pass  2 Test12= 5.28D-14 1.11D-08 XBig12= 4.35D+02 9.67D+00.
      6 vectors produced by pass  3 Test12= 5.28D-14 1.11D-08 XBig12= 6.26D+01 2.55D+00.
      6 vectors produced by pass  4 Test12= 5.28D-14 1.11D-08 XBig12= 2.28D+00 4.94D-01.
      6 vectors produced by pass  5 Test12= 5.28D-14 1.11D-08 XBig12= 1.17D-01 8.18D-02.
      6 vectors produced by pass  6 Test12= 5.28D-14 1.11D-08 XBig12= 1.15D-03 7.91D-03.
      6 vectors produced by pass  7 Test12= 5.28D-14 1.11D-08 XBig12= 2.26D-05 1.30D-03.
      6 vectors produced by pass  8 Test12= 5.28D-14 1.11D-08 XBig12= 1.24D-07 1.29D-04.
      4 vectors produced by pass  9 Test12= 5.28D-14 1.11D-08 XBig12= 1.31D-09 7.65D-06.
      1 vectors produced by pass 10 Test12= 5.28D-14 1.11D-08 XBig12= 1.19D-11 1.02D-06.
      1 vectors produced by pass 11 Test12= 5.28D-14 1.11D-08 XBig12= 3.60D-14 5.47D-08.
 InvSVY:  IOpt=1 It=  1 EMax= 8.88D-16
 Solved reduced A of dimension    60 with     6 vectors.
 Isotropic polarizability for W=    0.000000       41.97 Bohr**3.
 End of Minotr F.D. properties file   721 does not exist.
 End of Minotr F.D. properties file   722 does not exist.
 End of Minotr F.D. properties file   788 does not exist.

 **********************************************************************

            Population analysis using the SCF Density.

 **********************************************************************

 Orbital symmetries:
 Alpha Orbitals:
       Occupied  (SG) (SG) (SG) (PI) (PI) (SG) (SG) (SG) (PI) (PI)
                 (SG) (SG) (PI) (PI) (DLTA) (DLTA) (SG) (PI) (PI)
       Virtual   (SG) (PI) (PI) (SG) (SG) (PI) (PI) (DLTA) (DLTA)
                 (SG) (PI) (PI) (SG) (SG) (PI) (PI) (SG) (PI) (PI)
                 (SG) (?A) (?A) (PI) (PI) (?A) (?A) (PHI) (PHI)
                 (SG) (PI) (PI) (SG) (SG) (DLTA) (DLTA) (SG) (PI)
                 (PI) (PI) (PI) (DLTA) (SG) (DLTA) (PI) (PI) (?B)
                 (?B) (SG) (DLTA) (DLTA) (?B) (?B) (SG) (PI) (PI)
                 (SG) (SG) (PHI) (PHI) (DLTA) (DLTA) (SG) (PI)
                 (PI) (DLTA) (DLTA) (SG) (PI) (PI) (SG) (DLTA)
                 (PI) (PI) (DLTA) (?C) (PHI) (PHI) (?C) (?C) (?A)
                 (?A) (?B) (?B) (?B) (?B) (?A) (?A) (PI) (PI) (SG)
                 (SG) (PI) (PI) (SG) (PHI) (PHI) (?D) (?D) (DLTA)
                 (DLTA) (SG) (PI) (PI) (SG) (PHI) (PHI) (DLTA)
                 (DLTA) (PI) (PI) (SG) (DLTA) (DLTA) (PI) (PI)
                 (SG) (SG) (DLTA) (?B) (?B) (DLTA) (?B) (?B) (SG)
                 (?B) (?B) (?E) (?E) (DLTA) (DLTA) (?B) (?B) (?E)
                 (SG) (SG) (SG) (SG) (SG)
 Beta  Orbitals:
       Occupied  (SG) (SG) (SG) (PI) (PI) (SG) (SG) (SG) (PI) (PI)
                 (SG) (SG) (PI) (PI) (?A)
       Virtual   (SG) (PI) (PI) (?A) (SG) (PI) (PI) (SG) (SG) (PI)
                 (PI) (?A) (?A) (SG) (PI) (PI) (SG) (SG) (SG) (PI)
                 (PI) (PI) (PI) (SG) (?A) (?A) (?A) (?B) (?B) (?A)
                 (?B) (?B) (SG) (PI) (PI) (SG) (SG) (DLTA) (DLTA)
                 (SG) (PI) (PI) (?C) (?C) (PI) (PI) (SG) (DLTA)
                 (DLTA) (?C) (?C) (SG) (DLTA) (DLTA) (?C) (?C)
                 (SG) (PI) (PI) (SG) (SG) (PHI) (PHI) (DLTA) (DLTA)
                 (SG) (PI) (PI) (DLTA) (DLTA) (SG) (PI) (PI) (?D)
                 (DLTA) (?B) (?B) (DLTA) (?D) (?D) (?B) (?B) (?D)
                 (DLTA) (DLTA) (?B) (?B) (?B) (?B) (DLTA) (DLTA)
                 (PI) (PI) (SG) (SG) (PI) (PI) (SG) (PHI) (PHI)
                 (?E) (?E) (DLTA) (DLTA) (SG) (PI) (PI) (SG) (PHI)
                 (PHI) (DLTA) (DLTA) (PI) (PI) (SG) (DLTA) (DLTA)
                 (PI) (PI) (SG) (SG) (DLTA) (?B) (?B) (DLTA) (?B)
                 (?B) (SG) (PHI) (PHI) (?E) (?E) (DLTA) (DLTA)
                 (PI) (PI) (SG) (SG) (SG) (SG) (SG) (SG)
 Unable to determine electronic state:  an orbital has unidentified symmetry.
 Alpha  occ. eigenvalues -- -255.26102 -29.67252 -25.55786 -25.53881 -25.53881
 Alpha  occ. eigenvalues --  -18.86695  -3.38128  -2.20631  -2.16105  -2.16105
 Alpha  occ. eigenvalues --   -0.82450  -0.33237  -0.32246  -0.32246  -0.26057
 Alpha  occ. eigenvalues --   -0.22140  -0.21107  -0.19946  -0.19946
 Alpha virt. eigenvalues --   -0.12598  -0.02741  -0.02741   0.01785   0.03005
 Alpha virt. eigenvalues --    0.06983   0.06983   0.10332   0.10437   0.11452
 Alpha virt. eigenvalues --    0.12043   0.12043   0.18067   0.31483   0.34713
 Alpha virt. eigenvalues --    0.34713   0.35156   0.39524   0.39524   0.41489
 Alpha virt. eigenvalues --    0.43349   0.43687   0.45649   0.45649   0.46652
 Alpha virt. eigenvalues --    0.46733   0.47568   0.47568   0.53632   0.63041
 Alpha virt. eigenvalues --    0.63041   0.78547   0.94964   1.17886   1.17914
 Alpha virt. eigenvalues --    1.23032   1.30089   1.30089   1.38751   1.38751
 Alpha virt. eigenvalues --    1.46093   1.47211   1.47613   1.48007   1.48007
 Alpha virt. eigenvalues --    1.54102   1.54102   1.56706   1.65022   1.65799
 Alpha virt. eigenvalues --    1.66837   1.66837   2.00731   2.01355   2.01355
 Alpha virt. eigenvalues --    2.19295   2.60084   3.11009   3.11009   3.18311
 Alpha virt. eigenvalues --    3.18518   3.28017   3.55483   3.55483   3.83596
 Alpha virt. eigenvalues --    3.83627   3.84031   4.15557   4.15557   4.25866
 Alpha virt. eigenvalues --    4.35348   4.37171   4.37171   4.38213   4.67401
 Alpha virt. eigenvalues --    4.67566   4.67566   4.67710   4.68406   4.80960
 Alpha virt. eigenvalues --    4.82685   4.91266   4.91266   4.93583   4.93583
 Alpha virt. eigenvalues --    4.96836   4.98896   5.07316   5.07316   5.12486
 Alpha virt. eigenvalues --    5.47734   5.65634   5.65634   6.23315   8.95251
 Alpha virt. eigenvalues --    8.95251   8.97140   8.97141   9.03789   9.03839
 Alpha virt. eigenvalues --    9.26957   9.28640   9.28640  10.06605  10.95561
 Alpha virt. eigenvalues --   10.95561  11.05591  11.05618  11.51250  11.51250
 Alpha virt. eigenvalues --   11.73315  11.96560  11.96566  12.18538  12.18538
 Alpha virt. eigenvalues --   12.44792  13.21419  14.95340  14.98251  14.98251
 Alpha virt. eigenvalues --   14.98622  15.03654  15.03654  15.28908  16.48331
 Alpha virt. eigenvalues --   16.48331  16.50501  16.50543  16.52875  16.55849
 Alpha virt. eigenvalues --   16.84417  16.84417  16.87592  34.32736  47.26497
 Alpha virt. eigenvalues --  116.24558 254.25244 740.35856
  Beta  occ. eigenvalues -- -255.25968 -29.62540 -25.51840 -25.50126 -25.50126
  Beta  occ. eigenvalues --  -18.85633  -3.26052  -2.07361  -2.04653  -2.04653
  Beta  occ. eigenvalues --   -0.80056  -0.29891  -0.25796  -0.25796  -0.17233
  Beta virt. eigenvalues --   -0.13798  -0.10432  -0.10432  -0.09899  -0.07999
  Beta virt. eigenvalues --    0.00742   0.00742   0.03308   0.05723   0.09613
  Beta virt. eigenvalues --    0.09613   0.12250   0.13285   0.13443   0.14073
  Beta virt. eigenvalues --    0.14073   0.19718   0.34056   0.37058   0.38564
  Beta virt. eigenvalues --    0.38564   0.41213   0.41213   0.44859   0.47313
  Beta virt. eigenvalues --    0.48346   0.48618   0.49239   0.49239   0.49665
  Beta virt. eigenvalues --    0.50596   0.50596   0.55822   0.65215   0.65215
  Beta virt. eigenvalues --    0.80551   0.96803   1.19881   1.19951   1.25795
  Beta virt. eigenvalues --    1.32252   1.32252   1.45872   1.45872   1.50867
  Beta virt. eigenvalues --    1.50867   1.51156   1.52012   1.55705   1.60433
  Beta virt. eigenvalues --    1.60433   1.62149   1.70607   1.73017   1.74112
  Beta virt. eigenvalues --    1.74112   2.05051   2.05674   2.05674   2.25151
  Beta virt. eigenvalues --    2.63281   3.13281   3.13281   3.20639   3.21106
  Beta virt. eigenvalues --    3.29868   3.58146   3.58146   3.87145   3.87181
  Beta virt. eigenvalues --    3.88526   4.18346   4.18346   4.30351   4.43620
  Beta virt. eigenvalues --    4.46482   4.46482   4.47424   4.74817   4.75233
  Beta virt. eigenvalues --    4.75780   4.75780   4.76525   4.88910   4.91522
  Beta virt. eigenvalues --    5.00723   5.00723   5.02934   5.02934   5.06159
  Beta virt. eigenvalues --    5.08848   5.10348   5.10348   5.16779   5.54219
  Beta virt. eigenvalues --    5.71953   5.71953   6.27525   8.97803   8.97803
  Beta virt. eigenvalues --    8.99425   8.99426   9.06500   9.06560   9.31292
  Beta virt. eigenvalues --    9.31411   9.31411  10.16870  10.99156  10.99156
  Beta virt. eigenvalues --   11.08823  11.08845  11.54442  11.54442  11.76696
  Beta virt. eigenvalues --   12.01183  12.01187  12.21860  12.21860  12.47939
  Beta virt. eigenvalues --   13.25262  15.12839  15.12893  15.12893  15.15217
  Beta virt. eigenvalues --   15.19841  15.19841  15.44138  16.66324  16.66324
  Beta virt. eigenvalues --   16.66779  16.67413  16.71879  16.72302  17.01369
  Beta virt. eigenvalues --   17.01369  17.04275  34.44201  47.28260 116.33261
  Beta virt. eigenvalues --  254.27156 740.38246
          Condensed to atoms (all electrons):
               1          2
     1  Fe  24.986953   0.449239
     2  O    0.449239   8.114568
          Atomic-Atomic Spin Densities.
               1          2
     1  Fe   3.599039  -0.034061
     2  O   -0.034061   0.469083
 Mulliken charges and spin densities:
               1          2
     1  Fe   0.563807   3.564978
     2  O   -0.563807   0.435022
 Sum of Mulliken charges =  -0.00000   4.00000
 Mulliken charges and spin densities with hydrogens summed into heavy atoms:
               1          2
     1  Fe   0.563807   3.564978
     2  O   -0.563807   0.435022
 APT charges:
               1
     1  Fe   0.832747
     2  O   -0.832747
 Sum of APT charges =  -0.00000
 APT charges with hydrogens summed into heavy atoms:
               1
     1  Fe   0.832747
     2  O   -0.832747
 Electronic spatial extent (au):  <R**2>=            101.1964
 Charge=             -0.0000 electrons
 Dipole moment (field-independent basis, Debye):
    X=              0.0000    Y=              0.0000    Z=              4.3798  Tot=              4.3798
 Quadrupole moment (field-independent basis, Debye-Ang):
   XX=            -19.7487   YY=            -19.7487   ZZ=            -20.8788
   XY=              0.0000   XZ=              0.0000   YZ=              0.0000
 Traceless Quadrupole moment (field-independent basis, Debye-Ang):
   XX=              0.3767   YY=              0.3767   ZZ=             -0.7534
   XY=              0.0000   XZ=              0.0000   YZ=              0.0000
 Octapole moment (field-independent basis, Debye-Ang**2):
  XXX=              0.0000  YYY=              0.0000  ZZZ=             12.6087  XYY=              0.0000
  XXY=              0.0000  XXZ=              2.4670  XZZ=              0.0000  YZZ=              0.0000
  YYZ=              2.4670  XYZ=              0.0000
 Hexadecapole moment (field-independent basis, Debye-Ang**3):
 XXXX=            -25.1154 YYYY=            -25.1154 ZZZZ=            -86.6615 XXXY=              0.0000
 XXXZ=              0.0000 YYYX=              0.0000 YYYZ=              0.0000 ZZZX=              0.0000
 ZZZY=              0.0000 XXYY=             -8.7734 XXZZ=            -19.1059 YYZZ=            -19.1059
 XXYZ=              0.0000 YYXZ=              0.0000 ZZXY=              0.0000
 N-N= 6.855984844088D+01 E-N=-3.323580151469D+03  KE= 1.336764276038D+03
 Symmetry A1   KE= 1.019266915365D+03
 Symmetry A2   KE= 1.332858225708D+01
 Symmetry B1   KE= 1.520843892079D+02
 Symmetry B2   KE= 1.520843892079D+02
 Symmetry A1   SP= 2.000000000000D+00
 Symmetry A2   SP=-3.406502239577D-15
 Symmetry B1   SP= 1.000000000000D+00
 Symmetry B2   SP= 1.000000000000D+00
  Exact polarizability:      37.078       0.000      37.078      -0.000       0.000      51.743
 Approx polarizability:      49.560      -0.000      49.560      -0.000      -0.000     143.242
                          Isotropic Fermi Contact Couplings
        Atom                 a.u.       MegaHertz       Gauss      10(-4) cm-1
     1  Fe(57)             2.44759      88.74959      31.66806      29.60368
     2  O(17)              0.06525      -9.88857      -3.52849      -3.29847
 --------------------------------------------------------
       Center         ----  Spin Dipole Couplings  ----
                      3XX-RR        3YY-RR        3ZZ-RR
 --------------------------------------------------------
     1   Atom       -0.365349     -0.365349      0.730697
     2   Atom        0.527614      0.527614     -1.055228
 --------------------------------------------------------
                        XY            XZ            YZ
 --------------------------------------------------------
     1   Atom        0.000000      0.000000      0.000000
     2   Atom        0.000000      0.000000      0.000000
 --------------------------------------------------------


 ---------------------------------------------------------------------------------
              Anisotropic Spin Dipole Couplings in Principal Axis System
 ---------------------------------------------------------------------------------

       Atom             a.u.   MegaHertz   Gauss  10(-4) cm-1        Axes

              Baa    -0.3653    -6.325    -2.257    -2.110  1.0000  0.0000  0.0000
     1 Fe(57) Bbb    -0.3653    -6.325    -2.257    -2.110 -0.0000  1.0000  0.0000
              Bcc     0.7307    12.650     4.514     4.220  0.0000  0.0000  1.0000
 
              Baa    -1.0552    76.356    27.246    25.469  0.0000  0.0000  1.0000
     2 O(17)  Bbb     0.5276   -38.178   -13.623   -12.735 -0.0000  1.0000  0.0000
              Bcc     0.5276   -38.178   -13.623   -12.735  1.0000  0.0000  0.0000
 

 ---------------------------------------------------------------------------------

   4 Symmetry operations used in ECPInt.
 ECPInt:  NShTT=    1035 NPrTT=    3989 LenC2=    1025 LenP2D=    3556.
 LDataN:  DoStor=T MaxTD1=10 Len=  848
 Calling FoFJK, ICntrl=    100527 FMM=F ISym2X=1 I1Cent= 0 IOpClX= 0 NMat=1 NMatS=1 NMatT=0.
 Full mass-weighted force constant matrix:
 Low frequencies ---   -0.0101   -0.0099   -0.0099    3.8842    3.8842  922.9079
 Diagonal vibrational polarizability:
        0.0000000       0.0000000       4.5957810
 Harmonic frequencies (cm**-1), IR intensities (KM/Mole), Raman scattering
 activities (A**4/AMU), depolarization ratios for plane and unpolarized
 incident light, reduced masses (AMU), force constants (mDyne/A),
 and normal coordinates:
                      1
                     SG
 Frequencies --    922.9079
 Red. masses --     19.0140
 Frc consts  --      9.5420
 IR Inten    --    145.4598
  Atom  AN      X      Y      Z
     1  26    -0.00  -0.00  -0.27
     2   8    -0.00  -0.00   0.96

 -------------------
 - Thermochemistry -
 -------------------
 Temperature   298.150 Kelvin.  Pressure   1.00000 Atm.
 Atom     1 has atomic number 26 and mass  55.93494
 Atom     2 has atomic number  8 and mass  15.99491
 Molecular mass:    71.92985 amu.
 Principal axes and moments of inertia in atomic units:
                           1         2         3
     Eigenvalues --     0.00000 114.48350 114.48350
           X            0.00000  -0.00000   1.00000
           Y            0.00000   1.00000   0.00000
           Z            1.00000   0.00000   0.00000
 This molecule is a prolate symmetric top.
 Rotational symmetry number  1.
 Rotational temperature (Kelvin)      0.75656
 Rotational constant (GHZ):          15.764204
 Zero-point vibrational energy       5520.2 (Joules/Mol)
                                    1.31936 (Kcal/Mol)
 Vibrational temperatures:   1327.86
          (Kelvin)
 
 Zero-point correction=                           0.002103 (Hartree/Particle)
 Thermal correction to Energy=                    0.004513
 Thermal correction to Enthalpy=                  0.005457
 Thermal correction to Gibbs Free Energy=        -0.021115
 Sum of electronic and zero-point Energies=          -1339.022398
 Sum of electronic and thermal Energies=             -1339.019988
 Sum of electronic and thermal Enthalpies=           -1339.019044
 Sum of electronic and thermal Free Energies=        -1339.045616
 
                     E (Thermal)             CV                S
                      KCal/Mol        Cal/Mol-Kelvin    Cal/Mol-Kelvin
 Total                    2.832              5.438             55.925
 Electronic               0.000              0.000              3.198
 Translational            0.889              2.981             38.736
 Rotational               0.592              1.987             13.864
 Vibrational              1.350              0.470              0.127
                       Q            Log10(Q)             Ln(Q)
 Total Bot       0.515657D+10          9.712361         22.363537
 Total V=0       0.478036D+11         10.679461         24.590367
 Vib (Bot)       0.109140D+00         -0.962017         -2.215126
 Vib (V=0)       0.101177D+01          0.005083          0.011704
 Electronic      0.500000D+01          0.698970          1.609438
 Translational   0.239783D+08          7.379818         16.992658
 Rotational      0.394085D+03          2.595590          5.976567
 ***** Axes restored to original set *****
 -------------------------------------------------------------------
 Center     Atomic                   Forces (Hartrees/Bohr)
 Number     Number              X              Y              Z
 -------------------------------------------------------------------
      1       26           0.000000390   -0.000000000   -0.000000000
      2        8          -0.000000390   -0.000000000   -0.000000000
 -------------------------------------------------------------------
 Cartesian Forces:  Max     0.000000390 RMS     0.000000225
 FormGI is forming the generalized inverse of G from B-inverse, IUseBI=4.

 GradGradGradGradGradGradGradGradGradGradGradGradGradGradGradGradGradGrad
 Berny optimization.
 Internal  Forces:  Max     0.000000390 RMS     0.000000390
 Search for a local minimum.
 Step number   1 out of a maximum of    2
 All quantities printed in internal units (Hartrees-Bohrs-Radians)
 Second derivative matrix not updated -- analytic derivatives used.
 The second derivative matrix:
                          R1
           R1           0.40093
 ITU=  0
     Eigenvalues ---    0.40093
 Angle between quadratic step and forces=  90.00 degrees.
 Linear search not attempted -- first point.
 Iteration  1 RMS(Cart)=  0.00000069 RMS(Int)=  0.00000000
 ClnCor:  largest displacement from symmetrization is 0.00D+00 for atom     0.
 Variable       Old X    -DE/DX   Delta X   Delta X   Delta X     New X
                                 (Linear)    (Quad)   (Total)
    R1        3.03385  -0.00000   0.00000  -0.00000  -0.00000   3.03384
         Item               Value     Threshold  Converged?
 Maximum Force            0.000000     0.000450     YES
 RMS     Force            0.000000     0.000300     YES
 Maximum Displacement     0.000000     0.001800     YES
 RMS     Displacement     0.000001     0.001200     YES
 Predicted change in Energy=-1.892217D-13
 Optimization completed.
    -- Stationary point found.
                           ----------------------------
                           !   Optimized Parameters   !
                           ! (Angstroms and Degrees)  !
 --------------------------                            --------------------------
 ! Name  Definition              Value          Derivative Info.                !
 --------------------------------------------------------------------------------
 ! R1    R(1,2)                  1.6054         -DE/DX =    0.0                 !
 --------------------------------------------------------------------------------
 GradGradGradGradGradGradGradGradGradGradGradGradGradGradGradGradGradGrad


 ----------------------------------------------------------------------

 Electric dipole moment (input orientation):
 (Debye = 10**-18 statcoulomb cm , SI units = C m)
                  (au)            (Debye)         (10**-30 SI)
   Tot        0.172316D+01      0.437983D+01      0.146095D+02
   x         -0.172316D+01     -0.437983D+01     -0.146095D+02
   y          0.000000D+00      0.000000D+00      0.000000D+00
   z          0.000000D+00      0.000000D+00      0.000000D+00

 Dipole polarizability, Alpha (input orientation).
 (esu units = cm**3 , SI units = C**2 m**2 J**-1)
 Alpha(0;0):
               (au)            (10**-24 esu)      (10**-40 SI)
   iso        0.419665D+02      0.621880D+01      0.691934D+01
   aniso      0.146646D+02      0.217307D+01      0.241787D+01
   xx         0.517429D+02      0.766751D+01      0.853126D+01
   yx         0.000000D+00      0.000000D+00      0.000000D+00
   yy         0.370783D+02      0.549444D+01      0.611339D+01
   zx         0.000000D+00      0.000000D+00      0.000000D+00
   zy         0.000000D+00      0.000000D+00      0.000000D+00
   zz         0.370783D+02      0.549444D+01      0.611339D+01

 ----------------------------------------------------------------------

 Dipole orientation:
    26         14.17294593         14.17294593        -12.65602309
     8         14.17294593         14.17294593        -15.68986877

 Electric dipole moment (dipole orientation):
 (Debye = 10**-18 statcoulomb cm , SI units = C m)
                  (au)            (Debye)         (10**-30 SI)
   Tot        0.172316D+01      0.437983D+01      0.146095D+02
   x          0.000000D+00      0.000000D+00      0.000000D+00
   y          0.000000D+00      0.000000D+00      0.000000D+00
   z          0.172316D+01      0.437983D+01      0.146095D+02

 Dipole polarizability, Alpha (dipole orientation).
 (esu units = cm**3 , SI units = C**2 m**2 J**-1)
 Alpha(0;0):
               (au)            (10**-24 esu)      (10**-40 SI)
   iso        0.419665D+02      0.621880D+01      0.691934D+01
   aniso      0.146646D+02      0.217307D+01      0.241787D+01
   xx         0.370783D+02      0.549444D+01      0.611339D+01
   yx         0.000000D+00      0.000000D+00      0.000000D+00
   yy         0.370783D+02      0.549444D+01      0.611339D+01
   zx         0.000000D+00      0.000000D+00      0.000000D+00
   zy         0.000000D+00      0.000000D+00      0.000000D+00
   zz         0.517429D+02      0.766751D+01      0.853126D+01

 ----------------------------------------------------------------------
 Unable to Open any file for archive entry.
 1\1\GINC-TCOPT10\Freq\UTPSSTPSS\def2QZVPP\Fe1O1(5)\HUTTER\31-Jul-2021\
 0\\#N Geom=AllCheck Guess=TCheck SCRF=Check GenChk UTPSSTPSS/def2QZVPP
  Freq\\Mol job 1\\0,5\Fe,6.6972790024,7.5,7.5\O,8.3027209976,7.5,7.5\\
 Version=ES64L-G16RevC.01\HF=-1339.0245006\S2=6.019785\S2-1=0.\S2A=6.00
 0049\RMSD=4.373e-09\RMSF=2.249e-07\ZeroPoint=0.0021025\Thermal=0.00451
 25\ETot=-1339.0199881\HTot=-1339.019044\GTot=-1339.045616\Dipole=-1.72
 31573,0.,0.\DipoleDeriv=1.3623033,0.,0.,0.,0.567969,0.,0.,0.,0.567969,
 -1.3623033,0.,0.,0.,-0.567969,0.,0.,0.,-0.567969\Polar=51.742944,0.,37
 .07831,0.,0.,37.07831\Quadrupole=-0.5601708,0.2800854,0.2800854,0.,0.,
 0.\PG=C*V [C*(O1Fe1)]\NImag=0\\0.40092588,0.,0.00000710,0.,0.,0.000007
 10,-0.40092588,0.,0.,0.40092588,0.,-0.00000710,0.,0.,0.00000710,0.,0.,
 -0.00000710,0.,0.,0.00000710\\-0.00000039,0.,0.,0.00000039,0.,0.\\\@
 The archive entry for this job was punched.


 WHEN A MATHEMATICIAN ENGAGED IN INVESTIGATING
 PHYSICAL ACTIONS AND RESULTS HAS ARRIVED AT HIS
 CONCLUSIONS, MAY THEY NOT BE EXPRESSED IN COMMON
 LANGUAGE AS FULLY, CLEARLY, AND DEFINITELY AS IN
 MATHEMATICAL FORMULAE?
           - LETTER FROM M. FARADAY TO J.C. MAXWELL, 1857.
 Job cpu time:       0 days  0 hours 17 minutes  6.7 seconds.
 Elapsed time:       0 days  0 hours  2 minutes 28.1 seconds.
 File lengths (MBytes):  RWF=     22 Int=      0 D2E=      0 Chk=      4 Scr=      1
 Normal termination of Gaussian 16 at Sat Jul 31 22:56:21 2021.
