 Entering Gaussian System, Link 0=g16
 Initial command:
 /sw-ng/spack/opt/spack/linux-opensuse_leap15-sandybridge/pgi-18.10/gaussian-src-16-C.01-zldqaomctopxhethwccpmxmwefdscg3m/g16/l1.exe "/data/hutter/SMG16/TPSS/Gau-66022.inp" -scrdir="/data/hutter/SMG16/TPSS/"
 Entering Link 1 = /sw-ng/spack/opt/spack/linux-opensuse_leap15-sandybridge/pgi-18.10/gaussian-src-16-C.01-zldqaomctopxhethwccpmxmwefdscg3m/g16/l1.exe PID=     66041.
  
 Copyright (c) 1988-2019, Gaussian, Inc.  All Rights Reserved.
  
 This is part of the Gaussian(R) 16 program.  It is based on
 the Gaussian(R) 09 system (copyright 2009, Gaussian, Inc.),
 the Gaussian(R) 03 system (copyright 2003, Gaussian, Inc.),
 the Gaussian(R) 98 system (copyright 1998, Gaussian, Inc.),
 the Gaussian(R) 94 system (copyright 1995, Gaussian, Inc.),
 the Gaussian 92(TM) system (copyright 1992, Gaussian, Inc.),
 the Gaussian 90(TM) system (copyright 1990, Gaussian, Inc.),
 the Gaussian 88(TM) system (copyright 1988, Gaussian, Inc.),
 the Gaussian 86(TM) system (copyright 1986, Carnegie Mellon
 University), and the Gaussian 82(TM) system (copyright 1983,
 Carnegie Mellon University). Gaussian is a federally registered
 trademark of Gaussian, Inc.
  
 This software contains proprietary and confidential information,
 including trade secrets, belonging to Gaussian, Inc.
  
 This software is provided under written license and may be
 used, copied, transmitted, or stored only in accord with that
 written license.
  
 The following legend is applicable only to US Government
 contracts under FAR:
  
                    RESTRICTED RIGHTS LEGEND
  
 Use, reproduction and disclosure by the US Government is
 subject to restrictions as set forth in subparagraphs (a)
 and (c) of the Commercial Computer Software - Restricted
 Rights clause in FAR 52.227-19.
  
 Gaussian, Inc.
 340 Quinnipiac St., Bldg. 40, Wallingford CT 06492
  
  
 ---------------------------------------------------------------
 Warning -- This program may not be used in any manner that
 competes with the business of Gaussian, Inc. or will provide
 assistance to any competitor of Gaussian, Inc.  The licensee
 of this program is prohibited from giving any competitor of
 Gaussian, Inc. access to this program.  By using this program,
 the user acknowledges that Gaussian, Inc. is engaged in the
 business of creating and licensing software in the field of
 computational chemistry and represents and warrants to the
 licensee that it is not a competitor of Gaussian, Inc. and that
 it will not use this program in any manner prohibited above.
 ---------------------------------------------------------------
  

 Cite this work as:
 Gaussian 16, Revision C.01,
 M. J. Frisch, G. W. Trucks, H. B. Schlegel, G. E. Scuseria, 
 M. A. Robb, J. R. Cheeseman, G. Scalmani, V. Barone, 
 G. A. Petersson, H. Nakatsuji, X. Li, M. Caricato, A. V. Marenich, 
 J. Bloino, B. G. Janesko, R. Gomperts, B. Mennucci, H. P. Hratchian, 
 J. V. Ortiz, A. F. Izmaylov, J. L. Sonnenberg, D. Williams-Young, 
 F. Ding, F. Lipparini, F. Egidi, J. Goings, B. Peng, A. Petrone, 
 T. Henderson, D. Ranasinghe, V. G. Zakrzewski, J. Gao, N. Rega, 
 G. Zheng, W. Liang, M. Hada, M. Ehara, K. Toyota, R. Fukuda, 
 J. Hasegawa, M. Ishida, T. Nakajima, Y. Honda, O. Kitao, H. Nakai, 
 T. Vreven, K. Throssell, J. A. Montgomery, Jr., J. E. Peralta, 
 F. Ogliaro, M. J. Bearpark, J. J. Heyd, E. N. Brothers, K. N. Kudin, 
 V. N. Staroverov, T. A. Keith, R. Kobayashi, J. Normand, 
 K. Raghavachari, A. P. Rendell, J. C. Burant, S. S. Iyengar, 
 J. Tomasi, M. Cossi, J. M. Millam, M. Klene, C. Adamo, R. Cammi, 
 J. W. Ochterski, R. L. Martin, K. Morokuma, O. Farkas, 
 J. B. Foresman, and D. J. Fox, Gaussian, Inc., Wallingford CT, 2019.
 
 ******************************************
 Gaussian 16:  ES64L-G16RevC.01  3-Jul-2019
                31-Jul-2021 
 ******************************************
 %mem=8GB
 %NProcShare=8
 Will use up to    8 processors via shared memory.
 -------------------------------------------------------------
 #N RTPSSTPSS/Def2QZVPP scf=tight Int(Grid=ultrafine) OPT FREQ
 -------------------------------------------------------------
 1/18=20,19=15,26=4,38=1/1,3;
 2/9=110,12=2,17=6,18=5,40=1/2;
 3/5=45,7=202,11=2,25=1,30=1,71=1,74=2523,75=-5,116=1/1,2,3;
 4//1;
 5/5=2,32=2,38=5/2;
 6/7=2,8=2,9=2,10=2,28=1/1;
 7//1,2,3,16;
 1/18=20,19=15,26=4/3(2);
 2/9=110/2;
 99//99;
 2/9=110/2;
 3/5=45,7=202,11=2,25=1,30=1,71=1,74=2523,75=-5,116=1/1,2,3;
 4/5=5,16=3,69=1/1;
 5/5=2,32=2,38=5/2;
 7//1,2,3,16;
 1/18=20,19=15,26=4/3(-5);
 2/9=110/2;
 6/7=2,8=2,9=2,10=2,19=2,28=1/1;
 99/9=1/99;
 ---------
 Mol job 1
 ---------
 Symbolic Z-matrix:
 Charge =  0 Multiplicity = 1
 Mg                    8.5       8.5       8.5 
 F                     8.5       8.5       10.25814 
 F                     8.5       8.5       6.74186 
 

 GradGradGradGradGradGradGradGradGradGradGradGradGradGradGradGradGradGrad
 Berny optimization.
 Initialization pass.
                           ----------------------------
                           !    Initial Parameters    !
                           ! (Angstroms and Degrees)  !
 --------------------------                            --------------------------
 ! Name  Definition              Value          Derivative Info.                !
 --------------------------------------------------------------------------------
 ! R1    R(1,2)                  1.7581         estimate D2E/DX2                !
 ! R2    R(1,3)                  1.7581         estimate D2E/DX2                !
 ! A1    L(2,1,3,-1,-1)        180.0            estimate D2E/DX2                !
 ! A2    L(2,1,3,-2,-2)        180.0            estimate D2E/DX2                !
 --------------------------------------------------------------------------------
 Trust Radius=3.00D-01 FncErr=1.00D-07 GrdErr=1.00D-06 EigMax=2.50D+02 EigMin=1.00D-04
 Number of steps in this run=     20 maximum allowed number of steps=    100.
 GradGradGradGradGradGradGradGradGradGradGradGradGradGradGradGradGradGrad

                          Input orientation:                          
 ---------------------------------------------------------------------
 Center     Atomic      Atomic             Coordinates (Angstroms)
 Number     Number       Type             X           Y           Z
 ---------------------------------------------------------------------
      1         12           0        8.500000    8.500000    8.500000
      2          9           0        8.500000    8.500000   10.258135
      3          9           0        8.500000    8.500000    6.741865
 ---------------------------------------------------------------------
                    Distance matrix (angstroms):
                    1          2          3
     1  Mg   0.000000
     2  F    1.758135   0.000000
     3  F    1.758135   3.516271   0.000000
 Stoichiometry    F2Mg
 Framework group  D*H[O(Mg),C*(F.F)]
 Deg. of freedom     1
 Full point group                 D*H     NOp   8
 Largest Abelian subgroup         D2H     NOp   8
 Largest concise Abelian subgroup C2      NOp   2
                         Standard orientation:                         
 ---------------------------------------------------------------------
 Center     Atomic      Atomic             Coordinates (Angstroms)
 Number     Number       Type             X           Y           Z
 ---------------------------------------------------------------------
      1         12           0        0.000000    0.000000    0.000000
      2          9           0        0.000000    0.000000    1.758135
      3          9           0        0.000000    0.000000   -1.758135
 ---------------------------------------------------------------------
 Rotational constants (GHZ):           0.0000000           4.3029420           4.3029420
 Standard basis: def2QZVPP (5D, 7F)
 There are    56 symmetry adapted cartesian basis functions of AG  symmetry.
 There are    13 symmetry adapted cartesian basis functions of B1G symmetry.
 There are    21 symmetry adapted cartesian basis functions of B2G symmetry.
 There are    21 symmetry adapted cartesian basis functions of B3G symmetry.
 There are    10 symmetry adapted cartesian basis functions of AU  symmetry.
 There are    43 symmetry adapted cartesian basis functions of B1U symmetry.
 There are    27 symmetry adapted cartesian basis functions of B2U symmetry.
 There are    27 symmetry adapted cartesian basis functions of B3U symmetry.
 There are    43 symmetry adapted basis functions of AG  symmetry.
 There are    12 symmetry adapted basis functions of B1G symmetry.
 There are    18 symmetry adapted basis functions of B2G symmetry.
 There are    18 symmetry adapted basis functions of B3G symmetry.
 There are     9 symmetry adapted basis functions of AU  symmetry.
 There are    33 symmetry adapted basis functions of B1U symmetry.
 There are    22 symmetry adapted basis functions of B2U symmetry.
 There are    22 symmetry adapted basis functions of B3U symmetry.
   177 basis functions,   290 primitive gaussians,   218 cartesian basis functions
    15 alpha electrons       15 beta electrons
       nuclear repulsion energy        77.2033590025 Hartrees.
 NAtoms=    3 NActive=    3 NUniq=    2 SFac= 2.25D+00 NAtFMM=   60 NAOKFM=F Big=F
 Integral buffers will be    131072 words long.
 Raffenetti 2 integral format.
 Two-electron integral symmetry is turned on.
 One-electron integrals computed using PRISM.
   8 Symmetry operations used in ECPInt.
 ECPInt:  NShTT=    1540 NPrTT=    4907 LenC2=    1455 LenP2D=    3867.
 LDataN:  DoStor=T MaxTD1= 8 Len=  415
 NBasis=   177 RedAO= T EigKep=  1.72D-03  NBF=    43    12    18    18     9    33    22    22
 NBsUse=   177 1.00D-06 EigRej= -1.00D+00 NBFU=    43    12    18    18     9    33    22    22
 ExpMin= 2.92D-02 ExpMax= 6.06D+05 ExpMxC= 1.90D+03 IAcc=3 IRadAn=         5 AccDes= 0.00D+00
 Harris functional with IExCor= 1009 and IRadAn=       5 diagonalized for initial guess.
 HarFok:  IExCor= 1009 AccDes= 0.00D+00 IRadAn=         5 IDoV= 1 UseB2=F ITyADJ=14
 ICtDFT=  3500011 ScaDFX=  1.000000  1.000000  1.000000  1.000000
 FoFCou: FMM=F IPFlag=           0 FMFlag=      100000 FMFlg1=           0
         NFxFlg=           0 DoJE=T BraDBF=F KetDBF=T FulRan=T
         wScrn=  0.000000 ICntrl=       500 IOpCl=  0 I1Cent=   200000004 NGrid=           0
         NMat0=    1 NMatS0=      1 NMatT0=    0 NMatD0=    1 NMtDS0=    0 NMtDT0=    0
 Petite list used in FoFCou.
 Initial guess orbital symmetries:
       Occupied  (SGG) (SGU) (SGG) (SGG) (SGU) (PIU) (PIU) (SGG)
                 (SGU) (SGG) (SGU) (PIU) (PIU) (PIG) (PIG)
       Virtual   (SGG) (PIU) (PIU) (SGU) (SGG) (DLTG) (DLTG) (PIU)
                 (PIU) (PIG) (PIG) (SGG) (SGU) (SGG) (SGU) (PIU)
                 (PIU) (PIG) (PIG) (PIU) (PIU) (DLTG) (DLTG) (SGG)
                 (DLTU) (DLTU) (SGU) (PHIU) (PHIU) (PIG) (PIG)
                 (SGG) (PIU) (PIU) (SGU) (SGG) (SGU) (DLTG) (DLTG)
                 (SGU) (PIU) (PIU) (SGG) (DLTU) (DLTU) (PIG) (PIG)
                 (DLTG) (DLTG) (PIU) (PIU) (PIG) (PIG) (SGG) (PIG)
                 (PIG) (PIU) (PIU) (SGU) (SGG) (SGU) (SGG) (SGG)
                 (SGU) (DLTG) (DLTG) (PHIG) (PHIG) (PIU) (PIU)
                 (PIG) (PIG) (DLTU) (DLTU) (PHIU) (PHIU) (SGG)
                 (SGU) (DLTG) (DLTG) (DLTU) (DLTU) (PIG) (PIG)
                 (PIU) (PIU) (SGU) (SGG) (DLTG) (DLTG) (PIG) (PIG)
                 (PIU) (PIU) (PIG) (PIG) (SGG) (SGU) (SGG) (SGG)
                 (PIU) (PIU) (DLTU) (DLTU) (DLTG) (DLTG) (PHIG)
                 (PHIG) (PHIU) (PHIU) (SGU) (PIG) (PIG) (?A) (?B)
                 (?B) (?A) (SGG) (PHIG) (PHIG) (DLTG) (DLTG) (?C)
                 (?C) (?C) (?C) (DLTU) (DLTU) (PIG) (PIG) (SGU)
                 (SGG) (SGG) (SGU) (DLTG) (DLTG) (DLTU) (DLTU)
                 (PIG) (PIG) (PIU) (PIU) (SGU) (SGG) (DLTU) (DLTU)
                 (PHIU) (PHIU) (PIU) (PIU) (SGU) (DLTG) (DLTG)
                 (PIG) (PIG) (SGG) (SGG) (SGG) (SGU) (SGG) (SGG)
                 (SGU)
 The electronic state of the initial guess is 1-SGG.
 Keep J ints in memory in symmetry-blocked form, NReq=139984568.
 Requested convergence on RMS density matrix=1.00D-08 within 128 cycles.
 Requested convergence on MAX density matrix=1.00D-06.
 Requested convergence on             energy=1.00D-06.
 No special actions if energy rises.
 SCF Done:  E(RTPSS-TPSS) =  -400.038482032     A.U. after    9 cycles
            NFock=  9  Conv=0.70D-08     -V/T= 2.0034

 **********************************************************************

            Population analysis using the SCF Density.

 **********************************************************************

 Orbital symmetries:
       Occupied  (SGG) (SGU) (SGG) (SGG) (PIU) (PIU) (SGU) (SGG)
                 (SGU) (SGG) (SGU) (PIU) (PIU) (PIG) (PIG)
       Virtual   (SGG) (PIU) (PIU) (SGU) (SGG) (DLTG) (DLTG) (PIU)
                 (PIU) (PIG) (PIG) (SGG) (SGU) (SGG) (SGU) (PIU)
                 (PIU) (DLTG) (DLTG) (PIU) (PIU) (PIG) (PIG) (DLTU)
                 (DLTU) (SGG) (PHIU) (PHIU) (SGU) (PIG) (PIG) (PIU)
                 (PIU) (SGG) (SGU) (SGG) (SGU) (PIU) (PIU) (DLTG)
                 (DLTG) (SGU) (SGG) (PIG) (PIG) (DLTG) (DLTG) (DLTU)
                 (DLTU) (PIU) (PIU) (PIG) (PIG) (SGG) (PIG) (PIG)
                 (PIU) (PIU) (SGU) (SGG) (SGU) (SGG) (SGG) (SGU)
                 (PIG) (PIG) (DLTG) (DLTG) (PHIG) (PHIG) (PIU)
                 (PIU) (PHIU) (PHIU) (DLTU) (DLTU) (SGG) (SGU)
                 (DLTG) (DLTG) (DLTU) (DLTU) (PIG) (PIG) (DLTG)
                 (DLTG) (PIU) (PIU) (SGG) (SGU) (PIG) (PIG) (SGG)
                 (PIU) (PIU) (PIG) (PIG) (SGU) (SGG) (SGG) (PIU)
                 (PIU) (DLTU) (DLTU) (DLTG) (DLTG) (PHIG) (PHIG)
                 (PHIU) (PHIU) (SGU) (?A) (?B) (?A) (?B) (PIG)
                 (PIG) (SGG) (PHIG) (PHIG) (DLTG) (DLTG) (?C) (?C)
                 (?C) (?C) (DLTU) (DLTU) (PIG) (PIG) (SGU) (SGG)
                 (SGG) (SGU) (DLTG) (DLTG) (DLTU) (DLTU) (PIG)
                 (PIG) (PIU) (PIU) (SGU) (SGG) (PHIU) (PHIU) (DLTU)
                 (DLTU) (PIU) (PIU) (SGU) (DLTG) (DLTG) (PIG) (PIG)
                 (SGG) (SGG) (SGG) (SGU) (SGG) (SGG) (SGU)
 The electronic state is 1-SGG.
 Alpha  occ. eigenvalues --  -46.48136 -24.32770 -24.32770  -3.00770  -1.77209
 Alpha  occ. eigenvalues --   -1.77209  -1.76330  -1.01557  -1.01007  -0.34329
 Alpha  occ. eigenvalues --   -0.32340  -0.30961  -0.30961  -0.30743  -0.30743
 Alpha virt. eigenvalues --   -0.08240  -0.00995  -0.00995   0.02823   0.05749
 Alpha virt. eigenvalues --    0.08040   0.08040   0.08991   0.08991   0.10913
 Alpha virt. eigenvalues --    0.10913   0.13542   0.18058   0.32936   0.38051
 Alpha virt. eigenvalues --    0.39317   0.39317   0.40464   0.40465   0.42242
 Alpha virt. eigenvalues --    0.42242   0.42573   0.42573   0.47396   0.47396
 Alpha virt. eigenvalues --    0.49301   0.50123   0.50123   0.50389   0.54209
 Alpha virt. eigenvalues --    0.54209   0.74601   0.74601   0.74725   0.88793
 Alpha virt. eigenvalues --    1.05368   1.08626   1.34866   1.34866   1.38063
 Alpha virt. eigenvalues --    1.38063   1.41031   1.46780   1.51455   1.51455
 Alpha virt. eigenvalues --    1.52921   1.52923   1.53496   1.53496   1.70871
 Alpha virt. eigenvalues --    1.70871   1.73509   1.73509   1.78378   1.81739
 Alpha virt. eigenvalues --    1.81739   1.88512   1.88512   2.01470   2.16459
 Alpha virt. eigenvalues --    2.26296   2.82651   3.90239   4.05757   4.15733
 Alpha virt. eigenvalues --    4.15733   4.16476   4.16476   4.16617   4.16617
 Alpha virt. eigenvalues --    4.16751   4.16751   4.17488   4.17488   4.17638
 Alpha virt. eigenvalues --    4.17638   4.40600   4.46990   4.97301   4.97301
 Alpha virt. eigenvalues --    5.07132   5.07133   5.19092   5.19092   5.28139
 Alpha virt. eigenvalues --    5.28141   5.30677   5.30677   5.43269   5.44601
 Alpha virt. eigenvalues --    5.53068   5.53068   6.16605   6.23074   6.23074
 Alpha virt. eigenvalues --    6.26891   6.26891   6.60959   7.19494   9.09393
 Alpha virt. eigenvalues --   11.52557  11.52557  11.52739  11.52750  11.52862
 Alpha virt. eigenvalues --   11.52872  11.53654  11.53654  11.53705  11.53705
 Alpha virt. eigenvalues --   11.54367  11.54625  11.54625  11.54633  11.54633
 Alpha virt. eigenvalues --   11.54835  11.54835  11.65000  14.61266  14.61266
 Alpha virt. eigenvalues --   14.61460  14.61465  14.61686  14.61686  14.61694
 Alpha virt. eigenvalues --   14.61694  14.62132  14.62138  14.66942  14.66942
 Alpha virt. eigenvalues --   14.75921  14.82296  15.01982  15.04011  15.75591
 Alpha virt. eigenvalues --   15.75592  15.82434  15.82434  15.94657  15.94657
 Alpha virt. eigenvalues --   16.01354  16.01354  16.09463  16.37648  18.53192
 Alpha virt. eigenvalues --   18.53192  18.53841  18.53846  18.54526  18.54526
 Alpha virt. eigenvalues --   18.59783  18.82210  18.82214  18.91611  18.91611
 Alpha virt. eigenvalues --   19.42644  34.52415  53.79699  53.90586 196.26749
 Alpha virt. eigenvalues --  286.57185 286.71033
          Condensed to atoms (all electrons):
               1          2          3
     1  Mg  10.282667   0.234379   0.234379
     2  F    0.234379   9.397718  -0.007808
     3  F    0.234379  -0.007808   9.397718
 Mulliken charges:
               1
     1  Mg   1.248576
     2  F   -0.624288
     3  F   -0.624288
 Sum of Mulliken charges =  -0.00000
 Mulliken charges with hydrogens summed into heavy atoms:
               1
     1  Mg   1.248576
     2  F   -0.624288
     3  F   -0.624288
 Electronic spatial extent (au):  <R**2>=            247.9039
 Charge=             -0.0000 electrons
 Dipole moment (field-independent basis, Debye):
    X=             -0.0000    Y=             -0.0000    Z=             -0.0000  Tot=              0.0000
 Quadrupole moment (field-independent basis, Debye-Ang):
   XX=            -16.0055   YY=            -16.0055   ZZ=            -34.1840
   XY=              0.0000   XZ=              0.0000   YZ=              0.0000
 Traceless Quadrupole moment (field-independent basis, Debye-Ang):
   XX=              6.0595   YY=              6.0595   ZZ=            -12.1190
   XY=              0.0000   XZ=              0.0000   YZ=              0.0000
 Octapole moment (field-independent basis, Debye-Ang**2):
  XXX=             -0.0000  YYY=             -0.0000  ZZZ=              0.0000  XYY=             -0.0000
  XXY=             -0.0000  XXZ=             -0.0000  XZZ=             -0.0000  YZZ=             -0.0000
  YYZ=             -0.0000  XYZ=              0.0000
 Hexadecapole moment (field-independent basis, Debye-Ang**3):
 XXXX=            -14.2612 YYYY=            -14.2612 ZZZZ=           -271.7479 XXXY=              0.0000
 XXXZ=              0.0000 YYYX=              0.0000 YYYZ=              0.0000 ZZZX=              0.0000
 ZZZY=              0.0000 XXYY=             -4.7537 XXZZ=            -41.5219 YYZZ=            -41.5219
 XXYZ=              0.0000 YYXZ=              0.0000 ZZXY=              0.0000
 N-N= 7.720335900247D+01 E-N=-1.112770122927D+03  KE= 3.986966197943D+02
 Symmetry AG   KE= 2.399777651871D+02
 Symmetry B1G  KE= 4.929922293113D-34
 Symmetry B2G  KE= 5.977373011236D+00
 Symmetry B3G  KE= 5.977373011236D+00
 Symmetry AU   KE= 2.178936875042D-33
 Symmetry B1U  KE= 1.042201678834D+02
 Symmetry B2U  KE= 2.127197035063D+01
 Symmetry B3U  KE= 2.127197035063D+01
   8 Symmetry operations used in ECPInt.
 ECPInt:  NShTT=    1540 NPrTT=    4907 LenC2=    1455 LenP2D=    3867.
 LDataN:  DoStor=T MaxTD1= 9 Len=  602
 Calling FoFJK, ICntrl=      2527 FMM=F ISym2X=1 I1Cent= 0 IOpClX= 0 NMat=1 NMatS=1 NMatT=0.
 ***** Axes restored to original set *****
 -------------------------------------------------------------------
 Center     Atomic                   Forces (Hartrees/Bohr)
 Number     Number              X              Y              Z
 -------------------------------------------------------------------
      1       12           0.000000000    0.000000000   -0.000000000
      2        9          -0.000000000   -0.000000000   -0.001103183
      3        9          -0.000000000   -0.000000000    0.001103183
 -------------------------------------------------------------------
 Cartesian Forces:  Max     0.001103183 RMS     0.000520046

 GradGradGradGradGradGradGradGradGradGradGradGradGradGradGradGradGradGrad
 Berny optimization.
 FormGI is forming the generalized inverse of G from B-inverse, IUseBI=4.
 Internal  Forces:  Max     0.001103183 RMS     0.000780068
 Search for a local minimum.
 Step number   1 out of a maximum of   20
 All quantities printed in internal units (Hartrees-Bohrs-Radians)
 Mixed Optimization -- En-DIIS/RFO-DIIS
 Second derivative matrix not updated -- first step.
 The second derivative matrix:
                          R1        R2        A1        A2
           R1           0.29713
           R2           0.00000   0.29713
           A1           0.00000   0.00000   0.05026
           A2           0.00000   0.00000   0.00000   0.05026
 ITU=  0
     Eigenvalues ---    0.05026   0.05026   0.29713   0.29713
 RFO step:  Lambda=-8.19179450D-06 EMin= 5.02616995D-02
 Linear search not attempted -- first point.
 Iteration  1 RMS(Cart)=  0.00262527 RMS(Int)=  0.00000000
 Iteration  2 RMS(Cart)=  0.00000000 RMS(Int)=  0.00000001
 ClnCor:  largest displacement from symmetrization is 7.67D-14 for atom     1.
 Variable       Old X    -DE/DX   Delta X   Delta X   Delta X     New X
                                 (Linear)    (Quad)   (Total)
    R1        3.32239  -0.00110   0.00000  -0.00371  -0.00371   3.31868
    R2        3.32239  -0.00110   0.00000  -0.00371  -0.00371   3.31868
    A1        3.14159   0.00000   0.00000   0.00000   0.00000   3.14159
    A2        3.14159  -0.00000   0.00000  -0.00000   0.00000   3.14159
         Item               Value     Threshold  Converged?
 Maximum Force            0.001103     0.000450     NO 
 RMS     Force            0.000780     0.000300     NO 
 Maximum Displacement     0.003713     0.001800     NO 
 RMS     Displacement     0.002625     0.001200     NO 
 Predicted change in Energy=-4.095897D-06
 GradGradGradGradGradGradGradGradGradGradGradGradGradGradGradGradGradGrad

                          Input orientation:                          
 ---------------------------------------------------------------------
 Center     Atomic      Atomic             Coordinates (Angstroms)
 Number     Number       Type             X           Y           Z
 ---------------------------------------------------------------------
      1         12           0        8.500000    8.500000    8.500000
      2          9           0        8.500000    8.500000   10.256171
      3          9           0        8.500000    8.500000    6.743829
 ---------------------------------------------------------------------
                    Distance matrix (angstroms):
                    1          2          3
     1  Mg   0.000000
     2  F    1.756171   0.000000
     3  F    1.756171   3.512341   0.000000
 Stoichiometry    F2Mg
 Framework group  D*H[O(Mg),C*(F.F)]
 Deg. of freedom     1
 Full point group                 D*H     NOp   8
 Largest Abelian subgroup         D2H     NOp   8
 Largest concise Abelian subgroup C2      NOp   2
                         Standard orientation:                         
 ---------------------------------------------------------------------
 Center     Atomic      Atomic             Coordinates (Angstroms)
 Number     Number       Type             X           Y           Z
 ---------------------------------------------------------------------
      1         12           0        0.000000    0.000000    0.000000
      2          9           0        0.000000    0.000000    1.756171
      3          9           0        0.000000    0.000000   -1.756171
 ---------------------------------------------------------------------
 Rotational constants (GHZ):           0.0000000           4.3125750           4.3125750
 Standard basis: def2QZVPP (5D, 7F)
 There are    56 symmetry adapted cartesian basis functions of AG  symmetry.
 There are    13 symmetry adapted cartesian basis functions of B1G symmetry.
 There are    21 symmetry adapted cartesian basis functions of B2G symmetry.
 There are    21 symmetry adapted cartesian basis functions of B3G symmetry.
 There are    10 symmetry adapted cartesian basis functions of AU  symmetry.
 There are    43 symmetry adapted cartesian basis functions of B1U symmetry.
 There are    27 symmetry adapted cartesian basis functions of B2U symmetry.
 There are    27 symmetry adapted cartesian basis functions of B3U symmetry.
 There are    43 symmetry adapted basis functions of AG  symmetry.
 There are    12 symmetry adapted basis functions of B1G symmetry.
 There are    18 symmetry adapted basis functions of B2G symmetry.
 There are    18 symmetry adapted basis functions of B3G symmetry.
 There are     9 symmetry adapted basis functions of AU  symmetry.
 There are    33 symmetry adapted basis functions of B1U symmetry.
 There are    22 symmetry adapted basis functions of B2U symmetry.
 There are    22 symmetry adapted basis functions of B3U symmetry.
   177 basis functions,   290 primitive gaussians,   218 cartesian basis functions
    15 alpha electrons       15 beta electrons
       nuclear repulsion energy        77.2897284337 Hartrees.
 NAtoms=    3 NActive=    3 NUniq=    2 SFac= 2.25D+00 NAtFMM=   60 NAOKFM=F Big=F
 Integral buffers will be    131072 words long.
 Raffenetti 2 integral format.
 Two-electron integral symmetry is turned on.
 One-electron integrals computed using PRISM.
   8 Symmetry operations used in ECPInt.
 ECPInt:  NShTT=    1540 NPrTT=    4907 LenC2=    1455 LenP2D=    3867.
 LDataN:  DoStor=T MaxTD1= 8 Len=  415
 NBasis=   177 RedAO= T EigKep=  1.71D-03  NBF=    43    12    18    18     9    33    22    22
 NBsUse=   177 1.00D-06 EigRej= -1.00D+00 NBFU=    43    12    18    18     9    33    22    22
 Initial guess from the checkpoint file:  "/data/hutter/SMG16/TPSS/Gau-66041.chk"
 B after Tr=     0.000000    0.000000    0.000000
         Rot=    1.000000    0.000000    0.000000    0.000000 Ang=   0.00 deg.
 Initial guess orbital symmetries:
       Occupied  (SGG) (SGU) (SGG) (SGG) (PIU) (PIU) (SGU) (SGG)
                 (SGU) (SGG) (SGU) (PIU) (PIU) (PIG) (PIG)
       Virtual   (SGG) (PIU) (PIU) (SGU) (SGG) (DLTG) (DLTG) (PIU)
                 (PIU) (PIG) (PIG) (SGG) (SGU) (SGG) (SGU) (PIU)
                 (PIU) (DLTG) (DLTG) (PIU) (PIU) (PIG) (PIG) (DLTU)
                 (DLTU) (SGG) (PHIU) (PHIU) (SGU) (PIG) (PIG) (PIU)
                 (PIU) (SGG) (SGU) (SGG) (SGU) (PIU) (PIU) (DLTG)
                 (DLTG) (SGU) (SGG) (PIG) (PIG) (DLTG) (DLTG) (DLTU)
                 (DLTU) (PIU) (PIU) (PIG) (PIG) (SGG) (PIG) (PIG)
                 (PIU) (PIU) (SGU) (SGG) (SGU) (SGG) (SGG) (SGU)
                 (PIG) (PIG) (DLTG) (DLTG) (PHIG) (PHIG) (PIU)
                 (PIU) (PHIU) (PHIU) (DLTU) (DLTU) (SGG) (SGU)
                 (DLTG) (DLTG) (DLTU) (DLTU) (PIG) (PIG) (DLTG)
                 (DLTG) (PIU) (PIU) (SGG) (SGU) (PIG) (PIG) (SGG)
                 (PIU) (PIU) (PIG) (PIG) (SGU) (SGG) (SGG) (PIU)
                 (PIU) (DLTU) (DLTU) (DLTG) (DLTG) (PHIG) (PHIG)
                 (PHIU) (PHIU) (SGU) (?A) (?B) (?A) (?B) (PIG)
                 (PIG) (SGG) (PHIG) (PHIG) (DLTG) (DLTG) (?C) (?C)
                 (?C) (?C) (DLTU) (DLTU) (PIG) (PIG) (SGU) (SGG)
                 (SGG) (SGU) (DLTG) (DLTG) (DLTU) (DLTU) (PIG)
                 (PIG) (PIU) (PIU) (SGU) (SGG) (PHIU) (PHIU) (DLTU)
                 (DLTU) (PIU) (PIU) (SGU) (DLTG) (DLTG) (PIG) (PIG)
                 (SGG) (SGG) (SGG) (SGU) (SGG) (SGG) (SGU)
 Keep J ints in memory in symmetry-blocked form, NReq=139984568.
 Requested convergence on RMS density matrix=1.00D-08 within 128 cycles.
 Requested convergence on MAX density matrix=1.00D-06.
 Requested convergence on             energy=1.00D-06.
 No special actions if energy rises.
 SCF Done:  E(RTPSS-TPSS) =  -400.038487276     A.U. after    6 cycles
            NFock=  6  Conv=0.18D-08     -V/T= 2.0034
   8 Symmetry operations used in ECPInt.
 ECPInt:  NShTT=    1540 NPrTT=    4907 LenC2=    1455 LenP2D=    3867.
 LDataN:  DoStor=T MaxTD1= 9 Len=  602
 Calling FoFJK, ICntrl=      2527 FMM=F ISym2X=1 I1Cent= 0 IOpClX= 0 NMat=1 NMatS=1 NMatT=0.
 ***** Axes restored to original set *****
 -------------------------------------------------------------------
 Center     Atomic                   Forces (Hartrees/Bohr)
 Number     Number              X              Y              Z
 -------------------------------------------------------------------
      1       12           0.000000000    0.000000000   -0.000000000
      2        9          -0.000000000   -0.000000000   -0.000307934
      3        9          -0.000000000   -0.000000000    0.000307934
 -------------------------------------------------------------------
 Cartesian Forces:  Max     0.000307934 RMS     0.000145162

 GradGradGradGradGradGradGradGradGradGradGradGradGradGradGradGradGradGrad
 Berny optimization.
 Using GEDIIS/GDIIS optimizer.
 Internal  Forces:  Max     0.000307934 RMS     0.000217742
 Search for a local minimum.
 Step number   2 out of a maximum of   20
 All quantities printed in internal units (Hartrees-Bohrs-Radians)
 Mixed Optimization -- En-DIIS/RFO-DIIS
 Swapping is turned off.
 Update second derivatives using D2CorX and points    1    2
 DE= -5.24D-06 DEPred=-4.10D-06 R= 1.28D+00
 TightC=F SS=  1.41D+00  RLast= 5.25D-03 DXNew= 5.0454D-01 1.5752D-02
 Trust test= 1.28D+00 RLast= 5.25D-03 DXMaxT set to 3.00D-01
 The second derivative matrix:
                          R1        R2        A1        A2
           R1           0.25566
           R2          -0.04147   0.25566
           A1           0.00000   0.00000   0.05026
           A2          -0.00000  -0.00000  -0.00000   0.05026
 ITU=  1  0
     Eigenvalues ---    0.05026   0.05026   0.21420   0.29713
 En-DIIS/RFO-DIIS/Sim-DIIS IScMMF=       -3 using points:     2    1
 RFO step:  Lambda=-8.85386046D-07.
 DidBck=F Rises=F RFO-DIIS coefs:    1.38722   -0.38722
 Iteration  1 RMS(Cart)=  0.00101655 RMS(Int)=  0.00000000
 Iteration  2 RMS(Cart)=  0.00000000 RMS(Int)=  0.00000000
 ClnCor:  largest displacement from symmetrization is 7.09D-14 for atom     1.
 Variable       Old X    -DE/DX   Delta X   Delta X   Delta X     New X
                                 (Linear)    (Quad)   (Total)
    R1        3.31868  -0.00031  -0.00144   0.00000  -0.00144   3.31724
    R2        3.31868  -0.00031  -0.00144  -0.00000  -0.00144   3.31724
    A1        3.14159   0.00000  -0.00000   0.00000   0.00000   3.14159
    A2        3.14159  -0.00000  -0.00000  -0.00000   0.00000   3.14159
         Item               Value     Threshold  Converged?
 Maximum Force            0.000308     0.000450     YES
 RMS     Force            0.000218     0.000300     YES
 Maximum Displacement     0.001438     0.001800     YES
 RMS     Displacement     0.001017     0.001200     YES
 Predicted change in Energy=-4.426930D-07
 Optimization completed.
    -- Stationary point found.
                           ----------------------------
                           !   Optimized Parameters   !
                           ! (Angstroms and Degrees)  !
 --------------------------                            --------------------------
 ! Name  Definition              Value          Derivative Info.                !
 --------------------------------------------------------------------------------
 ! R1    R(1,2)                  1.7562         -DE/DX =   -0.0003              !
 ! R2    R(1,3)                  1.7562         -DE/DX =   -0.0003              !
 ! A1    L(2,1,3,-1,-1)        180.0            -DE/DX =    0.0                 !
 ! A2    L(2,1,3,-2,-2)        180.0            -DE/DX =    0.0                 !
 --------------------------------------------------------------------------------
 GradGradGradGradGradGradGradGradGradGradGradGradGradGradGradGradGradGrad

                          Input orientation:                          
 ---------------------------------------------------------------------
 Center     Atomic      Atomic             Coordinates (Angstroms)
 Number     Number       Type             X           Y           Z
 ---------------------------------------------------------------------
      1         12           0        8.500000    8.500000    8.500000
      2          9           0        8.500000    8.500000   10.256171
      3          9           0        8.500000    8.500000    6.743829
 ---------------------------------------------------------------------
                    Distance matrix (angstroms):
                    1          2          3
     1  Mg   0.000000
     2  F    1.756171   0.000000
     3  F    1.756171   3.512341   0.000000
 Stoichiometry    F2Mg
 Framework group  D*H[O(Mg),C*(F.F)]
 Deg. of freedom     1
 Full point group                 D*H     NOp   8
 Largest Abelian subgroup         D2H     NOp   8
 Largest concise Abelian subgroup C2      NOp   2
                         Standard orientation:                         
 ---------------------------------------------------------------------
 Center     Atomic      Atomic             Coordinates (Angstroms)
 Number     Number       Type             X           Y           Z
 ---------------------------------------------------------------------
      1         12           0        0.000000    0.000000    0.000000
      2          9           0        0.000000    0.000000    1.756171
      3          9           0        0.000000    0.000000   -1.756171
 ---------------------------------------------------------------------
 Rotational constants (GHZ):           0.0000000           4.3125750           4.3125750

 **********************************************************************

            Population analysis using the SCF Density.

 **********************************************************************

 Orbital symmetries:
       Occupied  (SGG) (SGU) (SGG) (SGG) (PIU) (PIU) (SGU) (SGG)
                 (SGU) (SGG) (SGU) (PIU) (PIU) (PIG) (PIG)
       Virtual   (SGG) (PIU) (PIU) (SGU) (SGG) (DLTG) (DLTG) (PIU)
                 (PIU) (PIG) (PIG) (SGG) (SGU) (SGG) (SGU) (PIU)
                 (PIU) (DLTG) (DLTG) (PIU) (PIU) (PIG) (PIG) (DLTU)
                 (DLTU) (SGG) (PHIU) (PHIU) (SGU) (PIG) (PIG) (PIU)
                 (PIU) (SGG) (SGU) (SGG) (SGU) (PIU) (PIU) (DLTG)
                 (DLTG) (SGU) (SGG) (PIG) (PIG) (DLTG) (DLTG) (DLTU)
                 (DLTU) (PIU) (PIU) (PIG) (PIG) (SGG) (PIG) (PIG)
                 (PIU) (PIU) (SGU) (SGG) (SGU) (SGG) (SGG) (SGU)
                 (PIG) (PIG) (DLTG) (DLTG) (PHIG) (PHIG) (PIU)
                 (PIU) (PHIU) (PHIU) (DLTU) (DLTU) (SGG) (SGU)
                 (DLTG) (DLTG) (DLTU) (DLTU) (PIG) (PIG) (DLTG)
                 (DLTG) (PIU) (PIU) (SGG) (SGU) (PIG) (PIG) (SGG)
                 (PIU) (PIU) (PIG) (PIG) (SGU) (SGG) (SGG) (PIU)
                 (PIU) (DLTU) (DLTU) (DLTG) (DLTG) (PHIG) (PHIG)
                 (PHIU) (PHIU) (SGU) (?A) (?B) (?B) (?A) (PIG)
                 (PIG) (SGG) (PHIG) (PHIG) (DLTG) (DLTG) (?C) (?C)
                 (?C) (?C) (DLTU) (DLTU) (PIG) (PIG) (SGU) (SGG)
                 (SGG) (SGU) (DLTG) (DLTG) (DLTU) (DLTU) (PIG)
                 (PIG) (PIU) (PIU) (SGU) (SGG) (PHIU) (PHIU) (DLTU)
                 (DLTU) (PIU) (PIU) (SGU) (DLTG) (DLTG) (PIG) (PIG)
                 (SGG) (SGG) (SGG) (SGU) (SGG) (SGG) (SGU)
 The electronic state is 1-SGG.
 Alpha  occ. eigenvalues --  -46.48074 -24.32770 -24.32770  -3.00723  -1.77160
 Alpha  occ. eigenvalues --   -1.77160  -1.76286  -1.01575  -1.01019  -0.34338
 Alpha  occ. eigenvalues --   -0.32344  -0.30977  -0.30977  -0.30758  -0.30758
 Alpha virt. eigenvalues --   -0.08219  -0.00981  -0.00981   0.02827   0.05761
 Alpha virt. eigenvalues --    0.08046   0.08046   0.09005   0.09005   0.10917
 Alpha virt. eigenvalues --    0.10917   0.13543   0.18073   0.32960   0.38056
 Alpha virt. eigenvalues --    0.39328   0.39328   0.40479   0.40479   0.42252
 Alpha virt. eigenvalues --    0.42252   0.42615   0.42615   0.47398   0.47399
 Alpha virt. eigenvalues --    0.49312   0.50134   0.50134   0.50467   0.54220
 Alpha virt. eigenvalues --    0.54220   0.74662   0.74662   0.74841   0.88837
 Alpha virt. eigenvalues --    1.05451   1.08653   1.34892   1.34892   1.38079
 Alpha virt. eigenvalues --    1.38079   1.41013   1.46775   1.51415   1.51415
 Alpha virt. eigenvalues --    1.52943   1.52944   1.53540   1.53540   1.70868
 Alpha virt. eigenvalues --    1.70868   1.73647   1.73647   1.78407   1.81794
 Alpha virt. eigenvalues --    1.81794   1.88509   1.88509   2.01542   2.16558
 Alpha virt. eigenvalues --    2.26627   2.83106   3.90248   4.05756   4.15770
 Alpha virt. eigenvalues --    4.15770   4.16458   4.16458   4.16599   4.16599
 Alpha virt. eigenvalues --    4.16764   4.16764   4.17476   4.17476   4.17611
 Alpha virt. eigenvalues --    4.17611   4.40915   4.47116   4.97305   4.97305
 Alpha virt. eigenvalues --    5.07167   5.07167   5.19196   5.19196   5.28184
 Alpha virt. eigenvalues --    5.28186   5.30668   5.30668   5.43497   5.44817
 Alpha virt. eigenvalues --    5.53300   5.53300   6.16891   6.23102   6.23102
 Alpha virt. eigenvalues --    6.26912   6.26912   6.61131   7.19808   9.09788
 Alpha virt. eigenvalues --   11.52541  11.52541  11.52719  11.52729  11.52844
 Alpha virt. eigenvalues --   11.52854  11.53636  11.53636  11.53687  11.53687
 Alpha virt. eigenvalues --   11.54350  11.54609  11.54609  11.54617  11.54617
 Alpha virt. eigenvalues --   11.54853  11.54853  11.65135  14.61253  14.61253
 Alpha virt. eigenvalues --   14.61454  14.61459  14.61676  14.61676  14.61699
 Alpha virt. eigenvalues --   14.61699  14.62120  14.62126  14.67009  14.67009
 Alpha virt. eigenvalues --   14.75985  14.82317  15.02327  15.04058  15.75594
 Alpha virt. eigenvalues --   15.75594  15.82459  15.82459  15.94739  15.94739
 Alpha virt. eigenvalues --   16.01358  16.01358  16.09607  16.37857  18.53241
 Alpha virt. eigenvalues --   18.53241  18.53890  18.53896  18.54583  18.54583
 Alpha virt. eigenvalues --   18.59909  18.82261  18.82266  18.91752  18.91752
 Alpha virt. eigenvalues --   19.42896  34.52767  53.79758  53.90607 196.27266
 Alpha virt. eigenvalues --  286.57255 286.71062
          Condensed to atoms (all electrons):
               1          2          3
     1  Mg  10.282676   0.234043   0.234043
     2  F    0.234043   9.398455  -0.007879
     3  F    0.234043  -0.007879   9.398455
 Mulliken charges:
               1
     1  Mg   1.249238
     2  F   -0.624619
     3  F   -0.624619
 Sum of Mulliken charges =  -0.00000
 Mulliken charges with hydrogens summed into heavy atoms:
               1
     1  Mg   1.249238
     2  F   -0.624619
     3  F   -0.624619
 Electronic spatial extent (au):  <R**2>=            247.4264
 Charge=             -0.0000 electrons
 Dipole moment (field-independent basis, Debye):
    X=             -0.0000    Y=              0.0000    Z=             -0.0000  Tot=              0.0000
 Quadrupole moment (field-independent basis, Debye-Ang):
   XX=            -16.0021   YY=            -16.0021   ZZ=            -34.1457
   XY=              0.0000   XZ=              0.0000   YZ=              0.0000
 Traceless Quadrupole moment (field-independent basis, Debye-Ang):
   XX=              6.0479   YY=              6.0479   ZZ=            -12.0958
   XY=              0.0000   XZ=              0.0000   YZ=              0.0000
 Octapole moment (field-independent basis, Debye-Ang**2):
  XXX=             -0.0000  YYY=             -0.0000  ZZZ=             -0.0000  XYY=             -0.0000
  XXY=             -0.0000  XXZ=             -0.0000  XZZ=             -0.0000  YZZ=             -0.0000
  YYZ=             -0.0000  XYZ=              0.0000
 Hexadecapole moment (field-independent basis, Debye-Ang**3):
 XXXX=            -14.2511 YYYY=            -14.2511 ZZZZ=           -271.0749 XXXY=              0.0000
 XXXZ=              0.0000 YYYX=              0.0000 YYYZ=              0.0000 ZZZX=              0.0000
 ZZZY=              0.0000 XXYY=             -4.7504 XXZZ=            -41.4334 YYZZ=            -41.4334
 XXYZ=              0.0000 YYXZ=              0.0000 ZZXY=              0.0000
 N-N= 7.728972843368D+01 E-N=-1.112950382404D+03  KE= 3.987019891810D+02
 Symmetry AG   KE= 2.399810009525D+02
 Symmetry B1G  KE= 4.952555769206D-34
 Symmetry B2G  KE= 5.977166132221D+00
 Symmetry B3G  KE= 5.977166132221D+00
 Symmetry AU   KE= 2.186329592914D-33
 Symmetry B1U  KE= 1.042238979191D+02
 Symmetry B2U  KE= 2.127137902243D+01
 Symmetry B3U  KE= 2.127137902243D+01
 Unable to Open any file for archive entry.
 1\1\GINC-TCOPT10\FOpt\RTPSSTPSS\def2QZVPP\F2Mg1\HUTTER\31-Jul-2021\0\\
 #N RTPSSTPSS/Def2QZVPP scf=tight Int(Grid=ultrafine) OPT FREQ\\Mol job
  1\\0,1\Mg,8.5,8.5,8.5\F,8.5,8.5,10.2561706756\F,8.5,8.5,6.7438293244\
 \Version=ES64L-G16RevC.01\State=1-SGG\HF=-400.0384873\RMSD=1.824e-09\R
 MSF=1.452e-04\Dipole=0.,0.,0.\Quadrupole=4.4964604,4.4964604,-8.992920
 8,0.,0.,0.\PG=D*H [O(Mg1),C*(F1.F1)]\\@
 The archive entry for this job was punched.


 QUHEN THE CAUSS IS TAKEN AWAY THE EFFECT WANISHETH.
 -- PROVERBS AND REASONS OF THE YEAR 1585
           AS REPRINTED IN PAISLEY MAGAZINE 1828.
 Job cpu time:       0 days  0 hours  5 minutes 17.4 seconds.
 Elapsed time:       0 days  0 hours  1 minutes 11.6 seconds.
 File lengths (MBytes):  RWF=     20 Int=      0 D2E=      0 Chk=      3 Scr=      1
 Normal termination of Gaussian 16 at Sat Jul 31 23:41:19 2021.
 Link1:  Proceeding to internal job step number  2.
 ----------------------------------------------------------------------
 #N Geom=AllCheck Guess=TCheck SCRF=Check GenChk RTPSSTPSS/def2QZVPP Fr
 eq
 ----------------------------------------------------------------------
 1/10=4,29=7,30=1,38=1,40=1/1,3;
 2/12=2,40=1/2;
 3/5=45,7=202,11=2,14=-4,25=1,30=1,70=2,71=2,74=2523,75=-5,116=1,140=1/1,2,3;
 4/5=101/1;
 5/5=2,32=2,38=6,98=1/2;
 8/6=4,10=90,11=11/1;
 11/6=1,8=1,9=11,15=111,16=1/1,2,10;
 10/6=1/2;
 6/7=2,8=2,9=2,10=2,28=1/1;
 7/8=1,10=1,25=1/1,2,3,16;
 1/10=4,30=1/3;
 99//99;
 Structure from the checkpoint file:  "/data/hutter/SMG16/TPSS/Gau-66041.chk"
 ---------
 Mol job 1
 ---------
 Charge =  0 Multiplicity = 1
 Redundant internal coordinates found in file.  (old form).
 Mg,0,8.5,8.5,8.5
 F,0,8.5,8.5,10.2561706756
 F,0,8.5,8.5,6.7438293244
 Recover connectivity data from disk.

 GradGradGradGradGradGradGradGradGradGradGradGradGradGradGradGradGradGrad
 Berny optimization.
 Initialization pass.
                           ----------------------------
                           !    Initial Parameters    !
                           ! (Angstroms and Degrees)  !
 --------------------------                            --------------------------
 ! Name  Definition              Value          Derivative Info.                !
 --------------------------------------------------------------------------------
 ! R1    R(1,2)                  1.7562         calculate D2E/DX2 analytically  !
 ! R2    R(1,3)                  1.7562         calculate D2E/DX2 analytically  !
 ! A1    L(2,1,3,-1,-1)        180.0            calculate D2E/DX2 analytically  !
 ! A2    L(2,1,3,-2,-2)        180.0            calculate D2E/DX2 analytically  !
 --------------------------------------------------------------------------------
 Trust Radius=3.00D-01 FncErr=1.00D-07 GrdErr=1.00D-07 EigMax=2.50D+02 EigMin=1.00D-04
 Number of steps in this run=      2 maximum allowed number of steps=      2.
 GradGradGradGradGradGradGradGradGradGradGradGradGradGradGradGradGradGrad

                          Input orientation:                          
 ---------------------------------------------------------------------
 Center     Atomic      Atomic             Coordinates (Angstroms)
 Number     Number       Type             X           Y           Z
 ---------------------------------------------------------------------
      1         12           0        8.500000    8.500000    8.500000
      2          9           0        8.500000    8.500000   10.256171
      3          9           0        8.500000    8.500000    6.743829
 ---------------------------------------------------------------------
                    Distance matrix (angstroms):
                    1          2          3
     1  Mg   0.000000
     2  F    1.756171   0.000000
     3  F    1.756171   3.512341   0.000000
 Stoichiometry    F2Mg
 Framework group  D*H[O(Mg),C*(F.F)]
 Deg. of freedom     1
 Full point group                 D*H     NOp   8
 Largest Abelian subgroup         D2H     NOp   8
 Largest concise Abelian subgroup C2      NOp   2
                         Standard orientation:                         
 ---------------------------------------------------------------------
 Center     Atomic      Atomic             Coordinates (Angstroms)
 Number     Number       Type             X           Y           Z
 ---------------------------------------------------------------------
      1         12           0        0.000000    0.000000    0.000000
      2          9           0        0.000000    0.000000    1.756171
      3          9           0        0.000000    0.000000   -1.756171
 ---------------------------------------------------------------------
 Rotational constants (GHZ):           0.0000000           4.3125750           4.3125750
 Standard basis: def2QZVPP (5D, 7F)
 There are    56 symmetry adapted cartesian basis functions of AG  symmetry.
 There are    13 symmetry adapted cartesian basis functions of B1G symmetry.
 There are    21 symmetry adapted cartesian basis functions of B2G symmetry.
 There are    21 symmetry adapted cartesian basis functions of B3G symmetry.
 There are    10 symmetry adapted cartesian basis functions of AU  symmetry.
 There are    43 symmetry adapted cartesian basis functions of B1U symmetry.
 There are    27 symmetry adapted cartesian basis functions of B2U symmetry.
 There are    27 symmetry adapted cartesian basis functions of B3U symmetry.
 There are    43 symmetry adapted basis functions of AG  symmetry.
 There are    12 symmetry adapted basis functions of B1G symmetry.
 There are    18 symmetry adapted basis functions of B2G symmetry.
 There are    18 symmetry adapted basis functions of B3G symmetry.
 There are     9 symmetry adapted basis functions of AU  symmetry.
 There are    33 symmetry adapted basis functions of B1U symmetry.
 There are    22 symmetry adapted basis functions of B2U symmetry.
 There are    22 symmetry adapted basis functions of B3U symmetry.
   177 basis functions,   290 primitive gaussians,   218 cartesian basis functions
    15 alpha electrons       15 beta electrons
       nuclear repulsion energy        77.2897284337 Hartrees.
 NAtoms=    3 NActive=    3 NUniq=    2 SFac= 2.25D+00 NAtFMM=   60 NAOKFM=F Big=F
 Integral buffers will be    131072 words long.
 Raffenetti 2 integral format.
 Two-electron integral symmetry is turned on.
 One-electron integrals computed using PRISM.
   8 Symmetry operations used in ECPInt.
 ECPInt:  NShTT=    1540 NPrTT=    4907 LenC2=    1455 LenP2D=    3867.
 LDataN:  DoStor=T MaxTD1= 8 Len=  415
 NBasis=   177 RedAO= T EigKep=  1.71D-03  NBF=    43    12    18    18     9    33    22    22
 NBsUse=   177 1.00D-06 EigRej= -1.00D+00 NBFU=    43    12    18    18     9    33    22    22
 Initial guess from the checkpoint file:  "/data/hutter/SMG16/TPSS/Gau-66041.chk"
 B after Tr=     0.000000    0.000000    0.000000
         Rot=    1.000000    0.000000    0.000000    0.000000 Ang=   0.00 deg.
 Initial guess orbital symmetries:
       Occupied  (SGG) (SGU) (SGG) (SGG) (PIU) (PIU) (SGU) (SGG)
                 (SGU) (SGG) (SGU) (PIU) (PIU) (PIG) (PIG)
       Virtual   (SGG) (PIU) (PIU) (SGU) (SGG) (DLTG) (DLTG) (PIU)
                 (PIU) (PIG) (PIG) (SGG) (SGU) (SGG) (SGU) (PIU)
                 (PIU) (DLTG) (DLTG) (PIU) (PIU) (PIG) (PIG) (DLTU)
                 (DLTU) (SGG) (PHIU) (PHIU) (SGU) (PIG) (PIG) (PIU)
                 (PIU) (SGG) (SGU) (SGG) (SGU) (PIU) (PIU) (DLTG)
                 (DLTG) (SGU) (SGG) (PIG) (PIG) (DLTG) (DLTG) (DLTU)
                 (DLTU) (PIU) (PIU) (PIG) (PIG) (SGG) (PIG) (PIG)
                 (PIU) (PIU) (SGU) (SGG) (SGU) (SGG) (SGG) (SGU)
                 (PIG) (PIG) (DLTG) (DLTG) (PHIG) (PHIG) (PIU)
                 (PIU) (PHIU) (PHIU) (DLTU) (DLTU) (SGG) (SGU)
                 (DLTG) (DLTG) (DLTU) (DLTU) (PIG) (PIG) (DLTG)
                 (DLTG) (PIU) (PIU) (SGG) (SGU) (PIG) (PIG) (SGG)
                 (PIU) (PIU) (PIG) (PIG) (SGU) (SGG) (SGG) (PIU)
                 (PIU) (DLTU) (DLTU) (DLTG) (DLTG) (PHIG) (PHIG)
                 (PHIU) (PHIU) (SGU) (?A) (?B) (?B) (?A) (PIG)
                 (PIG) (SGG) (PHIG) (PHIG) (DLTG) (DLTG) (?C) (?C)
                 (?C) (?C) (DLTU) (DLTU) (PIG) (PIG) (SGU) (SGG)
                 (SGG) (SGU) (DLTG) (DLTG) (DLTU) (DLTU) (PIG)
                 (PIG) (PIU) (PIU) (SGU) (SGG) (PHIU) (PHIU) (DLTU)
                 (DLTU) (PIU) (PIU) (SGU) (DLTG) (DLTG) (PIG) (PIG)
                 (SGG) (SGG) (SGG) (SGU) (SGG) (SGG) (SGU)
 Keep J ints in memory in symmetry-blocked form, NReq=139984568.
 Requested convergence on RMS density matrix=1.00D-08 within 128 cycles.
 Requested convergence on MAX density matrix=1.00D-06.
 Requested convergence on             energy=1.00D-06.
 No special actions if energy rises.
 SCF Done:  E(RTPSS-TPSS) =  -400.038487276     A.U. after    1 cycles
            NFock=  1  Conv=0.86D-09     -V/T= 2.0034
 DoSCS=F DFT=T ScalE2(SS,OS)=  1.000000  1.000000
 Range of M.O.s used for correlation:     1   177
 NBasis=   177 NAE=    15 NBE=    15 NFC=     0 NFV=     0
 NROrb=    177 NOA=    15 NOB=    15 NVA=   162 NVB=   162
   8 Symmetry operations used in ECPInt.
 ECPInt:  NShTT=    1540 NPrTT=    4907 LenC2=    1455 LenP2D=    3867.
 LDataN:  DoStor=T MaxTD1= 9 Len=  602
 Symmetrizing basis deriv contribution to polar:
 IMax=3 JMax=2 DiffMx= 0.00D+00
 G2DrvN: will do     4 centers at a time, making    1 passes.
 Calling FoFCou, ICntrl=  3507 FMM=F I1Cent=   0 AccDes= 0.00D+00.
 End of G2Drv F.D. properties file   721 does not exist.
 End of G2Drv F.D. properties file   722 does not exist.
 End of G2Drv F.D. properties file   788 does not exist.
          IDoAtm=111
          Differentiating once with respect to electric field.
                with respect to dipole field.
          Differentiating once with respect to nuclear coordinates.
 Keep J ints in memory in symmetry-blocked form, NReq=139986478.
          There are     9 degrees of freedom in the 1st order CPHF.  IDoFFX=4 NUNeed=     9.
      9 vectors produced by pass  0 Test12= 2.70D-14 1.11D-08 XBig12= 1.78D+01 2.97D+00.
 AX will form     9 AO Fock derivatives at one time.
      9 vectors produced by pass  1 Test12= 2.70D-14 1.11D-08 XBig12= 3.27D+00 6.00D-01.
      9 vectors produced by pass  2 Test12= 2.70D-14 1.11D-08 XBig12= 3.09D-02 5.21D-02.
      9 vectors produced by pass  3 Test12= 2.70D-14 1.11D-08 XBig12= 1.65D-04 4.31D-03.
      9 vectors produced by pass  4 Test12= 2.70D-14 1.11D-08 XBig12= 4.89D-07 1.80D-04.
      7 vectors produced by pass  5 Test12= 2.70D-14 1.11D-08 XBig12= 4.35D-09 1.91D-05.
      4 vectors produced by pass  6 Test12= 2.70D-14 1.11D-08 XBig12= 1.28D-10 3.43D-06.
      1 vectors produced by pass  7 Test12= 2.70D-14 1.11D-08 XBig12= 2.30D-13 1.10D-07.
      1 vectors produced by pass  8 Test12= 2.70D-14 1.11D-08 XBig12= 1.67D-15 1.29D-08.
 InvSVY:  IOpt=1 It=  1 EMax= 4.44D-16
 Solved reduced A of dimension    58 with     9 vectors.
 Isotropic polarizability for W=    0.000000       18.75 Bohr**3.
 End of Minotr F.D. properties file   721 does not exist.
 End of Minotr F.D. properties file   722 does not exist.
 End of Minotr F.D. properties file   788 does not exist.

 **********************************************************************

            Population analysis using the SCF Density.

 **********************************************************************

 Orbital symmetries:
       Occupied  (SGG) (SGU) (SGG) (SGG) (PIU) (PIU) (SGU) (SGG)
                 (SGU) (SGG) (SGU) (PIU) (PIU) (PIG) (PIG)
       Virtual   (SGG) (PIU) (PIU) (SGU) (SGG) (DLTG) (DLTG) (PIU)
                 (PIU) (PIG) (PIG) (SGG) (SGU) (SGG) (SGU) (PIU)
                 (PIU) (DLTG) (DLTG) (PIU) (PIU) (PIG) (PIG) (DLTU)
                 (DLTU) (SGG) (PHIU) (PHIU) (SGU) (PIG) (PIG) (PIU)
                 (PIU) (SGG) (SGU) (SGG) (SGU) (PIU) (PIU) (DLTG)
                 (DLTG) (SGU) (SGG) (PIG) (PIG) (DLTG) (DLTG) (DLTU)
                 (DLTU) (PIU) (PIU) (PIG) (PIG) (SGG) (PIG) (PIG)
                 (PIU) (PIU) (SGU) (SGG) (SGU) (SGG) (SGG) (SGU)
                 (PIG) (PIG) (DLTG) (DLTG) (PHIG) (PHIG) (PIU)
                 (PIU) (PHIU) (PHIU) (DLTU) (DLTU) (SGG) (SGU)
                 (DLTG) (DLTG) (DLTU) (DLTU) (PIG) (PIG) (DLTG)
                 (DLTG) (PIU) (PIU) (SGG) (SGU) (PIG) (PIG) (SGG)
                 (PIU) (PIU) (PIG) (PIG) (SGU) (SGG) (SGG) (PIU)
                 (PIU) (DLTU) (DLTU) (DLTG) (DLTG) (PHIG) (PHIG)
                 (PHIU) (PHIU) (SGU) (?A) (?B) (?B) (?A) (PIG)
                 (PIG) (SGG) (PHIG) (PHIG) (DLTG) (DLTG) (?C) (?C)
                 (?C) (?C) (DLTU) (DLTU) (PIG) (PIG) (SGU) (SGG)
                 (SGG) (SGU) (DLTG) (DLTG) (DLTU) (DLTU) (PIG)
                 (PIG) (PIU) (PIU) (SGU) (SGG) (PHIU) (PHIU) (DLTU)
                 (DLTU) (PIU) (PIU) (SGU) (DLTG) (DLTG) (PIG) (PIG)
                 (SGG) (SGG) (SGG) (SGU) (SGG) (SGG) (SGU)
 The electronic state is 1-SGG.
 Alpha  occ. eigenvalues --  -46.48074 -24.32770 -24.32770  -3.00723  -1.77160
 Alpha  occ. eigenvalues --   -1.77160  -1.76286  -1.01575  -1.01019  -0.34338
 Alpha  occ. eigenvalues --   -0.32344  -0.30977  -0.30977  -0.30758  -0.30758
 Alpha virt. eigenvalues --   -0.08219  -0.00981  -0.00981   0.02827   0.05761
 Alpha virt. eigenvalues --    0.08046   0.08046   0.09005   0.09005   0.10917
 Alpha virt. eigenvalues --    0.10917   0.13543   0.18073   0.32960   0.38056
 Alpha virt. eigenvalues --    0.39328   0.39328   0.40479   0.40479   0.42252
 Alpha virt. eigenvalues --    0.42252   0.42615   0.42615   0.47398   0.47399
 Alpha virt. eigenvalues --    0.49312   0.50134   0.50134   0.50467   0.54220
 Alpha virt. eigenvalues --    0.54220   0.74662   0.74662   0.74841   0.88837
 Alpha virt. eigenvalues --    1.05451   1.08653   1.34892   1.34892   1.38079
 Alpha virt. eigenvalues --    1.38079   1.41013   1.46775   1.51415   1.51415
 Alpha virt. eigenvalues --    1.52943   1.52944   1.53540   1.53540   1.70868
 Alpha virt. eigenvalues --    1.70868   1.73647   1.73647   1.78407   1.81794
 Alpha virt. eigenvalues --    1.81794   1.88509   1.88509   2.01542   2.16558
 Alpha virt. eigenvalues --    2.26627   2.83106   3.90248   4.05756   4.15770
 Alpha virt. eigenvalues --    4.15770   4.16458   4.16458   4.16599   4.16599
 Alpha virt. eigenvalues --    4.16764   4.16764   4.17476   4.17476   4.17611
 Alpha virt. eigenvalues --    4.17611   4.40915   4.47116   4.97305   4.97305
 Alpha virt. eigenvalues --    5.07167   5.07167   5.19196   5.19196   5.28184
 Alpha virt. eigenvalues --    5.28186   5.30668   5.30668   5.43497   5.44817
 Alpha virt. eigenvalues --    5.53300   5.53300   6.16891   6.23102   6.23102
 Alpha virt. eigenvalues --    6.26912   6.26912   6.61131   7.19808   9.09788
 Alpha virt. eigenvalues --   11.52541  11.52541  11.52719  11.52729  11.52844
 Alpha virt. eigenvalues --   11.52854  11.53636  11.53636  11.53687  11.53687
 Alpha virt. eigenvalues --   11.54350  11.54609  11.54609  11.54617  11.54617
 Alpha virt. eigenvalues --   11.54853  11.54853  11.65135  14.61253  14.61253
 Alpha virt. eigenvalues --   14.61454  14.61459  14.61676  14.61676  14.61699
 Alpha virt. eigenvalues --   14.61699  14.62120  14.62126  14.67009  14.67009
 Alpha virt. eigenvalues --   14.75985  14.82317  15.02327  15.04058  15.75594
 Alpha virt. eigenvalues --   15.75594  15.82459  15.82459  15.94739  15.94739
 Alpha virt. eigenvalues --   16.01358  16.01358  16.09607  16.37857  18.53241
 Alpha virt. eigenvalues --   18.53241  18.53890  18.53896  18.54583  18.54583
 Alpha virt. eigenvalues --   18.59909  18.82261  18.82266  18.91752  18.91752
 Alpha virt. eigenvalues --   19.42896  34.52767  53.79758  53.90607 196.27266
 Alpha virt. eigenvalues --  286.57255 286.71062
          Condensed to atoms (all electrons):
               1          2          3
     1  Mg  10.282676   0.234043   0.234043
     2  F    0.234043   9.398455  -0.007879
     3  F    0.234043  -0.007879   9.398455
 Mulliken charges:
               1
     1  Mg   1.249238
     2  F   -0.624619
     3  F   -0.624619
 Sum of Mulliken charges =  -0.00000
 Mulliken charges with hydrogens summed into heavy atoms:
               1
     1  Mg   1.249238
     2  F   -0.624619
     3  F   -0.624619
 APT charges:
               1
     1  Mg   1.418803
     2  F   -0.709402
     3  F   -0.709402
 Sum of APT charges =  -0.00000
 APT charges with hydrogens summed into heavy atoms:
               1
     1  Mg   1.418803
     2  F   -0.709402
     3  F   -0.709402
 Electronic spatial extent (au):  <R**2>=            247.4264
 Charge=              0.0000 electrons
 Dipole moment (field-independent basis, Debye):
    X=              0.0000    Y=             -0.0000    Z=             -0.0000  Tot=              0.0000
 Quadrupole moment (field-independent basis, Debye-Ang):
   XX=            -16.0021   YY=            -16.0021   ZZ=            -34.1457
   XY=             -0.0000   XZ=              0.0000   YZ=              0.0000
 Traceless Quadrupole moment (field-independent basis, Debye-Ang):
   XX=              6.0479   YY=              6.0479   ZZ=            -12.0958
   XY=             -0.0000   XZ=              0.0000   YZ=              0.0000
 Octapole moment (field-independent basis, Debye-Ang**2):
  XXX=             -0.0000  YYY=             -0.0000  ZZZ=              0.0000  XYY=             -0.0000
  XXY=             -0.0000  XXZ=              0.0000  XZZ=             -0.0000  YZZ=             -0.0000
  YYZ=              0.0000  XYZ=              0.0000
 Hexadecapole moment (field-independent basis, Debye-Ang**3):
 XXXX=            -14.2511 YYYY=            -14.2511 ZZZZ=           -271.0748 XXXY=             -0.0000
 XXXZ=              0.0000 YYYX=             -0.0000 YYYZ=              0.0000 ZZZX=              0.0000
 ZZZY=              0.0000 XXYY=             -4.7504 XXZZ=            -41.4334 YYZZ=            -41.4334
 XXYZ=              0.0000 YYXZ=              0.0000 ZZXY=             -0.0000
 N-N= 7.728972843368D+01 E-N=-1.112950378471D+03  KE= 3.987019872938D+02
 Symmetry AG   KE= 2.399810005843D+02
 Symmetry B1G  KE= 4.952556473066D-34
 Symmetry B2G  KE= 5.977165774019D+00
 Symmetry B3G  KE= 5.977165774019D+00
 Symmetry AU   KE= 2.186329720676D-33
 Symmetry B1U  KE= 1.042238976344D+02
 Symmetry B2U  KE= 2.127137876353D+01
 Symmetry B3U  KE= 2.127137876353D+01
  Exact polarizability:      17.326       0.000      17.326       0.000       0.000      21.586
 Approx polarizability:      21.461      -0.000      21.461      -0.000      -0.000      27.658
   8 Symmetry operations used in ECPInt.
 ECPInt:  NShTT=    1540 NPrTT=    4907 LenC2=    1455 LenP2D=    3867.
 LDataN:  DoStor=T MaxTD1=10 Len=  848
 Calling FoFJK, ICntrl=    100527 FMM=F ISym2X=1 I1Cent= 0 IOpClX= 0 NMat=1 NMatS=1 NMatT=0.
 Full mass-weighted force constant matrix:
 Low frequencies ---    0.0024    0.0024    0.0028   10.8075   10.8075  153.4305
 Low frequencies ---  153.4305  547.1788  853.0980
 Diagonal vibrational polarizability:
      143.1846623     143.1846623       5.5716224
 Harmonic frequencies (cm**-1), IR intensities (KM/Mole), Raman scattering
 activities (A**4/AMU), depolarization ratios for plane and unpolarized
 incident light, reduced masses (AMU), force constants (mDyne/A),
 and normal coordinates:
                      1                      2                      3
                     PIU                    PIU                    SGG
 Frequencies --    153.4305               153.4305               547.1788
 Red. masses --     21.7735                21.7735                18.9984
 Frc consts  --      0.3020                 0.3020                 3.3514
 IR Inten    --    125.2527               125.2527                 0.0000
  Atom  AN      X      Y      Z        X      Y      Z        X      Y      Z
     1  12     0.75  -0.00  -0.00     0.00   0.75  -0.00    -0.00  -0.00   0.00
     2   9    -0.47   0.00   0.00    -0.00  -0.47   0.00     0.00   0.00   0.71
     3   9    -0.47   0.00  -0.00    -0.00  -0.47  -0.00     0.00   0.00  -0.71
                      4
                     SGU
 Frequencies --    853.0980
 Red. masses --     21.7735
 Frc consts  --      9.3363
 IR Inten    --    150.6768
  Atom  AN      X      Y      Z
     1  12     0.00   0.00   0.75
     2   9    -0.00  -0.00  -0.47
     3   9    -0.00  -0.00  -0.47

 -------------------
 - Thermochemistry -
 -------------------
 Temperature   298.150 Kelvin.  Pressure   1.00000 Atm.
 Atom     1 has atomic number 12 and mass  23.98504
 Atom     2 has atomic number  9 and mass  18.99840
 Atom     3 has atomic number  9 and mass  18.99840
 Molecular mass:    61.98185 amu.
 Principal axes and moments of inertia in atomic units:
                           1         2         3
     Eigenvalues --     0.00000 418.48344 418.48344
           X            0.00000  -0.00000   1.00000
           Y            0.00000   1.00000   0.00000
           Z            1.00000   0.00000   0.00000
 This molecule is a prolate symmetric top.
 Rotational symmetry number  2.
 Rotational temperature (Kelvin)      0.20697
 Rotational constant (GHZ):           4.312575
 Zero-point vibrational energy      10211.0 (Joules/Mol)
                                    2.44048 (Kcal/Mol)
 Warning -- explicit consideration of   3 degrees of freedom as
           vibrations may cause significant error
 Vibrational temperatures:    220.75   220.75   787.27  1227.42
          (Kelvin)
 
 Zero-point correction=                           0.003889 (Hartree/Particle)
 Thermal correction to Energy=                    0.007780
 Thermal correction to Enthalpy=                  0.008724
 Thermal correction to Gibbs Free Energy=        -0.019466
 Sum of electronic and zero-point Energies=           -400.034598
 Sum of electronic and thermal Energies=              -400.030707
 Sum of electronic and thermal Enthalpies=            -400.029763
 Sum of electronic and thermal Free Energies=         -400.057953
 
                     E (Thermal)             CV                S
                      KCal/Mol        Cal/Mol-Kelvin    Cal/Mol-Kelvin
 Total                    4.882             10.479             59.331
 Electronic               0.000              0.000              0.000
 Translational            0.889              2.981             38.292
 Rotational               0.592              1.987             15.062
 Vibrational              3.401              5.511              5.977
 Vibration     1          0.619              1.899              2.629
 Vibration     2          0.619              1.899              2.629
 Vibration     3          0.902              1.146              0.550
                       Q            Log10(Q)             Ln(Q)
 Total Bot       0.898670D+09          8.953600         20.616426
 Total V=0       0.552690D+11         10.742482         24.735478
 Vib (Bot)       0.650510D-01         -1.186746         -2.732584
 Vib (Bot)    1  0.132024D+01          0.120654          0.277817
 Vib (Bot)    2  0.132024D+01          0.120654          0.277817
 Vib (Bot)    3  0.287579D+00         -0.541243         -1.246259
 Vib (V=0)       0.400070D+01          0.602136          1.386468
 Vib (V=0)    1  0.191175D+01          0.281432          0.648020
 Vib (V=0)    2  0.191175D+01          0.281432          0.648020
 Vib (V=0)    3  0.107680D+01          0.032136          0.073996
 Electronic      0.100000D+01          0.000000          0.000000
 Translational   0.191801D+08          7.282851         16.769383
 Rotational      0.720270D+03          2.857495          6.579626
 ***** Axes restored to original set *****
 -------------------------------------------------------------------
 Center     Atomic                   Forces (Hartrees/Bohr)
 Number     Number              X              Y              Z
 -------------------------------------------------------------------
      1       12           0.000000000    0.000000000    0.000000000
      2        9          -0.000000000   -0.000000000   -0.000307931
      3        9           0.000000000    0.000000000    0.000307931
 -------------------------------------------------------------------
 Cartesian Forces:  Max     0.000307931 RMS     0.000145160
 FormGI is forming the generalized inverse of G from B-inverse, IUseBI=4.

 GradGradGradGradGradGradGradGradGradGradGradGradGradGradGradGradGradGrad
 Berny optimization.
 Internal  Forces:  Max     0.000307931 RMS     0.000217740
 Search for a local minimum.
 Step number   1 out of a maximum of    2
 All quantities printed in internal units (Hartrees-Bohrs-Radians)
 Second derivative matrix not updated -- analytic derivatives used.
 The second derivative matrix:
                          R1        R2        A1        A2
           R1           0.20887
           R2           0.00639   0.20887
           A1          -0.00000   0.00000   0.03556
           A2           0.00000  -0.00000   0.00000   0.03556
 ITU=  0
     Eigenvalues ---    0.03556   0.03556   0.20248   0.21526
 Angle between quadratic step and forces=   0.00 degrees.
 Linear search not attempted -- first point.
 Iteration  1 RMS(Cart)=  0.00101151 RMS(Int)=  0.00000000
 Iteration  2 RMS(Cart)=  0.00000000 RMS(Int)=  0.00000000
 ClnCor:  largest displacement from symmetrization is 6.15D-15 for atom     1.
 Variable       Old X    -DE/DX   Delta X   Delta X   Delta X     New X
                                 (Linear)    (Quad)   (Total)
    R1        3.31868  -0.00031   0.00000  -0.00143  -0.00143   3.31725
    R2        3.31868  -0.00031   0.00000  -0.00143  -0.00143   3.31725
    A1        3.14159   0.00000   0.00000   0.00000   0.00000   3.14159
    A2        3.14159  -0.00000   0.00000  -0.00000   0.00000   3.14159
         Item               Value     Threshold  Converged?
 Maximum Force            0.000308     0.000450     YES
 RMS     Force            0.000218     0.000300     YES
 Maximum Displacement     0.001430     0.001800     YES
 RMS     Displacement     0.001012     0.001200     YES
 Predicted change in Energy=-4.404930D-07
 Optimization completed.
    -- Stationary point found.
                           ----------------------------
                           !   Optimized Parameters   !
                           ! (Angstroms and Degrees)  !
 --------------------------                            --------------------------
 ! Name  Definition              Value          Derivative Info.                !
 --------------------------------------------------------------------------------
 ! R1    R(1,2)                  1.7562         -DE/DX =   -0.0003              !
 ! R2    R(1,3)                  1.7562         -DE/DX =   -0.0003              !
 ! A1    L(2,1,3,-1,-1)        180.0            -DE/DX =    0.0                 !
 ! A2    L(2,1,3,-2,-2)        180.0            -DE/DX =    0.0                 !
 --------------------------------------------------------------------------------
 GradGradGradGradGradGradGradGradGradGradGradGradGradGradGradGradGradGrad

 Dipole is zero, so no output in dipole orientation.

 ----------------------------------------------------------------------

 Electric dipole moment (input orientation):
 (Debye = 10**-18 statcoulomb cm , SI units = C m)
                  (au)            (Debye)         (10**-30 SI)
   Tot        0.000000D+00      0.000000D+00      0.000000D+00
   x          0.000000D+00      0.000000D+00      0.000000D+00
   y          0.000000D+00      0.000000D+00      0.000000D+00
   z          0.000000D+00      0.000000D+00      0.000000D+00

 Dipole polarizability, Alpha (input orientation).
 (esu units = cm**3 , SI units = C**2 m**2 J**-1)
 Alpha(0;0):
               (au)            (10**-24 esu)      (10**-40 SI)
   iso        0.187456D+02      0.277782D+01      0.309074D+01
   aniso      0.426022D+01      0.631299D+00      0.702415D+00
   xx         0.173256D+02      0.256738D+01      0.285660D+01
   yx         0.000000D+00      0.000000D+00      0.000000D+00
   yy         0.173256D+02      0.256738D+01      0.285660D+01
   zx         0.000000D+00      0.000000D+00      0.000000D+00
   zy         0.000000D+00      0.000000D+00      0.000000D+00
   zz         0.215858D+02      0.319868D+01      0.355902D+01

 ----------------------------------------------------------------------
 Unable to Open any file for archive entry.
 1\1\GINC-TCOPT10\Freq\RTPSSTPSS\def2QZVPP\F2Mg1\HUTTER\31-Jul-2021\0\\
 #N Geom=AllCheck Guess=TCheck SCRF=Check GenChk RTPSSTPSS/def2QZVPP Fr
 eq\\Mol job 1\\0,1\Mg,8.5,8.5,8.5\F,8.5,8.5,10.2561706756\F,8.5,8.5,6.
 7438293244\\Version=ES64L-G16RevC.01\State=1-SGG\HF=-400.0384873\RMSD=
 8.575e-10\RMSF=1.452e-04\ZeroPoint=0.0038891\Thermal=0.0077803\ETot=-4
 00.030707\HTot=-400.0297628\GTot=-400.057953\Dipole=0.,0.,0.\DipoleDer
 iv=1.3744515,0.,0.,0.,1.3744515,0.,0.,0.,1.5075063,-0.6872257,0.,0.,0.
 ,-0.6872257,0.,0.,0.,-0.7537531,-0.6872257,0.,0.,0.,-0.6872257,0.,0.,0
 .,-0.7537531\Polar=17.3255705,0.,17.3255705,0.,0.,21.5857872\Quadrupol
 e=4.4964591,4.4964591,-8.9929181,0.,0.,0.\PG=D*H [O(Mg1),C*(F1.F1)]\NI
 mag=0\\0.01309900,0.,0.01309900,0.,0.,0.40496027,-0.00654950,0.,0.,0.0
 0331674,0.,-0.00654950,0.,0.,0.00331674,0.,0.,-0.20248013,0.,0.,0.2088
 7100,-0.00654950,0.,0.,0.00323276,0.,0.,0.00331674,0.,-0.00654950,0.,0
 .,0.00323276,0.,0.,0.00331674,0.,0.,-0.20248013,0.,0.,-0.00639087,0.,0
 .,0.20887100\\0.,0.,0.,0.,0.,0.00030793,0.,0.,-0.00030793\\\@
 The archive entry for this job was punched.


 I am not a vegetarian because I love animals;
 I am a vegetarian because I hate plants.
                               -- A. Whitney Brown
 Job cpu time:       0 days  0 hours  8 minutes  1.7 seconds.
 Elapsed time:       0 days  0 hours  1 minutes 40.6 seconds.
 File lengths (MBytes):  RWF=     20 Int=      0 D2E=      0 Chk=      4 Scr=      1
 Normal termination of Gaussian 16 at Sat Jul 31 23:43:00 2021.
