 Entering Gaussian System, Link 0=g16
 Initial command:
 /sw-ng/spack/opt/spack/linux-opensuse_leap15-sandybridge/pgi-18.10/gaussian-src-16-C.01-zldqaomctopxhethwccpmxmwefdscg3m/g16/l1.exe "/data/hutter/SMG16/TPSS/Gau-85944.inp" -scrdir="/data/hutter/SMG16/TPSS/"
 Entering Link 1 = /sw-ng/spack/opt/spack/linux-opensuse_leap15-sandybridge/pgi-18.10/gaussian-src-16-C.01-zldqaomctopxhethwccpmxmwefdscg3m/g16/l1.exe PID=     85950.
  
 Copyright (c) 1988-2019, Gaussian, Inc.  All Rights Reserved.
  
 This is part of the Gaussian(R) 16 program.  It is based on
 the Gaussian(R) 09 system (copyright 2009, Gaussian, Inc.),
 the Gaussian(R) 03 system (copyright 2003, Gaussian, Inc.),
 the Gaussian(R) 98 system (copyright 1998, Gaussian, Inc.),
 the Gaussian(R) 94 system (copyright 1995, Gaussian, Inc.),
 the Gaussian 92(TM) system (copyright 1992, Gaussian, Inc.),
 the Gaussian 90(TM) system (copyright 1990, Gaussian, Inc.),
 the Gaussian 88(TM) system (copyright 1988, Gaussian, Inc.),
 the Gaussian 86(TM) system (copyright 1986, Carnegie Mellon
 University), and the Gaussian 82(TM) system (copyright 1983,
 Carnegie Mellon University). Gaussian is a federally registered
 trademark of Gaussian, Inc.
  
 This software contains proprietary and confidential information,
 including trade secrets, belonging to Gaussian, Inc.
  
 This software is provided under written license and may be
 used, copied, transmitted, or stored only in accord with that
 written license.
  
 The following legend is applicable only to US Government
 contracts under FAR:
  
                    RESTRICTED RIGHTS LEGEND
  
 Use, reproduction and disclosure by the US Government is
 subject to restrictions as set forth in subparagraphs (a)
 and (c) of the Commercial Computer Software - Restricted
 Rights clause in FAR 52.227-19.
  
 Gaussian, Inc.
 340 Quinnipiac St., Bldg. 40, Wallingford CT 06492
  
  
 ---------------------------------------------------------------
 Warning -- This program may not be used in any manner that
 competes with the business of Gaussian, Inc. or will provide
 assistance to any competitor of Gaussian, Inc.  The licensee
 of this program is prohibited from giving any competitor of
 Gaussian, Inc. access to this program.  By using this program,
 the user acknowledges that Gaussian, Inc. is engaged in the
 business of creating and licensing software in the field of
 computational chemistry and represents and warrants to the
 licensee that it is not a competitor of Gaussian, Inc. and that
 it will not use this program in any manner prohibited above.
 ---------------------------------------------------------------
  

 Cite this work as:
 Gaussian 16, Revision C.01,
 M. J. Frisch, G. W. Trucks, H. B. Schlegel, G. E. Scuseria, 
 M. A. Robb, J. R. Cheeseman, G. Scalmani, V. Barone, 
 G. A. Petersson, H. Nakatsuji, X. Li, M. Caricato, A. V. Marenich, 
 J. Bloino, B. G. Janesko, R. Gomperts, B. Mennucci, H. P. Hratchian, 
 J. V. Ortiz, A. F. Izmaylov, J. L. Sonnenberg, D. Williams-Young, 
 F. Ding, F. Lipparini, F. Egidi, J. Goings, B. Peng, A. Petrone, 
 T. Henderson, D. Ranasinghe, V. G. Zakrzewski, J. Gao, N. Rega, 
 G. Zheng, W. Liang, M. Hada, M. Ehara, K. Toyota, R. Fukuda, 
 J. Hasegawa, M. Ishida, T. Nakajima, Y. Honda, O. Kitao, H. Nakai, 
 T. Vreven, K. Throssell, J. A. Montgomery, Jr., J. E. Peralta, 
 F. Ogliaro, M. J. Bearpark, J. J. Heyd, E. N. Brothers, K. N. Kudin, 
 V. N. Staroverov, T. A. Keith, R. Kobayashi, J. Normand, 
 K. Raghavachari, A. P. Rendell, J. C. Burant, S. S. Iyengar, 
 J. Tomasi, M. Cossi, J. M. Millam, M. Klene, C. Adamo, R. Cammi, 
 J. W. Ochterski, R. L. Martin, K. Morokuma, O. Farkas, 
 J. B. Foresman, and D. J. Fox, Gaussian, Inc., Wallingford CT, 2019.
 
 ******************************************
 Gaussian 16:  ES64L-G16RevC.01  3-Jul-2019
                 1-Aug-2021 
 ******************************************
 %mem=8GB
 %NProcShare=8
 Will use up to    8 processors via shared memory.
 -------------------------------------------------------------
 #N RTPSSTPSS/Def2QZVPP scf=tight Int(Grid=ultrafine) OPT FREQ
 -------------------------------------------------------------
 1/18=20,19=15,26=4,38=1/1,3;
 2/9=110,12=2,17=6,18=5,40=1/2;
 3/5=45,7=202,11=2,25=1,30=1,71=1,74=2523,75=-5,116=1/1,2,3;
 4//1;
 5/5=2,32=2,38=5/2;
 6/7=2,8=2,9=2,10=2,28=1/1;
 7//1,2,3,16;
 1/18=20,19=15,26=4/3(2);
 2/9=110/2;
 99//99;
 2/9=110/2;
 3/5=45,7=202,11=2,25=1,30=1,71=1,74=2523,75=-5,116=1/1,2,3;
 4/5=5,16=3,69=1/1;
 5/5=2,32=2,38=5/2;
 7//1,2,3,16;
 1/18=20,19=15,26=4/3(-5);
 2/9=110/2;
 6/7=2,8=2,9=2,10=2,19=2,28=1/1;
 99/9=1/99;
 ---------
 Mol job 1
 ---------
 Symbolic Z-matrix:
 Charge =  0 Multiplicity = 1
 N                     7.26521   7.71317   7.5 
 H                     8.2043    7.28683   7.5 
 H                     6.7957    7.28688   8.31336 
 H                     6.7957    7.28688   6.68664 
 

 GradGradGradGradGradGradGradGradGradGradGradGradGradGradGradGradGradGrad
 Berny optimization.
 Initialization pass.
                           ----------------------------
                           !    Initial Parameters    !
                           ! (Angstroms and Degrees)  !
 --------------------------                            --------------------------
 ! Name  Definition              Value          Derivative Info.                !
 --------------------------------------------------------------------------------
 ! R1    R(1,2)                  1.0313         estimate D2E/DX2                !
 ! R2    R(1,3)                  1.0314         estimate D2E/DX2                !
 ! R3    R(1,4)                  1.0314         estimate D2E/DX2                !
 ! A1    A(2,1,3)              104.1026         estimate D2E/DX2                !
 ! A2    A(2,1,4)              104.1026         estimate D2E/DX2                !
 ! A3    A(3,1,4)              104.1139         estimate D2E/DX2                !
 ! D1    D(2,1,4,3)            108.7973         estimate D2E/DX2                !
 --------------------------------------------------------------------------------
 Trust Radius=3.00D-01 FncErr=1.00D-07 GrdErr=1.00D-06 EigMax=2.50D+02 EigMin=1.00D-04
 Number of steps in this run=     20 maximum allowed number of steps=    100.
 GradGradGradGradGradGradGradGradGradGradGradGradGradGradGradGradGradGrad

                          Input orientation:                          
 ---------------------------------------------------------------------
 Center     Atomic      Atomic             Coordinates (Angstroms)
 Number     Number       Type             X           Y           Z
 ---------------------------------------------------------------------
      1          7           0        7.265211    7.713169    7.500000
      2          1           0        8.204304    7.286831    7.500000
      3          1           0        6.795696    7.286884    8.313356
      4          1           0        6.795696    7.286884    6.686644
 ---------------------------------------------------------------------
                    Distance matrix (angstroms):
                    1          2          3          4
     1  N    0.000000
     2  H    1.031338   0.000000
     3  H    1.031364   1.626568   0.000000
     4  H    1.031364   1.626568   1.626713   0.000000
 Stoichiometry    H3N
 Framework group  CS[SG(HN),X(H2)]
 Deg. of freedom     4
 Full point group                 CS      NOp   2
 Largest Abelian subgroup         CS      NOp   2
 Largest concise Abelian subgroup CS      NOp   2
                         Standard orientation:                         
 ---------------------------------------------------------------------
 Center     Atomic      Atomic             Coordinates (Angstroms)
 Number     Number       Type             X           Y           Z
 ---------------------------------------------------------------------
      1          7           0        0.000000    0.127891    0.000000
      2          1           0        0.939071   -0.298493    0.000000
      3          1           0       -0.469536   -0.298371    0.813356
      4          1           0       -0.469536   -0.298371   -0.813356
 ---------------------------------------------------------------------
 Rotational constants (GHZ):         283.1208384         283.0705805         189.5229862
 Standard basis: def2QZVPP (5D, 7F)
 There are   107 symmetry adapted cartesian basis functions of A'  symmetry.
 There are    70 symmetry adapted cartesian basis functions of A"  symmetry.
 There are    87 symmetry adapted basis functions of A'  symmetry.
 There are    60 symmetry adapted basis functions of A"  symmetry.
   147 basis functions,   206 primitive gaussians,   177 cartesian basis functions
     5 alpha electrons        5 beta electrons
       nuclear repulsion energy        11.7508448764 Hartrees.
 NAtoms=    4 NActive=    4 NUniq=    3 SFac= 1.78D+00 NAtFMM=   60 NAOKFM=F Big=F
 Integral buffers will be    131072 words long.
 Raffenetti 2 integral format.
 Two-electron integral symmetry is turned on.
 One-electron integrals computed using PRISM.
   2 Symmetry operations used in ECPInt.
 ECPInt:  NShTT=    1128 NPrTT=    2403 LenC2=    1129 LenP2D=    2319.
 LDataN:  DoStor=T MaxTD1= 8 Len=  415
 NBasis=   147 RedAO= T EigKep=  1.79D-04  NBF=    87    60
 NBsUse=   147 1.00D-06 EigRej= -1.00D+00 NBFU=    87    60
 ExpMin= 8.03D-02 ExpMax= 9.07D+04 ExpMxC= 8.76D+02 IAcc=3 IRadAn=         5 AccDes= 0.00D+00
 Harris functional with IExCor= 1009 and IRadAn=       5 diagonalized for initial guess.
 HarFok:  IExCor= 1009 AccDes= 0.00D+00 IRadAn=         5 IDoV= 1 UseB2=F ITyADJ=14
 ICtDFT=  3500011 ScaDFX=  1.000000  1.000000  1.000000  1.000000
 FoFCou: FMM=F IPFlag=           0 FMFlag=      100000 FMFlg1=           0
         NFxFlg=           0 DoJE=T BraDBF=F KetDBF=T FulRan=T
         wScrn=  0.000000 ICntrl=       500 IOpCl=  0 I1Cent=   200000004 NGrid=           0
         NMat0=    1 NMatS0=      1 NMatT0=    0 NMatD0=    1 NMtDS0=    0 NMtDT0=    0
 Petite list used in FoFCou.
 Initial guess orbital symmetries:
       Occupied  (A') (A') (A") (A') (A')
       Virtual   (A') (A") (A') (A') (A') (A") (A') (A") (A') (A")
                 (A') (A') (A') (A") (A') (A") (A') (A") (A') (A")
                 (A') (A') (A") (A') (A') (A") (A') (A') (A") (A')
                 (A') (A") (A') (A") (A") (A') (A") (A') (A") (A')
                 (A") (A') (A") (A') (A') (A") (A') (A') (A') (A')
                 (A") (A") (A') (A") (A') (A') (A") (A') (A') (A")
                 (A') (A") (A') (A") (A') (A') (A") (A') (A') (A")
                 (A") (A') (A') (A") (A') (A") (A') (A") (A") (A')
                 (A") (A') (A") (A') (A') (A") (A') (A") (A') (A")
                 (A') (A") (A') (A') (A') (A') (A") (A") (A") (A')
                 (A') (A") (A') (A') (A") (A') (A") (A') (A") (A')
                 (A") (A') (A") (A') (A") (A') (A') (A') (A") (A')
                 (A") (A') (A') (A") (A') (A") (A") (A') (A') (A")
                 (A') (A') (A') (A") (A") (A') (A") (A") (A') (A')
                 (A') (A')
 The electronic state of the initial guess is 1-A'.
 Keep J ints in memory in symmetry-blocked form, NReq=88831674.
 Requested convergence on RMS density matrix=1.00D-08 within 128 cycles.
 Requested convergence on MAX density matrix=1.00D-06.
 Requested convergence on             energy=1.00D-06.
 No special actions if energy rises.
 Integral accuracy reduced to 1.0D-05 until final iterations.
 Initial convergence to 1.0D-05 achieved.  Increase integral accuracy.
 SCF Done:  E(RTPSS-TPSS) =  -56.5930866824     A.U. after   10 cycles
            NFock= 10  Conv=0.36D-09     -V/T= 2.0054

 **********************************************************************

            Population analysis using the SCF Density.

 **********************************************************************

 Orbital symmetries:
       Occupied  (A') (A') (A") (A') (A')
       Virtual   (A') (A") (A') (A') (A') (A") (A') (A") (A') (A")
                 (A') (A') (A') (A") (A") (A') (A') (A") (A") (A')
                 (A') (A') (A") (A') (A') (A") (A') (A') (A') (A")
                 (A') (A") (A') (A") (A") (A') (A") (A') (A") (A')
                 (A") (A') (A") (A') (A') (A") (A') (A') (A') (A")
                 (A') (A") (A') (A") (A') (A') (A") (A') (A') (A")
                 (A') (A") (A') (A") (A') (A') (A") (A') (A') (A")
                 (A") (A') (A') (A") (A') (A") (A') (A") (A") (A')
                 (A") (A') (A") (A') (A') (A") (A") (A') (A') (A")
                 (A') (A') (A") (A') (A') (A') (A") (A") (A") (A')
                 (A') (A') (A") (A') (A') (A") (A") (A') (A") (A')
                 (A") (A') (A") (A') (A") (A') (A') (A') (A") (A")
                 (A') (A') (A') (A") (A') (A") (A") (A') (A') (A")
                 (A') (A') (A') (A") (A") (A') (A") (A") (A') (A')
                 (A') (A')
 The electronic state is 1-A'.
 Alpha  occ. eigenvalues --  -14.08670  -0.79255  -0.41219  -0.41217  -0.23519
 Alpha virt. eigenvalues --    0.00158   0.06993   0.06993   0.18348   0.19132
 Alpha virt. eigenvalues --    0.19133   0.31120   0.34136   0.34136   0.39270
 Alpha virt. eigenvalues --    0.39272   0.40684   0.61913   0.70334   0.70402
 Alpha virt. eigenvalues --    0.70402   0.83239   0.83239   0.90041   0.90041
 Alpha virt. eigenvalues --    0.92251   0.99380   1.07428   1.07429   1.13433
 Alpha virt. eigenvalues --    1.15565   1.15567   1.29036   1.62077   1.62077
 Alpha virt. eigenvalues --    1.83871   2.06876   2.06877   2.11178   2.12422
 Alpha virt. eigenvalues --    2.12424   2.12949   2.24141   2.24248   2.24253
 Alpha virt. eigenvalues --    2.27850   2.27853   2.38730   2.38733   2.48020
 Alpha virt. eigenvalues --    2.51359   2.51364   2.54382   2.76296   2.76300
 Alpha virt. eigenvalues --    2.77836   2.96874   2.96887   3.03562   3.14154
 Alpha virt. eigenvalues --    3.19614   3.19616   3.29624   3.46591   3.65110
 Alpha virt. eigenvalues --    3.65110   3.76308   4.02148   4.02156   4.06389
 Alpha virt. eigenvalues --    4.21330   4.21336   4.60772   4.95094   4.95100
 Alpha virt. eigenvalues --    5.72224   5.72234   5.92394   6.00089   6.00102
 Alpha virt. eigenvalues --    6.06515   6.06542   6.08400   6.43112   6.43128
 Alpha virt. eigenvalues --    6.50308   6.68969   6.76117   6.76125   6.90554
 Alpha virt. eigenvalues --    6.90556   7.06012   7.12417   7.26550   7.32359
 Alpha virt. eigenvalues --    7.32360   7.40787   7.40788   7.46617   7.63251
 Alpha virt. eigenvalues --    7.69463   7.69464   7.85070   7.96401   7.96411
 Alpha virt. eigenvalues --    8.04158   8.05257   8.05805   8.05821   8.20493
 Alpha virt. eigenvalues --    8.20500   8.22314   8.31999   8.32004   8.43748
 Alpha virt. eigenvalues --    8.43753   8.45426   8.52470   8.66340   8.74205
 Alpha virt. eigenvalues --    8.74210   9.06739   9.12081   9.12101   9.48222
 Alpha virt. eigenvalues --    9.48224   9.50357   9.70178   9.70188   9.85458
 Alpha virt. eigenvalues --    9.91254  10.07624  10.07638  11.08486  11.15925
 Alpha virt. eigenvalues --   11.15937  11.58315  11.64591  11.64602  11.85132
 Alpha virt. eigenvalues --   11.85145  11.97429  14.57503  14.57515  15.07908
 Alpha virt. eigenvalues --   38.02592 199.14219
          Condensed to atoms (all electrons):
               1          2          3          4
     1  N    6.289303   0.410645   0.410658   0.410658
     2  H    0.410645   0.493603  -0.038992  -0.038992
     3  H    0.410658  -0.038992   0.493557  -0.038987
     4  H    0.410658  -0.038992  -0.038987   0.493557
 Mulliken charges:
               1
     1  N   -0.521264
     2  H    0.173736
     3  H    0.173764
     4  H    0.173764
 Sum of Mulliken charges =   0.00000
 Mulliken charges with hydrogens summed into heavy atoms:
               1
     1  N    0.000000
 Electronic spatial extent (au):  <R**2>=             27.2709
 Charge=             -0.0000 electrons
 Dipole moment (field-independent basis, Debye):
    X=             -0.0000    Y=             -1.6210    Z=              0.0000  Tot=              1.6210
 Quadrupole moment (field-independent basis, Debye-Ang):
   XX=             -6.4256   YY=             -9.2880   ZZ=             -6.4249
   XY=             -0.0003   XZ=             -0.0000   YZ=             -0.0000
 Traceless Quadrupole moment (field-independent basis, Debye-Ang):
   XX=              0.9539   YY=             -1.9085   ZZ=              0.9546
   XY=             -0.0003   XZ=             -0.0000   YZ=             -0.0000
 Octapole moment (field-independent basis, Debye-Ang**2):
  XXX=              0.8548  YYY=             -1.3563  ZZZ=              0.0000  XYY=              0.0001
  XXY=             -0.8527  XXZ=              0.0000  XZZ=             -0.8550  YZZ=             -0.8527
  YYZ=              0.0000  XYZ=              0.0000
 Hexadecapole moment (field-independent basis, Debye-Ang**3):
 XXXX=            -10.6967 YYYY=            -12.9332 ZZZZ=            -10.6966 XXXY=             -0.3669
 XXXZ=              0.0000 YYYX=             -0.0001 YYYZ=              0.0000 ZZZX=              0.0000
 ZZZY=              0.0000 XXYY=             -3.9888 XXZZ=             -3.5656 YYZZ=             -3.9890
 XXYZ=             -0.0000 YYXZ=              0.0000 ZZXY=              0.3667
 N-N= 1.175084487644D+01 E-N=-1.556003706973D+02  KE= 5.628642150392D+01
 Symmetry A'   KE= 5.363331232458D+01
 Symmetry A"   KE= 2.653109179337D+00
   2 Symmetry operations used in ECPInt.
 ECPInt:  NShTT=    1128 NPrTT=    2403 LenC2=    1129 LenP2D=    2319.
 LDataN:  DoStor=T MaxTD1= 9 Len=  602
 Calling FoFJK, ICntrl=      2527 FMM=F ISym2X=1 I1Cent= 0 IOpClX= 0 NMat=1 NMatS=1 NMatT=0.
 ***** Axes restored to original set *****
 -------------------------------------------------------------------
 Center     Atomic                   Forces (Hartrees/Bohr)
 Number     Number              X              Y              Z
 -------------------------------------------------------------------
      1        7          -0.000004185   -0.014418739   -0.000000000
      2        1          -0.006088767    0.004806373   -0.000000000
      3        1           0.003046476    0.004806183   -0.005303388
      4        1           0.003046476    0.004806183    0.005303388
 -------------------------------------------------------------------
 Cartesian Forces:  Max     0.014418739 RMS     0.005694200

 GradGradGradGradGradGradGradGradGradGradGradGradGradGradGradGradGradGrad
 Berny optimization.
 FormGI is forming the generalized inverse of G from B-inverse, IUseBI=4.
 Internal  Forces:  Max     0.007555930 RMS     0.005168887
 Search for a local minimum.
 Step number   1 out of a maximum of   20
 All quantities printed in internal units (Hartrees-Bohrs-Radians)
 Mixed Optimization -- RFO/linear search
 Second derivative matrix not updated -- first step.
 The second derivative matrix:
                          R1        R2        R3        A1        A2
           R1           0.42577
           R2           0.00000   0.42573
           R3           0.00000   0.00000   0.42573
           A1           0.00000   0.00000   0.00000   0.16000
           A2           0.00000   0.00000   0.00000   0.00000   0.16000
           A3           0.00000   0.00000   0.00000   0.00000   0.00000
           D1           0.00000   0.00000   0.00000   0.00000   0.00000
                          A3        D1
           A3           0.16000
           D1           0.00000   0.00613
 ITU=  0
     Eigenvalues ---    0.06938   0.16000   0.16000   0.42573   0.42573
     Eigenvalues ---    0.42577
 RFO step:  Lambda=-5.72880144D-04 EMin= 6.93793247D-02
 Linear search not attempted -- first point.
 Iteration  1 RMS(Cart)=  0.01178295 RMS(Int)=  0.00034449
 Iteration  2 RMS(Cart)=  0.00025187 RMS(Int)=  0.00022307
 Iteration  3 RMS(Cart)=  0.00000004 RMS(Int)=  0.00022307
 ClnCor:  largest displacement from symmetrization is 9.21D-04 for atom     4.
 Variable       Old X    -DE/DX   Delta X   Delta X   Delta X     New X
                                 (Linear)    (Quad)   (Total)
    R1        1.94895  -0.00753   0.00000  -0.01766  -0.01766   1.93128
    R2        1.94900  -0.00756   0.00000  -0.01772  -0.01799   1.93100
    R3        1.94900  -0.00756   0.00000  -0.01772  -0.01799   1.93100
    A1        1.81693   0.00062   0.00000   0.01789   0.01792   1.83485
    A2        1.81693   0.00231   0.00000   0.01889   0.01792   1.83485
    A3        1.81713   0.00228   0.00000   0.01870   0.01869   1.83582
    D1        1.89887   0.00229   0.00000   0.03268   0.03327   1.93214
         Item               Value     Threshold  Converged?
 Maximum Force            0.007556     0.000450     NO 
 RMS     Force            0.005169     0.000300     NO 
 Maximum Displacement     0.026495     0.001800     NO 
 RMS     Displacement     0.011826     0.001200     NO 
 Predicted change in Energy=-2.890693D-04
 GradGradGradGradGradGradGradGradGradGradGradGradGradGradGradGradGradGrad

                          Input orientation:                          
 ---------------------------------------------------------------------
 Center     Atomic      Atomic             Coordinates (Angstroms)
 Number     Number       Type             X           Y           Z
 ---------------------------------------------------------------------
      1          7           0        7.265130    7.699148    7.500000
      2          1           0        8.202292    7.291480    7.500000
      3          1           0        6.796971    7.291523    8.311683
      4          1           0        6.796971    7.291523    6.688317
 ---------------------------------------------------------------------
                    Distance matrix (angstroms):
                    1          2          3          4
     1  N    0.000000
     2  H    1.021991   0.000000
     3  H    1.021842   1.622885   0.000000
     4  H    1.021842   1.622885   1.623367   0.000000
 Stoichiometry    H3N
 Framework group  CS[SG(HN),X(H2)]
 Deg. of freedom     4
 Full point group                 CS      NOp   2
 Largest Abelian subgroup         CS      NOp   2
 Largest concise Abelian subgroup CS      NOp   2
                         Standard orientation:                         
 ---------------------------------------------------------------------
 Center     Atomic      Atomic             Coordinates (Angstroms)
 Number     Number       Type             X           Y           Z
 ---------------------------------------------------------------------
      1          7           0        0.000000    0.122292    0.000000
      2          1           0        0.936880   -0.286024   -0.000000
      3          1           0       -0.468440   -0.285010    0.811683
      4          1           0       -0.468440   -0.285010   -0.811683
 ---------------------------------------------------------------------
 Rotational constants (GHZ):         290.4285468         290.2533201         190.3577923
 Standard basis: def2QZVPP (5D, 7F)
 There are   107 symmetry adapted cartesian basis functions of A'  symmetry.
 There are    70 symmetry adapted cartesian basis functions of A"  symmetry.
 There are    87 symmetry adapted basis functions of A'  symmetry.
 There are    60 symmetry adapted basis functions of A"  symmetry.
   147 basis functions,   206 primitive gaussians,   177 cartesian basis functions
     5 alpha electrons        5 beta electrons
       nuclear repulsion energy        11.8527791988 Hartrees.
 NAtoms=    4 NActive=    4 NUniq=    3 SFac= 1.78D+00 NAtFMM=   60 NAOKFM=F Big=F
 Integral buffers will be    131072 words long.
 Raffenetti 2 integral format.
 Two-electron integral symmetry is turned on.
 One-electron integrals computed using PRISM.
   2 Symmetry operations used in ECPInt.
 ECPInt:  NShTT=    1128 NPrTT=    2403 LenC2=    1129 LenP2D=    2319.
 LDataN:  DoStor=T MaxTD1= 8 Len=  415
 NBasis=   147 RedAO= T EigKep=  1.73D-04  NBF=    87    60
 NBsUse=   147 1.00D-06 EigRej= -1.00D+00 NBFU=    87    60
 Initial guess from the checkpoint file:  "/data/hutter/SMG16/TPSS/Gau-85950.chk"
 B after Tr=    -0.000000   -0.000000    0.000000
         Rot=    1.000000    0.000000    0.000000    0.000249 Ang=   0.03 deg.
 Initial guess orbital symmetries:
       Occupied  (A') (A') (A") (A') (A')
       Virtual   (A') (A") (A') (A') (A') (A") (A') (A") (A') (A")
                 (A') (A') (A') (A") (A") (A') (A') (A") (A") (A')
                 (A') (A') (A") (A') (A') (A") (A') (A') (A') (A")
                 (A') (A") (A') (A") (A") (A') (A") (A') (A") (A')
                 (A") (A') (A") (A') (A') (A") (A') (A') (A') (A")
                 (A') (A") (A') (A") (A') (A') (A") (A') (A') (A")
                 (A') (A") (A') (A") (A') (A') (A") (A') (A') (A")
                 (A") (A') (A') (A") (A') (A") (A') (A") (A") (A')
                 (A") (A') (A") (A') (A') (A") (A") (A') (A') (A")
                 (A') (A') (A") (A') (A') (A') (A") (A") (A") (A')
                 (A') (A') (A") (A') (A') (A") (A") (A') (A") (A')
                 (A") (A') (A") (A') (A") (A') (A') (A') (A") (A")
                 (A') (A') (A') (A") (A') (A") (A") (A') (A') (A")
                 (A') (A') (A') (A") (A") (A') (A") (A") (A') (A')
                 (A') (A')
 ExpMin= 8.03D-02 ExpMax= 9.07D+04 ExpMxC= 8.76D+02 IAcc=3 IRadAn=         5 AccDes= 0.00D+00
 Harris functional with IExCor= 1009 and IRadAn=       5 diagonalized for initial guess.
 HarFok:  IExCor= 1009 AccDes= 0.00D+00 IRadAn=         5 IDoV= 1 UseB2=F ITyADJ=14
 ICtDFT=  3500011 ScaDFX=  1.000000  1.000000  1.000000  1.000000
 FoFCou: FMM=F IPFlag=           0 FMFlag=      100000 FMFlg1=           0
         NFxFlg=           0 DoJE=T BraDBF=F KetDBF=T FulRan=T
         wScrn=  0.000000 ICntrl=       500 IOpCl=  0 I1Cent=   200000004 NGrid=           0
         NMat0=    1 NMatS0=      1 NMatT0=    0 NMatD0=    1 NMtDS0=    0 NMtDT0=    0
 Petite list used in FoFCou.
 Keep J ints in memory in symmetry-blocked form, NReq=88831674.
 Requested convergence on RMS density matrix=1.00D-08 within 128 cycles.
 Requested convergence on MAX density matrix=1.00D-06.
 Requested convergence on             energy=1.00D-06.
 No special actions if energy rises.
 Integral accuracy reduced to 1.0D-05 until final iterations.
 Initial convergence to 1.0D-05 achieved.  Increase integral accuracy.
 SCF Done:  E(RTPSS-TPSS) =  -56.5934647036     A.U. after    9 cycles
            NFock=  9  Conv=0.48D-09     -V/T= 2.0048
   2 Symmetry operations used in ECPInt.
 ECPInt:  NShTT=    1128 NPrTT=    2403 LenC2=    1129 LenP2D=    2319.
 LDataN:  DoStor=T MaxTD1= 9 Len=  602
 Calling FoFJK, ICntrl=      2527 FMM=F ISym2X=1 I1Cent= 0 IOpClX= 0 NMat=1 NMatS=1 NMatT=0.
 ***** Axes restored to original set *****
 -------------------------------------------------------------------
 Center     Atomic                   Forces (Hartrees/Bohr)
 Number     Number              X              Y              Z
 -------------------------------------------------------------------
      1        7           0.000179912   -0.004769069    0.000000000
      2        1          -0.000834317    0.001641766   -0.000000000
      3        1           0.000327203    0.001563651   -0.000692809
      4        1           0.000327203    0.001563651    0.000692809
 -------------------------------------------------------------------
 Cartesian Forces:  Max     0.004769069 RMS     0.001638901

 GradGradGradGradGradGradGradGradGradGradGradGradGradGradGradGradGradGrad
 Berny optimization.
 Using GEDIIS/GDIIS optimizer.
 FormGI is forming the generalized inverse of G from B-inverse, IUseBI=4.
 Internal  Forces:  Max     0.001463902 RMS     0.001277728
 Search for a local minimum.
 Step number   2 out of a maximum of   20
 All quantities printed in internal units (Hartrees-Bohrs-Radians)
 Mixed Optimization -- RFO/linear search
 Update second derivatives using D2CorX and points    1    2
 DE= -3.78D-04 DEPred=-2.89D-04 R= 1.31D+00
 TightC=F SS=  1.41D+00  RLast= 5.53D-02 DXNew= 5.0454D-01 1.6590D-01
 Trust test= 1.31D+00 RLast= 5.53D-02 DXMaxT set to 3.00D-01
 The second derivative matrix:
                          R1        R2        R3        A1        A2
           R1           0.42087
           R2          -0.00489   0.42086
           R3          -0.00489  -0.00487   0.42086
           A1           0.03372   0.03435   0.03435   0.14584
           A2           0.02391   0.02434   0.02434  -0.01376   0.14767
           A3           0.02377   0.02420   0.02420  -0.01431  -0.01269
           D1          -0.00992  -0.01012  -0.01012  -0.00050   0.00082
                          A3        D1
           A3           0.14696
           D1           0.00101   0.00776
 ITU=  1  0
 Use linear search instead of GDIIS.
     Eigenvalues ---    0.05017   0.15171   0.16000   0.41718   0.42573
     Eigenvalues ---    0.42576
 RFO step:  Lambda=-4.54326527D-05 EMin= 5.01659331D-02
 Quartic linear search produced a step of  0.43152.
 Iteration  1 RMS(Cart)=  0.01031008 RMS(Int)=  0.00034888
 Iteration  2 RMS(Cart)=  0.00016795 RMS(Int)=  0.00030003
 Iteration  3 RMS(Cart)=  0.00000002 RMS(Int)=  0.00030003
 ClnCor:  largest displacement from symmetrization is 6.19D-04 for atom     4.
 Variable       Old X    -DE/DX   Delta X   Delta X   Delta X     New X
                                 (Linear)    (Quad)   (Total)
    R1        1.93128  -0.00142  -0.00762   0.00161  -0.00601   1.92527
    R2        1.93100  -0.00132  -0.00776   0.00193  -0.00602   1.92498
    R3        1.93100  -0.00132  -0.00776   0.00193  -0.00602   1.92498
    A1        1.83485   0.00037   0.00773   0.00944   0.01693   1.85178
    A2        1.83485   0.00142   0.00773   0.00997   0.01693   1.85178
    A3        1.83582   0.00127   0.00807   0.00880   0.01675   1.85257
    D1        1.93214   0.00146   0.01436   0.01781   0.03280   1.96494
         Item               Value     Threshold  Converged?
 Maximum Force            0.001464     0.000450     NO 
 RMS     Force            0.001278     0.000300     NO 
 Maximum Displacement     0.021771     0.001800     NO 
 RMS     Displacement     0.010225     0.001200     NO 
 Predicted change in Energy=-6.489865D-05
 GradGradGradGradGradGradGradGradGradGradGradGradGradGradGradGradGradGrad

                          Input orientation:                          
 ---------------------------------------------------------------------
 Center     Atomic      Atomic             Coordinates (Angstroms)
 Number     Number       Type             X           Y           Z
 ---------------------------------------------------------------------
      1          7           0        7.265226    7.687627    7.500000
      2          1           0        8.205484    7.295346    7.500000
      3          1           0        6.795481    7.295320    8.314308
      4          1           0        6.795481    7.295320    6.685692
 ---------------------------------------------------------------------
                    Distance matrix (angstroms):
                    1          2          3          4
     1  N    0.000000
     2  H    1.018808   0.000000
     3  H    1.018657   1.628253   0.000000
     4  H    1.018657   1.628253   1.628615   0.000000
 Stoichiometry    H3N
 Framework group  CS[SG(HN),X(H2)]
 Deg. of freedom     4
 Full point group                 CS      NOp   2
 Largest Abelian subgroup         CS      NOp   2
 Largest concise Abelian subgroup CS      NOp   2
                         Standard orientation:                         
 ---------------------------------------------------------------------
 Center     Atomic      Atomic             Coordinates (Angstroms)
 Number     Number       Type             X           Y           Z
 ---------------------------------------------------------------------
      1          7           0        0.000000    0.117690   -0.000000
      2          1           0        0.940002   -0.275205    0.000000
      3          1           0       -0.470001   -0.274311    0.814308
      4          1           0       -0.470001   -0.274311   -0.814308
 ---------------------------------------------------------------------
 Rotational constants (GHZ):         294.0885086         293.9528842         189.1141112
 Standard basis: def2QZVPP (5D, 7F)
 There are   107 symmetry adapted cartesian basis functions of A'  symmetry.
 There are    70 symmetry adapted cartesian basis functions of A"  symmetry.
 There are    87 symmetry adapted basis functions of A'  symmetry.
 There are    60 symmetry adapted basis functions of A"  symmetry.
   147 basis functions,   206 primitive gaussians,   177 cartesian basis functions
     5 alpha electrons        5 beta electrons
       nuclear repulsion energy        11.8835664311 Hartrees.
 NAtoms=    4 NActive=    4 NUniq=    3 SFac= 1.78D+00 NAtFMM=   60 NAOKFM=F Big=F
 Integral buffers will be    131072 words long.
 Raffenetti 2 integral format.
 Two-electron integral symmetry is turned on.
 One-electron integrals computed using PRISM.
   2 Symmetry operations used in ECPInt.
 ECPInt:  NShTT=    1128 NPrTT=    2403 LenC2=    1129 LenP2D=    2319.
 LDataN:  DoStor=T MaxTD1= 8 Len=  415
 NBasis=   147 RedAO= T EigKep=  1.74D-04  NBF=    87    60
 NBsUse=   147 1.00D-06 EigRej= -1.00D+00 NBFU=    87    60
 Initial guess from the checkpoint file:  "/data/hutter/SMG16/TPSS/Gau-85950.chk"
 B after Tr=     0.000000    0.000000   -0.000000
         Rot=    1.000000    0.000000   -0.000000   -0.000035 Ang=  -0.00 deg.
 Initial guess orbital symmetries:
       Occupied  (A') (A') (A") (A') (A')
       Virtual   (A') (A") (A') (A') (A') (A") (A') (A') (A") (A")
                 (A') (A') (A') (A") (A") (A') (A') (A") (A') (A")
                 (A') (A') (A") (A') (A') (A") (A') (A') (A') (A")
                 (A') (A') (A") (A") (A") (A") (A') (A") (A') (A')
                 (A') (A") (A") (A') (A') (A") (A') (A') (A') (A")
                 (A') (A") (A') (A") (A') (A') (A") (A') (A') (A')
                 (A") (A") (A') (A") (A') (A") (A') (A') (A') (A")
                 (A") (A') (A') (A") (A') (A") (A') (A") (A") (A')
                 (A") (A') (A") (A') (A') (A") (A") (A') (A') (A')
                 (A") (A') (A") (A') (A') (A') (A") (A") (A") (A')
                 (A') (A") (A') (A') (A') (A") (A") (A") (A') (A')
                 (A") (A") (A') (A') (A') (A") (A') (A') (A") (A')
                 (A') (A") (A') (A") (A') (A") (A") (A') (A') (A")
                 (A') (A') (A") (A') (A') (A") (A") (A") (A') (A')
                 (A') (A')
 ExpMin= 8.03D-02 ExpMax= 9.07D+04 ExpMxC= 8.76D+02 IAcc=3 IRadAn=         5 AccDes= 0.00D+00
 Harris functional with IExCor= 1009 and IRadAn=       5 diagonalized for initial guess.
 HarFok:  IExCor= 1009 AccDes= 0.00D+00 IRadAn=         5 IDoV= 1 UseB2=F ITyADJ=14
 ICtDFT=  3500011 ScaDFX=  1.000000  1.000000  1.000000  1.000000
 FoFCou: FMM=F IPFlag=           0 FMFlag=      100000 FMFlg1=           0
         NFxFlg=           0 DoJE=T BraDBF=F KetDBF=T FulRan=T
         wScrn=  0.000000 ICntrl=       500 IOpCl=  0 I1Cent=   200000004 NGrid=           0
         NMat0=    1 NMatS0=      1 NMatT0=    0 NMatD0=    1 NMtDS0=    0 NMtDT0=    0
 Petite list used in FoFCou.
 Keep J ints in memory in symmetry-blocked form, NReq=88831674.
 Requested convergence on RMS density matrix=1.00D-08 within 128 cycles.
 Requested convergence on MAX density matrix=1.00D-06.
 Requested convergence on             energy=1.00D-06.
 No special actions if energy rises.
 Integral accuracy reduced to 1.0D-05 until final iterations.
 Initial convergence to 1.0D-05 achieved.  Increase integral accuracy.
 SCF Done:  E(RTPSS-TPSS) =  -56.5935311074     A.U. after    9 cycles
            NFock=  9  Conv=0.81D-09     -V/T= 2.0047
   2 Symmetry operations used in ECPInt.
 ECPInt:  NShTT=    1128 NPrTT=    2403 LenC2=    1129 LenP2D=    2319.
 LDataN:  DoStor=T MaxTD1= 9 Len=  602
 Calling FoFJK, ICntrl=      2527 FMM=F ISym2X=1 I1Cent= 0 IOpClX= 0 NMat=1 NMatS=1 NMatT=0.
 ***** Axes restored to original set *****
 -------------------------------------------------------------------
 Center     Atomic                   Forces (Hartrees/Bohr)
 Number     Number              X              Y              Z
 -------------------------------------------------------------------
      1        7           0.000170015   -0.000221807    0.000000000
      2        1           0.000155750    0.000121587    0.000000000
      3        1          -0.000162882    0.000050110    0.000181969
      4        1          -0.000162882    0.000050110   -0.000181969
 -------------------------------------------------------------------
 Cartesian Forces:  Max     0.000221807 RMS     0.000141849

 GradGradGradGradGradGradGradGradGradGradGradGradGradGradGradGradGradGrad
 Berny optimization.
 Using GEDIIS/GDIIS optimizer.
 FormGI is forming the generalized inverse of G from B-inverse, IUseBI=4.
 Internal  Forces:  Max     0.000209022 RMS     0.000164513
 Search for a local minimum.
 Step number   3 out of a maximum of   20
 All quantities printed in internal units (Hartrees-Bohrs-Radians)
 Mixed Optimization -- En-DIIS/RFO-DIIS
 Update second derivatives using D2CorX and points    1    2    3
 DE= -6.64D-05 DEPred=-6.49D-05 R= 1.02D+00
 TightC=F SS=  1.41D+00  RLast= 4.51D-02 DXNew= 5.0454D-01 1.3543D-01
 Trust test= 1.02D+00 RLast= 4.51D-02 DXMaxT set to 3.00D-01
 The second derivative matrix:
                          R1        R2        R3        A1        A2
           R1           0.42537
           R2           0.00008   0.42630
           R3           0.00008   0.00057   0.42630
           A1           0.05122   0.05185   0.05185   0.13533
           A2           0.02973   0.02995   0.02995  -0.02680   0.13902
           A3           0.02941   0.02962   0.02962  -0.02718  -0.02118
           D1          -0.02501  -0.02552  -0.02552  -0.00445   0.00618
                          A3        D1
           A3           0.13862
           D1           0.00638   0.02026
 ITU=  1  1  0
 Use linear search instead of GDIIS.
     Eigenvalues ---    0.04597   0.15343   0.16000   0.42569   0.42573
     Eigenvalues ---    0.43127
 RFO step:  Lambda=-8.28213582D-07 EMin= 4.59748577D-02
 Quartic linear search produced a step of  0.09038.
 Iteration  1 RMS(Cart)=  0.00145417 RMS(Int)=  0.00002160
 Iteration  2 RMS(Cart)=  0.00000228 RMS(Int)=  0.00002145
 Iteration  3 RMS(Cart)=  0.00000000 RMS(Int)=  0.00002145
 ClnCor:  largest displacement from symmetrization is 3.20D-05 for atom     4.
 Variable       Old X    -DE/DX   Delta X   Delta X   Delta X     New X
                                 (Linear)    (Quad)   (Total)
    R1        1.92527   0.00010  -0.00054   0.00046  -0.00008   1.92519
    R2        1.92498   0.00020  -0.00054   0.00071   0.00016   1.92514
    R3        1.92498   0.00020  -0.00054   0.00071   0.00016   1.92514
    A1        1.85178   0.00007   0.00153   0.00079   0.00230   1.85408
    A2        1.85178   0.00021   0.00153   0.00081   0.00230   1.85408
    A3        1.85257   0.00009   0.00151   0.00011   0.00161   1.85418
    D1        1.96494   0.00021   0.00296   0.00129   0.00430   1.96923
         Item               Value     Threshold  Converged?
 Maximum Force            0.000209     0.000450     YES
 RMS     Force            0.000165     0.000300     YES
 Maximum Displacement     0.002467     0.001800     NO 
 RMS     Displacement     0.001449     0.001200     NO 
 Predicted change in Energy=-8.485341D-07
 GradGradGradGradGradGradGradGradGradGradGradGradGradGradGradGradGradGrad

                          Input orientation:                          
 ---------------------------------------------------------------------
 Center     Atomic      Atomic             Coordinates (Angstroms)
 Number     Number       Type             X           Y           Z
 ---------------------------------------------------------------------
      1          7           0        7.265376    7.686322    7.500000
      2          1           0        8.206331    7.295823    7.500000
      3          1           0        6.794990    7.295733    8.314866
      4          1           0        6.794990    7.295733    6.685134
 ---------------------------------------------------------------------
                    Distance matrix (angstroms):
                    1          2          3          4
     1  N    0.000000
     2  H    1.018766   0.000000
     3  H    1.018739   1.629690   0.000000
     4  H    1.018739   1.629690   1.629732   0.000000
 Stoichiometry    H3N
 Framework group  CS[SG(HN),X(H2)]
 Deg. of freedom     4
 Full point group                 CS      NOp   2
 Largest Abelian subgroup         CS      NOp   2
 Largest concise Abelian subgroup CS      NOp   2
                         Standard orientation:                         
 ---------------------------------------------------------------------
 Center     Atomic      Atomic             Coordinates (Angstroms)
 Number     Number       Type             X           Y           Z
 ---------------------------------------------------------------------
      1          7           0        0.000000    0.117168    0.000000
      2          1           0        0.940894   -0.273477   -0.000000
      3          1           0       -0.470447   -0.273348    0.814866
      4          1           0       -0.470447   -0.273348   -0.814866
 ---------------------------------------------------------------------
 Rotational constants (GHZ):         294.2343690         294.2185445         188.8054847
 Standard basis: def2QZVPP (5D, 7F)
 There are   107 symmetry adapted cartesian basis functions of A'  symmetry.
 There are    70 symmetry adapted cartesian basis functions of A"  symmetry.
 There are    87 symmetry adapted basis functions of A'  symmetry.
 There are    60 symmetry adapted basis functions of A"  symmetry.
   147 basis functions,   206 primitive gaussians,   177 cartesian basis functions
     5 alpha electrons        5 beta electrons
       nuclear repulsion energy        11.8823344736 Hartrees.
 NAtoms=    4 NActive=    4 NUniq=    3 SFac= 1.78D+00 NAtFMM=   60 NAOKFM=F Big=F
 Integral buffers will be    131072 words long.
 Raffenetti 2 integral format.
 Two-electron integral symmetry is turned on.
 One-electron integrals computed using PRISM.
   2 Symmetry operations used in ECPInt.
 ECPInt:  NShTT=    1128 NPrTT=    2403 LenC2=    1129 LenP2D=    2319.
 LDataN:  DoStor=T MaxTD1= 8 Len=  415
 NBasis=   147 RedAO= T EigKep=  1.74D-04  NBF=    87    60
 NBsUse=   147 1.00D-06 EigRej= -1.00D+00 NBFU=    87    60
 Initial guess from the checkpoint file:  "/data/hutter/SMG16/TPSS/Gau-85950.chk"
 B after Tr=    -0.000000    0.000000   -0.000000
         Rot=    1.000000   -0.000000    0.000000   -0.000218 Ang=  -0.03 deg.
 Initial guess orbital symmetries:
       Occupied  (A') (A') (A") (A') (A')
       Virtual   (A') (A") (A') (A') (A') (A") (A') (A') (A") (A")
                 (A') (A') (A') (A") (A") (A') (A') (A") (A') (A")
                 (A') (A') (A") (A') (A') (A") (A') (A') (A') (A")
                 (A') (A') (A") (A") (A") (A") (A') (A") (A') (A')
                 (A') (A") (A") (A') (A') (A") (A') (A') (A') (A')
                 (A") (A") (A') (A") (A') (A') (A") (A') (A') (A')
                 (A") (A") (A') (A") (A') (A") (A') (A') (A') (A")
                 (A") (A') (A') (A") (A') (A") (A") (A') (A") (A")
                 (A') (A') (A") (A') (A') (A") (A") (A') (A') (A')
                 (A") (A') (A") (A') (A') (A') (A") (A") (A') (A")
                 (A') (A") (A') (A') (A') (A") (A") (A') (A") (A")
                 (A') (A") (A') (A') (A') (A") (A') (A') (A") (A')
                 (A') (A") (A') (A") (A") (A') (A") (A') (A') (A")
                 (A') (A') (A") (A') (A') (A") (A") (A") (A') (A')
                 (A') (A')
 Keep J ints in memory in symmetry-blocked form, NReq=88831674.
 Requested convergence on RMS density matrix=1.00D-08 within 128 cycles.
 Requested convergence on MAX density matrix=1.00D-06.
 Requested convergence on             energy=1.00D-06.
 No special actions if energy rises.
 SCF Done:  E(RTPSS-TPSS) =  -56.5935319884     A.U. after    6 cycles
            NFock=  6  Conv=0.19D-08     -V/T= 2.0047
   2 Symmetry operations used in ECPInt.
 ECPInt:  NShTT=    1128 NPrTT=    2403 LenC2=    1129 LenP2D=    2319.
 LDataN:  DoStor=T MaxTD1= 9 Len=  602
 Calling FoFJK, ICntrl=      2527 FMM=F ISym2X=1 I1Cent= 0 IOpClX= 0 NMat=1 NMatS=1 NMatT=0.
 ***** Axes restored to original set *****
 -------------------------------------------------------------------
 Center     Atomic                   Forces (Hartrees/Bohr)
 Number     Number              X              Y              Z
 -------------------------------------------------------------------
      1        7           0.000026416   -0.000000955   -0.000000000
      2        1          -0.000003081    0.000007951   -0.000000000
      3        1          -0.000011668   -0.000003498    0.000007449
      4        1          -0.000011668   -0.000003498   -0.000007449
 -------------------------------------------------------------------
 Cartesian Forces:  Max     0.000026416 RMS     0.000009913

 GradGradGradGradGradGradGradGradGradGradGradGradGradGradGradGradGradGrad
 Berny optimization.
 Using GEDIIS/GDIIS optimizer.
 FormGI is forming the generalized inverse of G from B-inverse, IUseBI=4.
 Internal  Forces:  Max     0.000012644 RMS     0.000008533
 Search for a local minimum.
 Step number   4 out of a maximum of   20
 All quantities printed in internal units (Hartrees-Bohrs-Radians)
 Mixed Optimization -- En-DIIS/RFO-DIIS
 Swapping is turned off.
 Update second derivatives using D2CorX and points    1    2    3    4
 DE= -8.81D-07 DEPred=-8.49D-07 R= 1.04D+00
 Trust test= 1.04D+00 RLast= 5.63D-03 DXMaxT set to 3.00D-01
 The second derivative matrix:
                          R1        R2        R3        A1        A2
           R1           0.42445
           R2          -0.00064   0.42454
           R3          -0.00064  -0.00119   0.42454
           A1           0.03954   0.03315   0.03315   0.11362
           A2           0.02688   0.02305   0.02305  -0.04877   0.12530
           A3           0.02593   0.02319   0.02319  -0.04158  -0.03118
           D1          -0.01341  -0.01014  -0.01014  -0.00629   0.01644
                          A3        D1
           A3           0.13149
           D1           0.01165   0.03735
 ITU=  0  1  1  0
     Eigenvalues ---    0.04385   0.15431   0.15959   0.42488   0.42573
     Eigenvalues ---    0.42788
 En-DIIS/RFO-DIIS/Sim-DIIS IScMMF=       -3 using points:     4    3
 RFO step:  Lambda=-2.15988670D-09.
 DidBck=F Rises=F RFO-DIIS coefs:    1.02328   -0.02328
 Iteration  1 RMS(Cart)=  0.00004026 RMS(Int)=  0.00000007
 Iteration  2 RMS(Cart)=  0.00000000 RMS(Int)=  0.00000007
 ClnCor:  largest displacement from symmetrization is 5.64D-07 for atom     4.
 Variable       Old X    -DE/DX   Delta X   Delta X   Delta X     New X
                                 (Linear)    (Quad)   (Total)
    R1        1.92519  -0.00001  -0.00000  -0.00002  -0.00002   1.92517
    R2        1.92514   0.00001   0.00000   0.00002   0.00002   1.92516
    R3        1.92514   0.00001   0.00000   0.00002   0.00002   1.92516
    A1        1.85408   0.00000   0.00005   0.00002   0.00007   1.85415
    A2        1.85408   0.00001   0.00005   0.00002   0.00007   1.85415
    A3        1.85418  -0.00001   0.00004  -0.00006  -0.00002   1.85416
    D1        1.96923   0.00001   0.00010   0.00000   0.00010   1.96934
         Item               Value     Threshold  Converged?
 Maximum Force            0.000013     0.000450     YES
 RMS     Force            0.000009     0.000300     YES
 Maximum Displacement     0.000050     0.001800     YES
 RMS     Displacement     0.000040     0.001200     YES
 Predicted change in Energy=-1.142582D-09
 Optimization completed.
    -- Stationary point found.
                           ----------------------------
                           !   Optimized Parameters   !
                           ! (Angstroms and Degrees)  !
 --------------------------                            --------------------------
 ! Name  Definition              Value          Derivative Info.                !
 --------------------------------------------------------------------------------
 ! R1    R(1,2)                  1.0188         -DE/DX =    0.0                 !
 ! R2    R(1,3)                  1.0187         -DE/DX =    0.0                 !
 ! R3    R(1,4)                  1.0187         -DE/DX =    0.0                 !
 ! A1    A(2,1,3)              106.2307         -DE/DX =    0.0                 !
 ! A2    A(2,1,4)              106.2307         -DE/DX =    0.0                 !
 ! A3    A(3,1,4)              106.2367         -DE/DX =    0.0                 !
 ! D1    D(2,1,4,3)            112.8288         -DE/DX =    0.0                 !
 --------------------------------------------------------------------------------
 GradGradGradGradGradGradGradGradGradGradGradGradGradGradGradGradGradGrad

                          Input orientation:                          
 ---------------------------------------------------------------------
 Center     Atomic      Atomic             Coordinates (Angstroms)
 Number     Number       Type             X           Y           Z
 ---------------------------------------------------------------------
      1          7           0        7.265376    7.686322    7.500000
      2          1           0        8.206331    7.295823    7.500000
      3          1           0        6.794990    7.295733    8.314866
      4          1           0        6.794990    7.295733    6.685134
 ---------------------------------------------------------------------
                    Distance matrix (angstroms):
                    1          2          3          4
     1  N    0.000000
     2  H    1.018766   0.000000
     3  H    1.018739   1.629690   0.000000
     4  H    1.018739   1.629690   1.629732   0.000000
 Stoichiometry    H3N
 Framework group  CS[SG(HN),X(H2)]
 Deg. of freedom     4
 Full point group                 CS      NOp   2
 Largest Abelian subgroup         CS      NOp   2
 Largest concise Abelian subgroup CS      NOp   2
                         Standard orientation:                         
 ---------------------------------------------------------------------
 Center     Atomic      Atomic             Coordinates (Angstroms)
 Number     Number       Type             X           Y           Z
 ---------------------------------------------------------------------
      1          7           0       -0.000000    0.117168   -0.000000
      2          1           0        0.940894   -0.273477   -0.000000
      3          1           0       -0.470447   -0.273348    0.814866
      4          1           0       -0.470447   -0.273348   -0.814866
 ---------------------------------------------------------------------
 Rotational constants (GHZ):         294.2343690         294.2185445         188.8054847

 **********************************************************************

            Population analysis using the SCF Density.

 **********************************************************************

 Orbital symmetries:
       Occupied  (A') (A') (A") (A') (A')
       Virtual   (A') (A') (A") (A') (A') (A") (A') (A') (A") (A")
                 (A') (A') (A') (A") (A") (A') (A') (A") (A') (A")
                 (A') (A') (A") (A') (A') (A") (A') (A') (A') (A")
                 (A') (A') (A") (A") (A") (A") (A') (A") (A') (A')
                 (A') (A") (A") (A') (A') (A") (A') (A') (A') (A')
                 (A") (A") (A') (A") (A') (A') (A") (A') (A') (A')
                 (A") (A") (A') (A") (A') (A") (A') (A') (A') (A")
                 (A") (A') (A') (A") (A') (A") (A") (A') (A") (A")
                 (A') (A') (A") (A') (A') (A") (A") (A') (A') (A')
                 (A") (A') (A") (A') (A') (A') (A") (A") (A') (A")
                 (A') (A") (A') (A') (A') (A") (A") (A') (A") (A")
                 (A') (A") (A') (A') (A') (A") (A') (A') (A") (A')
                 (A') (A") (A') (A") (A") (A') (A") (A') (A') (A')
                 (A") (A') (A") (A') (A') (A") (A") (A") (A') (A')
                 (A') (A')
 The electronic state is 1-A'.
 Alpha  occ. eigenvalues --  -14.08170  -0.79400  -0.41800  -0.41798  -0.22975
 Alpha virt. eigenvalues --    0.00389   0.07162   0.07162   0.18599   0.19305
 Alpha virt. eigenvalues --    0.19306   0.30974   0.34608   0.34609   0.39464
 Alpha virt. eigenvalues --    0.39465   0.40048   0.64243   0.70325   0.70469
 Alpha virt. eigenvalues --    0.70470   0.83416   0.83416   0.90464   0.90465
 Alpha virt. eigenvalues --    0.91809   0.97723   1.07704   1.07705   1.13473
 Alpha virt. eigenvalues --    1.15987   1.15987   1.27036   1.61259   1.61259
 Alpha virt. eigenvalues --    1.88764   2.06026   2.06026   2.10435   2.12960
 Alpha virt. eigenvalues --    2.19258   2.19259   2.23654   2.23656   2.24733
 Alpha virt. eigenvalues --    2.29239   2.29241   2.38404   2.38406   2.48350
 Alpha virt. eigenvalues --    2.53168   2.53171   2.55192   2.76087   2.77161
 Alpha virt. eigenvalues --    2.77163   2.93802   2.93809   3.02036   3.12756
 Alpha virt. eigenvalues --    3.21153   3.21154   3.29975   3.47527   3.64297
 Alpha virt. eigenvalues --    3.64301   3.82266   4.03536   4.03543   4.12152
 Alpha virt. eigenvalues --    4.24118   4.24120   4.63956   5.00130   5.00140
 Alpha virt. eigenvalues --    5.78596   5.78598   5.94985   5.99416   5.99421
 Alpha virt. eigenvalues --    6.07030   6.07172   6.07182   6.49761   6.53171
 Alpha virt. eigenvalues --    6.53179   6.65293   6.77105   6.77109   6.96873
 Alpha virt. eigenvalues --    6.96884   7.03222   7.19204   7.26670   7.32245
 Alpha virt. eigenvalues --    7.32246   7.41598   7.41599   7.49499   7.57880
 Alpha virt. eigenvalues --    7.70169   7.70170   7.91886   7.91891   7.95432
 Alpha virt. eigenvalues --    8.04302   8.05965   8.05971   8.06727   8.15995
 Alpha virt. eigenvalues --    8.15995   8.24039   8.35471   8.35471   8.44957
 Alpha virt. eigenvalues --    8.50960   8.50967   8.53882   8.61513   8.74822
 Alpha virt. eigenvalues --    8.74823   9.06385   9.18382   9.18394   9.49054
 Alpha virt. eigenvalues --    9.49334   9.49337   9.75457   9.75462   9.95829
 Alpha virt. eigenvalues --    9.97789  10.14178  10.14185  11.20941  11.26842
 Alpha virt. eigenvalues --   11.26843  11.65433  11.71360  11.71365  11.94567
 Alpha virt. eigenvalues --   11.94580  12.10174  14.59457  14.59458  15.25972
 Alpha virt. eigenvalues --   38.10850 199.23428
          Condensed to atoms (all electrons):
               1          2          3          4
     1  N    6.273214   0.413669   0.413681   0.413681
     2  H    0.413669   0.491320  -0.038202  -0.038202
     3  H    0.413681  -0.038202   0.491308  -0.038202
     4  H    0.413681  -0.038202  -0.038202   0.491308
 Mulliken charges:
               1
     1  N   -0.514245
     2  H    0.171414
     3  H    0.171415
     4  H    0.171415
 Sum of Mulliken charges =  -0.00000
 Mulliken charges with hydrogens summed into heavy atoms:
               1
     1  N   -0.000000
 Electronic spatial extent (au):  <R**2>=             27.0054
 Charge=             -0.0000 electrons
 Dipole moment (field-independent basis, Debye):
    X=             -0.0001    Y=             -1.5348    Z=              0.0000  Tot=              1.5348
 Quadrupole moment (field-independent basis, Debye-Ang):
   XX=             -6.3344   YY=             -9.3591   ZZ=             -6.3341
   XY=             -0.0003   XZ=              0.0000   YZ=              0.0000
 Traceless Quadrupole moment (field-independent basis, Debye-Ang):
   XX=              1.0081   YY=             -2.0165   ZZ=              1.0084
   XY=             -0.0003   XZ=              0.0000   YZ=              0.0000
 Octapole moment (field-independent basis, Debye-Ang**2):
  XXX=              0.8803  YYY=             -1.2978  ZZZ=              0.0000  XYY=              0.0000
  XXY=             -0.8156  XXZ=             -0.0000  XZZ=             -0.8805  YZZ=             -0.8155
  YYZ=              0.0000  XYZ=             -0.0000
 Hexadecapole moment (field-independent basis, Debye-Ang**3):
 XXXX=            -10.4662 YYYY=            -12.7555 ZZZZ=            -10.4658 XXXY=             -0.3429
 XXXZ=              0.0000 YYYX=              0.0000 YYYZ=              0.0000 ZZZX=              0.0000
 ZZZY=             -0.0000 XXYY=             -3.9670 XXZZ=             -3.4887 YYZZ=             -3.9671
 XXYZ=              0.0000 YYXZ=              0.0000 ZZXY=              0.3428
 N-N= 1.188233447357D+01 E-N=-1.558936512095D+02  KE= 5.633063930955D+01
 Symmetry A'   KE= 5.365728948994D+01
 Symmetry A"   KE= 2.673349819611D+00
 Unable to Open any file for archive entry.
 1\1\GINC-TCOPT10\FOpt\RTPSSTPSS\def2QZVPP\H3N1\HUTTER\01-Aug-2021\0\\#
 N RTPSSTPSS/Def2QZVPP scf=tight Int(Grid=ultrafine) OPT FREQ\\Mol job 
 1\\0,1\N,7.2653762221,7.6863218465,7.5\H,8.2063307595,7.2958231779,7.5
 \H,6.7949900763,7.2957328019,8.3148660494\H,6.7949900763,7.2957328019,
 6.6851339506\\Version=ES64L-G16RevC.01\State=1-A'\HF=-56.593532\RMSD=1
 .867e-09\RMSF=9.913e-06\Dipole=0.0000644,-0.6038344,0.\Quadrupole=0.74
 95276,-1.4992543,0.7497267,0.0001322,0.,0.\PG=CS [SG(H1N1),X(H2)]\\@
 The archive entry for this job was punched.


 FROM WHENCE IT HAPPENS, THAT THEY WHICH TRUST TO BOOKS, DO AS THEY THAT CAST UP MANY LITTLE SUMMS INTO GREATER,
 WITHOUT CONSIDERING WETHER THOSE LITTLE SUMMES WERE RIGHTLY CAST UP OR NOT...
 AND AT LAST FINDING THE ERROUR VISIBLE, AND NOT MISTRUSTING THEIR FIRST GROUNDS,
 KNOW NOT WHICH WAY TO CLEERE THEMSELVES...
 BUT SPEND TIME IN FLUTTERING OVER THEIR BOOKES....
 AS BIRDS THAT ENTERING BY THE CHIMNEY, AND FINDING THEMSELVES INCLOSED IN A CHAMBER,
 FLUTTER AT THE FALSE LIGHT OF A GLASSE WINDOW,
 FOR WANT OF WIT TO CONSIDER WHICH WAY THEY CAME IN....
           LEVIATHAN
 Job cpu time:       0 days  0 hours  8 minutes 17.5 seconds.
 Elapsed time:       0 days  0 hours  1 minutes 32.3 seconds.
 File lengths (MBytes):  RWF=     15 Int=      0 D2E=      0 Chk=      3 Scr=      1
 Normal termination of Gaussian 16 at Sun Aug  1 00:21:41 2021.
 Link1:  Proceeding to internal job step number  2.
 ----------------------------------------------------------------------
 #N Geom=AllCheck Guess=TCheck SCRF=Check GenChk RTPSSTPSS/def2QZVPP Fr
 eq
 ----------------------------------------------------------------------
 1/10=4,29=7,30=1,38=1,40=1/1,3;
 2/12=2,40=1/2;
 3/5=45,7=202,11=2,14=-4,25=1,30=1,70=2,71=2,74=2523,75=-5,116=1,140=1/1,2,3;
 4/5=101/1;
 5/5=2,32=2,38=6,98=1/2;
 8/6=4,10=90,11=11/1;
 11/6=1,8=1,9=11,15=111,16=1/1,2,10;
 10/6=1/2;
 6/7=2,8=2,9=2,10=2,28=1/1;
 7/8=1,10=1,25=1/1,2,3,16;
 1/10=4,30=1/3;
 99//99;
 Structure from the checkpoint file:  "/data/hutter/SMG16/TPSS/Gau-85950.chk"
 ---------
 Mol job 1
 ---------
 Charge =  0 Multiplicity = 1
 Redundant internal coordinates found in file.  (old form).
 N,0,7.2653762221,7.6863218465,7.5
 H,0,8.2063307595,7.2958231779,7.5
 H,0,6.7949900763,7.2957328019,8.3148660494
 H,0,6.7949900763,7.2957328019,6.6851339506
 Recover connectivity data from disk.

 GradGradGradGradGradGradGradGradGradGradGradGradGradGradGradGradGradGrad
 Berny optimization.
 Initialization pass.
                           ----------------------------
                           !    Initial Parameters    !
                           ! (Angstroms and Degrees)  !
 --------------------------                            --------------------------
 ! Name  Definition              Value          Derivative Info.                !
 --------------------------------------------------------------------------------
 ! R1    R(1,2)                  1.0188         calculate D2E/DX2 analytically  !
 ! R2    R(1,3)                  1.0187         calculate D2E/DX2 analytically  !
 ! R3    R(1,4)                  1.0187         calculate D2E/DX2 analytically  !
 ! A1    A(2,1,3)              106.2307         calculate D2E/DX2 analytically  !
 ! A2    A(2,1,4)              106.2307         calculate D2E/DX2 analytically  !
 ! A3    A(3,1,4)              106.2367         calculate D2E/DX2 analytically  !
 ! D1    D(2,1,4,3)            112.8288         calculate D2E/DX2 analytically  !
 --------------------------------------------------------------------------------
 Trust Radius=3.00D-01 FncErr=1.00D-07 GrdErr=1.00D-07 EigMax=2.50D+02 EigMin=1.00D-04
 Number of steps in this run=      2 maximum allowed number of steps=      2.
 GradGradGradGradGradGradGradGradGradGradGradGradGradGradGradGradGradGrad

                          Input orientation:                          
 ---------------------------------------------------------------------
 Center     Atomic      Atomic             Coordinates (Angstroms)
 Number     Number       Type             X           Y           Z
 ---------------------------------------------------------------------
      1          7           0        7.265376    7.686322    7.500000
      2          1           0        8.206331    7.295823    7.500000
      3          1           0        6.794990    7.295733    8.314866
      4          1           0        6.794990    7.295733    6.685134
 ---------------------------------------------------------------------
                    Distance matrix (angstroms):
                    1          2          3          4
     1  N    0.000000
     2  H    1.018766   0.000000
     3  H    1.018739   1.629690   0.000000
     4  H    1.018739   1.629690   1.629732   0.000000
 Stoichiometry    H3N
 Framework group  CS[SG(HN),X(H2)]
 Deg. of freedom     4
 Full point group                 CS      NOp   2
 Largest Abelian subgroup         CS      NOp   2
 Largest concise Abelian subgroup CS      NOp   2
                         Standard orientation:                         
 ---------------------------------------------------------------------
 Center     Atomic      Atomic             Coordinates (Angstroms)
 Number     Number       Type             X           Y           Z
 ---------------------------------------------------------------------
      1          7           0        0.000000    0.117168    0.000000
      2          1           0        0.940894   -0.273477   -0.000000
      3          1           0       -0.470447   -0.273348    0.814866
      4          1           0       -0.470447   -0.273348   -0.814866
 ---------------------------------------------------------------------
 Rotational constants (GHZ):         294.2343690         294.2185445         188.8054847
 Standard basis: def2QZVPP (5D, 7F)
 There are   107 symmetry adapted cartesian basis functions of A'  symmetry.
 There are    70 symmetry adapted cartesian basis functions of A"  symmetry.
 There are    87 symmetry adapted basis functions of A'  symmetry.
 There are    60 symmetry adapted basis functions of A"  symmetry.
   147 basis functions,   206 primitive gaussians,   177 cartesian basis functions
     5 alpha electrons        5 beta electrons
       nuclear repulsion energy        11.8823344736 Hartrees.
 NAtoms=    4 NActive=    4 NUniq=    3 SFac= 1.78D+00 NAtFMM=   60 NAOKFM=F Big=F
 Integral buffers will be    131072 words long.
 Raffenetti 2 integral format.
 Two-electron integral symmetry is turned on.
 One-electron integrals computed using PRISM.
   2 Symmetry operations used in ECPInt.
 ECPInt:  NShTT=    1128 NPrTT=    2403 LenC2=    1129 LenP2D=    2319.
 LDataN:  DoStor=T MaxTD1= 8 Len=  415
 NBasis=   147 RedAO= T EigKep=  1.74D-04  NBF=    87    60
 NBsUse=   147 1.00D-06 EigRej= -1.00D+00 NBFU=    87    60
 Initial guess from the checkpoint file:  "/data/hutter/SMG16/TPSS/Gau-85950.chk"
 B after Tr=     0.000000   -0.000000    0.000000
         Rot=    1.000000   -0.000000    0.000000   -0.000000 Ang=   0.00 deg.
 Initial guess orbital symmetries:
       Occupied  (A') (A') (A") (A') (A')
       Virtual   (A') (A') (A") (A') (A') (A") (A') (A') (A") (A")
                 (A') (A') (A') (A") (A") (A') (A') (A") (A') (A")
                 (A') (A') (A") (A') (A') (A") (A') (A') (A') (A")
                 (A') (A') (A") (A") (A") (A") (A') (A") (A') (A')
                 (A') (A") (A") (A') (A') (A") (A') (A') (A') (A')
                 (A") (A") (A') (A") (A') (A') (A") (A') (A') (A')
                 (A") (A") (A') (A") (A') (A") (A') (A') (A') (A")
                 (A") (A') (A') (A") (A') (A") (A") (A') (A") (A")
                 (A') (A') (A") (A') (A') (A") (A") (A') (A') (A')
                 (A") (A') (A") (A') (A') (A') (A") (A") (A') (A")
                 (A') (A") (A') (A') (A') (A") (A") (A') (A") (A")
                 (A') (A") (A') (A') (A') (A") (A') (A') (A") (A')
                 (A') (A") (A') (A") (A") (A') (A") (A') (A') (A')
                 (A") (A') (A") (A') (A') (A") (A") (A") (A') (A')
                 (A') (A')
 Keep J ints in memory in symmetry-blocked form, NReq=88831674.
 Requested convergence on RMS density matrix=1.00D-08 within 128 cycles.
 Requested convergence on MAX density matrix=1.00D-06.
 Requested convergence on             energy=1.00D-06.
 No special actions if energy rises.
 SCF Done:  E(RTPSS-TPSS) =  -56.5935319884     A.U. after    1 cycles
            NFock=  1  Conv=0.66D-09     -V/T= 2.0047
 DoSCS=F DFT=T ScalE2(SS,OS)=  1.000000  1.000000
 Range of M.O.s used for correlation:     1   147
 NBasis=   147 NAE=     5 NBE=     5 NFC=     0 NFV=     0
 NROrb=    147 NOA=     5 NOB=     5 NVA=   142 NVB=   142

 **** Warning!!: The largest alpha MO coefficient is  0.19730070D+02

   2 Symmetry operations used in ECPInt.
 ECPInt:  NShTT=    1128 NPrTT=    2403 LenC2=    1129 LenP2D=    2319.
 LDataN:  DoStor=T MaxTD1= 9 Len=  602
 Symmetrizing basis deriv contribution to polar:
 IMax=3 JMax=2 DiffMx= 0.00D+00
 G2DrvN: will do     5 centers at a time, making    1 passes.
 Calling FoFCou, ICntrl=  3507 FMM=F I1Cent=   0 AccDes= 0.00D+00.
 End of G2Drv F.D. properties file   721 does not exist.
 End of G2Drv F.D. properties file   722 does not exist.
 End of G2Drv F.D. properties file   788 does not exist.
          IDoAtm=1111
          Differentiating once with respect to electric field.
                with respect to dipole field.
          Differentiating once with respect to nuclear coordinates.
 Keep J ints in memory in symmetry-blocked form, NReq=88833852.
          There are    12 degrees of freedom in the 1st order CPHF.  IDoFFX=4 NUNeed=    12.
     12 vectors produced by pass  0 Test12= 5.92D-15 8.33D-09 XBig12= 9.78D+00 2.24D+00.
 AX will form    12 AO Fock derivatives at one time.
     12 vectors produced by pass  1 Test12= 5.92D-15 8.33D-09 XBig12= 1.59D+00 6.89D-01.
     12 vectors produced by pass  2 Test12= 5.92D-15 8.33D-09 XBig12= 5.41D-03 2.78D-02.
     12 vectors produced by pass  3 Test12= 5.92D-15 8.33D-09 XBig12= 1.70D-05 2.53D-03.
     11 vectors produced by pass  4 Test12= 5.92D-15 8.33D-09 XBig12= 9.79D-09 2.81D-05.
      4 vectors produced by pass  5 Test12= 5.92D-15 8.33D-09 XBig12= 9.00D-12 6.82D-07.
      1 vectors produced by pass  6 Test12= 5.92D-15 8.33D-09 XBig12= 1.23D-14 2.84D-08.
 InvSVY:  IOpt=1 It=  1 EMax= 8.88D-16
 Solved reduced A of dimension    64 with    12 vectors.
 Isotropic polarizability for W=    0.000000       13.14 Bohr**3.
 End of Minotr F.D. properties file   721 does not exist.
 End of Minotr F.D. properties file   722 does not exist.
 End of Minotr F.D. properties file   788 does not exist.

 **********************************************************************

            Population analysis using the SCF Density.

 **********************************************************************

 Orbital symmetries:
       Occupied  (A') (A') (A") (A') (A')
       Virtual   (A') (A') (A") (A') (A') (A") (A') (A') (A") (A")
                 (A') (A') (A') (A") (A") (A') (A') (A") (A') (A")
                 (A') (A') (A") (A') (A') (A") (A') (A') (A') (A")
                 (A') (A') (A") (A") (A") (A") (A') (A") (A') (A')
                 (A') (A") (A") (A') (A') (A") (A') (A') (A') (A')
                 (A") (A") (A') (A") (A') (A') (A") (A') (A') (A')
                 (A") (A") (A') (A") (A') (A") (A') (A') (A') (A")
                 (A") (A') (A') (A") (A') (A") (A") (A') (A") (A")
                 (A') (A') (A") (A') (A') (A") (A") (A') (A') (A')
                 (A") (A') (A") (A') (A') (A') (A") (A") (A') (A")
                 (A') (A") (A') (A') (A') (A") (A") (A') (A") (A")
                 (A') (A") (A') (A') (A') (A") (A') (A') (A") (A')
                 (A') (A") (A') (A") (A") (A') (A") (A') (A') (A')
                 (A") (A') (A") (A') (A') (A") (A") (A") (A') (A')
                 (A') (A')
 The electronic state is 1-A'.
 Alpha  occ. eigenvalues --  -14.08170  -0.79400  -0.41800  -0.41798  -0.22975
 Alpha virt. eigenvalues --    0.00389   0.07162   0.07162   0.18599   0.19305
 Alpha virt. eigenvalues --    0.19306   0.30974   0.34608   0.34609   0.39464
 Alpha virt. eigenvalues --    0.39465   0.40048   0.64243   0.70325   0.70469
 Alpha virt. eigenvalues --    0.70470   0.83416   0.83416   0.90464   0.90465
 Alpha virt. eigenvalues --    0.91809   0.97723   1.07704   1.07705   1.13473
 Alpha virt. eigenvalues --    1.15987   1.15987   1.27036   1.61259   1.61259
 Alpha virt. eigenvalues --    1.88764   2.06026   2.06026   2.10435   2.12960
 Alpha virt. eigenvalues --    2.19258   2.19259   2.23654   2.23656   2.24733
 Alpha virt. eigenvalues --    2.29239   2.29241   2.38404   2.38406   2.48350
 Alpha virt. eigenvalues --    2.53168   2.53171   2.55192   2.76087   2.77161
 Alpha virt. eigenvalues --    2.77163   2.93802   2.93809   3.02036   3.12756
 Alpha virt. eigenvalues --    3.21153   3.21154   3.29975   3.47527   3.64297
 Alpha virt. eigenvalues --    3.64301   3.82266   4.03536   4.03543   4.12152
 Alpha virt. eigenvalues --    4.24118   4.24120   4.63956   5.00130   5.00140
 Alpha virt. eigenvalues --    5.78596   5.78598   5.94985   5.99416   5.99421
 Alpha virt. eigenvalues --    6.07030   6.07172   6.07182   6.49761   6.53171
 Alpha virt. eigenvalues --    6.53179   6.65293   6.77105   6.77109   6.96873
 Alpha virt. eigenvalues --    6.96884   7.03222   7.19204   7.26670   7.32245
 Alpha virt. eigenvalues --    7.32246   7.41598   7.41599   7.49499   7.57880
 Alpha virt. eigenvalues --    7.70169   7.70170   7.91886   7.91891   7.95432
 Alpha virt. eigenvalues --    8.04302   8.05965   8.05971   8.06727   8.15995
 Alpha virt. eigenvalues --    8.15995   8.24039   8.35471   8.35471   8.44957
 Alpha virt. eigenvalues --    8.50960   8.50967   8.53882   8.61513   8.74822
 Alpha virt. eigenvalues --    8.74823   9.06385   9.18382   9.18394   9.49054
 Alpha virt. eigenvalues --    9.49334   9.49337   9.75457   9.75462   9.95829
 Alpha virt. eigenvalues --    9.97789  10.14178  10.14185  11.20941  11.26842
 Alpha virt. eigenvalues --   11.26843  11.65433  11.71360  11.71365  11.94567
 Alpha virt. eigenvalues --   11.94580  12.10174  14.59457  14.59458  15.25972
 Alpha virt. eigenvalues --   38.10850 199.23428
          Condensed to atoms (all electrons):
               1          2          3          4
     1  N    6.273214   0.413669   0.413681   0.413681
     2  H    0.413669   0.491320  -0.038202  -0.038202
     3  H    0.413681  -0.038202   0.491308  -0.038202
     4  H    0.413681  -0.038202  -0.038202   0.491308
 Mulliken charges:
               1
     1  N   -0.514245
     2  H    0.171414
     3  H    0.171415
     4  H    0.171415
 Sum of Mulliken charges =  -0.00000
 Mulliken charges with hydrogens summed into heavy atoms:
               1
     1  N   -0.000000
 APT charges:
               1
     1  N   -0.384114
     2  H    0.128021
     3  H    0.128047
     4  H    0.128047
 Sum of APT charges =  -0.00000
 APT charges with hydrogens summed into heavy atoms:
               1
     1  N   -0.000000
 Electronic spatial extent (au):  <R**2>=             27.0054
 Charge=             -0.0000 electrons
 Dipole moment (field-independent basis, Debye):
    X=             -0.0001    Y=             -1.5348    Z=             -0.0000  Tot=              1.5348
 Quadrupole moment (field-independent basis, Debye-Ang):
   XX=             -6.3344   YY=             -9.3591   ZZ=             -6.3341
   XY=             -0.0003   XZ=             -0.0000   YZ=              0.0000
 Traceless Quadrupole moment (field-independent basis, Debye-Ang):
   XX=              1.0081   YY=             -2.0165   ZZ=              1.0084
   XY=             -0.0003   XZ=             -0.0000   YZ=              0.0000
 Octapole moment (field-independent basis, Debye-Ang**2):
  XXX=              0.8803  YYY=             -1.2978  ZZZ=             -0.0000  XYY=              0.0000
  XXY=             -0.8156  XXZ=              0.0000  XZZ=             -0.8805  YZZ=             -0.8155
  YYZ=              0.0000  XYZ=             -0.0000
 Hexadecapole moment (field-independent basis, Debye-Ang**3):
 XXXX=            -10.4662 YYYY=            -12.7555 ZZZZ=            -10.4658 XXXY=             -0.3429
 XXXZ=              0.0000 YYYX=              0.0000 YYYZ=              0.0000 ZZZX=              0.0000
 ZZZY=              0.0000 XXYY=             -3.9670 XXZZ=             -3.4887 YYZZ=             -3.9671
 XXYZ=             -0.0000 YYXZ=              0.0000 ZZXY=              0.3428
 N-N= 1.188233447357D+01 E-N=-1.558936511027D+02  KE= 5.633063926685D+01
 Symmetry A'   KE= 5.365728947519D+01
 Symmetry A"   KE= 2.673349791663D+00
  Exact polarizability:      13.002      -0.000      13.429       0.000       0.000      13.002
 Approx polarizability:      18.096      -0.000      17.365      -0.000      -0.000      18.096
   2 Symmetry operations used in ECPInt.
 ECPInt:  NShTT=    1128 NPrTT=    2403 LenC2=    1129 LenP2D=    2319.
 LDataN:  DoStor=T MaxTD1=10 Len=  848
 Calling FoFJK, ICntrl=    100527 FMM=F ISym2X=1 I1Cent= 0 IOpClX= 0 NMat=1 NMatS=1 NMatT=0.
 Full mass-weighted force constant matrix:
 Low frequencies ---  -12.3950   -3.2724   -0.0016   -0.0016   -0.0011   11.7017
 Low frequencies --- 1070.1560 1666.1227 1666.2504
 Diagonal vibrational polarizability:
        0.1498552       3.1867934       0.1496783
 Harmonic frequencies (cm**-1), IR intensities (KM/Mole), Raman scattering
 activities (A**4/AMU), depolarization ratios for plane and unpolarized
 incident light, reduced masses (AMU), force constants (mDyne/A),
 and normal coordinates:
                      1                      2                      3
                     A'                     A'                     A"
 Frequencies --   1070.1559              1666.1227              1666.2504
 Red. masses --      1.1809                 1.0657                 1.0657
 Frc consts  --      0.7968                 1.7430                 1.7433
 IR Inten    --    135.1007                15.3422                15.3259
  Atom  AN      X      Y      Z        X      Y      Z        X      Y      Z
     1   7    -0.00  -0.12  -0.00    -0.07   0.00   0.00    -0.00   0.00  -0.07
     2   1     0.21   0.53   0.00    -0.14  -0.26  -0.00    -0.00  -0.00   0.76
     3   1    -0.10   0.53   0.18     0.53   0.13   0.39     0.39  -0.22   0.08
     4   1    -0.10   0.53  -0.18     0.53   0.13  -0.39    -0.39   0.22   0.08
                      4                      5                      6
                     A'                     A'                     A"
 Frequencies --   3398.2295              3514.8281              3515.0822
 Red. masses --      1.0265                 1.0885                 1.0885
 Frc consts  --      6.9843                 7.9226                 7.9238
 IR Inten    --      5.2087                 0.5151                 0.5173
  Atom  AN      X      Y      Z        X      Y      Z        X      Y      Z
     1   7    -0.00   0.04   0.00    -0.08  -0.00   0.00    -0.00   0.00  -0.08
     2   1     0.55  -0.18   0.00     0.75  -0.30   0.00     0.00  -0.00  -0.03
     3   1    -0.27  -0.18   0.48     0.17   0.15  -0.34    -0.34  -0.26   0.56
     4   1    -0.27  -0.18  -0.48     0.17   0.15   0.34     0.34   0.26   0.56

 -------------------
 - Thermochemistry -
 -------------------
 Temperature   298.150 Kelvin.  Pressure   1.00000 Atm.
 Atom     1 has atomic number  7 and mass  14.00307
 Atom     2 has atomic number  1 and mass   1.00783
 Atom     3 has atomic number  1 and mass   1.00783
 Atom     4 has atomic number  1 and mass   1.00783
 Molecular mass:    17.02655 amu.
 Principal axes and moments of inertia in atomic units:
                           1         2         3
     Eigenvalues --     6.13369   6.13402   9.55873
           X            0.00000   1.00000   0.00013
           Y            0.00000  -0.00013   1.00000
           Z            1.00000   0.00000  -0.00000
 This molecule is an asymmetric top.
 Rotational symmetry number  1.
 Rotational temperatures (Kelvin)     14.12102    14.12026     9.06123
 Rotational constants (GHZ):         294.23437   294.21854   188.80548
 Zero-point vibrational energy      88707.1 (Joules/Mol)
                                   21.20151 (Kcal/Mol)
 Vibrational temperatures:   1539.72  2397.18  2397.36  4889.29  5057.05
          (Kelvin)           5057.42
 
 Zero-point correction=                           0.033787 (Hartree/Particle)
 Thermal correction to Energy=                    0.036652
 Thermal correction to Enthalpy=                  0.037596
 Thermal correction to Gibbs Free Energy=         0.014708
 Sum of electronic and zero-point Energies=            -56.559745
 Sum of electronic and thermal Energies=               -56.556880
 Sum of electronic and thermal Enthalpies=             -56.555936
 Sum of electronic and thermal Free Energies=          -56.578824
 
                     E (Thermal)             CV                S
                      KCal/Mol        Cal/Mol-Kelvin    Cal/Mol-Kelvin
 Total                   23.000              6.351             48.173
 Electronic               0.000              0.000              0.000
 Translational            0.889              2.981             34.441
 Rotational               0.889              2.981             13.650
 Vibrational             21.222              0.389              0.082
                       Q            Log10(Q)             Ln(Q)
 Total Bot       0.171744D-06         -6.765119        -15.577263
 Total V=0       0.596613D+09          8.775693         20.206780
 Vib (Bot)       0.289706D-15        -15.538042        -35.777664
 Vib (V=0)       0.100640D+01          0.002770          0.006378
 Electronic      0.100000D+01          0.000000          0.000000
 Translational   0.276149D+07          6.441144         14.831282
 Rotational      0.214674D+03          2.331779          5.369120
 ***** Axes restored to original set *****
 -------------------------------------------------------------------
 Center     Atomic                   Forces (Hartrees/Bohr)
 Number     Number              X              Y              Z
 -------------------------------------------------------------------
      1        7           0.000026453   -0.000000960    0.000000000
      2        1          -0.000003105    0.000007970    0.000000000
      3        1          -0.000011674   -0.000003505    0.000007460
      4        1          -0.000011674   -0.000003505   -0.000007460
 -------------------------------------------------------------------
 Cartesian Forces:  Max     0.000026453 RMS     0.000009926
 FormGI is forming the generalized inverse of G from B-inverse, IUseBI=4.

 GradGradGradGradGradGradGradGradGradGradGradGradGradGradGradGradGradGrad
 Berny optimization.
 Internal  Forces:  Max     0.000012657 RMS     0.000008541
 Search for a local minimum.
 Step number   1 out of a maximum of    2
 All quantities printed in internal units (Hartrees-Bohrs-Radians)
 Second derivative matrix not updated -- analytic derivatives used.
 The second derivative matrix:
                          R1        R2        R3        A1        A2
           R1           0.43172
           R2          -0.00150   0.43180
           R3          -0.00150  -0.00150   0.43180
           A1           0.00845   0.00846  -0.00782   0.05251
           A2           0.02051  -0.00254   0.02314  -0.04091   0.13463
           A3          -0.00254   0.02050   0.02313  -0.04090  -0.02060
           D1           0.01744   0.01743   0.01144   0.02347   0.00377
                          A3        D1
           A3           0.13461
           D1           0.00377   0.02984
 ITU=  0
     Eigenvalues ---    0.04366   0.14574   0.15332   0.43309   0.43516
     Eigenvalues ---    0.43594
 Angle between quadratic step and forces=  46.24 degrees.
 Linear search not attempted -- first point.
 Iteration  1 RMS(Cart)=  0.00004154 RMS(Int)=  0.00000000
 Iteration  2 RMS(Cart)=  0.00000000 RMS(Int)=  0.00000000
 ClnCor:  largest displacement from symmetrization is 5.52D-11 for atom     4.
 Variable       Old X    -DE/DX   Delta X   Delta X   Delta X     New X
                                 (Linear)    (Quad)   (Total)
    R1        1.92519  -0.00001   0.00000  -0.00002  -0.00002   1.92517
    R2        1.92514   0.00001   0.00000   0.00003   0.00003   1.92516
    R3        1.92514   0.00001   0.00000   0.00003   0.00003   1.92516
    A1        1.85408   0.00000   0.00000   0.00007   0.00007   1.85415
    A2        1.85408   0.00001   0.00000   0.00007   0.00007   1.85415
    A3        1.85418  -0.00001   0.00000  -0.00003  -0.00003   1.85415
    D1        1.96923   0.00001   0.00000   0.00010   0.00010   1.96934
         Item               Value     Threshold  Converged?
 Maximum Force            0.000013     0.000450     YES
 RMS     Force            0.000009     0.000300     YES
 Maximum Displacement     0.000051     0.001800     YES
 RMS     Displacement     0.000042     0.001200     YES
 Predicted change in Energy=-1.206025D-09
 Optimization completed.
    -- Stationary point found.
                           ----------------------------
                           !   Optimized Parameters   !
                           ! (Angstroms and Degrees)  !
 --------------------------                            --------------------------
 ! Name  Definition              Value          Derivative Info.                !
 --------------------------------------------------------------------------------
 ! R1    R(1,2)                  1.0188         -DE/DX =    0.0                 !
 ! R2    R(1,3)                  1.0187         -DE/DX =    0.0                 !
 ! R3    R(1,4)                  1.0187         -DE/DX =    0.0                 !
 ! A1    A(2,1,3)              106.2307         -DE/DX =    0.0                 !
 ! A2    A(2,1,4)              106.2307         -DE/DX =    0.0                 !
 ! A3    A(3,1,4)              106.2367         -DE/DX =    0.0                 !
 ! D1    D(2,1,4,3)            112.8288         -DE/DX =    0.0                 !
 --------------------------------------------------------------------------------
 GradGradGradGradGradGradGradGradGradGradGradGradGradGradGradGradGradGrad


 ----------------------------------------------------------------------

 Electric dipole moment (input orientation):
 (Debye = 10**-18 statcoulomb cm , SI units = C m)
                  (au)            (Debye)         (10**-30 SI)
   Tot        0.603834D+00      0.153479D+01      0.511952D+01
   x          0.647739D-04      0.164639D-03      0.549176D-03
   y         -0.603834D+00     -0.153479D+01     -0.511952D+01
   z          0.000000D+00      0.000000D+00      0.000000D+00

 Dipole polarizability, Alpha (input orientation).
 (esu units = cm**3 , SI units = C**2 m**2 J**-1)
 Alpha(0;0):
               (au)            (10**-24 esu)      (10**-40 SI)
   iso        0.131443D+02      0.194778D+01      0.216720D+01
   aniso      0.427522D+00      0.633522D-01      0.704889D-01
   xx         0.130016D+02      0.192663D+01      0.214367D+01
   yx        -0.218779D-03     -0.324198D-04     -0.360718D-04
   yy         0.134293D+02      0.199002D+01      0.221419D+01
   zx         0.000000D+00      0.000000D+00      0.000000D+00
   zy         0.000000D+00      0.000000D+00      0.000000D+00
   zz         0.130020D+02      0.192670D+01      0.214374D+01

 ----------------------------------------------------------------------

 Dipole orientation:
     7         13.72960886         14.17441881        -14.52357033
     1         15.50767606         14.17460954        -13.78544405
     1         12.84046352         15.71419710        -13.78555936
     1         12.84079389         12.63444979        -13.78555936

 Electric dipole moment (dipole orientation):
 (Debye = 10**-18 statcoulomb cm , SI units = C m)
                  (au)            (Debye)         (10**-30 SI)
   Tot        0.603834D+00      0.153479D+01      0.511952D+01
   x          0.000000D+00      0.000000D+00      0.000000D+00
   y          0.000000D+00      0.000000D+00      0.000000D+00
   z          0.603834D+00      0.153479D+01      0.511952D+01

 Dipole polarizability, Alpha (dipole orientation).
 (esu units = cm**3 , SI units = C**2 m**2 J**-1)
 Alpha(0;0):
               (au)            (10**-24 esu)      (10**-40 SI)
   iso        0.131443D+02      0.194778D+01      0.216720D+01
   aniso      0.427522D+00      0.633522D-01      0.704889D-01
   xx         0.130016D+02      0.192663D+01      0.214367D+01
   yx         0.000000D+00      0.000000D+00      0.000000D+00
   yy         0.130020D+02      0.192670D+01      0.214374D+01
   zx         0.172896D-03      0.256205D-04      0.285066D-04
   zy         0.000000D+00      0.000000D+00      0.000000D+00
   zz         0.134293D+02      0.199002D+01      0.221419D+01

 ----------------------------------------------------------------------
 Unable to Open any file for archive entry.
 1\1\GINC-TCOPT10\Freq\RTPSSTPSS\def2QZVPP\H3N1\HUTTER\01-Aug-2021\0\\#
 N Geom=AllCheck Guess=TCheck SCRF=Check GenChk RTPSSTPSS/def2QZVPP Fre
 q\\Mol job 1\\0,1\N,7.2653762221,7.6863218465,7.5\H,8.2063307595,7.295
 8231779,7.5\H,6.7949900763,7.2957328019,8.3148660494\H,6.7949900763,7.
 2957328019,6.6851339506\\Version=ES64L-G16RevC.01\State=1-A'\HF=-56.59
 3532\RMSD=6.628e-10\RMSF=9.926e-06\ZeroPoint=0.0337867\Thermal=0.03665
 22\ETot=-56.5568798\HTot=-56.5559356\GTot=-56.5788242\Dipole=0.0000648
 ,-0.6038343,0.\DipoleDeriv=-0.3185041,0.000023,0.,0.0000502,-0.515328,
 0.,0.,0.,-0.3185109,0.0595645,0.1116605,0.,0.138186,0.171791,0.,0.,0.,
 0.1527079,0.1294698,-0.0558418,0.0402537,-0.0691181,0.1717685,0.119713
 9,0.040294,0.0967272,0.0829015,0.1294698,-0.0558418,-0.0402537,-0.0691
 181,0.1717685,-0.1197139,-0.040294,-0.0967272,0.0829015\Polar=13.00157
 32,-0.0002188,13.4293105,0.,0.,13.0020046\Quadrupole=0.7495276,-1.4992
 544,0.7497267,0.0001322,0.,0.\PG=CS [SG(H1N1),X(H2)]\NImag=0\\0.608693
 07,0.00007727,0.21593083,0.,0.,0.60880543,-0.34737515,0.11275333,0.,0.
 38295480,0.16839605,-0.07197139,0.,-0.13367984,0.07059442,0.,0.,-0.058
 44813,0.,0.,0.05814978,-0.13065896,-0.05641530,0.12513244,-0.01778982,
 -0.01735811,0.03347818,0.13933175,-0.08423666,-0.07197972,0.14589525,0
 .01046325,0.00068849,-0.01399864,0.06687870,0.07060532,0.12513497,0.09
 770864,-0.27517865,-0.00240738,0.00205982,0.00014918,-0.14066911,-0.11
 583253,0.30178096,-0.13065896,-0.05641530,-0.12513244,-0.01778982,-0.0
 1735811,-0.03347818,0.00911703,0.00689471,0.01794151,0.13933175,-0.084
 23666,-0.07197972,-0.14589525,0.01046325,0.00068849,0.01399864,0.00689
 471,0.00068592,0.01606408,0.06687870,0.07060532,-0.12513497,-0.0977086
 4,-0.27517865,0.00240738,-0.00205982,0.00014918,-0.01794151,-0.0160640
 8,-0.02675149,0.14066911,0.11583253,0.30178096\\-0.00002645,0.00000096
 ,0.,0.00000311,-0.00000797,0.,0.00001167,0.00000350,-0.00000746,0.0000
 1167,0.00000350,0.00000746\\\@
 The archive entry for this job was punched.


 IN NATURE THERE ARE NEITHER REWARDS OR
 PUNISHMENTS -- THERE ARE CONSEQUENCES.

                            -- ROBERT GREEN INGERSOLL
 Job cpu time:       0 days  0 hours  8 minutes 13.2 seconds.
 Elapsed time:       0 days  0 hours  1 minutes 22.3 seconds.
 File lengths (MBytes):  RWF=     15 Int=      0 D2E=      0 Chk=      3 Scr=      1
 Normal termination of Gaussian 16 at Sun Aug  1 00:23:04 2021.
