 Entering Gaussian System, Link 0=g16
 Initial command:
 /sw-ng/spack/opt/spack/linux-opensuse_leap15-sandybridge/pgi-18.10/gaussian-src-16-C.01-zldqaomctopxhethwccpmxmwefdscg3m/g16/l1.exe "/data/hutter/SMG16/TPSS/Gau-20104.inp" -scrdir="/data/hutter/SMG16/TPSS/"
 Entering Link 1 = /sw-ng/spack/opt/spack/linux-opensuse_leap15-sandybridge/pgi-18.10/gaussian-src-16-C.01-zldqaomctopxhethwccpmxmwefdscg3m/g16/l1.exe PID=     20111.
  
 Copyright (c) 1988-2019, Gaussian, Inc.  All Rights Reserved.
  
 This is part of the Gaussian(R) 16 program.  It is based on
 the Gaussian(R) 09 system (copyright 2009, Gaussian, Inc.),
 the Gaussian(R) 03 system (copyright 2003, Gaussian, Inc.),
 the Gaussian(R) 98 system (copyright 1998, Gaussian, Inc.),
 the Gaussian(R) 94 system (copyright 1995, Gaussian, Inc.),
 the Gaussian 92(TM) system (copyright 1992, Gaussian, Inc.),
 the Gaussian 90(TM) system (copyright 1990, Gaussian, Inc.),
 the Gaussian 88(TM) system (copyright 1988, Gaussian, Inc.),
 the Gaussian 86(TM) system (copyright 1986, Carnegie Mellon
 University), and the Gaussian 82(TM) system (copyright 1983,
 Carnegie Mellon University). Gaussian is a federally registered
 trademark of Gaussian, Inc.
  
 This software contains proprietary and confidential information,
 including trade secrets, belonging to Gaussian, Inc.
  
 This software is provided under written license and may be
 used, copied, transmitted, or stored only in accord with that
 written license.
  
 The following legend is applicable only to US Government
 contracts under FAR:
  
                    RESTRICTED RIGHTS LEGEND
  
 Use, reproduction and disclosure by the US Government is
 subject to restrictions as set forth in subparagraphs (a)
 and (c) of the Commercial Computer Software - Restricted
 Rights clause in FAR 52.227-19.
  
 Gaussian, Inc.
 340 Quinnipiac St., Bldg. 40, Wallingford CT 06492
  
  
 ---------------------------------------------------------------
 Warning -- This program may not be used in any manner that
 competes with the business of Gaussian, Inc. or will provide
 assistance to any competitor of Gaussian, Inc.  The licensee
 of this program is prohibited from giving any competitor of
 Gaussian, Inc. access to this program.  By using this program,
 the user acknowledges that Gaussian, Inc. is engaged in the
 business of creating and licensing software in the field of
 computational chemistry and represents and warrants to the
 licensee that it is not a competitor of Gaussian, Inc. and that
 it will not use this program in any manner prohibited above.
 ---------------------------------------------------------------
  

 Cite this work as:
 Gaussian 16, Revision C.01,
 M. J. Frisch, G. W. Trucks, H. B. Schlegel, G. E. Scuseria, 
 M. A. Robb, J. R. Cheeseman, G. Scalmani, V. Barone, 
 G. A. Petersson, H. Nakatsuji, X. Li, M. Caricato, A. V. Marenich, 
 J. Bloino, B. G. Janesko, R. Gomperts, B. Mennucci, H. P. Hratchian, 
 J. V. Ortiz, A. F. Izmaylov, J. L. Sonnenberg, D. Williams-Young, 
 F. Ding, F. Lipparini, F. Egidi, J. Goings, B. Peng, A. Petrone, 
 T. Henderson, D. Ranasinghe, V. G. Zakrzewski, J. Gao, N. Rega, 
 G. Zheng, W. Liang, M. Hada, M. Ehara, K. Toyota, R. Fukuda, 
 J. Hasegawa, M. Ishida, T. Nakajima, Y. Honda, O. Kitao, H. Nakai, 
 T. Vreven, K. Throssell, J. A. Montgomery, Jr., J. E. Peralta, 
 F. Ogliaro, M. J. Bearpark, J. J. Heyd, E. N. Brothers, K. N. Kudin, 
 V. N. Staroverov, T. A. Keith, R. Kobayashi, J. Normand, 
 K. Raghavachari, A. P. Rendell, J. C. Burant, S. S. Iyengar, 
 J. Tomasi, M. Cossi, J. M. Millam, M. Klene, C. Adamo, R. Cammi, 
 J. W. Ochterski, R. L. Martin, K. Morokuma, O. Farkas, 
 J. B. Foresman, and D. J. Fox, Gaussian, Inc., Wallingford CT, 2019.
 
 ******************************************
 Gaussian 16:  ES64L-G16RevC.01  3-Jul-2019
                 1-Aug-2021 
 ******************************************
 %mem=32GB
 %NProcShare=16
 Will use up to   16 processors via shared memory.
 -------------------------------------------------------------
 #N UTPSSTPSS/Def2QZVPP scf=tight Int(Grid=ultrafine) OPT FREQ
 -------------------------------------------------------------
 1/18=20,19=15,26=4,38=1/1,3;
 2/9=110,12=2,17=6,18=5,40=1/2;
 3/5=45,7=202,11=2,25=1,30=1,71=1,74=2523,75=-5,116=2/1,2,3;
 4//1;
 5/5=2,32=2,38=5/2;
 6/7=2,8=2,9=2,10=2,28=1/1;
 7//1,2,3,16;
 1/18=20,19=15,26=4/3(2);
 2/9=110/2;
 99//99;
 2/9=110/2;
 3/5=45,7=202,11=2,25=1,30=1,71=1,74=2523,75=-5,116=2/1,2,3;
 4/5=5,16=3,69=1/1;
 5/5=2,32=2,38=5/2;
 7//1,2,3,16;
 1/18=20,19=15,26=4/3(-5);
 2/9=110/2;
 6/7=2,8=2,9=2,10=2,19=2,28=1/1;
 99/9=1/99;
 ---------
 Mol job 1
 ---------
 Symbolic Z-matrix:
 Charge =  0 Multiplicity = 2
 Rh                    8.5       8.5       8.5 
 F                     9.82982   7.17018   8.5 
 F                     9.82982   9.82982   8.5 
 F                     7.17018   9.82982   8.5 
 F                     7.17018   7.17018   8.5 
 F                     8.5       8.5       10.38066 
 F                     8.5       8.5       6.61934 
 

 GradGradGradGradGradGradGradGradGradGradGradGradGradGradGradGradGradGrad
 Berny optimization.
 Initialization pass.
                           ----------------------------
                           !    Initial Parameters    !
                           ! (Angstroms and Degrees)  !
 --------------------------                            --------------------------
 ! Name  Definition              Value          Derivative Info.                !
 --------------------------------------------------------------------------------
 ! R1    R(1,2)                  1.8807         estimate D2E/DX2                !
 ! R2    R(1,3)                  1.8807         estimate D2E/DX2                !
 ! R3    R(1,4)                  1.8807         estimate D2E/DX2                !
 ! R4    R(1,5)                  1.8807         estimate D2E/DX2                !
 ! R5    R(1,6)                  1.8807         estimate D2E/DX2                !
 ! R6    R(1,7)                  1.8807         estimate D2E/DX2                !
 ! A1    A(2,1,3)               90.0            estimate D2E/DX2                !
 ! A2    A(2,1,5)               90.0            estimate D2E/DX2                !
 ! A3    A(2,1,6)               90.0            estimate D2E/DX2                !
 ! A4    A(2,1,7)               90.0            estimate D2E/DX2                !
 ! A5    A(3,1,4)               90.0            estimate D2E/DX2                !
 ! A6    A(3,1,6)               90.0            estimate D2E/DX2                !
 ! A7    A(3,1,7)               90.0            estimate D2E/DX2                !
 ! A8    A(4,1,5)               90.0            estimate D2E/DX2                !
 ! A9    A(4,1,6)               90.0            estimate D2E/DX2                !
 ! A10   A(4,1,7)               90.0            estimate D2E/DX2                !
 ! A11   A(5,1,6)               90.0            estimate D2E/DX2                !
 ! A12   A(5,1,7)               90.0            estimate D2E/DX2                !
 ! A13   L(2,1,4,3,-1)         180.0            estimate D2E/DX2                !
 ! A14   L(3,1,5,2,-1)         180.0            estimate D2E/DX2                !
 ! A15   L(6,1,7,2,-1)         180.0            estimate D2E/DX2                !
 ! A16   L(2,1,4,3,-2)         180.0            estimate D2E/DX2                !
 ! A17   L(3,1,5,2,-2)         180.0            estimate D2E/DX2                !
 ! A18   L(6,1,7,2,-2)         180.0            estimate D2E/DX2                !
 ! D1    D(2,1,6,3)             90.0            estimate D2E/DX2                !
 ! D2    D(2,1,7,3)            -90.0            estimate D2E/DX2                !
 ! D3    D(2,1,6,5)            -90.0            estimate D2E/DX2                !
 ! D4    D(2,1,7,5)             90.0            estimate D2E/DX2                !
 ! D5    D(3,1,6,4)             90.0            estimate D2E/DX2                !
 ! D6    D(3,1,7,4)            -90.0            estimate D2E/DX2                !
 ! D7    D(4,1,6,5)             90.0            estimate D2E/DX2                !
 ! D8    D(4,1,7,5)            -90.0            estimate D2E/DX2                !
 --------------------------------------------------------------------------------
 Trust Radius=3.00D-01 FncErr=1.00D-07 GrdErr=1.00D-06 EigMax=2.50D+02 EigMin=1.00D-04
 Number of steps in this run=     42 maximum allowed number of steps=    100.
 GradGradGradGradGradGradGradGradGradGradGradGradGradGradGradGradGradGrad

                          Input orientation:                          
 ---------------------------------------------------------------------
 Center     Atomic      Atomic             Coordinates (Angstroms)
 Number     Number       Type             X           Y           Z
 ---------------------------------------------------------------------
      1         45           0        8.500000    8.500000    8.500000
      2          9           0        9.829821    7.170179    8.500000
      3          9           0        9.829821    9.829821    8.500000
      4          9           0        7.170179    9.829821    8.500000
      5          9           0        7.170179    7.170179    8.500000
      6          9           0        8.500000    8.500000   10.380661
      7          9           0        8.500000    8.500000    6.619339
 ---------------------------------------------------------------------
                    Distance matrix (angstroms):
                    1          2          3          4          5
     1  Rh   0.000000
     2  F    1.880652   0.000000
     3  F    1.880652   2.659643   0.000000
     4  F    1.880652   3.761303   2.659643   0.000000
     5  F    1.880652   2.659643   3.761303   2.659643   0.000000
     6  F    1.880661   2.659650   2.659650   2.659650   2.659650
     7  F    1.880661   2.659650   2.659650   2.659650   2.659650
                    6          7
     6  F    0.000000
     7  F    3.761323   0.000000
 Stoichiometry    F6Rh(2)
 Framework group  D4H[O(Rh),C4(F.F),2C2'(F.F)]
 Deg. of freedom     2
 Full point group                 D4H     NOp  16
 Largest Abelian subgroup         D2H     NOp   8
 Largest concise Abelian subgroup D2H     NOp   8
                         Standard orientation:                         
 ---------------------------------------------------------------------
 Center     Atomic      Atomic             Coordinates (Angstroms)
 Number     Number       Type             X           Y           Z
 ---------------------------------------------------------------------
      1         45           0        0.000000    0.000000    0.000000
      2          9           0        0.000000    1.880652    0.000000
      3          9           0       -1.880652    0.000000    0.000000
      4          9           0       -0.000000   -1.880652    0.000000
      5          9           0        1.880652   -0.000000    0.000000
      6          9           0        0.000000    0.000000    1.880661
      7          9           0        0.000000    0.000000   -1.880661
 ---------------------------------------------------------------------
 Rotational constants (GHZ):           1.8802840           1.8802742           1.8802742
 Standard basis: def2QZVPP (5D, 7F)
 There are   127 symmetry adapted cartesian basis functions of AG  symmetry.
 There are    50 symmetry adapted cartesian basis functions of B1G symmetry.
 There are    50 symmetry adapted cartesian basis functions of B2G symmetry.
 There are    50 symmetry adapted cartesian basis functions of B3G symmetry.
 There are    28 symmetry adapted cartesian basis functions of AU  symmetry.
 There are    81 symmetry adapted cartesian basis functions of B1U symmetry.
 There are    81 symmetry adapted cartesian basis functions of B2U symmetry.
 There are    81 symmetry adapted cartesian basis functions of B3U symmetry.
 There are    93 symmetry adapted basis functions of AG  symmetry.
 There are    41 symmetry adapted basis functions of B1G symmetry.
 There are    41 symmetry adapted basis functions of B2G symmetry.
 There are    41 symmetry adapted basis functions of B3G symmetry.
 There are    25 symmetry adapted basis functions of AU  symmetry.
 There are    63 symmetry adapted basis functions of B1U symmetry.
 There are    63 symmetry adapted basis functions of B2U symmetry.
 There are    63 symmetry adapted basis functions of B3U symmetry.
   430 basis functions,   697 primitive gaussians,   548 cartesian basis functions
    36 alpha electrons       35 beta electrons
       nuclear repulsion energy       485.8878597091 Hartrees.
 NAtoms=    7 NActive=    7 NUniq=    3 SFac= 4.00D+00 NAtFMM=   60 NAOKFM=F Big=F
 Integral buffers will be    131072 words long.
 Raffenetti 2 integral format.
 Two-electron integral symmetry is turned on.
 One-electron integrals computed using PRISM.
  16 Symmetry operations used in ECPInt.
 ECPInt:  NShTT=    7750 NPrTT=   21159 LenC2=    7184 LenP2D=   15054.
 LDataN:  DoStor=T MaxTD1= 8 Len=  415
 NBasis=   430 RedAO= T EigKep=  1.05D-03  NBF=    93    41    41    41    25    63    63    63
 NBsUse=   430 1.00D-06 EigRej= -1.00D+00 NBFU=    93    41    41    41    25    63    63    63
 Defaulting to unpruned grid for atomic number  45.
 ExpMin= 2.21D-02 ExpMax= 1.33D+05 ExpMxC= 1.27D+03 IAcc=3 IRadAn=         5 AccDes= 0.00D+00
 Harris functional with IExCor= 1009 and IRadAn=       5 diagonalized for initial guess.
 HarFok:  IExCor= 1009 AccDes= 0.00D+00 IRadAn=         5 IDoV= 1 UseB2=F ITyADJ=14
 ICtDFT=  3500011 ScaDFX=  1.000000  1.000000  1.000000  1.000000
 Defaulting to unpruned grid for atomic number  45.
 FoFCou: FMM=F IPFlag=           0 FMFlag=      100000 FMFlg1=           0
         NFxFlg=           0 DoJE=T BraDBF=F KetDBF=T FulRan=T
         wScrn=  0.000000 ICntrl=       500 IOpCl=  0 I1Cent=   200000004 NGrid=           0
         NMat0=    1 NMatS0=      1 NMatT0=    0 NMatD0=    1 NMtDS0=    0 NMtDT0=    0
 Petite list used in FoFCou.
 Initial guess orbital symmetries:
 Alpha Orbitals:
       Occupied  (A1G) (B1G) (EU) (EU) (A1G) (A2U) (A1G) (EU) (EU)
                 (A2U) (A1G) (B1G) (A1G) (EU) (EU) (A2U) (B1G)
                 (A1G) (A1G) (B2G) (EG) (EG) (A2U) (EU) (EU) (B2U)
                 (EU) (EU) (EU) (EU) (A2U) (A2G) (EG) (EG) (EG)
                 (EG)
       Virtual   (B2G) (A1G) (B1G) (A1G) (EU) (EU) (A2U) (EU) (EU)
                 (A2U) (A1G) (A1G) (B1G) (B2G) (EG) (EG) (B1U)
                 (A2U) (EU) (EU) (EU) (EU) (B2U) (A1G) (A1G) (B1G)
                 (EU) (EU) (A2U) (EG) (EG) (A2G) (EG) (EG) (B2G)
                 (A1G) (EU) (EU) (B2U) (A2U) (EU) (EU) (A2U) (EU)
                 (EU) (B2G) (EG) (EG) (A1G) (B1G) (B1U) (EU) (EU)
                 (B2U) (EU) (EU) (A2U) (A1G) (B1G) (A2U) (EU) (EU)
                 (A1G) (B1U) (A1U) (EG) (EG) (B2G) (B1G) (EG) (EG)
                 (A2G) (EU) (EU) (B2U) (B1G) (A1G) (EU) (EU) (B2U)
                 (EU) (EU) (A2U) (B1U) (EG) (EG) (B2G) (A2G) (EG)
                 (EG) (A1G) (A1G) (B1G) (EU) (EU) (A2U) (EU) (EU)
                 (A2U) (EU) (EU) (B2U) (EG) (EG) (B2G) (B1G) (A1G)
                 (A1G) (B1U) (A1G) (A2U) (EU) (EU) (EG) (EG) (B2G)
                 (EU) (EU) (B2U) (EG) (EG) (A2G) (EU) (EU) (A2U)
                 (A1G) (B1G) (B2G) (EG) (EG) (B1G) (A1G) (A2U)
                 (EU) (EU) (A1G) (A1U) (B1U) (B1G) (EU) (EU) (B2U)
                 (A2G) (EG) (EG) (B2G) (EG) (EG) (EU) (EU) (B2U)
                 (B1G) (A1G) (EU) (EU) (A2U) (B2G) (EG) (EG) (A1G)
                 (A2U) (EU) (EU) (B1U) (EG) (EG) (B2G) (A1G) (B1G)
                 (B2U) (EU) (EU) (EG) (EG) (A2G) (A2U) (EU) (EU)
                 (B1U) (A1U) (B1G) (B2G) (EG) (EG) (A1G) (B1G)
                 (B2U) (EU) (EU) (A1G) (B1U) (B1G) (A1G) (EG) (EG)
                 (A2G) (EU) (EU) (A2U) (EG) (EG) (B2G) (B2U) (EU)
                 (EU) (A2U) (EU) (EU) (A1G) (B1G) (A1G) (EG) (EG)
                 (A2G) (EU) (EU) (A2U) (EU) (EU) (B2U) (A2U) (EU)
                 (EU) (EG) (EG) (B2G) (A1G) (B1G) (A1G) (B1U) (B2U)
                 (EU) (EU) (A2U) (EU) (EU) (EG) (EG) (B2G) (EG)
                 (EG) (A2G) (EU) (EU) (A2U) (B1G) (A1G) (A1G) (A1U)
                 (B1U) (B1G) (EU) (EU) (B2U) (B2G) (EG) (EG) (A2G)
                 (EG) (EG) (B2U) (EU) (EU) (A2U) (EU) (EU) (B1G)
                 (A1G) (A1U) (B1U) (A1U) (EG) (EG) (A2G) (EU) (EU)
                 (A2U) (A1G) (EG) (EG) (B2G) (A1G) (B1G) (B1U)
                 (EU) (EU) (A2U) (B2U) (EU) (EU) (B2G) (EG) (EG)
                 (A2U) (EU) (EU) (A1G) (B1G) (EG) (EG) (A2G) (A1G)
                 (A1U) (B1U) (B1G) (B2U) (EU) (EU) (A2G) (EG) (EG)
                 (B2G) (EG) (EG) (EU) (EU) (B2U) (A2U) (EU) (EU)
                 (B2G) (EG) (EG) (B1U) (B1G) (A1G) (A2U) (EU) (EU)
                 (EG) (EG) (B2G) (A2U) (EU) (EU) (B2U) (EU) (EU)
                 (A1G) (B1G) (EG) (EG) (A2G) (A1G) (A1G) (B1G)
                 (A2U) (EU) (EU) (A1G) (A1U) (B1U) (EG) (EG) (B2G)
                 (B1G) (B2U) (EU) (EU) (B1U) (EG) (EG) (A2G) (A1G)
                 (B1G) (EU) (EU) (A2U) (B2U) (EU) (EU) (EG) (EG)
                 (B2G) (B1G) (A1G) (A2U) (EU) (EU) (A1G) (A1G)
                 (A2U) (EU) (EU) (A1G) (B1G) (A1G) (A1G) (A2U)
                 (EU) (EU) (A1G) (B1G) (A1G)
 Beta  Orbitals:
       Occupied  (A1G) (B1G) (EU) (EU) (A1G) (A2U) (A1G) (EU) (EU)
                 (A2U) (A1G) (B1G) (A1G) (EU) (EU) (A2U) (B1G)
                 (A1G) (A1G) (B2G) (EG) (EG) (A2U) (EU) (EU) (B2U)
                 (EU) (EU) (EU) (EU) (A2U) (A2G) (EG) (EG) (EG)
       Virtual   (EG) (B2G) (A1G) (B1G) (A1G) (EU) (EU) (A2U) (EU)
                 (EU) (A2U) (A1G) (A1G) (B1G) (B2G) (EG) (EG) (B1U)
                 (A2U) (EU) (EU) (EU) (EU) (B2U) (A1G) (A1G) (B1G)
                 (EU) (EU) (A2U) (EG) (EG) (A2G) (EG) (EG) (B2G)
                 (A1G) (EU) (EU) (B2U) (A2U) (EU) (EU) (A2U) (EU)
                 (EU) (B2G) (EG) (EG) (A1G) (B1G) (B1U) (EU) (EU)
                 (B2U) (EU) (EU) (A2U) (A1G) (B1G) (A2U) (EU) (EU)
                 (A1G) (B1U) (A1U) (EG) (EG) (B2G) (B1G) (EG) (EG)
                 (A2G) (EU) (EU) (B2U) (B1G) (A1G) (EU) (EU) (B2U)
                 (EU) (EU) (A2U) (B1U) (EG) (EG) (B2G) (A2G) (EG)
                 (EG) (A1G) (A1G) (B1G) (EU) (EU) (A2U) (EU) (EU)
                 (A2U) (EU) (EU) (B2U) (EG) (EG) (B2G) (B1G) (A1G)
                 (A1G) (B1U) (A1G) (A2U) (EU) (EU) (EG) (EG) (B2G)
                 (EU) (EU) (B2U) (EG) (EG) (A2G) (EU) (EU) (A2U)
                 (A1G) (B1G) (B2G) (EG) (EG) (B1G) (A1G) (A2U)
                 (EU) (EU) (A1G) (A1U) (B1U) (B1G) (EU) (EU) (B2U)
                 (A2G) (EG) (EG) (B2G) (EG) (EG) (EU) (EU) (B2U)
                 (B1G) (A1G) (EU) (EU) (A2U) (B2G) (EG) (EG) (A1G)
                 (A2U) (EU) (EU) (B1U) (EG) (EG) (B2G) (A1G) (B1G)
                 (B2U) (EU) (EU) (EG) (EG) (A2G) (A2U) (EU) (EU)
                 (B1U) (A1U) (B1G) (B2G) (EG) (EG) (A1G) (B1G)
                 (B2U) (EU) (EU) (A1G) (B1U) (B1G) (A1G) (EG) (EG)
                 (A2G) (EU) (EU) (A2U) (EG) (EG) (B2G) (B2U) (EU)
                 (EU) (A2U) (EU) (EU) (A1G) (B1G) (A1G) (EG) (EG)
                 (A2G) (EU) (EU) (A2U) (EU) (EU) (B2U) (A2U) (EU)
                 (EU) (EG) (EG) (B2G) (A1G) (B1G) (A1G) (B1U) (B2U)
                 (EU) (EU) (A2U) (EU) (EU) (EG) (EG) (B2G) (EG)
                 (EG) (A2G) (EU) (EU) (A2U) (B1G) (A1G) (A1G) (A1U)
                 (B1U) (B1G) (EU) (EU) (B2U) (B2G) (EG) (EG) (A2G)
                 (EG) (EG) (B2U) (EU) (EU) (A2U) (EU) (EU) (B1G)
                 (A1G) (A1U) (B1U) (A1U) (EG) (EG) (A2G) (EU) (EU)
                 (A2U) (A1G) (EG) (EG) (B2G) (A1G) (B1G) (B1U)
                 (EU) (EU) (A2U) (B2U) (EU) (EU) (B2G) (EG) (EG)
                 (A2U) (EU) (EU) (A1G) (B1G) (EG) (EG) (A2G) (A1G)
                 (A1U) (B1U) (B1G) (B2U) (EU) (EU) (A2G) (EG) (EG)
                 (B2G) (EG) (EG) (EU) (EU) (B2U) (A2U) (EU) (EU)
                 (B2G) (EG) (EG) (B1U) (B1G) (A1G) (A2U) (EU) (EU)
                 (EG) (EG) (B2G) (A2U) (EU) (EU) (B2U) (EU) (EU)
                 (A1G) (B1G) (EG) (EG) (A2G) (A1G) (A1G) (B1G)
                 (A2U) (EU) (EU) (A1G) (A1U) (B1U) (EG) (EG) (B2G)
                 (B1G) (B2U) (EU) (EU) (B1U) (EG) (EG) (A2G) (A1G)
                 (B1G) (EU) (EU) (A2U) (B2U) (EU) (EU) (EG) (EG)
                 (B2G) (B1G) (A1G) (A2U) (EU) (EU) (A1G) (A1G)
                 (A2U) (EU) (EU) (A1G) (B1G) (A1G) (A1G) (A2U)
                 (EU) (EU) (A1G) (B1G) (A1G)
 Initial guess <Sx>= 0.0000 <Sy>= 0.0000 <Sz>= 0.5000 <S**2>= 0.7500 S= 0.5000
 Requested convergence on RMS density matrix=1.00D-08 within 128 cycles.
 Requested convergence on MAX density matrix=1.00D-06.
 Requested convergence on             energy=1.00D-06.
 No special actions if energy rises.
 Density matrix breaks symmetry, PCut= 1.00D-04
 Density has only Abelian symmetry.
 Defaulting to unpruned grid for atomic number  45.
 Defaulting to unpruned grid for atomic number  45.
 Defaulting to unpruned grid for atomic number  45.
 Defaulting to unpruned grid for atomic number  45.
 Defaulting to unpruned grid for atomic number  45.
 Defaulting to unpruned grid for atomic number  45.
 Defaulting to unpruned grid for atomic number  45.
 Defaulting to unpruned grid for atomic number  45.
 Defaulting to unpruned grid for atomic number  45.
 Defaulting to unpruned grid for atomic number  45.
 Defaulting to unpruned grid for atomic number  45.
 Defaulting to unpruned grid for atomic number  45.
 Defaulting to unpruned grid for atomic number  45.
 Defaulting to unpruned grid for atomic number  45.
 Defaulting to unpruned grid for atomic number  45.
 Defaulting to unpruned grid for atomic number  45.
 Density matrix breaks symmetry, PCut= 1.00D-04
 Density has only Abelian symmetry.
 Density matrix breaks symmetry, PCut= 1.00D-04
 Density has only Abelian symmetry.
 EnCoef did    27 forward-backward iterations
 Density matrix breaks symmetry, PCut= 1.00D-04
 Density has only Abelian symmetry.
 EnCoef did   100 forward-backward iterations
 Density matrix breaks symmetry, PCut= 1.00D-04
 Density has only Abelian symmetry.
 EnCoef did   100 forward-backward iterations
 Density matrix breaks symmetry, PCut= 1.00D-04
 Density has only Abelian symmetry.
 EnCoef did   100 forward-backward iterations
 Density matrix breaks symmetry, PCut= 1.00D-04
 Density has only Abelian symmetry.
 EnCoef did   100 forward-backward iterations
 Density matrix breaks symmetry, PCut= 1.00D-04
 Density has only Abelian symmetry.
 EnCoef did     4 forward-backward iterations
 Density matrix breaks symmetry, PCut= 1.00D-04
 Density has only Abelian symmetry.
 EnCoef did   100 forward-backward iterations
 Density matrix breaks symmetry, PCut= 1.00D-04
 Density has only Abelian symmetry.
 EnCoef did     2 forward-backward iterations
 Density matrix breaks symmetry, PCut= 1.00D-04
 Density has only Abelian symmetry.
 EnCoef did   100 forward-backward iterations
 Density matrix breaks symmetry, PCut= 1.00D-04
 Density has only Abelian symmetry.
 EnCoef did    15 forward-backward iterations
 Density matrix breaks symmetry, PCut= 1.00D-04
 Density has only Abelian symmetry.
 EnCoef did     6 forward-backward iterations
 Density matrix breaks symmetry, PCut= 1.00D-04
 Density has only Abelian symmetry.
 EnCoef did    71 forward-backward iterations
 Density matrix breaks symmetry, PCut= 1.00D-04
 Density has only Abelian symmetry.
 Rare condition: small coef for last iteration: -0.111D-14
 Density matrix breaks symmetry, PCut= 1.00D-04
 Density has only Abelian symmetry.
 EnCoef did    96 forward-backward iterations
 Rare condition: small coef for last iteration:  0.906D-16
 Density matrix breaks symmetry, PCut= 1.00D-04
 Density has only Abelian symmetry.
 EnCoef did   100 forward-backward iterations
 Density matrix breaks symmetry, PCut= 1.00D-04
 Density has only Abelian symmetry.
 EnCoef did   100 forward-backward iterations
 Density matrix breaks symmetry, PCut= 1.00D-04
 Density has only Abelian symmetry.
 EnCoef did   100 forward-backward iterations
 Rare condition: small coef for last iteration:  0.167D-14
 Density matrix breaks symmetry, PCut= 1.00D-04
 Density has only Abelian symmetry.
 EnCoef did   100 forward-backward iterations
 Density matrix breaks symmetry, PCut= 1.00D-04
 Density has only Abelian symmetry.
 Restarting incremental Fock formation.
 EnCoef did   100 forward-backward iterations
 Density matrix breaks symmetry, PCut= 1.00D-04
 Density has only Abelian symmetry.
 EnCoef did   100 forward-backward iterations
 Density matrix breaks symmetry, PCut= 1.00D-04
 Density has only Abelian symmetry.
 EnCoef did   100 forward-backward iterations
 Density matrix breaks symmetry, PCut= 1.00D-04
 Density has only Abelian symmetry.
 EnCoef did   100 forward-backward iterations
 Density matrix breaks symmetry, PCut= 1.00D-04
 Density has only Abelian symmetry.
 EnCoef did   100 forward-backward iterations
 Density matrix breaks symmetry, PCut= 1.00D-04
 Density has only Abelian symmetry.
 EnCoef did   100 forward-backward iterations
 Rare condition: small coef for last iteration:  0.685D-15
 Density matrix breaks symmetry, PCut= 1.00D-04
 Density has only Abelian symmetry.
 EnCoef did   100 forward-backward iterations
 Density matrix breaks symmetry, PCut= 1.00D-04
 Density has only Abelian symmetry.
 EnCoef did   100 forward-backward iterations
 Rare condition: small coef for last iteration:  0.164D-14
 Density matrix breaks symmetry, PCut= 1.00D-04
 Density has only Abelian symmetry.
 EnCoef did    66 forward-backward iterations
 Density matrix breaks symmetry, PCut= 1.00D-04
 Density has only Abelian symmetry.
 EnCoef did   100 forward-backward iterations
 Density matrix breaks symmetry, PCut= 1.00D-04
 Density has only Abelian symmetry.
 EnCoef did   100 forward-backward iterations
 Density matrix breaks symmetry, PCut= 1.00D-04
 Density has only Abelian symmetry.
 EnCoef did   100 forward-backward iterations
 Density matrix breaks symmetry, PCut= 1.00D-04
 Density has only Abelian symmetry.
 EnCoef did   100 forward-backward iterations
 Density matrix breaks symmetry, PCut= 1.00D-04
 Density has only Abelian symmetry.
 EnCoef did   100 forward-backward iterations
 Density matrix breaks symmetry, PCut= 1.00D-04
 Density has only Abelian symmetry.
 EnCoef did   100 forward-backward iterations
 Density matrix breaks symmetry, PCut= 1.00D-04
 Density has only Abelian symmetry.
 EnCoef did   100 forward-backward iterations
 Density matrix breaks symmetry, PCut= 1.00D-04
 Density has only Abelian symmetry.
 EnCoef did   100 forward-backward iterations
 Rare condition: small coef for last iteration: -0.245D-14
 Density matrix breaks symmetry, PCut= 1.00D-04
 Density has only Abelian symmetry.
 EnCoef did   100 forward-backward iterations
 Density matrix breaks symmetry, PCut= 1.00D-04
 Density has only Abelian symmetry.
 EnCoef did   100 forward-backward iterations
 Density matrix breaks symmetry, PCut= 1.00D-04
 Density has only Abelian symmetry.
 EnCoef did   100 forward-backward iterations
 Density matrix breaks symmetry, PCut= 1.00D-04
 Density has only Abelian symmetry.
 Restarting incremental Fock formation.
 EnCoef did   100 forward-backward iterations
 Rare condition: small coef for last iteration:  0.105D-14
 Density matrix breaks symmetry, PCut= 1.00D-04
 Density has only Abelian symmetry.
 EnCoef did   100 forward-backward iterations
 Density matrix breaks symmetry, PCut= 1.00D-04
 Density has only Abelian symmetry.
 EnCoef did   100 forward-backward iterations
 Density matrix breaks symmetry, PCut= 1.00D-04
 Density has only Abelian symmetry.
 EnCoef did   100 forward-backward iterations
 Density matrix breaks symmetry, PCut= 1.00D-04
 Density has only Abelian symmetry.
 EnCoef did   100 forward-backward iterations
 Density matrix breaks symmetry, PCut= 1.00D-04
 Density has only Abelian symmetry.
 EnCoef did   100 forward-backward iterations
 Density matrix breaks symmetry, PCut= 1.00D-04
 Density has only Abelian symmetry.
 EnCoef did   100 forward-backward iterations
 Density matrix breaks symmetry, PCut= 1.00D-04
 Density has only Abelian symmetry.
 EnCoef did   100 forward-backward iterations
 Density matrix breaks symmetry, PCut= 1.00D-04
 Density has only Abelian symmetry.
 EnCoef did   100 forward-backward iterations
 Density matrix breaks symmetry, PCut= 1.00D-04
 Density has only Abelian symmetry.
 EnCoef did   100 forward-backward iterations
 Density matrix breaks symmetry, PCut= 1.00D-04
 Density has only Abelian symmetry.
 EnCoef did   100 forward-backward iterations
 Density matrix breaks symmetry, PCut= 1.00D-04
 Density has only Abelian symmetry.
 EnCoef did   100 forward-backward iterations
 Density matrix breaks symmetry, PCut= 1.00D-04
 Density has only Abelian symmetry.
 EnCoef did   100 forward-backward iterations
 Density matrix breaks symmetry, PCut= 1.00D-04
 Density has only Abelian symmetry.
 EnCoef did   100 forward-backward iterations
 Density matrix breaks symmetry, PCut= 1.00D-04
 Density has only Abelian symmetry.
 EnCoef did   100 forward-backward iterations
 Density matrix breaks symmetry, PCut= 1.00D-04
 Density has only Abelian symmetry.
 EnCoef did   100 forward-backward iterations
 Density matrix breaks symmetry, PCut= 1.00D-04
 Density has only Abelian symmetry.
 EnCoef did   100 forward-backward iterations
 Density matrix breaks symmetry, PCut= 1.00D-04
 Density has only Abelian symmetry.
 EnCoef did   100 forward-backward iterations
 Density matrix breaks symmetry, PCut= 1.00D-04
 Density has only Abelian symmetry.
 EnCoef did   100 forward-backward iterations
 Density matrix breaks symmetry, PCut= 1.00D-04
 Density has only Abelian symmetry.
 EnCoef did   100 forward-backward iterations
 Density matrix breaks symmetry, PCut= 1.00D-04
 Density has only Abelian symmetry.
 Restarting incremental Fock formation.
 EnCoef did   100 forward-backward iterations
 Density matrix breaks symmetry, PCut= 1.00D-04
 Density has only Abelian symmetry.
 EnCoef did   100 forward-backward iterations
 Density matrix breaks symmetry, PCut= 1.00D-04
 Density has only Abelian symmetry.
 EnCoef did   100 forward-backward iterations
 Density matrix breaks symmetry, PCut= 1.00D-04
 Density has only Abelian symmetry.
 Density matrix breaks symmetry, PCut= 1.00D-04
 Density has only Abelian symmetry.
 Density matrix breaks symmetry, PCut= 1.00D-04
 Density has only Abelian symmetry.
 Density matrix breaks symmetry, PCut= 1.00D-04
 Density has only Abelian symmetry.
 Density matrix breaks symmetry, PCut= 1.00D-04
 Density has only Abelian symmetry.
 Density matrix breaks symmetry, PCut= 1.00D-04
 Density has only Abelian symmetry.
 Density matrix breaks symmetry, PCut= 1.00D-04
 Density has only Abelian symmetry.
 Density matrix breaks symmetry, PCut= 1.00D-04
 Density has only Abelian symmetry.
 Density matrix breaks symmetry, PCut= 1.00D-04
 Density has only Abelian symmetry.
 Density matrix breaks symmetry, PCut= 1.00D-04
 Density has only Abelian symmetry.
 SCF Done:  E(UTPSS-TPSS) =  -709.871761082     A.U. after   79 cycles
            NFock= 79  Conv=0.69D-10     -V/T= 2.1135
 <Sx>= 0.0000 <Sy>= 0.0000 <Sz>= 0.5000 <S**2>= 1.7540 S= 0.9156
 <L.S>=  0.00000000000    
 Annihilation of the first spin contaminant:
 S**2 before annihilation     1.7540,   after     0.7634

 **********************************************************************

            Population analysis using the SCF Density.

 **********************************************************************

 Orbital symmetries:
 Alpha Orbitals:
       Occupied  (A1G) (A2U) (?A) (?A) (EU) (EU) (A1G) (A2U) (EU)
                 (EU) (A1G) (A1G) (A2U) (B1G) (EU) (EU) (B1G) (A1G)
                 (EG) (EG) (B2G) (A1G) (A2U) (EU) (EU) (EU) (EU)
                 (A2U) (B2U) (EU) (EU) (EG) (EG) (A2G) (EG) (EG)
       Virtual   (B2G) (B1G) (A1G) (A1G) (A2U) (EU) (EU) (A1G)
                 (A2U) (EU) (EU) (A1G) (B1G) (EG) (EG) (B2G) (B1U)
                 (A2U) (EU) (EU) (B2U) (EU) (EU) (A1G) (A2U) (EU)
                 (EU) (B1G) (A1G) (A1G) (EG) (EG) (A2G) (EG) (EG)
                 (B2G) (B2U) (EU) (EU) (A2U) (EU) (EU) (A2U) (EU)
                 (EU) (EG) (EG) (B2G) (B1U) (B2U) (EU) (EU) (A1G)
                 (B1G) (A2U) (EU) (EU) (A2U) (EU) (EU) (B1G) (A1G)
                 (A1G) (B1U) (A1U) (B2G) (EG) (EG) (B1G) (EG) (EG)
                 (A2G) (B2U) (A1G) (B1G) (EU) (EU) (A2U) (EU) (EU)
                 (B2U) (EU) (EU) (B1U) (B1G) (A1G) (EG) (EG) (EG)
                 (EG) (B2G) (A2G) (A1G) (A2U) (EU) (EU) (A2U) (EU)
                 (EU) (B2U) (EU) (EU) (EG) (EG) (B2G) (B1G) (A1G)
                 (B1U) (A1G) (A1G) (A2U) (EG) (EG) (EU) (EU) (B2G)
                 (B2U) (EU) (EU) (A2U) (EU) (EU) (EG) (EG) (A2G)
                 (EG) (EG) (B2G) (B1G) (A1G) (B1G) (A1G) (A1G)
                 (A2U) (EU) (EU) (B1U) (A1U) (B1G) (B2U) (EU) (EU)
                 (EG) (EG) (A2G) (EG) (EG) (B2G) (A1G) (B1G) (EU)
                 (EU) (B2U) (A2U) (EU) (EU) (B2G) (A1G) (EG) (EG)
                 (EU) (EU) (A2U) (B1U) (EG) (EG) (B2G) (B1G) (A1G)
                 (B2U) (EU) (EU) (EG) (EG) (A2G) (A2U) (EU) (EU)
                 (B1U) (A1G) (B1G) (A1U) (B2G) (B1G) (EG) (EG)
                 (A1G) (B2U) (EU) (EU) (B1U) (EG) (EG) (A2G) (B1G)
                 (A1G) (A2U) (EU) (EU) (EG) (EG) (B2G) (B2U) (EU)
                 (EU) (A2U) (EU) (EU) (A1G) (B1G) (A1G) (EG) (EG)
                 (A2G) (A2U) (EU) (EU) (B2U) (EU) (EU) (A2U) (EU)
                 (EU) (EG) (EG) (B2G) (B1U) (A1G) (B1G) (B2U) (EU)
                 (EU) (A1G) (A2U) (EU) (EU) (EG) (EG) (B2G) (EG)
                 (EG) (A2G) (B1G) (A1G) (A2U) (EU) (EU) (A1G) (B2U)
                 (B1U) (EU) (EU) (B1G) (A1U) (B2G) (EU) (EU) (EG)
                 (EG) (EG) (EG) (A2U) (EU) (EU) (B2U) (EG) (EG)
                 (A2G) (B2G) (A1U) (A2G) (A2U) (A1G) (B1G) (A1G)
                 (B1U) (A1U) (EG) (EG) (EU) (EU) (B1G) (A1G) (B1U)
                 (A2U) (EU) (EU) (B2U) (EU) (EU) (B2G) (EG) (EG)
                 (A2U) (EU) (EU) (A1G) (B1G) (EG) (EG) (A2G) (A1G)
                 (B1U) (A1U) (B1G) (B2U) (EG) (EG) (EU) (EU) (B2G)
                 (A2G) (EG) (EG) (EU) (EU) (B2U) (EU) (EU) (B2G)
                 (A2U) (EG) (EG) (B1G) (B1U) (A1G) (EU) (EU) (A2U)
                 (EG) (EG) (B2G) (A2U) (EU) (EU) (B2U) (EU) (EU)
                 (A1G) (B1G) (EG) (EG) (A2G) (A1G) (A1G) (B1G)
                 (A2U) (EU) (EU) (A1G) (B1U) (A1U) (B2G) (EG) (EG)
                 (B1G) (B2U) (EU) (EU) (B1U) (EG) (EG) (A2G) (B1G)
                 (A1G) (EU) (EU) (A2U) (B2U) (EU) (EU) (EG) (EG)
                 (B2G) (A1G) (A2U) (B1G) (EU) (EU) (A1G) (A1G)
                 (A2U) (EU) (EU) (A1G) (B1G) (A1G) (A1G) (A2U)
                 (EU) (EU) (A1G) (B1G) (A1G)
 Beta  Orbitals:
       Occupied  (?A) (?A) (EU) (EU) (A1G) (A2U) (A1G) (EU) (EU)
                 (A2U) (A1G) (B1G) (A1G) (EU) (EU) (A2U) (A1G)
                 (B1G) (B2G) (EG) (EG) (A1G) (EU) (EU) (A2U) (EU)
                 (EU) (A2U) (EU) (EU) (B2U) (A2G) (EG) (EG) (B2G)
       Virtual   (EG) (EG) (A1G) (B1G) (A1G) (EU) (EU) (A2U) (A1G)
                 (EU) (EU) (A2U) (B1G) (A1G) (B2G) (EG) (EG) (B1U)
                 (EU) (EU) (A2U) (EU) (EU) (B2U) (A1G) (EU) (EU)
                 (A2U) (A1G) (B1G) (A1G) (A2G) (EG) (EG) (B2G)
                 (EG) (EG) (EU) (EU) (B2U) (EU) (EU) (A2U) (EU)
                 (EU) (A2U) (B2G) (EG) (EG) (B1U) (EU) (EU) (B2U)
                 (B1G) (A1G) (EU) (EU) (A2U) (EU) (EU) (A2U) (A1G)
                 (B1G) (A1G) (A1U) (B1U) (EG) (EG) (B2G) (B1G)
                 (A2G) (EG) (EG) (A1G) (B1G) (EU) (EU) (B2U) (EU)
                 (EU) (A2U) (EU) (EU) (B2U) (B1U) (A1G) (B1G) (B2G)
                 (A2G) (EG) (EG) (EG) (EG) (A1G) (EU) (EU) (A2U)
                 (EU) (EU) (A2U) (EU) (EU) (B2U) (B2G) (EG) (EG)
                 (A1G) (B1G) (B1U) (A1G) (A1G) (B2G) (EU) (EU)
                 (A2U) (EG) (EG) (EU) (EU) (B2U) (EU) (EU) (A2U)
                 (A2G) (EG) (EG) (B2G) (EG) (EG) (A1G) (B1G) (A1G)
                 (B1G) (A1G) (EU) (EU) (A2U) (A1U) (B1U) (B1G)
                 (EU) (EU) (B2U) (A2G) (EG) (EG) (B2G) (EG) (EG)
                 (B1G) (A1G) (EU) (EU) (B2U) (A2U) (EU) (EU) (A1G)
                 (EG) (EG) (B2G) (A2U) (EU) (EU) (B1U) (B2G) (EG)
                 (EG) (A1G) (B1G) (EU) (EU) (B2U) (A2G) (EG) (EG)
                 (EU) (EU) (A2U) (A1U) (B1G) (A1G) (B1U) (EG) (EG)
                 (B1G) (B2G) (A1G) (EU) (EU) (B2U) (B1U) (A2G)
                 (EG) (EG) (A1G) (B1G) (EU) (EU) (A2U) (B2G) (EG)
                 (EG) (EU) (EU) (B2U) (EU) (EU) (A2U) (B1G) (A1G)
                 (A1G) (A2G) (EG) (EG) (EU) (EU) (A2U) (EU) (EU)
                 (B2U) (EU) (EU) (A2U) (B2G) (EG) (EG) (B1U) (B1G)
                 (A1G) (EU) (EU) (B2U) (A1G) (EU) (EU) (A2U) (B2G)
                 (EG) (EG) (A2G) (EG) (EG) (A1G) (EU) (EU) (B1G)
                 (A2U) (A1G) (EU) (EU) (B2U) (A1U) (B1G) (B1U)
                 (A2U) (EG) (EG) (EU) (EU) (B2G) (A2G) (B2U) (B2G)
                 (EG) (EG) (EU) (EU) (EG) (EG) (B1G) (A1G) (B1U)
                 (A1U) (EG) (EG) (EU) (EU) (A1G) (B1G) (A1U) (A2G)
                 (A2U) (A1G) (B1U) (EU) (EU) (A2U) (EU) (EU) (EG)
                 (EG) (B2U) (B2G) (EU) (EU) (A2U) (B1G) (A1G) (A2G)
                 (EG) (EG) (A1G) (A1U) (B1U) (B1G) (EU) (EU) (B2U)
                 (A2G) (EG) (EG) (B2G) (EG) (EG) (EU) (EU) (B2U)
                 (A2U) (EU) (EU) (EG) (EG) (B2G) (A1G) (B1U) (B1G)
                 (A2U) (EU) (EU) (B2G) (EG) (EG) (EU) (EU) (A2U)
                 (EU) (EU) (B2U) (B1G) (A1G) (A2G) (EG) (EG) (A1G)
                 (B1G) (A1G) (EU) (EU) (A2U) (A1G) (A1U) (B1U)
                 (EG) (EG) (B2G) (B1G) (EU) (EU) (B2U) (B1U) (A2G)
                 (EG) (EG) (A1G) (B1G) (EU) (EU) (A2U) (EU) (EU)
                 (B2G) (B2U) (EG) (EG) (B1G) (A1G) (EU) (EU) (A2U)
                 (A1G) (A1G) (EU) (EU) (A2U) (B1G) (A1G) (A1G)
                 (A1G) (EU) (EU) (A2U) (B1G) (A1G) (A1G)
 Unable to determine electronic state:  an orbital has unidentified symmetry.
 Alpha  occ. eigenvalues --  -24.47947 -24.47947 -24.47257 -24.47257 -24.47257
 Alpha  occ. eigenvalues --  -24.47257  -3.42079  -2.21165  -2.19068  -2.19068
 Alpha  occ. eigenvalues --   -1.16064  -1.14832  -1.14462  -1.14401  -1.13320
 Alpha  occ. eigenvalues --   -1.13320  -0.56336  -0.56119  -0.54179  -0.54179
 Alpha  occ. eigenvalues --   -0.51441  -0.50150  -0.46002  -0.45520  -0.45520
 Alpha  occ. eigenvalues --   -0.42402  -0.42402  -0.42187  -0.41955  -0.40552
 Alpha  occ. eigenvalues --   -0.40552  -0.40477  -0.40477  -0.38447  -0.36485
 Alpha  occ. eigenvalues --   -0.36485
 Alpha virt. eigenvalues --   -0.33365  -0.23124  -0.22587  -0.01007   0.01681
 Alpha virt. eigenvalues --    0.01746   0.01746   0.14285   0.15565   0.15739
 Alpha virt. eigenvalues --    0.15739   0.20533   0.20609   0.23773   0.23773
 Alpha virt. eigenvalues --    0.24225   0.28546   0.32737   0.32928   0.32928
 Alpha virt. eigenvalues --    0.36413   0.36540   0.36540   0.38616   0.42016
 Alpha virt. eigenvalues --    0.42188   0.42188   0.43032   0.43092   0.43973
 Alpha virt. eigenvalues --    0.46627   0.46627   0.46988   0.47935   0.47935
 Alpha virt. eigenvalues --    0.48166   0.51089   0.51282   0.51282   0.59852
 Alpha virt. eigenvalues --    0.60028   0.60028   0.74118   0.74274   0.74274
 Alpha virt. eigenvalues --    0.77333   0.77333   0.78163   0.90254   0.92381
 Alpha virt. eigenvalues --    0.93297   0.93297   1.00671   1.01032   1.01119
 Alpha virt. eigenvalues --    1.01604   1.01604   1.08059   1.08349   1.08349
 Alpha virt. eigenvalues --    1.10105   1.10115   1.26389   1.29074   1.29538
 Alpha virt. eigenvalues --    1.32522   1.32964   1.32964   1.36963   1.37301
 Alpha virt. eigenvalues --    1.37301   1.37828   1.48979   1.49330   1.49350
 Alpha virt. eigenvalues --    1.49644   1.49644   1.64003   1.64124   1.64124
 Alpha virt. eigenvalues --    1.64277   1.64649   1.64649   1.65129   1.65666
 Alpha virt. eigenvalues --    1.65966   1.67365   1.67365   1.67713   1.67713
 Alpha virt. eigenvalues --    1.68264   1.68614   1.69608   1.73818   1.74137
 Alpha virt. eigenvalues --    1.74137   1.85387   1.85502   1.85502   1.92471
 Alpha virt. eigenvalues --    1.93778   1.93778   2.03127   2.03127   2.03504
 Alpha virt. eigenvalues --    2.19911   2.20206   2.33626   2.42761   2.47336
 Alpha virt. eigenvalues --    2.58407   2.58572   2.58572   2.59080   2.59080
 Alpha virt. eigenvalues --    2.60096   2.66962   2.68444   2.68444   2.79145
 Alpha virt. eigenvalues --    2.79419   2.79419   2.79772   2.79772   2.80690
 Alpha virt. eigenvalues --    3.07960   3.07960   3.08991   3.10504   3.11356
 Alpha virt. eigenvalues --    3.37113   3.37407   3.85826   3.91795   3.92485
 Alpha virt. eigenvalues --    3.92485   4.02713   4.03177   4.03945   4.04361
 Alpha virt. eigenvalues --    4.04495   4.04495   4.05834   4.05834   4.06492
 Alpha virt. eigenvalues --    4.06880   4.06880   4.07130   4.07974   4.08085
 Alpha virt. eigenvalues --    4.08458   4.08458   4.08588   4.10961   4.10989
 Alpha virt. eigenvalues --    4.10989   4.16188   4.16324   4.16736   4.16736
 Alpha virt. eigenvalues --    4.23849   4.23849   4.23937   4.30816   4.38092
 Alpha virt. eigenvalues --    4.38092   4.38776   4.41406   4.41556   4.53296
 Alpha virt. eigenvalues --    4.53598   4.53598   4.62176   4.62176   4.63201
 Alpha virt. eigenvalues --    4.70841   4.71397   4.71397   4.84896   4.85590
 Alpha virt. eigenvalues --    4.85812   4.85812   4.92815   4.93461   4.93974
 Alpha virt. eigenvalues --    4.93974   4.96836   5.03466   5.04546   5.04546
 Alpha virt. eigenvalues --    5.18195   5.26092   5.26092   5.27120   5.28601
 Alpha virt. eigenvalues --    5.29396   5.32409   5.32627   5.32627   5.49403
 Alpha virt. eigenvalues --    5.49403   5.50281   5.52727   5.53136   5.53136
 Alpha virt. eigenvalues --    5.64172   5.64819   5.64819   5.72600   5.72911
 Alpha virt. eigenvalues --    5.76000   6.11501   6.11501   6.12853   6.13423
 Alpha virt. eigenvalues --    6.13647   6.13647   6.18309   6.18588   6.18588
 Alpha virt. eigenvalues --    6.29773   6.30188   6.30188   6.38486   6.38486
 Alpha virt. eigenvalues --    6.39673   6.92481   7.15180   7.15666   7.16995
 Alpha virt. eigenvalues --    7.18660   7.18660   7.26279   7.49986   7.50450
 Alpha virt. eigenvalues --    7.50450   7.63386   7.63386   7.63502   7.99950
 Alpha virt. eigenvalues --    7.99950   8.01897   8.06259   8.08292   8.09139
 Alpha virt. eigenvalues --    8.09698   8.09698   8.82574  11.38195  11.38234
 Alpha virt. eigenvalues --   11.38237  11.38237  11.38571  11.38960  11.39520
 Alpha virt. eigenvalues --   11.39549  11.39549  11.39627  11.39627  11.40105
 Alpha virt. eigenvalues --   11.40105  11.40238  11.40347  11.40347  11.40629
 Alpha virt. eigenvalues --   11.40668  11.40668  11.40678  11.40749  11.41452
 Alpha virt. eigenvalues --   11.41460  11.41461  11.41464  11.41963  11.42390
 Alpha virt. eigenvalues --   11.42510  11.42510  11.42518  11.42518  11.42518
 Alpha virt. eigenvalues --   11.42518  11.42578  11.42666  11.42970  11.43375
 Alpha virt. eigenvalues --   11.43622  11.43622  11.44486  11.44859  11.44859
 Alpha virt. eigenvalues --   11.44890  11.44903  11.44903  11.47379  11.47632
 Alpha virt. eigenvalues --   11.47632  11.54063  11.54563  11.60563  11.60563
 Alpha virt. eigenvalues --   11.61065  11.77184  14.46157  14.47118  14.47128
 Alpha virt. eigenvalues --   14.47691  14.47921  14.47921  14.48007  14.48007
 Alpha virt. eigenvalues --   14.49392  14.49394  14.49453  14.49453  14.49957
 Alpha virt. eigenvalues --   14.49957  14.50449  14.52539  14.52539  14.52570
 Alpha virt. eigenvalues --   14.53024  14.53775  14.53775  14.61122  14.61487
 Alpha virt. eigenvalues --   14.61753  14.62355  14.62355  14.62552  14.67850
 Alpha virt. eigenvalues --   14.67850  14.68656  14.70656  14.71755  14.71755
 Alpha virt. eigenvalues --   14.77544  14.77622  14.77622  14.82261  14.82931
 Alpha virt. eigenvalues --   14.83652  14.83652  14.84449  14.84717  15.14186
 Alpha virt. eigenvalues --   15.15157  15.16782  15.17881  15.17881  15.43647
 Alpha virt. eigenvalues --   15.61286  15.62590  15.65365  15.67044  15.67044
 Alpha virt. eigenvalues --   15.67273  15.73762  15.75105  15.75105  15.83899
 Alpha virt. eigenvalues --   15.84587  15.84587  15.85797  15.87526  15.88844
 Alpha virt. eigenvalues --   15.96254  15.96254  15.96560  16.10097  16.10401
 Alpha virt. eigenvalues --   16.10401  16.10629  16.10629  16.11584  16.38008
 Alpha virt. eigenvalues --   16.38688  16.38930  16.39967  16.39967  16.48773
 Alpha virt. eigenvalues --   34.50084  53.84085  53.85056  53.85056  53.89337
 Alpha virt. eigenvalues --   53.90009  53.98088 107.62719 286.65066 286.66118
 Alpha virt. eigenvalues --  286.66118 286.71856 286.72579 286.82475
  Beta  occ. eigenvalues --  -24.47321 -24.47321 -24.47321 -24.47321 -24.47098
  Beta  occ. eigenvalues --  -24.47098  -3.40213  -2.18453  -2.18453  -2.16550
  Beta  occ. eigenvalues --   -1.15404  -1.14499  -1.13956  -1.13460  -1.13460
  Beta  occ. eigenvalues --   -1.12684  -0.56033  -0.55547  -0.53569  -0.50950
  Beta  occ. eigenvalues --   -0.50950  -0.49982  -0.45535  -0.45535  -0.45159
  Beta  occ. eigenvalues --   -0.42131  -0.42131  -0.40887  -0.40480  -0.40480
  Beta  occ. eigenvalues --   -0.40394  -0.40329  -0.38452  -0.38452  -0.35908
  Beta virt. eigenvalues --   -0.32762  -0.32762  -0.22670  -0.21800  -0.00905
  Beta virt. eigenvalues --    0.01746   0.01746   0.01784   0.14609   0.15764
  Beta virt. eigenvalues --    0.15764   0.15901   0.20633   0.20642   0.23813
  Beta virt. eigenvalues --    0.24217   0.24217   0.28598   0.32950   0.32950
  Beta virt. eigenvalues --    0.33055   0.36593   0.36593   0.36755   0.38817
  Beta virt. eigenvalues --    0.42301   0.42301   0.42468   0.43073   0.43145
  Beta virt. eigenvalues --    0.44273   0.46677   0.46980   0.46980   0.47977
  Beta virt. eigenvalues --    0.48194   0.48194   0.51287   0.51287   0.51464
  Beta virt. eigenvalues --    0.60092   0.60092   0.60225   0.74298   0.74298
  Beta virt. eigenvalues --    0.74439   0.77577   0.78344   0.78344   0.91528
  Beta virt. eigenvalues --    0.93426   0.93426   0.94363   1.00933   1.01196
  Beta virt. eigenvalues --    1.01624   1.01624   1.01956   1.08937   1.08937
  Beta virt. eigenvalues --    1.09017   1.10257   1.10296   1.26562   1.29480
  Beta virt. eigenvalues --    1.29788   1.33031   1.33031   1.33307   1.37321
  Beta virt. eigenvalues --    1.37386   1.37775   1.37775   1.49486   1.49553
  Beta virt. eigenvalues --    1.49641   1.49641   1.50175   1.64200   1.64200
  Beta virt. eigenvalues --    1.64457   1.64711   1.64711   1.65002   1.65668
  Beta virt. eigenvalues --    1.65843   1.66289   1.67602   1.67681   1.68298
  Beta virt. eigenvalues --    1.68298   1.68613   1.68613   1.69709   1.74248
  Beta virt. eigenvalues --    1.74248   1.74590   1.85984   1.85984   1.86106
  Beta virt. eigenvalues --    1.93883   1.93883   1.95119   2.03675   2.04035
  Beta virt. eigenvalues --    2.04035   2.20296   2.20590   2.36005   2.43618
  Beta virt. eigenvalues --    2.48007   2.59270   2.59349   2.59349   2.59845
  Beta virt. eigenvalues --    2.60750   2.60750   2.68630   2.68630   2.70093
  Beta virt. eigenvalues --    2.80084   2.80084   2.80114   2.80238   2.81033
  Beta virt. eigenvalues --    2.81033   3.08976   3.09939   3.09939   3.11242
  Beta virt. eigenvalues --    3.12202   3.37757   3.38122   3.86587   3.92483
  Beta virt. eigenvalues --    3.92483   3.92986   4.03105   4.03372   4.04247
  Beta virt. eigenvalues --    4.04768   4.04768   4.04807   4.06454   4.06622
  Beta virt. eigenvalues --    4.06622   4.07010   4.07470   4.07470   4.08454
  Beta virt. eigenvalues --    4.08473   4.08882   4.08882   4.08970   4.11294
  Beta virt. eigenvalues --    4.11355   4.11355   4.16797   4.16822   4.16822
  Beta virt. eigenvalues --    4.17141   4.24154   4.24215   4.24215   4.31262
  Beta virt. eigenvalues --    4.38374   4.38977   4.38977   4.41889   4.41933
  Beta virt. eigenvalues --    4.53780   4.53780   4.54142   4.62508   4.63428
  Beta virt. eigenvalues --    4.63428   4.71524   4.71524   4.71989   4.85693
  Beta virt. eigenvalues --    4.86240   4.86251   4.86349   4.93978   4.93978
  Beta virt. eigenvalues --    4.94134   4.94812   4.97599   5.04507   5.04507
  Beta virt. eigenvalues --    5.05339   5.18860   5.26330   5.27233   5.27233
  Beta virt. eigenvalues --    5.29282   5.29895   5.32877   5.32877   5.33190
  Beta virt. eigenvalues --    5.49632   5.50423   5.50423   5.53350   5.53350
  Beta virt. eigenvalues --    5.53845   5.64890   5.64890   5.65347   5.73140
  Beta virt. eigenvalues --    5.73195   5.76440   6.11732   6.12957   6.12957
  Beta virt. eigenvalues --    6.14235   6.14235   6.14649   6.19017   6.19017
  Beta virt. eigenvalues --    6.19365   6.30666   6.30666   6.31059   6.38814
  Beta virt. eigenvalues --    6.39904   6.39904   6.95261   7.15652   7.15962
  Beta virt. eigenvalues --    7.19655   7.19655   7.21170   7.26655   7.51341
  Beta virt. eigenvalues --    7.51341   7.51592   7.66270   7.66336   7.66336
  Beta virt. eigenvalues --    8.01561   8.03205   8.03205   8.08561   8.10241
  Beta virt. eigenvalues --    8.10241   8.10422   8.10580   8.84176  11.38684
  Beta virt. eigenvalues --   11.38684  11.38789  11.38856  11.39064  11.39282
  Beta virt. eigenvalues --   11.40130  11.40180  11.40180  11.40403  11.40403
  Beta virt. eigenvalues --   11.40456  11.40568  11.40581  11.40668  11.40698
  Beta virt. eigenvalues --   11.40698  11.40932  11.40932  11.41241  11.41241
  Beta virt. eigenvalues --   11.42339  11.42352  11.42395  11.42396  11.42403
  Beta virt. eigenvalues --   11.42403  11.42405  11.42405  11.42613  11.42904
  Beta virt. eigenvalues --   11.43023  11.43031  11.43032  11.43105  11.43412
  Beta virt. eigenvalues --   11.43956  11.43956  11.44125  11.45107  11.45107
  Beta virt. eigenvalues --   11.45356  11.45356  11.45362  11.45383  11.47912
  Beta virt. eigenvalues --   11.47912  11.48180  11.54670  11.54932  11.60932
  Beta virt. eigenvalues --   11.61400  11.61400  11.77737  14.46935  14.47556
  Beta virt. eigenvalues --   14.47743  14.48519  14.48519  14.48699  14.49227
  Beta virt. eigenvalues --   14.49289  14.49289  14.49372  14.50279  14.50279
  Beta virt. eigenvalues --   14.50797  14.50797  14.50815  14.52957  14.53504
  Beta virt. eigenvalues --   14.53504  14.53695  14.53695  14.54535  14.61818
  Beta virt. eigenvalues --   14.62085  14.62226  14.62953  14.62998  14.62998
  Beta virt. eigenvalues --   14.68238  14.68907  14.68907  14.71634  14.71634
  Beta virt. eigenvalues --   14.72416  14.78120  14.78120  14.78252  14.83032
  Beta virt. eigenvalues --   14.83250  14.83999  14.84742  14.84742  14.85179
  Beta virt. eigenvalues --   15.14935  15.15644  15.17889  15.17889  15.18675
  Beta virt. eigenvalues --   15.44318  15.62389  15.63311  15.66960  15.66960
  Beta virt. eigenvalues --   15.68186  15.68192  15.75145  15.75145  15.76197
  Beta virt. eigenvalues --   15.84776  15.84914  15.85983  15.85983  15.88492
  Beta virt. eigenvalues --   15.89606  15.96991  15.96991  15.97025  16.10873
  Beta virt. eigenvalues --   16.10873  16.11008  16.11210  16.11893  16.11893
  Beta virt. eigenvalues --   16.38694  16.39389  16.39782  16.39782  16.40683
  Beta virt. eigenvalues --   16.49285  34.51549  53.84942  53.84942  53.85422
  Beta virt. eigenvalues --   53.89890  53.90205  53.98436 107.63860 286.66000
  Beta virt. eigenvalues --  286.66000 286.66565 286.72460 286.72830 286.82879
          Condensed to atoms (all electrons):
               1          2          3          4          5          6
     1  Rh  14.393802   0.223263   0.223263   0.223263   0.223263   0.224765
     2  F    0.223263   9.015796  -0.006308  -0.002362  -0.006308  -0.006119
     3  F    0.223263  -0.006308   9.015796  -0.006308  -0.002362  -0.006119
     4  F    0.223263  -0.002362  -0.006308   9.015796  -0.006308  -0.006119
     5  F    0.223263  -0.006308  -0.002362  -0.006308   9.015796  -0.006119
     6  F    0.224765  -0.006119  -0.006119  -0.006119  -0.006119   9.010156
     7  F    0.224765  -0.006119  -0.006119  -0.006119  -0.006119  -0.002324
               7
     1  Rh   0.224765
     2  F   -0.006119
     3  F   -0.006119
     4  F   -0.006119
     5  F   -0.006119
     6  F   -0.002324
     7  F    9.010156
          Atomic-Atomic Spin Densities.
               1          2          3          4          5          6
     1  Rh   0.652464   0.001408   0.001408   0.001408   0.001408  -0.055036
     2  F    0.001408  -0.022853  -0.005273  -0.000049  -0.005273   0.005027
     3  F    0.001408  -0.005273  -0.022853  -0.005273  -0.000049   0.005027
     4  F    0.001408  -0.000049  -0.005273  -0.022853  -0.005273   0.005027
     5  F    0.001408  -0.005273  -0.000049  -0.005273  -0.022853   0.005027
     6  F   -0.055036   0.005027   0.005027   0.005027   0.005027   0.305065
     7  F   -0.055036   0.005027   0.005027   0.005027   0.005027  -0.000177
               7
     1  Rh  -0.055036
     2  F    0.005027
     3  F    0.005027
     4  F    0.005027
     5  F    0.005027
     6  F   -0.000177
     7  F    0.305065
 Mulliken charges and spin densities:
               1          2
     1  Rh   1.263616   0.548024
     2  F   -0.211843  -0.021985
     3  F   -0.211843  -0.021985
     4  F   -0.211843  -0.021985
     5  F   -0.211843  -0.021985
     6  F   -0.208121   0.269958
     7  F   -0.208121   0.269958
 Sum of Mulliken charges =  -0.00000   1.00000
 Mulliken charges and spin densities with hydrogens summed into heavy atoms:
               1          2
     1  Rh   1.263616   0.548024
     2  F   -0.211843  -0.021985
     3  F   -0.211843  -0.021985
     4  F   -0.211843  -0.021985
     5  F   -0.211843  -0.021985
     6  F   -0.208121   0.269958
     7  F   -0.208121   0.269958
 Electronic spatial extent (au):  <R**2>=            798.4192
 Charge=             -0.0000 electrons
 Dipole moment (field-independent basis, Debye):
    X=             -0.0000    Y=             -0.0000    Z=             -0.0000  Tot=              0.0000
 Quadrupole moment (field-independent basis, Debye-Ang):
   XX=            -52.2300   YY=            -52.2300   ZZ=            -52.0745
   XY=              0.0000   XZ=              0.0000   YZ=              0.0000
 Traceless Quadrupole moment (field-independent basis, Debye-Ang):
   XX=             -0.0518   YY=             -0.0518   ZZ=              0.1037
   XY=              0.0000   XZ=              0.0000   YZ=              0.0000
 Octapole moment (field-independent basis, Debye-Ang**2):
  XXX=             -0.0000  YYY=             -0.0000  ZZZ=              0.0000  XYY=             -0.0000
  XXY=              0.0000  XXZ=             -0.0000  XZZ=              0.0000  YZZ=              0.0000
  YYZ=             -0.0000  XYZ=              0.0000
 Hexadecapole moment (field-independent basis, Debye-Ang**3):
 XXXX=           -256.0277 YYYY=           -256.0277 ZZZZ=           -255.1145 XXXY=              0.0000
 XXXZ=             -0.0000 YYYX=              0.0000 YYYZ=             -0.0000 ZZZX=              0.0000
 ZZZY=              0.0000 XXYY=            -81.5994 XXZZ=            -81.6422 YYZZ=            -81.6422
 XXYZ=             -0.0000 YYXZ=             -0.0000 ZZXY=              0.0000
 N-N= 4.858878597091D+02 E-N=-2.633772948979D+03  KE= 6.375269052444D+02
 Symmetry AG   KE= 2.684069159696D+02
 Symmetry B1G  KE= 1.588152827666D+01
 Symmetry B2G  KE= 1.588326666912D+01
 Symmetry B3G  KE= 1.588326666912D+01
 Symmetry AU   KE= 2.622360046739D-22
 Symmetry B1U  KE= 1.071575527025D+02
 Symmetry B2U  KE= 1.071571874787D+02
 Symmetry B3U  KE= 1.071571874787D+02
 Symmetry AG   SP=-1.763149219825D-13
 Symmetry B1G  SP=-1.000000000000D+00
 Symmetry B2G  SP= 1.000000000000D+00
 Symmetry B3G  SP= 1.000000000000D+00
 Symmetry AU   SP=-3.930307424424D-24
 Symmetry B1U  SP=-1.175576247658D-13
 Symmetry B2U  SP=-1.172994300653D-13
 Symmetry B3U  SP=-1.178052076259D-13
                          Isotropic Fermi Contact Couplings
        Atom                 a.u.       MegaHertz       Gauss      10(-4) cm-1
     1  Rh(103            -0.00000       0.00021       0.00008       0.00007
     2  F(19)              0.00186       7.83702       2.79644       2.61415
     3  F(19)              0.00186       7.83702       2.79644       2.61415
     4  F(19)              0.00186       7.83702       2.79644       2.61415
     5  F(19)              0.00186       7.83702       2.79644       2.61415
     6  F(19)              0.03120     131.26148      46.83736      43.78412
     7  F(19)              0.03120     131.26148      46.83736      43.78412
 --------------------------------------------------------
       Center         ----  Spin Dipole Couplings  ----
                      3XX-RR        3YY-RR        3ZZ-RR
 --------------------------------------------------------
     1   Atom       -0.336621     -0.336621      0.673243
     2   Atom       -1.396299     -0.002822      1.399122
     3   Atom       -0.002822     -1.396299      1.399122
     4   Atom       -1.396299     -0.002822      1.399122
     5   Atom       -0.002822     -1.396299      1.399122
     6   Atom        0.451960      0.451960     -0.903920
     7   Atom        0.451960      0.451960     -0.903920
 --------------------------------------------------------
                        XY            XZ            YZ
 --------------------------------------------------------
     1   Atom        0.000000      0.000000     -0.000000
     2   Atom        0.000000      0.000000      0.000000
     3   Atom       -0.000000      0.000000     -0.000000
     4   Atom       -0.000000      0.000000     -0.000000
     5   Atom       -0.000000      0.000000      0.000000
     6   Atom       -0.000000     -0.000000     -0.000000
     7   Atom       -0.000000      0.000000      0.000000
 --------------------------------------------------------


 ---------------------------------------------------------------------------------
              Anisotropic Spin Dipole Couplings in Principal Axis System
 ---------------------------------------------------------------------------------

       Atom             a.u.   MegaHertz   Gauss  10(-4) cm-1        Axes

              Baa    -0.3366     5.685     2.029     1.896 -0.0000  1.0000  0.0000
     1 Rh(103 Bbb    -0.3366     5.685     2.029     1.896  1.0000  0.0000  0.0000
              Bcc     0.6732   -11.370    -4.057    -3.793  0.0000  0.0000  1.0000
 
              Baa    -1.3963  -701.257  -250.226  -233.914  1.0000 -0.0000 -0.0000
     2 F(19)  Bbb    -0.0028    -1.417    -0.506    -0.473  0.0000  1.0000  0.0000
              Bcc     1.3991   702.675   250.732   234.387  0.0000  0.0000  1.0000
 
              Baa    -1.3963  -701.257  -250.226  -233.914 -0.0000  1.0000 -0.0000
     3 F(19)  Bbb    -0.0028    -1.417    -0.506    -0.473  1.0000 -0.0000  0.0000
              Bcc     1.3991   702.675   250.732   234.387  0.0000  0.0000  1.0000
 
              Baa    -1.3963  -701.257  -250.226  -233.914  1.0000  0.0000  0.0000
     4 F(19)  Bbb    -0.0028    -1.417    -0.506    -0.473 -0.0000  1.0000 -0.0000
              Bcc     1.3991   702.675   250.732   234.387  0.0000  0.0000  1.0000
 
              Baa    -1.3963  -701.257  -250.226  -233.914  0.0000  1.0000 -0.0000
     5 F(19)  Bbb    -0.0028    -1.417    -0.506    -0.473  1.0000 -0.0000  0.0000
              Bcc     1.3991   702.675   250.732   234.387  0.0000  0.0000  1.0000
 
              Baa    -0.9039  -453.972  -161.988  -151.429  0.0000  0.0000  1.0000
     6 F(19)  Bbb     0.4520   226.986    80.994    75.714  0.9997  0.0239 -0.0000
              Bcc     0.4520   226.986    80.994    75.714 -0.0239  0.9997  0.0000
 
              Baa    -0.9039  -453.972  -161.988  -151.429 -0.0000 -0.0000  1.0000
     7 F(19)  Bbb     0.4520   226.986    80.994    75.714  0.9990  0.0450  0.0000
              Bcc     0.4520   226.986    80.994    75.714 -0.0450  0.9990 -0.0000
 

 ---------------------------------------------------------------------------------

  16 Symmetry operations used in ECPInt.
 ECPInt:  NShTT=    7750 NPrTT=   21159 LenC2=    7184 LenP2D=   15054.
 LDataN:  DoStor=T MaxTD1= 9 Len=  602
 Calling FoFJK, ICntrl=      2527 FMM=F ISym2X=1 I1Cent= 0 IOpClX= 0 NMat=1 NMatS=1 NMatT=0.
 Defaulting to unpruned grid for atomic number  45.
 Defaulting to unpruned grid for atomic number  45.
 Defaulting to unpruned grid for atomic number  45.
 Defaulting to unpruned grid for atomic number  45.
 Defaulting to unpruned grid for atomic number  45.
 Defaulting to unpruned grid for atomic number  45.
 Defaulting to unpruned grid for atomic number  45.
 Defaulting to unpruned grid for atomic number  45.
 Defaulting to unpruned grid for atomic number  45.
 Defaulting to unpruned grid for atomic number  45.
 Defaulting to unpruned grid for atomic number  45.
 Defaulting to unpruned grid for atomic number  45.
 Defaulting to unpruned grid for atomic number  45.
 Defaulting to unpruned grid for atomic number  45.
 Defaulting to unpruned grid for atomic number  45.
 Defaulting to unpruned grid for atomic number  45.
 ***** Axes restored to original set *****
 -------------------------------------------------------------------
 Center     Atomic                   Forces (Hartrees/Bohr)
 Number     Number              X              Y              Z
 -------------------------------------------------------------------
      1       45          -0.000000000    0.000000000    0.000000000
      2        9          -0.011609901    0.011609901    0.000000000
      3        9          -0.011609901   -0.011609901   -0.000000000
      4        9           0.011609901   -0.011609901   -0.000000000
      5        9           0.011609901    0.011609901    0.000000000
      6        9           0.000000000    0.000000000   -0.018118680
      7        9          -0.000000000    0.000000000    0.018118680
 -------------------------------------------------------------------
 Cartesian Forces:  Max     0.018118680 RMS     0.009089218

 GradGradGradGradGradGradGradGradGradGradGradGradGradGradGradGradGradGrad
 Berny optimization.
 FormGI is forming the generalized inverse of G from B-inverse, IUseBI=4.
 Internal  Forces:  Max     0.018118680 RMS     0.007363108
 Search for a local minimum.
 Step number   1 out of a maximum of   42
 All quantities printed in internal units (Hartrees-Bohrs-Radians)
 Mixed Optimization -- RFO/linear search
 Second derivative matrix not updated -- first step.
 ITU=  0
     Eigenvalues ---    0.06422   0.06423   0.08487   0.12615   0.12615
     Eigenvalues ---    0.12615   0.12615   0.25000   0.25000   0.25319
     Eigenvalues ---    0.25319   0.25320   0.25320   0.25320   0.25320
 RFO step:  Lambda=-6.67592483D-03 EMin= 6.42250000D-02
 Linear search not attempted -- first point.
 Iteration  1 RMS(Cart)=  0.02833352 RMS(Int)=  0.00000000
 Iteration  2 RMS(Cart)=  0.00000000 RMS(Int)=  0.00000000
 ClnCor:  largest displacement from symmetrization is 2.15D-09 for atom     5.
 Variable       Old X    -DE/DX   Delta X   Delta X   Delta X     New X
                                 (Linear)    (Quad)   (Total)
    R1        3.55392  -0.01642   0.00000  -0.06318  -0.06318   3.49074
    R2        3.55392  -0.01642   0.00000  -0.06318  -0.06318   3.49074
    R3        3.55392  -0.01642   0.00000  -0.06318  -0.06318   3.49074
    R4        3.55392  -0.01642   0.00000  -0.06318  -0.06318   3.49074
    R5        3.55393  -0.01812   0.00000  -0.06972  -0.06972   3.48421
    R6        3.55393  -0.01812   0.00000  -0.06972  -0.06972   3.48421
    A1        1.57080   0.00000   0.00000   0.00000   0.00000   1.57080
    A2        1.57080  -0.00000   0.00000  -0.00000   0.00000   1.57080
    A3        1.57080  -0.00000   0.00000  -0.00000   0.00000   1.57080
    A4        1.57080   0.00000   0.00000   0.00000   0.00000   1.57080
    A5        1.57080   0.00000   0.00000   0.00000  -0.00000   1.57080
    A6        1.57080   0.00000   0.00000   0.00000   0.00000   1.57080
    A7        1.57080   0.00000   0.00000   0.00000   0.00000   1.57080
    A8        1.57080  -0.00000   0.00000  -0.00000   0.00000   1.57080
    A9        1.57080  -0.00000   0.00000  -0.00000   0.00000   1.57080
   A10        1.57080  -0.00000   0.00000  -0.00000   0.00000   1.57080
   A11        1.57080  -0.00000   0.00000  -0.00000   0.00000   1.57080
   A12        1.57080  -0.00000   0.00000  -0.00000   0.00000   1.57080
   A13        3.14159   0.00000   0.00000   0.00000  -0.00000   3.14159
   A14        3.14159   0.00000   0.00000   0.00000   0.00000   3.14159
   A15        3.14159   0.00000   0.00000   0.00000   0.00000   3.14159
   A16        3.14159   0.00000   0.00000   0.00000   0.00000   3.14159
   A17        3.14159  -0.00000   0.00000  -0.00000   0.00000   3.14159
   A18        3.14159  -0.00000   0.00000  -0.00000   0.00000   3.14159
    D1        1.57080   0.00000   0.00000   0.00000   0.00000   1.57080
    D2       -1.57080  -0.00000   0.00000  -0.00000   0.00000  -1.57080
    D3       -1.57080   0.00000   0.00000   0.00000   0.00000  -1.57080
    D4        1.57080  -0.00000   0.00000  -0.00000  -0.00000   1.57080
    D5        1.57080   0.00000   0.00000   0.00000  -0.00000   1.57080
    D6       -1.57080  -0.00000   0.00000  -0.00000   0.00000  -1.57080
    D7        1.57080  -0.00000   0.00000  -0.00000   0.00000   1.57080
    D8       -1.57080   0.00000   0.00000   0.00000  -0.00000  -1.57080
         Item               Value     Threshold  Converged?
 Maximum Force            0.018119     0.000450     NO 
 RMS     Force            0.007363     0.000300     NO 
 Maximum Displacement     0.069723     0.001800     NO 
 RMS     Displacement     0.028334     0.001200     NO 
 Predicted change in Energy=-3.423714D-03
 GradGradGradGradGradGradGradGradGradGradGradGradGradGradGradGradGradGrad

                          Input orientation:                          
 ---------------------------------------------------------------------
 Center     Atomic      Atomic             Coordinates (Angstroms)
 Number     Number       Type             X           Y           Z
 ---------------------------------------------------------------------
      1         45           0        8.500000    8.500000    8.500000
      2          9           0        9.806181    7.193819    8.500000
      3          9           0        9.806181    9.806181    8.500000
      4          9           0        7.193819    9.806181    8.500000
      5          9           0        7.193819    7.193819    8.500000
      6          9           0        8.500000    8.500000   10.343766
      7          9           0        8.500000    8.500000    6.656234
 ---------------------------------------------------------------------
                    Distance matrix (angstroms):
                    1          2          3          4          5
     1  Rh   0.000000
     2  F    1.847218   0.000000
     3  F    1.847218   2.612361   0.000000
     4  F    1.847218   3.694436   2.612361   0.000000
     5  F    1.847218   2.612361   3.694436   2.612361   0.000000
     6  F    1.843766   2.609921   2.609921   2.609921   2.609921
     7  F    1.843766   2.609921   2.609921   2.609921   2.609921
                    6          7
     6  F    0.000000
     7  F    3.687531   0.000000
 Stoichiometry    F6Rh(2)
 Framework group  D4H[O(Rh),C4(F.F),2C2'(F.F)]
 Deg. of freedom     2
 Full point group                 D4H     NOp  16
 Largest Abelian subgroup         D2H     NOp   8
 Largest concise Abelian subgroup D2H     NOp   8
                         Standard orientation:                         
 ---------------------------------------------------------------------
 Center     Atomic      Atomic             Coordinates (Angstroms)
 Number     Number       Type             X           Y           Z
 ---------------------------------------------------------------------
      1         45           0        0.000000    0.000000    0.000000
      2          9           0        0.000000    1.847218    0.000000
      3          9           0       -1.847218    0.000000    0.000000
      4          9           0       -0.000000   -1.847218    0.000000
      5          9           0        1.847218   -0.000000    0.000000
      6          9           0        0.000000    0.000000    1.843766
      7          9           0        0.000000    0.000000   -1.843766
 ---------------------------------------------------------------------
 Rotational constants (GHZ):           1.9526096           1.9526096           1.9489635
 Standard basis: def2QZVPP (5D, 7F)
 There are   127 symmetry adapted cartesian basis functions of AG  symmetry.
 There are    50 symmetry adapted cartesian basis functions of B1G symmetry.
 There are    50 symmetry adapted cartesian basis functions of B2G symmetry.
 There are    50 symmetry adapted cartesian basis functions of B3G symmetry.
 There are    28 symmetry adapted cartesian basis functions of AU  symmetry.
 There are    81 symmetry adapted cartesian basis functions of B1U symmetry.
 There are    81 symmetry adapted cartesian basis functions of B2U symmetry.
 There are    81 symmetry adapted cartesian basis functions of B3U symmetry.
 There are    93 symmetry adapted basis functions of AG  symmetry.
 There are    41 symmetry adapted basis functions of B1G symmetry.
 There are    41 symmetry adapted basis functions of B2G symmetry.
 There are    41 symmetry adapted basis functions of B3G symmetry.
 There are    25 symmetry adapted basis functions of AU  symmetry.
 There are    63 symmetry adapted basis functions of B1U symmetry.
 There are    63 symmetry adapted basis functions of B2U symmetry.
 There are    63 symmetry adapted basis functions of B3U symmetry.
   430 basis functions,   697 primitive gaussians,   548 cartesian basis functions
    36 alpha electrons       35 beta electrons
       nuclear repulsion energy       494.9915318580 Hartrees.
 NAtoms=    7 NActive=    7 NUniq=    3 SFac= 4.00D+00 NAtFMM=   60 NAOKFM=F Big=F
 Integral buffers will be    131072 words long.
 Raffenetti 2 integral format.
 Two-electron integral symmetry is turned on.
 One-electron integrals computed using PRISM.
  16 Symmetry operations used in ECPInt.
 ECPInt:  NShTT=    7750 NPrTT=   21159 LenC2=    7196 LenP2D=   15110.
 LDataN:  DoStor=T MaxTD1= 8 Len=  415
 NBasis=   430 RedAO= T EigKep=  8.25D-04  NBF=    93    41    41    41    25    63    63    63
 NBsUse=   430 1.00D-06 EigRej= -1.00D+00 NBFU=    93    41    41    41    25    63    63    63
 Defaulting to unpruned grid for atomic number  45.
 Initial guess from the checkpoint file:  "/data/hutter/SMG16/TPSS/Gau-20111.chk"
 B after Tr=    -0.000000    0.000000   -0.000000
         Rot=    1.000000   -0.000000    0.000000    0.000000 Ang=   0.00 deg.
 Initial guess orbital symmetries:
 Alpha Orbitals:
       Occupied  (A1G) (A2U) (?A) (?A) (EU) (EU) (A1G) (A2U) (EU)
                 (EU) (A1G) (A1G) (A2U) (B1G) (EU) (EU) (B1G) (A1G)
                 (EG) (EG) (B2G) (A1G) (A2U) (EU) (EU) (EU) (EU)
                 (A2U) (B2U) (EU) (EU) (EG) (EG) (A2G) (EG) (EG)
       Virtual   (B2G) (B1G) (A1G) (A1G) (A2U) (EU) (EU) (A1G)
                 (A2U) (EU) (EU) (A1G) (B1G) (EG) (EG) (B2G) (B1U)
                 (A2U) (EU) (EU) (B2U) (EU) (EU) (A1G) (A2U) (EU)
                 (EU) (B1G) (A1G) (A1G) (EG) (EG) (A2G) (EG) (EG)
                 (B2G) (B2U) (EU) (EU) (A2U) (EU) (EU) (A2U) (EU)
                 (EU) (EG) (EG) (B2G) (B1U) (B2U) (EU) (EU) (A1G)
                 (B1G) (A2U) (EU) (EU) (A2U) (EU) (EU) (B1G) (A1G)
                 (A1G) (B1U) (A1U) (B2G) (EG) (EG) (B1G) (EG) (EG)
                 (A2G) (B2U) (A1G) (B1G) (EU) (EU) (A2U) (EU) (EU)
                 (B2U) (EU) (EU) (B1U) (B1G) (A1G) (EG) (EG) (EG)
                 (EG) (B2G) (A2G) (A1G) (A2U) (EU) (EU) (A2U) (EU)
                 (EU) (B2U) (EU) (EU) (EG) (EG) (B2G) (B1G) (A1G)
                 (B1U) (A1G) (A1G) (A2U) (EG) (EG) (EU) (EU) (B2G)
                 (B2U) (EU) (EU) (A2U) (EU) (EU) (EG) (EG) (A2G)
                 (EG) (EG) (B2G) (B1G) (A1G) (B1G) (A1G) (A1G)
                 (A2U) (EU) (EU) (B1U) (A1U) (B1G) (B2U) (EU) (EU)
                 (EG) (EG) (A2G) (EG) (EG) (B2G) (A1G) (B1G) (EU)
                 (EU) (B2U) (A2U) (EU) (EU) (B2G) (A1G) (EG) (EG)
                 (EU) (EU) (A2U) (B1U) (EG) (EG) (B2G) (B1G) (A1G)
                 (B2U) (EU) (EU) (EG) (EG) (A2G) (A2U) (EU) (EU)
                 (B1U) (A1G) (B1G) (A1U) (B2G) (B1G) (EG) (EG)
                 (A1G) (B2U) (EU) (EU) (B1U) (EG) (EG) (A2G) (B1G)
                 (A1G) (A2U) (EU) (EU) (EG) (EG) (B2G) (B2U) (EU)
                 (EU) (A2U) (EU) (EU) (A1G) (B1G) (A1G) (EG) (EG)
                 (A2G) (A2U) (EU) (EU) (B2U) (EU) (EU) (A2U) (EU)
                 (EU) (EG) (EG) (B2G) (B1U) (A1G) (B1G) (B2U) (EU)
                 (EU) (A1G) (A2U) (EU) (EU) (EG) (EG) (B2G) (EG)
                 (EG) (A2G) (B1G) (A1G) (A2U) (EU) (EU) (A1G) (B2U)
                 (B1U) (EU) (EU) (B1G) (A1U) (B2G) (EU) (EU) (EG)
                 (EG) (EG) (EG) (A2U) (EU) (EU) (B2U) (EG) (EG)
                 (A2G) (B2G) (A1U) (A2G) (A2U) (A1G) (B1G) (A1G)
                 (B1U) (A1U) (EG) (EG) (EU) (EU) (B1G) (A1G) (B1U)
                 (A2U) (EU) (EU) (B2U) (EU) (EU) (B2G) (EG) (EG)
                 (A2U) (EU) (EU) (A1G) (B1G) (EG) (EG) (A2G) (A1G)
                 (B1U) (A1U) (B1G) (B2U) (EG) (EG) (EU) (EU) (B2G)
                 (A2G) (EG) (EG) (EU) (EU) (B2U) (EU) (EU) (B2G)
                 (A2U) (EG) (EG) (B1G) (B1U) (A1G) (EU) (EU) (A2U)
                 (EG) (EG) (B2G) (A2U) (EU) (EU) (B2U) (EU) (EU)
                 (A1G) (B1G) (EG) (EG) (A2G) (A1G) (A1G) (B1G)
                 (A2U) (EU) (EU) (A1G) (B1U) (A1U) (B2G) (EG) (EG)
                 (B1G) (B2U) (EU) (EU) (B1U) (EG) (EG) (A2G) (B1G)
                 (A1G) (EU) (EU) (A2U) (B2U) (EU) (EU) (EG) (EG)
                 (B2G) (A1G) (A2U) (B1G) (EU) (EU) (A1G) (A1G)
                 (A2U) (EU) (EU) (A1G) (B1G) (A1G) (A1G) (A2U)
                 (EU) (EU) (A1G) (B1G) (A1G)
 Beta  Orbitals:
       Occupied  (?A) (?A) (EU) (EU) (A1G) (A2U) (A1G) (EU) (EU)
                 (A2U) (A1G) (B1G) (A1G) (EU) (EU) (A2U) (A1G)
                 (B1G) (B2G) (EG) (EG) (A1G) (EU) (EU) (A2U) (EU)
                 (EU) (A2U) (EU) (EU) (B2U) (A2G) (EG) (EG) (B2G)
       Virtual   (EG) (EG) (A1G) (B1G) (A1G) (EU) (EU) (A2U) (A1G)
                 (EU) (EU) (A2U) (B1G) (A1G) (B2G) (EG) (EG) (B1U)
                 (EU) (EU) (A2U) (EU) (EU) (B2U) (A1G) (EU) (EU)
                 (A2U) (A1G) (B1G) (A1G) (A2G) (EG) (EG) (B2G)
                 (EG) (EG) (EU) (EU) (B2U) (EU) (EU) (A2U) (EU)
                 (EU) (A2U) (B2G) (EG) (EG) (B1U) (EU) (EU) (B2U)
                 (B1G) (A1G) (EU) (EU) (A2U) (EU) (EU) (A2U) (A1G)
                 (B1G) (A1G) (A1U) (B1U) (EG) (EG) (B2G) (B1G)
                 (A2G) (EG) (EG) (A1G) (B1G) (EU) (EU) (B2U) (EU)
                 (EU) (A2U) (EU) (EU) (B2U) (B1U) (A1G) (B1G) (B2G)
                 (A2G) (EG) (EG) (EG) (EG) (A1G) (EU) (EU) (A2U)
                 (EU) (EU) (A2U) (EU) (EU) (B2U) (B2G) (EG) (EG)
                 (A1G) (B1G) (B1U) (A1G) (A1G) (B2G) (EU) (EU)
                 (A2U) (EG) (EG) (EU) (EU) (B2U) (EU) (EU) (A2U)
                 (A2G) (EG) (EG) (B2G) (EG) (EG) (A1G) (B1G) (A1G)
                 (B1G) (A1G) (EU) (EU) (A2U) (A1U) (B1U) (B1G)
                 (EU) (EU) (B2U) (A2G) (EG) (EG) (B2G) (EG) (EG)
                 (B1G) (A1G) (EU) (EU) (B2U) (A2U) (EU) (EU) (A1G)
                 (EG) (EG) (B2G) (A2U) (EU) (EU) (B1U) (B2G) (EG)
                 (EG) (A1G) (B1G) (EU) (EU) (B2U) (A2G) (EG) (EG)
                 (EU) (EU) (A2U) (A1U) (B1G) (A1G) (B1U) (EG) (EG)
                 (B1G) (B2G) (A1G) (EU) (EU) (B2U) (B1U) (A2G)
                 (EG) (EG) (A1G) (B1G) (EU) (EU) (A2U) (B2G) (EG)
                 (EG) (EU) (EU) (B2U) (EU) (EU) (A2U) (B1G) (A1G)
                 (A1G) (A2G) (EG) (EG) (EU) (EU) (A2U) (EU) (EU)
                 (B2U) (EU) (EU) (A2U) (B2G) (EG) (EG) (B1U) (B1G)
                 (A1G) (EU) (EU) (B2U) (A1G) (EU) (EU) (A2U) (B2G)
                 (EG) (EG) (A2G) (EG) (EG) (A1G) (EU) (EU) (B1G)
                 (A2U) (A1G) (EU) (EU) (B2U) (A1U) (B1G) (B1U)
                 (A2U) (EG) (EG) (EU) (EU) (B2G) (A2G) (B2U) (B2G)
                 (EG) (EG) (EU) (EU) (EG) (EG) (B1G) (A1G) (B1U)
                 (A1U) (EG) (EG) (EU) (EU) (A1G) (B1G) (A1U) (A2G)
                 (A2U) (A1G) (B1U) (EU) (EU) (A2U) (EU) (EU) (EG)
                 (EG) (B2U) (B2G) (EU) (EU) (A2U) (B1G) (A1G) (A2G)
                 (EG) (EG) (A1G) (A1U) (B1U) (B1G) (EU) (EU) (B2U)
                 (A2G) (EG) (EG) (B2G) (EG) (EG) (EU) (EU) (B2U)
                 (A2U) (EU) (EU) (EG) (EG) (B2G) (A1G) (B1U) (B1G)
                 (A2U) (EU) (EU) (B2G) (EG) (EG) (EU) (EU) (A2U)
                 (EU) (EU) (B2U) (B1G) (A1G) (A2G) (EG) (EG) (A1G)
                 (B1G) (A1G) (EU) (EU) (A2U) (A1G) (A1U) (B1U)
                 (EG) (EG) (B2G) (B1G) (EU) (EU) (B2U) (B1U) (A2G)
                 (EG) (EG) (A1G) (B1G) (EU) (EU) (A2U) (EU) (EU)
                 (B2G) (B2U) (EG) (EG) (B1G) (A1G) (EU) (EU) (A2U)
                 (A1G) (A1G) (EU) (EU) (A2U) (B1G) (A1G) (A1G)
                 (A1G) (EU) (EU) (A2U) (B1G) (A1G) (A1G)
 Initial guess <Sx>= 0.0000 <Sy>= 0.0000 <Sz>= 0.5000 <S**2>= 1.7540 S= 0.9156
 ExpMin= 2.21D-02 ExpMax= 1.33D+05 ExpMxC= 1.27D+03 IAcc=3 IRadAn=         5 AccDes= 0.00D+00
 Harris functional with IExCor= 1009 and IRadAn=       5 diagonalized for initial guess.
 HarFok:  IExCor= 1009 AccDes= 0.00D+00 IRadAn=         5 IDoV= 1 UseB2=F ITyADJ=14
 ICtDFT=  3500011 ScaDFX=  1.000000  1.000000  1.000000  1.000000
 Defaulting to unpruned grid for atomic number  45.
 FoFCou: FMM=F IPFlag=           0 FMFlag=      100000 FMFlg1=           0
         NFxFlg=           0 DoJE=T BraDBF=F KetDBF=T FulRan=T
         wScrn=  0.000000 ICntrl=       500 IOpCl=  0 I1Cent=   200000004 NGrid=           0
         NMat0=    1 NMatS0=      1 NMatT0=    0 NMatD0=    1 NMtDS0=    0 NMtDT0=    0
 Petite list used in FoFCou.
 Requested convergence on RMS density matrix=1.00D-08 within 128 cycles.
 Requested convergence on MAX density matrix=1.00D-06.
 Requested convergence on             energy=1.00D-06.
 No special actions if energy rises.
 Defaulting to unpruned grid for atomic number  45.
 Defaulting to unpruned grid for atomic number  45.
 Defaulting to unpruned grid for atomic number  45.
 Defaulting to unpruned grid for atomic number  45.
 Defaulting to unpruned grid for atomic number  45.
 Defaulting to unpruned grid for atomic number  45.
 Defaulting to unpruned grid for atomic number  45.
 Defaulting to unpruned grid for atomic number  45.
 Defaulting to unpruned grid for atomic number  45.
 Defaulting to unpruned grid for atomic number  45.
 Defaulting to unpruned grid for atomic number  45.
 Defaulting to unpruned grid for atomic number  45.
 Defaulting to unpruned grid for atomic number  45.
 Defaulting to unpruned grid for atomic number  45.
 Defaulting to unpruned grid for atomic number  45.
 Defaulting to unpruned grid for atomic number  45.
 Density matrix breaks symmetry, PCut= 1.00D-04
 Density has only Abelian symmetry.
 Density matrix breaks symmetry, PCut= 1.00D-04
 Density has only Abelian symmetry.
 Density matrix breaks symmetry, PCut= 1.00D-04
 Density has only Abelian symmetry.
 Density matrix breaks symmetry, PCut= 1.00D-04
 Density has only Abelian symmetry.
 Density matrix breaks symmetry, PCut= 1.00D-04
 Density has only Abelian symmetry.
 Density matrix breaks symmetry, PCut= 1.00D-04
 Density has only Abelian symmetry.
 Density matrix breaks symmetry, PCut= 1.00D-04
 Density has only Abelian symmetry.
 SCF Done:  E(UTPSS-TPSS) =  -709.875203576     A.U. after   12 cycles
            NFock= 12  Conv=0.16D-08     -V/T= 2.1131
 <Sx>= 0.0000 <Sy>= 0.0000 <Sz>= 0.5000 <S**2>= 1.7538 S= 0.9155
 <L.S>=  0.00000000000    
 Annihilation of the first spin contaminant:
 S**2 before annihilation     1.7538,   after     0.7626
  16 Symmetry operations used in ECPInt.
 ECPInt:  NShTT=    7750 NPrTT=   21159 LenC2=    7196 LenP2D=   15110.
 LDataN:  DoStor=T MaxTD1= 9 Len=  602
 Calling FoFJK, ICntrl=      2527 FMM=F ISym2X=1 I1Cent= 0 IOpClX= 0 NMat=1 NMatS=1 NMatT=0.
 Defaulting to unpruned grid for atomic number  45.
 Defaulting to unpruned grid for atomic number  45.
 Defaulting to unpruned grid for atomic number  45.
 Defaulting to unpruned grid for atomic number  45.
 Defaulting to unpruned grid for atomic number  45.
 Defaulting to unpruned grid for atomic number  45.
 Defaulting to unpruned grid for atomic number  45.
 Defaulting to unpruned grid for atomic number  45.
 Defaulting to unpruned grid for atomic number  45.
 Defaulting to unpruned grid for atomic number  45.
 Defaulting to unpruned grid for atomic number  45.
 Defaulting to unpruned grid for atomic number  45.
 Defaulting to unpruned grid for atomic number  45.
 Defaulting to unpruned grid for atomic number  45.
 Defaulting to unpruned grid for atomic number  45.
 Defaulting to unpruned grid for atomic number  45.
 ***** Axes restored to original set *****
 -------------------------------------------------------------------
 Center     Atomic                   Forces (Hartrees/Bohr)
 Number     Number              X              Y              Z
 -------------------------------------------------------------------
      1       45           0.000000000    0.000000000   -0.000000000
      2        9           0.000071344   -0.000071344    0.000000000
      3        9           0.000071343    0.000071343   -0.000000000
      4        9          -0.000071344    0.000071344   -0.000000000
      5        9          -0.000071343   -0.000071343   -0.000000000
      6        9          -0.000000000    0.000000000    0.000024750
      7        9          -0.000000000   -0.000000000   -0.000024750
 -------------------------------------------------------------------
 Cartesian Forces:  Max     0.000071344 RMS     0.000044692

 GradGradGradGradGradGradGradGradGradGradGradGradGradGradGradGradGradGrad
 Berny optimization.
 Using GEDIIS/GDIIS optimizer.
 FormGI is forming the generalized inverse of G from B-inverse, IUseBI=4.
 Internal  Forces:  Max     0.000100895 RMS     0.000036204
 Search for a local minimum.
 Step number   2 out of a maximum of   42
 All quantities printed in internal units (Hartrees-Bohrs-Radians)
 Mixed Optimization -- En-DIIS/RFO-DIIS
 Update second derivatives using D2CorX and points    1    2
 DE= -3.44D-03 DEPred=-3.42D-03 R= 1.01D+00
 TightC=F SS=  1.41D+00  RLast= 1.60D-01 DXNew= 5.0454D-01 4.8084D-01
 Trust test= 1.01D+00 RLast= 1.60D-01 DXMaxT set to 4.81D-01
 ITU=  1  0
 Use linear search instead of GDIIS.
     Eigenvalues ---    0.06422   0.06422   0.08487   0.12615   0.12615
     Eigenvalues ---    0.12615   0.12615   0.25000   0.25000   0.25315
     Eigenvalues ---    0.25319   0.25320   0.25320   0.25320   0.26105
 RFO step:  Lambda=-3.65257865D-08 EMin= 6.42250000D-02
 Quartic linear search produced a step of -0.00390.
 Iteration  1 RMS(Cart)=  0.00012909 RMS(Int)=  0.00000000
 Iteration  2 RMS(Cart)=  0.00000000 RMS(Int)=  0.00000000
 ClnCor:  largest displacement from symmetrization is 1.78D-09 for atom     5.
 Variable       Old X    -DE/DX   Delta X   Delta X   Delta X     New X
                                 (Linear)    (Quad)   (Total)
    R1        3.49074   0.00010   0.00025   0.00012   0.00036   3.49110
    R2        3.49074   0.00010   0.00025   0.00012   0.00036   3.49110
    R3        3.49074   0.00010   0.00025   0.00012   0.00036   3.49110
    R4        3.49074   0.00010   0.00025   0.00012   0.00036   3.49110
    R5        3.48421   0.00002   0.00027  -0.00021   0.00006   3.48427
    R6        3.48421   0.00002   0.00027  -0.00021   0.00006   3.48427
    A1        1.57080   0.00000   0.00000   0.00000   0.00000   1.57080
    A2        1.57080  -0.00000   0.00000  -0.00000   0.00000   1.57080
    A3        1.57080  -0.00000   0.00000  -0.00000   0.00000   1.57080
    A4        1.57080  -0.00000   0.00000  -0.00000   0.00000   1.57080
    A5        1.57080   0.00000   0.00000   0.00000   0.00000   1.57080
    A6        1.57080   0.00000   0.00000   0.00000   0.00000   1.57080
    A7        1.57080   0.00000   0.00000   0.00000   0.00000   1.57080
    A8        1.57080  -0.00000  -0.00000  -0.00000   0.00000   1.57080
    A9        1.57080   0.00000   0.00000   0.00000   0.00000   1.57080
   A10        1.57080   0.00000   0.00000   0.00000   0.00000   1.57080
   A11        1.57080  -0.00000   0.00000  -0.00000   0.00000   1.57080
   A12        1.57080  -0.00000   0.00000  -0.00000   0.00000   1.57080
   A13        3.14159   0.00000   0.00000   0.00000   0.00000   3.14159
   A14        3.14159  -0.00000   0.00000  -0.00000   0.00000   3.14159
   A15        3.14159  -0.00000   0.00000  -0.00000   0.00000   3.14159
   A16        3.14159   0.00000   0.00000   0.00000   0.00000   3.14159
   A17        3.14159  -0.00000   0.00000  -0.00000   0.00000   3.14159
   A18        3.14159  -0.00000   0.00000  -0.00000   0.00000   3.14159
    D1        1.57080   0.00000   0.00000   0.00000   0.00000   1.57080
    D2       -1.57080  -0.00000   0.00000  -0.00000   0.00000  -1.57080
    D3       -1.57080   0.00000  -0.00000   0.00000   0.00000  -1.57080
    D4        1.57080  -0.00000   0.00000  -0.00000   0.00000   1.57080
    D5        1.57080   0.00000   0.00000   0.00000   0.00000   1.57080
    D6       -1.57080  -0.00000   0.00000  -0.00000   0.00000  -1.57080
    D7        1.57080  -0.00000  -0.00000  -0.00000   0.00000   1.57080
    D8       -1.57080   0.00000   0.00000   0.00000   0.00000  -1.57080
         Item               Value     Threshold  Converged?
 Maximum Force            0.000101     0.000450     YES
 RMS     Force            0.000036     0.000300     YES
 Maximum Displacement     0.000256     0.001800     YES
 RMS     Displacement     0.000129     0.001200     YES
 Predicted change in Energy=-8.015091D-08
 Optimization completed.
    -- Stationary point found.
                           ----------------------------
                           !   Optimized Parameters   !
                           ! (Angstroms and Degrees)  !
 --------------------------                            --------------------------
 ! Name  Definition              Value          Derivative Info.                !
 --------------------------------------------------------------------------------
 ! R1    R(1,2)                  1.8472         -DE/DX =    0.0001              !
 ! R2    R(1,3)                  1.8472         -DE/DX =    0.0001              !
 ! R3    R(1,4)                  1.8472         -DE/DX =    0.0001              !
 ! R4    R(1,5)                  1.8472         -DE/DX =    0.0001              !
 ! R5    R(1,6)                  1.8438         -DE/DX =    0.0                 !
 ! R6    R(1,7)                  1.8438         -DE/DX =    0.0                 !
 ! A1    A(2,1,3)               90.0            -DE/DX =    0.0                 !
 ! A2    A(2,1,5)               90.0            -DE/DX =    0.0                 !
 ! A3    A(2,1,6)               90.0            -DE/DX =    0.0                 !
 ! A4    A(2,1,7)               90.0            -DE/DX =    0.0                 !
 ! A5    A(3,1,4)               90.0            -DE/DX =    0.0                 !
 ! A6    A(3,1,6)               90.0            -DE/DX =    0.0                 !
 ! A7    A(3,1,7)               90.0            -DE/DX =    0.0                 !
 ! A8    A(4,1,5)               90.0            -DE/DX =    0.0                 !
 ! A9    A(4,1,6)               90.0            -DE/DX =    0.0                 !
 ! A10   A(4,1,7)               90.0            -DE/DX =    0.0                 !
 ! A11   A(5,1,6)               90.0            -DE/DX =    0.0                 !
 ! A12   A(5,1,7)               90.0            -DE/DX =    0.0                 !
 ! A13   L(2,1,4,3,-1)         180.0            -DE/DX =    0.0                 !
 ! A14   L(3,1,5,2,-1)         180.0            -DE/DX =    0.0                 !
 ! A15   L(6,1,7,2,-1)         180.0            -DE/DX =    0.0                 !
 ! A16   L(2,1,4,3,-2)         180.0            -DE/DX =    0.0                 !
 ! A17   L(3,1,5,2,-2)         180.0            -DE/DX =    0.0                 !
 ! A18   L(6,1,7,2,-2)         180.0            -DE/DX =    0.0                 !
 ! D1    D(2,1,6,3)             90.0            -DE/DX =    0.0                 !
 ! D2    D(2,1,7,3)            -90.0            -DE/DX =    0.0                 !
 ! D3    D(2,1,6,5)            -90.0            -DE/DX =    0.0                 !
 ! D4    D(2,1,7,5)             90.0            -DE/DX =    0.0                 !
 ! D5    D(3,1,6,4)             90.0            -DE/DX =    0.0                 !
 ! D6    D(3,1,7,4)            -90.0            -DE/DX =    0.0                 !
 ! D7    D(4,1,6,5)             90.0            -DE/DX =    0.0                 !
 ! D8    D(4,1,7,5)            -90.0            -DE/DX =    0.0                 !
 --------------------------------------------------------------------------------
 GradGradGradGradGradGradGradGradGradGradGradGradGradGradGradGradGradGrad

                          Input orientation:                          
 ---------------------------------------------------------------------
 Center     Atomic      Atomic             Coordinates (Angstroms)
 Number     Number       Type             X           Y           Z
 ---------------------------------------------------------------------
      1         45           0        8.500000    8.500000    8.500000
      2          9           0        9.806181    7.193819    8.500000
      3          9           0        9.806181    9.806181    8.500000
      4          9           0        7.193819    9.806181    8.500000
      5          9           0        7.193819    7.193819    8.500000
      6          9           0        8.500000    8.500000   10.343766
      7          9           0        8.500000    8.500000    6.656234
 ---------------------------------------------------------------------
                    Distance matrix (angstroms):
                    1          2          3          4          5
     1  Rh   0.000000
     2  F    1.847218   0.000000
     3  F    1.847218   2.612361   0.000000
     4  F    1.847218   3.694436   2.612361   0.000000
     5  F    1.847218   2.612361   3.694436   2.612361   0.000000
     6  F    1.843766   2.609921   2.609921   2.609921   2.609921
     7  F    1.843766   2.609921   2.609921   2.609921   2.609921
                    6          7
     6  F    0.000000
     7  F    3.687531   0.000000
 Stoichiometry    F6Rh(2)
 Framework group  D4H[O(Rh),C4(F.F),2C2'(F.F)]
 Deg. of freedom     2
 Full point group                 D4H     NOp  16
 Largest Abelian subgroup         D2H     NOp   8
 Largest concise Abelian subgroup D2H     NOp   8
                         Standard orientation:                         
 ---------------------------------------------------------------------
 Center     Atomic      Atomic             Coordinates (Angstroms)
 Number     Number       Type             X           Y           Z
 ---------------------------------------------------------------------
      1         45           0        0.000000    0.000000    0.000000
      2          9           0        0.000000    1.847218    0.000000
      3          9           0       -1.847218    0.000000    0.000000
      4          9           0       -0.000000   -1.847218    0.000000
      5          9           0        1.847218   -0.000000    0.000000
      6          9           0        0.000000    0.000000    1.843766
      7          9           0        0.000000    0.000000   -1.843766
 ---------------------------------------------------------------------
 Rotational constants (GHZ):           1.9526096           1.9526096           1.9489635

 **********************************************************************

            Population analysis using the SCF Density.

 **********************************************************************

 Orbital symmetries:
 Alpha Orbitals:
       Occupied  (A1G) (A2U) (?A) (?A) (EU) (EU) (A1G) (A2U) (EU)
                 (EU) (A1G) (A1G) (B1G) (A2U) (EU) (EU) (B1G) (A1G)
                 (EG) (EG) (B2G) (A1G) (A2U) (EU) (EU) (EU) (EU)
                 (A2U) (B2U) (EU) (EU) (EG) (EG) (A2G) (EG) (EG)
       Virtual   (B2G) (B1G) (A1G) (A1G) (A2U) (EU) (EU) (A1G)
                 (A2U) (EU) (EU) (A1G) (B1G) (EG) (EG) (B2G) (B1U)
                 (A2U) (EU) (EU) (B2U) (EU) (EU) (A1G) (A2U) (EU)
                 (EU) (B1G) (A1G) (A1G) (EG) (EG) (A2G) (EG) (EG)
                 (B2G) (B2U) (EU) (EU) (A2U) (EU) (EU) (A2U) (EU)
                 (EU) (EG) (EG) (B2G) (B1U) (B2U) (EU) (EU) (A2U)
                 (A1G) (EU) (EU) (B1G) (B1G) (A1G) (A2U) (EU) (EU)
                 (A1G) (B1U) (A1U) (B2G) (EG) (EG) (B1G) (EG) (EG)
                 (A2G) (A1G) (B1G) (B2U) (EU) (EU) (B2U) (A2U)
                 (EU) (EU) (EU) (EU) (B1U) (EG) (EG) (B1G) (A1G)
                 (EG) (EG) (A2G) (B2G) (A1G) (A2U) (EU) (EU) (A2U)
                 (EU) (EU) (B2U) (EU) (EU) (EG) (EG) (B2G) (B1G)
                 (A1G) (B1U) (A1G) (A1G) (EG) (EG) (B2G) (A2U)
                 (EU) (EU) (B2U) (EU) (EU) (A2U) (EU) (EU) (EG)
                 (EG) (A2G) (EG) (EG) (B2G) (B1G) (A1G) (B1G) (A1G)
                 (A1G) (A2U) (EU) (EU) (B1U) (A1U) (B1G) (B2U)
                 (EU) (EU) (EG) (EG) (A2G) (EG) (EG) (B2G) (A1G)
                 (B1G) (EU) (EU) (B2U) (A2U) (EU) (EU) (B2G) (EG)
                 (EG) (A1G) (EU) (EU) (A2U) (B1U) (EG) (EG) (B2G)
                 (B1G) (A1G) (B2U) (EU) (EU) (EG) (EG) (A2G) (A2U)
                 (EU) (EU) (B1U) (A1U) (B1G) (B2G) (A1G) (EG) (EG)
                 (B1G) (A1G) (B2U) (EU) (EU) (B1U) (EG) (EG) (A2G)
                 (B1G) (A1G) (A2U) (EU) (EU) (EG) (EG) (B2G) (B2U)
                 (EU) (EU) (A2U) (EU) (EU) (A1G) (B1G) (A1G) (EG)
                 (EG) (A2G) (A2U) (EU) (EU) (B2U) (EU) (EU) (A2U)
                 (EU) (EU) (EG) (EG) (B2G) (B1U) (B2U) (EU) (EU)
                 (A1G) (B1G) (A1G) (A2U) (EU) (EU) (EG) (EG) (B2G)
                 (A2U) (EU) (EU) (B1G) (A1G) (EG) (EG) (A2G) (A1G)
                 (B1U) (EU) (EU) (B2U) (B1G) (A1U) (EU) (EU) (EG)
                 (EG) (B2G) (A2U) (EU) (EU) (EG) (EG) (B2U) (A2G)
                 (EG) (EG) (B2G) (A1U) (A2G) (A2U) (A1G) (B1G)
                 (B1U) (A1U) (EU) (EU) (EG) (EG) (A1G) (B1G) (B1U)
                 (A1G) (EU) (EU) (A2U) (B2U) (EU) (EU) (B2G) (EG)
                 (EG) (A2U) (EU) (EU) (A1G) (B1G) (EG) (EG) (A2G)
                 (A1G) (B1U) (A1U) (B1G) (EG) (EG) (B2U) (EU) (EU)
                 (A2G) (B2G) (EG) (EG) (EU) (EU) (B2U) (EU) (EU)
                 (A2U) (B2G) (EG) (EG) (B1G) (A1G) (B1U) (EU) (EU)
                 (A2U) (EG) (EG) (B2G) (A2U) (EU) (EU) (B2U) (EU)
                 (EU) (A1G) (A1G) (B1G) (EG) (EG) (A2G) (A1G) (B1G)
                 (A2U) (EU) (EU) (A1G) (B1U) (A1U) (B2G) (EG) (EG)
                 (B1G) (B2U) (EU) (EU) (B1U) (EG) (EG) (A2G) (B1G)
                 (A1G) (EU) (EU) (A2U) (B2U) (EU) (EU) (EG) (EG)
                 (B2G) (A1G) (B1G) (A2U) (EU) (EU) (A1G) (A1G)
                 (A2U) (EU) (EU) (A1G) (B1G) (A1G) (A1G) (A2U)
                 (EU) (EU) (A1G) (B1G) (A1G)
 Beta  Orbitals:
       Occupied  (?A) (?A) (EU) (EU) (A1G) (A2U) (A1G) (EU) (EU)
                 (A2U) (A1G) (B1G) (A1G) (EU) (EU) (A2U) (A1G)
                 (B1G) (B2G) (EG) (EG) (A1G) (EU) (EU) (A2U) (EU)
                 (EU) (A2U) (EU) (EU) (B2U) (A2G) (EG) (EG) (B2G)
       Virtual   (EG) (EG) (A1G) (B1G) (A1G) (EU) (EU) (A2U) (A1G)
                 (EU) (EU) (A2U) (B1G) (A1G) (B2G) (EG) (EG) (B1U)
                 (EU) (EU) (A2U) (EU) (EU) (B2U) (A1G) (EU) (EU)
                 (A1G) (B1G) (A2U) (A1G) (A2G) (EG) (EG) (B2G)
                 (EG) (EG) (EU) (EU) (B2U) (EU) (EU) (A2U) (EU)
                 (EU) (A2U) (B2G) (EG) (EG) (B1U) (EU) (EU) (B2U)
                 (EU) (EU) (B1G) (A2U) (A1G) (B1G) (A1G) (EU) (EU)
                 (A2U) (A1G) (A1U) (B1U) (EG) (EG) (B2G) (B1G)
                 (A2G) (EG) (EG) (A1G) (B1G) (EU) (EU) (B2U) (EU)
                 (EU) (A2U) (EU) (EU) (B2U) (B1U) (A2G) (A1G) (B2G)
                 (B1G) (EG) (EG) (EG) (EG) (A1G) (EU) (EU) (A2U)
                 (A2U) (EU) (EU) (EU) (EU) (B2U) (B2G) (EG) (EG)
                 (A1G) (B1G) (B1U) (A1G) (A1G) (B2G) (EG) (EG)
                 (EU) (EU) (A2U) (EU) (EU) (B2U) (A2U) (EU) (EU)
                 (A2G) (EG) (EG) (B2G) (EG) (EG) (A1G) (B1G) (A1G)
                 (B1G) (A1G) (EU) (EU) (A2U) (A1U) (B1U) (B1G)
                 (EU) (EU) (B2U) (A2G) (EG) (EG) (B2G) (EG) (EG)
                 (A1G) (B1G) (EU) (EU) (B2U) (A2U) (EU) (EU) (EG)
                 (EG) (B2G) (A1G) (A2U) (EU) (EU) (B1U) (B2G) (EG)
                 (EG) (B1G) (A1G) (EU) (EU) (B2U) (A2G) (EG) (EG)
                 (EU) (EU) (A2U) (A1U) (B1U) (B1G) (A1G) (EG) (EG)
                 (B2G) (B1G) (A1G) (EU) (EU) (B2U) (B1U) (A2G)
                 (EG) (EG) (A1G) (B1G) (EU) (EU) (A2U) (B2G) (EG)
                 (EG) (EU) (EU) (B2U) (EU) (EU) (A2U) (A1G) (B1G)
                 (A1G) (A2G) (EG) (EG) (EU) (EU) (A2U) (EU) (EU)
                 (B2U) (EU) (EU) (A2U) (B2G) (EG) (EG) (B1U) (EU)
                 (EU) (B1G) (B2U) (A1G) (A1G) (EU) (EU) (A2U) (B2G)
                 (EG) (EG) (A2U) (EU) (EU) (A1G) (A2G) (B1G) (EG)
                 (EG) (A1G) (EU) (EU) (A1U) (B2U) (B1G) (B1U) (A2U)
                 (EG) (EG) (EU) (EU) (B2G) (B2U) (A2G) (EU) (EU)
                 (EG) (EG) (B2G) (EG) (EG) (B1G) (B1U) (A1U) (EG)
                 (EG) (EU) (EU) (A1G) (A1U) (A2G) (A2U) (A1G) (A1G)
                 (B1U) (B1G) (A2U) (EU) (EU) (EU) (EU) (B2U) (EG)
                 (EG) (B2G) (EU) (EU) (A2U) (B1G) (A1G) (A2G) (EG)
                 (EG) (A1G) (A1U) (B1U) (B1G) (EU) (EU) (B2U) (A2G)
                 (EG) (EG) (B2G) (EG) (EG) (B2U) (EU) (EU) (A2U)
                 (EU) (EU) (EG) (EG) (B2G) (A1G) (B1G) (B1U) (EU)
                 (EU) (A2U) (B2G) (EG) (EG) (EU) (EU) (A2U) (EU)
                 (EU) (B2U) (A1G) (B1G) (A1G) (A2G) (EG) (EG) (B1G)
                 (A1G) (EU) (EU) (A2U) (A1G) (A1U) (B1U) (EG) (EG)
                 (B2G) (B1G) (EU) (EU) (B2U) (B1U) (A2G) (EG) (EG)
                 (A1G) (B1G) (A2U) (EU) (EU) (EU) (EU) (B2U) (B2G)
                 (EG) (EG) (B1G) (A1G) (EU) (EU) (A2U) (A1G) (A1G)
                 (EU) (EU) (A2U) (B1G) (A1G) (A1G) (A1G) (EU) (EU)
                 (A2U) (B1G) (A1G) (A1G)
 Unable to determine electronic state:  an orbital has unidentified symmetry.
 Alpha  occ. eigenvalues --  -24.47769 -24.47769 -24.47045 -24.47045 -24.47045
 Alpha  occ. eigenvalues --  -24.47045  -3.42169  -2.21378  -2.19217  -2.19217
 Alpha  occ. eigenvalues --   -1.16571  -1.15276  -1.14829  -1.14656  -1.13467
 Alpha  occ. eigenvalues --   -1.13467  -0.56976  -0.56834  -0.55064  -0.55064
 Alpha  occ. eigenvalues --   -0.52278  -0.50360  -0.46149  -0.45681  -0.45681
 Alpha  occ. eigenvalues --   -0.42518  -0.42518  -0.42299  -0.42061  -0.40692
 Alpha  occ. eigenvalues --   -0.40692  -0.40410  -0.40410  -0.38386  -0.35896
 Alpha  occ. eigenvalues --   -0.35896
 Alpha virt. eigenvalues --   -0.32738  -0.21487  -0.20815  -0.00723   0.01742
 Alpha virt. eigenvalues --    0.01808   0.01808   0.15778   0.16014   0.16188
 Alpha virt. eigenvalues --    0.16188   0.20689   0.20759   0.23870   0.23870
 Alpha virt. eigenvalues --    0.24306   0.28392   0.33362   0.33545   0.33545
 Alpha virt. eigenvalues --    0.36678   0.36813   0.36813   0.39155   0.42839
 Alpha virt. eigenvalues --    0.43022   0.43022   0.43148   0.43229   0.44802
 Alpha virt. eigenvalues --    0.46905   0.46905   0.47251   0.48693   0.48693
 Alpha virt. eigenvalues --    0.48881   0.51659   0.51900   0.51900   0.60325
 Alpha virt. eigenvalues --    0.60454   0.60454   0.74274   0.74345   0.74345
 Alpha virt. eigenvalues --    0.77427   0.77427   0.78297   0.89734   0.92497
 Alpha virt. eigenvalues --    0.93427   0.93427   1.00815   1.01351   1.01351
 Alpha virt. eigenvalues --    1.01351   1.01699   1.10519   1.10633   1.11543
 Alpha virt. eigenvalues --    1.11552   1.11552   1.25589   1.29445   1.29897
 Alpha virt. eigenvalues --    1.32379   1.32889   1.32889   1.38426   1.40718
 Alpha virt. eigenvalues --    1.40718   1.41072   1.50696   1.50808   1.50873
 Alpha virt. eigenvalues --    1.51554   1.51554   1.64432   1.64466   1.64481
 Alpha virt. eigenvalues --    1.64481   1.64985   1.64985   1.66644   1.67579
 Alpha virt. eigenvalues --    1.67579   1.67639   1.68194   1.68326   1.68326
 Alpha virt. eigenvalues --    1.68654   1.69038   1.69633   1.74248   1.74565
 Alpha virt. eigenvalues --    1.74565   1.88060   1.88316   1.88316   1.94082
 Alpha virt. eigenvalues --    1.95578   1.95578   2.06267   2.06267   2.06621
 Alpha virt. eigenvalues --    2.24395   2.24636   2.34566   2.47581   2.52997
 Alpha virt. eigenvalues --    2.60444   2.60444   2.62027   2.63404   2.63692
 Alpha virt. eigenvalues --    2.63692   2.70228   2.71642   2.71642   2.80856
 Alpha virt. eigenvalues --    2.81169   2.81169   2.83096   2.83096   2.83839
 Alpha virt. eigenvalues --    3.08330   3.08330   3.09165   3.11903   3.13106
 Alpha virt. eigenvalues --    3.38222   3.38293   3.84066   3.92801   3.93401
 Alpha virt. eigenvalues --    3.93401   4.02288   4.02796   4.03957   4.04029
 Alpha virt. eigenvalues --    4.04228   4.04228   4.05669   4.05669   4.06354
 Alpha virt. eigenvalues --    4.06822   4.06822   4.07079   4.07663   4.07874
 Alpha virt. eigenvalues --    4.08298   4.08298   4.08486   4.10025   4.10218
 Alpha virt. eigenvalues --    4.10218   4.18207   4.18563   4.18563   4.21051
 Alpha virt. eigenvalues --    4.24806   4.24806   4.24948   4.34521   4.42708
 Alpha virt. eigenvalues --    4.42708   4.43234   4.44950   4.45256   4.57555
 Alpha virt. eigenvalues --    4.57748   4.57748   4.69276   4.69276   4.69989
 Alpha virt. eigenvalues --    4.74678   4.75060   4.75060   4.85434   4.86334
 Alpha virt. eigenvalues --    4.93873   4.93985   4.94107   4.95134   4.95134
 Alpha virt. eigenvalues --    4.95429   5.04159   5.05784   5.06856   5.06856
 Alpha virt. eigenvalues --    5.20780   5.31052   5.31052   5.31826   5.34180
 Alpha virt. eigenvalues --    5.34932   5.36134   5.36401   5.36401   5.53383
 Alpha virt. eigenvalues --    5.53383   5.54145   5.57215   5.57549   5.57549
 Alpha virt. eigenvalues --    5.67551   5.67885   5.67885   5.80404   5.81003
 Alpha virt. eigenvalues --    5.81332   6.13209   6.13209   6.14476   6.16461
 Alpha virt. eigenvalues --    6.16470   6.16470   6.19982   6.20364   6.20364
 Alpha virt. eigenvalues --    6.35374   6.35408   6.35408   6.41844   6.41844
 Alpha virt. eigenvalues --    6.42949   6.93534   7.18812   7.20199   7.20199
 Alpha virt. eigenvalues --    7.22258   7.22756   7.26133   7.53235   7.53614
 Alpha virt. eigenvalues --    7.53614   7.66466   7.66466   7.66521   8.02291
 Alpha virt. eigenvalues --    8.03622   8.03622   8.04183   8.06238   8.06751
 Alpha virt. eigenvalues --    8.06751   8.08364   8.87404  11.37835  11.37979
 Alpha virt. eigenvalues --   11.37979  11.38002  11.38215  11.38614  11.39239
 Alpha virt. eigenvalues --   11.39239  11.39330  11.39330  11.39531  11.39922
 Alpha virt. eigenvalues --   11.40053  11.40053  11.40196  11.40196  11.40382
 Alpha virt. eigenvalues --   11.40457  11.40637  11.40637  11.40770  11.41249
 Alpha virt. eigenvalues --   11.41258  11.41260  11.41291  11.42296  11.42371
 Alpha virt. eigenvalues --   11.42371  11.42379  11.42379  11.42380  11.42380
 Alpha virt. eigenvalues --   11.42447  11.42953  11.43174  11.43350  11.43523
 Alpha virt. eigenvalues --   11.43523  11.43555  11.44849  11.45266  11.45266
 Alpha virt. eigenvalues --   11.46249  11.46253  11.46253  11.51688  11.51833
 Alpha virt. eigenvalues --   11.51833  11.57022  11.57426  11.65553  11.65553
 Alpha virt. eigenvalues --   11.65829  11.81407  14.46052  14.47037  14.47268
 Alpha virt. eigenvalues --   14.47866  14.47866  14.47870  14.48119  14.48119
 Alpha virt. eigenvalues --   14.49367  14.49423  14.49450  14.49450  14.50095
 Alpha virt. eigenvalues --   14.50095  14.50517  14.52857  14.52857  14.53376
 Alpha virt. eigenvalues --   14.53855  14.55002  14.55002  14.61840  14.62302
 Alpha virt. eigenvalues --   14.63871  14.64529  14.64529  14.64928  14.70523
 Alpha virt. eigenvalues --   14.70523  14.71202  14.72703  14.73643  14.73643
 Alpha virt. eigenvalues --   14.81200  14.81204  14.81204  14.84902  14.87158
 Alpha virt. eigenvalues --   14.87352  14.90173  14.90173  14.90666  15.19405
 Alpha virt. eigenvalues --   15.20037  15.22476  15.23310  15.23310  15.51034
 Alpha virt. eigenvalues --   15.61729  15.63025  15.65906  15.67590  15.67590
 Alpha virt. eigenvalues --   15.68675  15.75647  15.77013  15.77013  15.85452
 Alpha virt. eigenvalues --   15.86892  15.86892  15.87991  15.90759  15.92094
 Alpha virt. eigenvalues --   15.98699  15.98699  15.98936  16.12852  16.13054
 Alpha virt. eigenvalues --   16.13054  16.14172  16.14172  16.15040  16.40288
 Alpha virt. eigenvalues --   16.41239  16.42095  16.43069  16.43069  16.48805
 Alpha virt. eigenvalues --   34.49977  53.89547  53.90084  53.90084  53.92069
 Alpha virt. eigenvalues --   53.92613  54.00481 107.62802 286.71639 286.72156
 Alpha virt. eigenvalues --  286.72156 286.75257 286.75805 286.85204
  Beta  occ. eigenvalues --  -24.47108 -24.47108 -24.47108 -24.47108 -24.46929
  Beta  occ. eigenvalues --  -24.46929  -3.40276  -2.18612  -2.18612  -2.16675
  Beta  occ. eigenvalues --   -1.15873  -1.14913  -1.14478  -1.13602  -1.13602
  Beta  occ. eigenvalues --   -1.12902  -0.56736  -0.56196  -0.54406  -0.51849
  Beta  occ. eigenvalues --   -0.51849  -0.50190  -0.45662  -0.45662  -0.45297
  Beta  occ. eigenvalues --   -0.42217  -0.42217  -0.41043  -0.40673  -0.40673
  Beta  occ. eigenvalues --   -0.40524  -0.40243  -0.38410  -0.38410  -0.35318
  Beta virt. eigenvalues --   -0.32093  -0.32093  -0.20919  -0.20125  -0.00634
  Beta virt. eigenvalues --    0.01808   0.01808   0.01843   0.16072   0.16210
  Beta virt. eigenvalues --    0.16210   0.16338   0.20786   0.20795   0.23908
  Beta virt. eigenvalues --    0.24292   0.24292   0.28445   0.33565   0.33565
  Beta virt. eigenvalues --    0.33669   0.36866   0.36866   0.37014   0.39359
  Beta virt. eigenvalues --    0.43141   0.43141   0.43204   0.43271   0.43284
  Beta virt. eigenvalues --    0.45151   0.46950   0.47247   0.47247   0.48699
  Beta virt. eigenvalues --    0.48945   0.48945   0.51908   0.51908   0.52045
  Beta virt. eigenvalues --    0.60517   0.60517   0.60679   0.74373   0.74373
  Beta virt. eigenvalues --    0.74559   0.77668   0.78477   0.78477   0.90982
  Beta virt. eigenvalues --    0.93555   0.93555   0.94489   1.01387   1.01387
  Beta virt. eigenvalues --    1.01598   1.01680   1.01877   1.10681   1.10772
  Beta virt. eigenvalues --    1.12147   1.12147   1.12596   1.25764   1.29841
  Beta virt. eigenvalues --    1.30151   1.32953   1.32953   1.33146   1.38783
  Beta virt. eigenvalues --    1.40646   1.41181   1.41181   1.50910   1.50917
  Beta virt. eigenvalues --    1.51542   1.51542   1.52013   1.64601   1.64601
  Beta virt. eigenvalues --    1.64910   1.64998   1.64998   1.65148   1.67239
  Beta virt. eigenvalues --    1.67722   1.68016   1.68384   1.68385   1.68628
  Beta virt. eigenvalues --    1.68628   1.69106   1.69106   1.69729   1.74671
  Beta virt. eigenvalues --    1.74671   1.75007   1.88811   1.88813   1.88813
  Beta virt. eigenvalues --    1.95716   1.95716   1.96942   2.06888   2.07131
  Beta virt. eigenvalues --    2.07131   2.24729   2.25053   2.36947   2.48462
  Beta virt. eigenvalues --    2.53667   2.61006   2.62749   2.62749   2.63883
  Beta virt. eigenvalues --    2.63883   2.64842   2.71804   2.71804   2.73260
  Beta virt. eigenvalues --    2.81793   2.81895   2.81895   2.83401   2.84338
  Beta virt. eigenvalues --    2.84338   3.09294   3.10149   3.10149   3.12849
  Beta virt. eigenvalues --    3.13897   3.38798   3.38907   3.84780   3.93413
  Beta virt. eigenvalues --    3.93413   3.93971   4.02727   4.02932   4.04250
  Beta virt. eigenvalues --    4.04480   4.04480   4.04496   4.06315   4.06485
  Beta virt. eigenvalues --    4.06485   4.06970   4.07369   4.07369   4.08133
  Beta virt. eigenvalues --    4.08292   4.08770   4.08770   4.08825   4.10385
  Beta virt. eigenvalues --    4.10540   4.10540   4.18680   4.18680   4.19143
  Beta virt. eigenvalues --    4.21586   4.25118   4.25198   4.25198   4.34978
  Beta virt. eigenvalues --    4.42834   4.43646   4.43646   4.45494   4.45577
  Beta virt. eigenvalues --    4.57923   4.57923   4.58418   4.69284   4.70581
  Beta virt. eigenvalues --    4.70581   4.75182   4.75182   4.75890   4.86217
  Beta virt. eigenvalues --    4.86873   4.94265   4.94771   4.95152   4.95152
  Beta virt. eigenvalues --    4.95945   4.96101   5.04969   5.06812   5.06812
  Beta virt. eigenvalues --    5.07653   5.21447   5.31070   5.32191   5.32191
  Beta virt. eigenvalues --    5.34814   5.35461   5.36645   5.36645   5.36877
  Beta virt. eigenvalues --    5.53502   5.54414   5.54414   5.57778   5.57778
  Beta virt. eigenvalues --    5.58329   5.67963   5.67963   5.68702   5.80656
  Beta virt. eigenvalues --    5.81279   5.82146   6.13372   6.14647   6.14647
  Beta virt. eigenvalues --    6.17038   6.17038   6.17569   6.20795   6.20795
  Beta virt. eigenvalues --    6.21052   6.35956   6.35956   6.36781   6.42136
  Beta virt. eigenvalues --    6.43247   6.43247   6.96356   7.21200   7.21200
  Beta virt. eigenvalues --    7.22671   7.23021   7.23052   7.26448   7.54441
  Beta virt. eigenvalues --    7.54441   7.54779   7.69299   7.69438   7.69438
  Beta virt. eigenvalues --    8.03810   8.04194   8.04194   8.06472   8.08008
  Beta virt. eigenvalues --    8.08491   8.10002   8.10002   8.89043  11.38486
  Beta virt. eigenvalues --   11.38486  11.38514  11.38532  11.38702  11.38887
  Beta virt. eigenvalues --   11.39820  11.40080  11.40080  11.40100  11.40100
  Beta virt. eigenvalues --   11.40230  11.40351  11.40352  11.40613  11.40613
  Beta virt. eigenvalues --   11.40636  11.40636  11.40920  11.41162  11.41162
  Beta virt. eigenvalues --   11.42242  11.42259  11.42259  11.42268  11.42268
  Beta virt. eigenvalues --   11.42270  11.42270  11.42327  11.42814  11.42823
  Beta virt. eigenvalues --   11.42823  11.42832  11.43502  11.43610  11.43692
  Beta virt. eigenvalues --   11.43959  11.43993  11.43993  11.45473  11.45473
  Beta virt. eigenvalues --   11.45779  11.46712  11.46712  11.46749  11.51983
  Beta virt. eigenvalues --   11.51983  11.52847  11.57570  11.57867  11.65698
  Beta virt. eigenvalues --   11.66417  11.66417  11.81972  14.46860  14.47435
  Beta virt. eigenvalues --   14.47881  14.48697  14.48697  14.48797  14.49205
  Beta virt. eigenvalues --   14.49285  14.49285  14.49387  14.50214  14.50214
  Beta virt. eigenvalues --   14.50898  14.50898  14.50898  14.53286  14.53820
  Beta virt. eigenvalues --   14.53820  14.54926  14.54926  14.55817  14.62456
  Beta virt. eigenvalues --   14.62838  14.64472  14.65195  14.65195  14.65258
  Beta virt. eigenvalues --   14.70788  14.71559  14.71559  14.73495  14.73495
  Beta virt. eigenvalues --   14.74536  14.81676  14.81676  14.81973  14.85422
  Beta virt. eigenvalues --   14.87563  14.87989  14.90223  14.91289  14.91289
  Beta virt. eigenvalues --   15.19808  15.20875  15.23316  15.23316  15.24382
  Beta virt. eigenvalues --   15.51717  15.62828  15.63738  15.67514  15.67514
  Beta virt. eigenvalues --   15.68690  15.69580  15.77037  15.77037  15.78096
  Beta virt. eigenvalues --   15.86323  15.87129  15.88269  15.88269  15.91750
  Beta virt. eigenvalues --   15.92824  15.99403  15.99429  15.99429  16.13548
  Beta virt. eigenvalues --   16.13548  16.13924  16.14494  16.15425  16.15425
  Beta virt. eigenvalues --   16.41026  16.41646  16.42893  16.42893  16.44056
  Beta virt. eigenvalues --   16.49297  34.51467  53.89974  53.89974  53.90874
  Beta virt. eigenvalues --   53.92497  53.92915  54.00846 107.63965 286.72041
  Beta virt. eigenvalues --  286.72041 286.73125 286.75689 286.76204 286.85627
          Condensed to atoms (all electrons):
               1          2          3          4          5          6
     1  Rh  14.357686   0.232879   0.232879   0.232879   0.232879   0.235154
     2  F    0.232879   9.006793  -0.007227  -0.002616  -0.007227  -0.007092
     3  F    0.232879  -0.007227   9.006793  -0.007227  -0.002616  -0.007092
     4  F    0.232879  -0.002616  -0.007227   9.006793  -0.007227  -0.007092
     5  F    0.232879  -0.007227  -0.002616  -0.007227   9.006793  -0.007092
     6  F    0.235154  -0.007092  -0.007092  -0.007092  -0.007092   8.999214
     7  F    0.235154  -0.007092  -0.007092  -0.007092  -0.007092  -0.002594
               7
     1  Rh   0.235154
     2  F   -0.007092
     3  F   -0.007092
     4  F   -0.007092
     5  F   -0.007092
     6  F   -0.002594
     7  F    8.999214
          Atomic-Atomic Spin Densities.
               1          2          3          4          5          6
     1  Rh   0.665702   0.001676   0.001676   0.001676   0.001676  -0.059538
     2  F    0.001676  -0.022390  -0.005733  -0.000050  -0.005733   0.005479
     3  F    0.001676  -0.005733  -0.022390  -0.005733  -0.000050   0.005479
     4  F    0.001676  -0.000050  -0.005733  -0.022390  -0.005733   0.005479
     5  F    0.001676  -0.005733  -0.000050  -0.005733  -0.022390   0.005479
     6  F   -0.059538   0.005479   0.005479   0.005479   0.005479   0.303730
     7  F   -0.059538   0.005479   0.005479   0.005479   0.005479  -0.000228
               7
     1  Rh  -0.059538
     2  F    0.005479
     3  F    0.005479
     4  F    0.005479
     5  F    0.005479
     6  F   -0.000228
     7  F    0.303730
 Mulliken charges and spin densities:
               1          2
     1  Rh   1.240490   0.553329
     2  F   -0.208419  -0.021272
     3  F   -0.208419  -0.021272
     4  F   -0.208419  -0.021272
     5  F   -0.208419  -0.021272
     6  F   -0.203408   0.265880
     7  F   -0.203408   0.265880
 Sum of Mulliken charges =  -0.00000   1.00000
 Mulliken charges and spin densities with hydrogens summed into heavy atoms:
               1          2
     1  Rh   1.240490   0.553329
     2  F   -0.208419  -0.021272
     3  F   -0.208419  -0.021272
     4  F   -0.208419  -0.021272
     5  F   -0.208419  -0.021272
     6  F   -0.203408   0.265880
     7  F   -0.203408   0.265880
 Electronic spatial extent (au):  <R**2>=            773.1857
 Charge=              0.0000 electrons
 Dipole moment (field-independent basis, Debye):
    X=             -0.0000    Y=              0.0000    Z=             -0.0000  Tot=              0.0000
 Quadrupole moment (field-independent basis, Debye-Ang):
   XX=            -52.0739   YY=            -52.0739   ZZ=            -51.8786
   XY=              0.0000   XZ=             -0.0000   YZ=             -0.0000
 Traceless Quadrupole moment (field-independent basis, Debye-Ang):
   XX=             -0.0651   YY=             -0.0651   ZZ=              0.1302
   XY=              0.0000   XZ=             -0.0000   YZ=             -0.0000
 Octapole moment (field-independent basis, Debye-Ang**2):
  XXX=             -0.0000  YYY=              0.0000  ZZZ=              0.0000  XYY=             -0.0000
  XXY=              0.0000  XXZ=             -0.0000  XZZ=              0.0000  YZZ=              0.0000
  YYZ=             -0.0000  XYZ=              0.0000
 Hexadecapole moment (field-independent basis, Debye-Ang**3):
 XXXX=           -248.2776 YYYY=           -248.2776 ZZZZ=           -246.4086 XXXY=             -0.0000
 XXXZ=             -0.0000 YYYX=              0.0000 YYYZ=             -0.0000 ZZZX=              0.0000
 ZZZY=              0.0000 XXYY=            -78.9653 XXZZ=            -78.8558 YYZZ=            -78.8558
 XXYZ=             -0.0000 YYXZ=              0.0000 ZZXY=             -0.0000
 N-N= 4.949915318580D+02 E-N=-2.652069815215D+03  KE= 6.377706092916D+02
 Symmetry AG   KE= 2.684832737724D+02
 Symmetry B1G  KE= 1.590012149734D+01
 Symmetry B2G  KE= 1.590395069787D+01
 Symmetry B3G  KE= 1.590395069787D+01
 Symmetry AU   KE= 5.398024676224D-22
 Symmetry B1U  KE= 1.071975421532D+02
 Symmetry B2U  KE= 1.071908852365D+02
 Symmetry B3U  KE= 1.071908852365D+02
 Symmetry AG   SP=-1.789487480621D-13
 Symmetry B1G  SP=-1.000000000000D+00
 Symmetry B2G  SP= 1.000000000000D+00
 Symmetry B3G  SP= 1.000000000000D+00
 Symmetry AU   SP= 1.040840589838D-23
 Symmetry B1U  SP=-8.487995488152D-14
 Symmetry B2U  SP=-1.020994752841D-13
 Symmetry B3U  SP=-1.019993319551D-13
                          Isotropic Fermi Contact Couplings
        Atom                 a.u.       MegaHertz       Gauss      10(-4) cm-1
     1  Rh(103            -0.00000       0.00021       0.00008       0.00007
     2  F(19)              0.00186       7.80796       2.78608       2.60446
     3  F(19)              0.00186       7.80796       2.78608       2.60446
     4  F(19)              0.00186       7.80796       2.78608       2.60446
     5  F(19)              0.00186       7.80796       2.78608       2.60446
     6  F(19)              0.03078     129.50334      46.21001      43.19766
     7  F(19)              0.03078     129.50334      46.21001      43.19766
 --------------------------------------------------------
       Center         ----  Spin Dipole Couplings  ----
                      3XX-RR        3YY-RR        3ZZ-RR
 --------------------------------------------------------
     1   Atom       -0.345569     -0.345569      0.691138
     2   Atom       -1.380959      0.002190      1.378769
     3   Atom        0.002190     -1.380959      1.378769
     4   Atom       -1.380959      0.002190      1.378769
     5   Atom        0.002190     -1.380959      1.378769
     6   Atom        0.448532      0.448532     -0.897063
     7   Atom        0.448532      0.448532     -0.897063
 --------------------------------------------------------
                        XY            XZ            YZ
 --------------------------------------------------------
     1   Atom       -0.000000      0.000000      0.000000
     2   Atom        0.000000      0.000000     -0.000000
     3   Atom       -0.000000      0.000000      0.000000
     4   Atom       -0.000000      0.000000      0.000000
     5   Atom        0.000000     -0.000000      0.000000
     6   Atom        0.000000     -0.000000     -0.000000
     7   Atom       -0.000000      0.000000      0.000000
 --------------------------------------------------------


 ---------------------------------------------------------------------------------
              Anisotropic Spin Dipole Couplings in Principal Axis System
 ---------------------------------------------------------------------------------

       Atom             a.u.   MegaHertz   Gauss  10(-4) cm-1        Axes

              Baa    -0.3456     5.836     2.082     1.947  0.9963  0.0863 -0.0000
     1 Rh(103 Bbb    -0.3456     5.836     2.082     1.947 -0.0863  0.9963 -0.0000
              Bcc     0.6911   -11.672    -4.165    -3.893  0.0000  0.0000  1.0000
 
              Baa    -1.3810  -693.553  -247.477  -231.344  1.0000  0.0000  0.0000
     2 F(19)  Bbb     0.0022     1.100     0.392     0.367  0.0000  1.0000  0.0000
              Bcc     1.3788   692.453   247.084   230.977  0.0000  0.0000  1.0000
 
              Baa    -1.3810  -693.553  -247.477  -231.344  0.0000  1.0000 -0.0000
     3 F(19)  Bbb     0.0022     1.100     0.392     0.367  1.0000 -0.0000  0.0000
              Bcc     1.3788   692.453   247.084   230.977  0.0000  0.0000  1.0000
 
              Baa    -1.3810  -693.553  -247.477  -231.344  1.0000  0.0000  0.0000
     4 F(19)  Bbb     0.0022     1.100     0.392     0.367 -0.0000  1.0000  0.0000
              Bcc     1.3788   692.453   247.084   230.977  0.0000  0.0000  1.0000
 
              Baa    -1.3810  -693.553  -247.477  -231.344  0.0000  1.0000  0.0000
     5 F(19)  Bbb     0.0022     1.100     0.392     0.367  1.0000 -0.0000 -0.0000
              Bcc     1.3788   692.453   247.084   230.977  0.0000  0.0000  1.0000
 
              Baa    -0.8971  -450.528  -160.760  -150.280  0.0000  0.0000  1.0000
     6 F(19)  Bbb     0.4485   225.264    80.380    75.140  1.0000 -0.0061 -0.0000
              Bcc     0.4485   225.264    80.380    75.140  0.0061  1.0000 -0.0000
 
              Baa    -0.8971  -450.528  -160.760  -150.280  0.0000  0.0000  1.0000
     7 F(19)  Bbb     0.4485   225.264    80.380    75.140  1.0000 -0.0085 -0.0000
              Bcc     0.4485   225.264    80.380    75.140  0.0085  1.0000 -0.0000
 

 ---------------------------------------------------------------------------------

 Unable to Open any file for archive entry.
 1\1\GINC-TCOPT10\FOpt\UTPSSTPSS\def2QZVPP\F6Rh1(2)\HUTTER\01-Aug-2021\
 0\\#N UTPSSTPSS/Def2QZVPP scf=tight Int(Grid=ultrafine) OPT FREQ\\Mol 
 job 1\\0,2\Rh,8.5,8.5,8.5\F,9.8061805352,7.1938194648,8.5\F,9.80618053
 52,9.8061805352,8.5\F,7.1938194648,9.8061805352,8.5\F,7.1938194648,7.1
 938194648,8.5\F,8.5,8.5,10.3437657016\F,8.5,8.5,6.6562342984\\Version=
 ES64L-G16RevC.01\HF=-709.8752036\S2=1.753768\S2-1=0.\S2A=0.762608\RMSD
 =1.613e-09\RMSF=4.469e-05\Dipole=0.,0.,0.\Quadrupole=-0.0483844,-0.048
 3844,0.0967688,0.,0.,0.\PG=D04H [O(Rh1),C4(F1.F1),2C2'(F1.F1)]\\@
 The archive entry for this job was punched.


 IN SO FAR AS QUANTUM MECHANICS IS CORRECT, CHEMICAL 
 QUESTIONS ARE PROBLEMS IN APPLIED MATHEMATICS.

                    -- EYRING, WALTER, & KIMBALL, 1944
 Job cpu time:       0 days  3 hours 36 minutes  4.3 seconds.
 Elapsed time:       0 days  0 hours 14 minutes 50.1 seconds.
 File lengths (MBytes):  RWF=    205 Int=      0 D2E=      0 Chk=     18 Scr=      1
 Normal termination of Gaussian 16 at Sun Aug  1 02:47:50 2021.
 Link1:  Proceeding to internal job step number  2.
 ----------------------------------------------------------------------
 #N Geom=AllCheck Guess=TCheck SCRF=Check GenChk UTPSSTPSS/def2QZVPP Fr
 eq
 ----------------------------------------------------------------------
 1/10=4,29=7,30=1,38=1,40=1/1,3;
 2/12=2,40=1/2;
 3/5=45,7=202,11=2,14=-4,25=1,30=1,70=2,71=2,74=2523,75=-5,116=2,140=1/1,2,3;
 4/5=101/1;
 5/5=2,32=2,38=6,98=1/2;
 8/6=4,10=90,11=11/1;
 11/6=1,8=1,9=11,15=111,16=1/1,2,10;
 10/6=1/2;
 6/7=2,8=2,9=2,10=2,28=1/1;
 7/8=1,10=1,25=1/1,2,3,16;
 1/10=4,30=1/3;
 99//99;
 Structure from the checkpoint file:  "/data/hutter/SMG16/TPSS/Gau-20111.chk"
 ---------
 Mol job 1
 ---------
 Charge =  0 Multiplicity = 2
 Redundant internal coordinates found in file.  (old form).
 Rh,0,8.5,8.5,8.5
 F,0,9.8061805352,7.1938194648,8.5
 F,0,9.8061805352,9.8061805352,8.5
 F,0,7.1938194648,9.8061805352,8.5
 F,0,7.1938194648,7.1938194648,8.5
 F,0,8.5,8.5,10.3437657016
 F,0,8.5,8.5,6.6562342984
 Recover connectivity data from disk.

 GradGradGradGradGradGradGradGradGradGradGradGradGradGradGradGradGradGrad
 Berny optimization.
 Initialization pass.
                           ----------------------------
                           !    Initial Parameters    !
                           ! (Angstroms and Degrees)  !
 --------------------------                            --------------------------
 ! Name  Definition              Value          Derivative Info.                !
 --------------------------------------------------------------------------------
 ! R1    R(1,2)                  1.8472         calculate D2E/DX2 analytically  !
 ! R2    R(1,3)                  1.8472         calculate D2E/DX2 analytically  !
 ! R3    R(1,4)                  1.8472         calculate D2E/DX2 analytically  !
 ! R4    R(1,5)                  1.8472         calculate D2E/DX2 analytically  !
 ! R5    R(1,6)                  1.8438         calculate D2E/DX2 analytically  !
 ! R6    R(1,7)                  1.8438         calculate D2E/DX2 analytically  !
 ! A1    A(2,1,3)               90.0            calculate D2E/DX2 analytically  !
 ! A2    A(2,1,5)               90.0            calculate D2E/DX2 analytically  !
 ! A3    A(2,1,6)               90.0            calculate D2E/DX2 analytically  !
 ! A4    A(2,1,7)               90.0            calculate D2E/DX2 analytically  !
 ! A5    A(3,1,4)               90.0            calculate D2E/DX2 analytically  !
 ! A6    A(3,1,6)               90.0            calculate D2E/DX2 analytically  !
 ! A7    A(3,1,7)               90.0            calculate D2E/DX2 analytically  !
 ! A8    A(4,1,5)               90.0            calculate D2E/DX2 analytically  !
 ! A9    A(4,1,6)               90.0            calculate D2E/DX2 analytically  !
 ! A10   A(4,1,7)               90.0            calculate D2E/DX2 analytically  !
 ! A11   A(5,1,6)               90.0            calculate D2E/DX2 analytically  !
 ! A12   A(5,1,7)               90.0            calculate D2E/DX2 analytically  !
 ! A13   L(2,1,4,3,-1)         180.0            calculate D2E/DX2 analytically  !
 ! A14   L(3,1,5,2,-1)         180.0            calculate D2E/DX2 analytically  !
 ! A15   L(6,1,7,2,-1)         180.0            calculate D2E/DX2 analytically  !
 ! A16   L(2,1,4,3,-2)         180.0            calculate D2E/DX2 analytically  !
 ! A17   L(3,1,5,2,-2)         180.0            calculate D2E/DX2 analytically  !
 ! A18   L(6,1,7,2,-2)         180.0            calculate D2E/DX2 analytically  !
 ! D1    D(2,1,6,3)             90.0            calculate D2E/DX2 analytically  !
 ! D2    D(2,1,7,3)            -90.0            calculate D2E/DX2 analytically  !
 ! D3    D(2,1,6,5)            -90.0            calculate D2E/DX2 analytically  !
 ! D4    D(2,1,7,5)             90.0            calculate D2E/DX2 analytically  !
 ! D5    D(3,1,6,4)             90.0            calculate D2E/DX2 analytically  !
 ! D6    D(3,1,7,4)            -90.0            calculate D2E/DX2 analytically  !
 ! D7    D(4,1,6,5)             90.0            calculate D2E/DX2 analytically  !
 ! D8    D(4,1,7,5)            -90.0            calculate D2E/DX2 analytically  !
 --------------------------------------------------------------------------------
 Trust Radius=3.00D-01 FncErr=1.00D-07 GrdErr=1.00D-07 EigMax=2.50D+02 EigMin=1.00D-04
 Number of steps in this run=      2 maximum allowed number of steps=      2.
 GradGradGradGradGradGradGradGradGradGradGradGradGradGradGradGradGradGrad

                          Input orientation:                          
 ---------------------------------------------------------------------
 Center     Atomic      Atomic             Coordinates (Angstroms)
 Number     Number       Type             X           Y           Z
 ---------------------------------------------------------------------
      1         45           0        8.500000    8.500000    8.500000
      2          9           0        9.806181    7.193819    8.500000
      3          9           0        9.806181    9.806181    8.500000
      4          9           0        7.193819    9.806181    8.500000
      5          9           0        7.193819    7.193819    8.500000
      6          9           0        8.500000    8.500000   10.343766
      7          9           0        8.500000    8.500000    6.656234
 ---------------------------------------------------------------------
                    Distance matrix (angstroms):
                    1          2          3          4          5
     1  Rh   0.000000
     2  F    1.847218   0.000000
     3  F    1.847218   2.612361   0.000000
     4  F    1.847218   3.694436   2.612361   0.000000
     5  F    1.847218   2.612361   3.694436   2.612361   0.000000
     6  F    1.843766   2.609921   2.609921   2.609921   2.609921
     7  F    1.843766   2.609921   2.609921   2.609921   2.609921
                    6          7
     6  F    0.000000
     7  F    3.687531   0.000000
 Stoichiometry    F6Rh(2)
 Framework group  D4H[O(Rh),C4(F.F),2C2'(F.F)]
 Deg. of freedom     2
 Full point group                 D4H     NOp  16
 Largest Abelian subgroup         D2H     NOp   8
 Largest concise Abelian subgroup D2H     NOp   8
                         Standard orientation:                         
 ---------------------------------------------------------------------
 Center     Atomic      Atomic             Coordinates (Angstroms)
 Number     Number       Type             X           Y           Z
 ---------------------------------------------------------------------
      1         45           0        0.000000    0.000000    0.000000
      2          9           0        0.000000    1.847218    0.000000
      3          9           0       -1.847218    0.000000    0.000000
      4          9           0       -0.000000   -1.847218    0.000000
      5          9           0        1.847218   -0.000000    0.000000
      6          9           0        0.000000    0.000000    1.843766
      7          9           0        0.000000    0.000000   -1.843766
 ---------------------------------------------------------------------
 Rotational constants (GHZ):           1.9526096           1.9526096           1.9489635
 Standard basis: def2QZVPP (5D, 7F)
 There are   127 symmetry adapted cartesian basis functions of AG  symmetry.
 There are    50 symmetry adapted cartesian basis functions of B1G symmetry.
 There are    50 symmetry adapted cartesian basis functions of B2G symmetry.
 There are    50 symmetry adapted cartesian basis functions of B3G symmetry.
 There are    28 symmetry adapted cartesian basis functions of AU  symmetry.
 There are    81 symmetry adapted cartesian basis functions of B1U symmetry.
 There are    81 symmetry adapted cartesian basis functions of B2U symmetry.
 There are    81 symmetry adapted cartesian basis functions of B3U symmetry.
 There are    93 symmetry adapted basis functions of AG  symmetry.
 There are    41 symmetry adapted basis functions of B1G symmetry.
 There are    41 symmetry adapted basis functions of B2G symmetry.
 There are    41 symmetry adapted basis functions of B3G symmetry.
 There are    25 symmetry adapted basis functions of AU  symmetry.
 There are    63 symmetry adapted basis functions of B1U symmetry.
 There are    63 symmetry adapted basis functions of B2U symmetry.
 There are    63 symmetry adapted basis functions of B3U symmetry.
   430 basis functions,   697 primitive gaussians,   548 cartesian basis functions
    36 alpha electrons       35 beta electrons
       nuclear repulsion energy       494.9915318580 Hartrees.
 NAtoms=    7 NActive=    7 NUniq=    3 SFac= 4.00D+00 NAtFMM=   60 NAOKFM=F Big=F
 Integral buffers will be    131072 words long.
 Raffenetti 2 integral format.
 Two-electron integral symmetry is turned on.
 One-electron integrals computed using PRISM.
  16 Symmetry operations used in ECPInt.
 ECPInt:  NShTT=    7750 NPrTT=   21159 LenC2=    7196 LenP2D=   15110.
 LDataN:  DoStor=T MaxTD1= 8 Len=  415
 NBasis=   430 RedAO= T EigKep=  8.25D-04  NBF=    93    41    41    41    25    63    63    63
 NBsUse=   430 1.00D-06 EigRej= -1.00D+00 NBFU=    93    41    41    41    25    63    63    63
 Defaulting to unpruned grid for atomic number  45.
 Initial guess from the checkpoint file:  "/data/hutter/SMG16/TPSS/Gau-20111.chk"
 B after Tr=     0.000000    0.000000    0.000000
         Rot=    1.000000    0.000000    0.000000    0.000000 Ang=   0.00 deg.
 Initial guess orbital symmetries:
 Alpha Orbitals:
       Occupied  (A1G) (A2U) (?A) (?A) (EU) (EU) (A1G) (A2U) (EU)
                 (EU) (A1G) (A1G) (B1G) (A2U) (EU) (EU) (B1G) (A1G)
                 (EG) (EG) (B2G) (A1G) (A2U) (EU) (EU) (EU) (EU)
                 (A2U) (B2U) (EU) (EU) (EG) (EG) (A2G) (EG) (EG)
       Virtual   (B2G) (B1G) (A1G) (A1G) (A2U) (EU) (EU) (A1G)
                 (A2U) (EU) (EU) (A1G) (B1G) (EG) (EG) (B2G) (B1U)
                 (A2U) (EU) (EU) (B2U) (EU) (EU) (A1G) (A2U) (EU)
                 (EU) (B1G) (A1G) (A1G) (EG) (EG) (A2G) (EG) (EG)
                 (B2G) (B2U) (EU) (EU) (A2U) (EU) (EU) (A2U) (EU)
                 (EU) (EG) (EG) (B2G) (B1U) (B2U) (EU) (EU) (A2U)
                 (A1G) (EU) (EU) (B1G) (B1G) (A1G) (A2U) (EU) (EU)
                 (A1G) (B1U) (A1U) (B2G) (EG) (EG) (B1G) (EG) (EG)
                 (A2G) (A1G) (B1G) (B2U) (EU) (EU) (B2U) (A2U)
                 (EU) (EU) (EU) (EU) (B1U) (EG) (EG) (B1G) (A1G)
                 (EG) (EG) (A2G) (B2G) (A1G) (A2U) (EU) (EU) (A2U)
                 (EU) (EU) (B2U) (EU) (EU) (EG) (EG) (B2G) (B1G)
                 (A1G) (B1U) (A1G) (A1G) (EG) (EG) (B2G) (A2U)
                 (EU) (EU) (B2U) (EU) (EU) (A2U) (EU) (EU) (EG)
                 (EG) (A2G) (EG) (EG) (B2G) (B1G) (A1G) (B1G) (A1G)
                 (A1G) (A2U) (EU) (EU) (B1U) (A1U) (B1G) (B2U)
                 (EU) (EU) (EG) (EG) (A2G) (EG) (EG) (B2G) (A1G)
                 (B1G) (EU) (EU) (B2U) (A2U) (EU) (EU) (B2G) (EG)
                 (EG) (A1G) (EU) (EU) (A2U) (B1U) (EG) (EG) (B2G)
                 (B1G) (A1G) (B2U) (EU) (EU) (EG) (EG) (A2G) (A2U)
                 (EU) (EU) (B1U) (A1U) (B1G) (B2G) (A1G) (EG) (EG)
                 (B1G) (A1G) (B2U) (EU) (EU) (B1U) (EG) (EG) (A2G)
                 (B1G) (A1G) (A2U) (EU) (EU) (EG) (EG) (B2G) (B2U)
                 (EU) (EU) (A2U) (EU) (EU) (A1G) (B1G) (A1G) (EG)
                 (EG) (A2G) (A2U) (EU) (EU) (B2U) (EU) (EU) (A2U)
                 (EU) (EU) (EG) (EG) (B2G) (B1U) (B2U) (EU) (EU)
                 (A1G) (B1G) (A1G) (A2U) (EU) (EU) (EG) (EG) (B2G)
                 (A2U) (EU) (EU) (B1G) (A1G) (EG) (EG) (A2G) (A1G)
                 (B1U) (EU) (EU) (B2U) (B1G) (A1U) (EU) (EU) (EG)
                 (EG) (B2G) (A2U) (EU) (EU) (EG) (EG) (B2U) (A2G)
                 (EG) (EG) (B2G) (A1U) (A2G) (A2U) (A1G) (B1G)
                 (B1U) (A1U) (EU) (EU) (EG) (EG) (A1G) (B1G) (B1U)
                 (A1G) (EU) (EU) (A2U) (B2U) (EU) (EU) (B2G) (EG)
                 (EG) (A2U) (EU) (EU) (A1G) (B1G) (EG) (EG) (A2G)
                 (A1G) (B1U) (A1U) (B1G) (EG) (EG) (B2U) (EU) (EU)
                 (A2G) (B2G) (EG) (EG) (EU) (EU) (B2U) (EU) (EU)
                 (A2U) (B2G) (EG) (EG) (B1G) (A1G) (B1U) (EU) (EU)
                 (A2U) (EG) (EG) (B2G) (A2U) (EU) (EU) (B2U) (EU)
                 (EU) (A1G) (A1G) (B1G) (EG) (EG) (A2G) (A1G) (B1G)
                 (A2U) (EU) (EU) (A1G) (B1U) (A1U) (B2G) (EG) (EG)
                 (B1G) (B2U) (EU) (EU) (B1U) (EG) (EG) (A2G) (B1G)
                 (A1G) (EU) (EU) (A2U) (B2U) (EU) (EU) (EG) (EG)
                 (B2G) (A1G) (B1G) (A2U) (EU) (EU) (A1G) (A1G)
                 (A2U) (EU) (EU) (A1G) (B1G) (A1G) (A1G) (A2U)
                 (EU) (EU) (A1G) (B1G) (A1G)
 Beta  Orbitals:
       Occupied  (?A) (?A) (EU) (EU) (A1G) (A2U) (A1G) (EU) (EU)
                 (A2U) (A1G) (B1G) (A1G) (EU) (EU) (A2U) (A1G)
                 (B1G) (B2G) (EG) (EG) (A1G) (EU) (EU) (A2U) (EU)
                 (EU) (A2U) (EU) (EU) (B2U) (A2G) (EG) (EG) (B2G)
       Virtual   (EG) (EG) (A1G) (B1G) (A1G) (EU) (EU) (A2U) (A1G)
                 (EU) (EU) (A2U) (B1G) (A1G) (B2G) (EG) (EG) (B1U)
                 (EU) (EU) (A2U) (EU) (EU) (B2U) (A1G) (EU) (EU)
                 (A1G) (B1G) (A2U) (A1G) (A2G) (EG) (EG) (B2G)
                 (EG) (EG) (EU) (EU) (B2U) (EU) (EU) (A2U) (EU)
                 (EU) (A2U) (B2G) (EG) (EG) (B1U) (EU) (EU) (B2U)
                 (EU) (EU) (B1G) (A2U) (A1G) (B1G) (A1G) (EU) (EU)
                 (A2U) (A1G) (A1U) (B1U) (EG) (EG) (B2G) (B1G)
                 (A2G) (EG) (EG) (A1G) (B1G) (EU) (EU) (B2U) (EU)
                 (EU) (A2U) (EU) (EU) (B2U) (B1U) (A2G) (A1G) (B2G)
                 (B1G) (EG) (EG) (EG) (EG) (A1G) (EU) (EU) (A2U)
                 (A2U) (EU) (EU) (EU) (EU) (B2U) (B2G) (EG) (EG)
                 (A1G) (B1G) (B1U) (A1G) (A1G) (B2G) (EG) (EG)
                 (EU) (EU) (A2U) (EU) (EU) (B2U) (A2U) (EU) (EU)
                 (A2G) (EG) (EG) (B2G) (EG) (EG) (A1G) (B1G) (A1G)
                 (B1G) (A1G) (EU) (EU) (A2U) (A1U) (B1U) (B1G)
                 (EU) (EU) (B2U) (A2G) (EG) (EG) (B2G) (EG) (EG)
                 (A1G) (B1G) (EU) (EU) (B2U) (A2U) (EU) (EU) (EG)
                 (EG) (B2G) (A1G) (A2U) (EU) (EU) (B1U) (B2G) (EG)
                 (EG) (B1G) (A1G) (EU) (EU) (B2U) (A2G) (EG) (EG)
                 (EU) (EU) (A2U) (A1U) (B1U) (B1G) (A1G) (EG) (EG)
                 (B2G) (B1G) (A1G) (EU) (EU) (B2U) (B1U) (A2G)
                 (EG) (EG) (A1G) (B1G) (EU) (EU) (A2U) (B2G) (EG)
                 (EG) (EU) (EU) (B2U) (EU) (EU) (A2U) (A1G) (B1G)
                 (A1G) (A2G) (EG) (EG) (EU) (EU) (A2U) (EU) (EU)
                 (B2U) (EU) (EU) (A2U) (B2G) (EG) (EG) (B1U) (EU)
                 (EU) (B1G) (B2U) (A1G) (A1G) (EU) (EU) (A2U) (B2G)
                 (EG) (EG) (A2U) (EU) (EU) (A1G) (A2G) (B1G) (EG)
                 (EG) (A1G) (EU) (EU) (A1U) (B2U) (B1G) (B1U) (A2U)
                 (EG) (EG) (EU) (EU) (B2G) (B2U) (A2G) (EU) (EU)
                 (EG) (EG) (B2G) (EG) (EG) (B1G) (B1U) (A1U) (EG)
                 (EG) (EU) (EU) (A1G) (A1U) (A2G) (A2U) (A1G) (A1G)
                 (B1U) (B1G) (A2U) (EU) (EU) (EU) (EU) (B2U) (EG)
                 (EG) (B2G) (EU) (EU) (A2U) (B1G) (A1G) (A2G) (EG)
                 (EG) (A1G) (A1U) (B1U) (B1G) (EU) (EU) (B2U) (A2G)
                 (EG) (EG) (B2G) (EG) (EG) (B2U) (EU) (EU) (A2U)
                 (EU) (EU) (EG) (EG) (B2G) (A1G) (B1G) (B1U) (EU)
                 (EU) (A2U) (B2G) (EG) (EG) (EU) (EU) (A2U) (EU)
                 (EU) (B2U) (A1G) (B1G) (A1G) (A2G) (EG) (EG) (B1G)
                 (A1G) (EU) (EU) (A2U) (A1G) (A1U) (B1U) (EG) (EG)
                 (B2G) (B1G) (EU) (EU) (B2U) (B1U) (A2G) (EG) (EG)
                 (A1G) (B1G) (A2U) (EU) (EU) (EU) (EU) (B2U) (B2G)
                 (EG) (EG) (B1G) (A1G) (EU) (EU) (A2U) (A1G) (A1G)
                 (EU) (EU) (A2U) (B1G) (A1G) (A1G) (A1G) (EU) (EU)
                 (A2U) (B1G) (A1G) (A1G)
 Initial guess <Sx>= 0.0000 <Sy>= 0.0000 <Sz>= 0.5000 <S**2>= 1.7538 S= 0.9155
 Requested convergence on RMS density matrix=1.00D-08 within 128 cycles.
 Requested convergence on MAX density matrix=1.00D-06.
 Requested convergence on             energy=1.00D-06.
 No special actions if energy rises.
 Defaulting to unpruned grid for atomic number  45.
 Defaulting to unpruned grid for atomic number  45.
 Defaulting to unpruned grid for atomic number  45.
 Defaulting to unpruned grid for atomic number  45.
 Defaulting to unpruned grid for atomic number  45.
 Defaulting to unpruned grid for atomic number  45.
 Defaulting to unpruned grid for atomic number  45.
 Defaulting to unpruned grid for atomic number  45.
 Defaulting to unpruned grid for atomic number  45.
 Defaulting to unpruned grid for atomic number  45.
 Defaulting to unpruned grid for atomic number  45.
 Defaulting to unpruned grid for atomic number  45.
 Defaulting to unpruned grid for atomic number  45.
 Defaulting to unpruned grid for atomic number  45.
 Defaulting to unpruned grid for atomic number  45.
 Defaulting to unpruned grid for atomic number  45.
 SCF Done:  E(UTPSS-TPSS) =  -709.875203661     A.U. after    1 cycles
            NFock=  1  Conv=0.16D-09     -V/T= 2.1131
 <Sx>= 0.0000 <Sy>= 0.0000 <Sz>= 0.5000 <S**2>= 1.7538 S= 0.9155
 <L.S>=  0.00000000000    
 Annihilation of the first spin contaminant:
 S**2 before annihilation     1.7538,   after     0.7626
 DoSCS=F DFT=T ScalE2(SS,OS)=  1.000000  1.000000
 Range of M.O.s used for correlation:     1   430
 NBasis=   430 NAE=    36 NBE=    35 NFC=     0 NFV=     0
 NROrb=    430 NOA=    36 NOB=    35 NVA=   394 NVB=   395

 **** Warning!!: The largest alpha MO coefficient is  0.12310087D+02


 **** Warning!!: The smallest alpha delta epsilon is  0.31583087D-01


 **** Warning!!: The largest beta MO coefficient is  0.12299686D+02


 **** Warning!!: The smallest beta delta epsilon is  0.32246843D-01

  16 Symmetry operations used in ECPInt.
 ECPInt:  NShTT=    7750 NPrTT=   21159 LenC2=    7196 LenP2D=   15110.
 LDataN:  DoStor=T MaxTD1= 9 Len=  602
 Symmetrizing basis deriv contribution to polar:
 IMax=3 JMax=2 DiffMx= 0.00D+00
 G2DrvN: will do     8 centers at a time, making    1 passes.
 Calling FoFCou, ICntrl=  3507 FMM=F I1Cent=   0 AccDes= 0.00D+00.
 Defaulting to unpruned grid for atomic number  45.
 Defaulting to unpruned grid for atomic number  45.
 Defaulting to unpruned grid for atomic number  45.
 Defaulting to unpruned grid for atomic number  45.
 Defaulting to unpruned grid for atomic number  45.
 Defaulting to unpruned grid for atomic number  45.
 Defaulting to unpruned grid for atomic number  45.
 Defaulting to unpruned grid for atomic number  45.
 Defaulting to unpruned grid for atomic number  45.
 Defaulting to unpruned grid for atomic number  45.
 Defaulting to unpruned grid for atomic number  45.
 Defaulting to unpruned grid for atomic number  45.
 Defaulting to unpruned grid for atomic number  45.
 Defaulting to unpruned grid for atomic number  45.
 Defaulting to unpruned grid for atomic number  45.
 Defaulting to unpruned grid for atomic number  45.
 End of G2Drv F.D. properties file   721 does not exist.
 End of G2Drv F.D. properties file   722 does not exist.
 End of G2Drv F.D. properties file   788 does not exist.
          IDoAtm=1111111
          Differentiating once with respect to electric field.
                with respect to dipole field.
          Differentiating once with respect to nuclear coordinates.
 Defaulting to unpruned grid for atomic number  45.
 CalDSu exits because no D1Ps are significant.
 Defaulting to unpruned grid for atomic number  45.
 Defaulting to unpruned grid for atomic number  45.
 Defaulting to unpruned grid for atomic number  45.
 Defaulting to unpruned grid for atomic number  45.
 Defaulting to unpruned grid for atomic number  45.
 Defaulting to unpruned grid for atomic number  45.
 Defaulting to unpruned grid for atomic number  45.
 Defaulting to unpruned grid for atomic number  45.
 Defaulting to unpruned grid for atomic number  45.
 Defaulting to unpruned grid for atomic number  45.
 Defaulting to unpruned grid for atomic number  45.
 Defaulting to unpruned grid for atomic number  45.
 Defaulting to unpruned grid for atomic number  45.
 Defaulting to unpruned grid for atomic number  45.
 Defaulting to unpruned grid for atomic number  45.
 Defaulting to unpruned grid for atomic number  45.
          There are    12 degrees of freedom in the 1st order CPHF.  IDoFFX=4 NUNeed=    12.
     12 vectors produced by pass  0 Test12= 2.33D-13 8.33D-09 XBig12= 9.52D+02 2.10D+01.
 AX will form    12 AO Fock derivatives at one time.
     12 vectors produced by pass  1 Test12= 2.33D-13 8.33D-09 XBig12= 7.22D+02 5.15D+00.
     12 vectors produced by pass  2 Test12= 2.33D-13 8.33D-09 XBig12= 5.54D+01 1.23D+00.
     12 vectors produced by pass  3 Test12= 2.33D-13 8.33D-09 XBig12= 3.96D+00 9.56D-01.
     12 vectors produced by pass  4 Test12= 2.33D-13 8.33D-09 XBig12= 1.41D-01 1.10D-01.
     12 vectors produced by pass  5 Test12= 2.33D-13 8.33D-09 XBig12= 4.47D-03 3.78D-02.
     12 vectors produced by pass  6 Test12= 2.33D-13 8.33D-09 XBig12= 1.11D-04 3.54D-03.
     12 vectors produced by pass  7 Test12= 2.33D-13 8.33D-09 XBig12= 4.44D-06 8.40D-04.
     12 vectors produced by pass  8 Test12= 2.33D-13 8.33D-09 XBig12= 8.30D-08 8.64D-05.
      8 vectors produced by pass  9 Test12= 2.33D-13 8.33D-09 XBig12= 2.58D-09 1.09D-05.
      6 vectors produced by pass 10 Test12= 2.33D-13 8.33D-09 XBig12= 6.28D-11 3.30D-06.
      4 vectors produced by pass 11 Test12= 2.33D-13 8.33D-09 XBig12= 5.00D-13 2.67D-07.
      2 vectors produced by pass 12 Test12= 2.33D-13 8.33D-09 XBig12= 5.87D-15 1.93D-08.
 InvSVY:  IOpt=1 It=  1 EMax= 7.11D-15
 Solved reduced A of dimension   128 with    12 vectors.
 Isotropic polarizability for W=    0.000000       59.73 Bohr**3.
 End of Minotr F.D. properties file   721 does not exist.
 End of Minotr F.D. properties file   722 does not exist.
 End of Minotr F.D. properties file   788 does not exist.

 **********************************************************************

            Population analysis using the SCF Density.

 **********************************************************************

 Orbital symmetries:
 Alpha Orbitals:
       Occupied  (A1G) (A2U) (A1G) (B1G) (EU) (EU) (A1G) (A2U)
                 (EU) (EU) (A1G) (A1G) (B1G) (A2U) (EU) (EU) (B1G)
                 (A1G) (EG) (EG) (B2G) (A1G) (A2U) (EU) (EU) (EU)
                 (EU) (A2U) (B2U) (EU) (EU) (EG) (EG) (A2G) (EG)
                 (EG)
       Virtual   (B2G) (B1G) (A1G) (A1G) (A2U) (EU) (EU) (A1G)
                 (A2U) (EU) (EU) (A1G) (B1G) (EG) (EG) (B2G) (B1U)
                 (A2U) (EU) (EU) (B2U) (EU) (EU) (A1G) (A2U) (EU)
                 (EU) (B1G) (A1G) (A1G) (EG) (EG) (A2G) (EG) (EG)
                 (B2G) (B2U) (EU) (EU) (A2U) (EU) (EU) (A2U) (EU)
                 (EU) (EG) (EG) (B2G) (B1U) (B2U) (EU) (EU) (A2U)
                 (A1G) (EU) (EU) (B1G) (B1G) (A1G) (A2U) (EU) (EU)
                 (A1G) (B1U) (A1U) (B2G) (EG) (EG) (B1G) (EG) (EG)
                 (A2G) (A1G) (B1G) (B2U) (EU) (EU) (B2U) (A2U)
                 (EU) (EU) (EU) (EU) (B1U) (EG) (EG) (B1G) (A1G)
                 (EG) (EG) (A2G) (B2G) (A1G) (A2U) (EU) (EU) (A2U)
                 (EU) (EU) (B2U) (EU) (EU) (EG) (EG) (B2G) (B1G)
                 (A1G) (B1U) (A1G) (A1G) (EG) (EG) (B2G) (A2U)
                 (EU) (EU) (B2U) (EU) (EU) (A2U) (EU) (EU) (EG)
                 (EG) (A2G) (EG) (EG) (B2G) (B1G) (A1G) (B1G) (A1G)
                 (A1G) (A2U) (EU) (EU) (B1U) (A1U) (B1G) (B2U)
                 (EU) (EU) (EG) (EG) (A2G) (EG) (EG) (B2G) (A1G)
                 (B1G) (EU) (EU) (B2U) (A2U) (EU) (EU) (B2G) (EG)
                 (EG) (A1G) (EU) (EU) (A2U) (B1U) (EG) (EG) (B2G)
                 (B1G) (A1G) (B2U) (EU) (EU) (EG) (EG) (A2G) (A2U)
                 (EU) (EU) (B1U) (A1U) (B1G) (B2G) (A1G) (EG) (EG)
                 (B1G) (A1G) (B2U) (EU) (EU) (B1U) (EG) (EG) (A2G)
                 (B1G) (A1G) (A2U) (EU) (EU) (EG) (EG) (B2G) (B2U)
                 (EU) (EU) (A2U) (EU) (EU) (A1G) (B1G) (A1G) (EG)
                 (EG) (A2G) (A2U) (EU) (EU) (B2U) (EU) (EU) (A2U)
                 (EU) (EU) (EG) (EG) (B2G) (B1U) (B2U) (EU) (EU)
                 (A1G) (B1G) (A1G) (A2U) (EU) (EU) (EG) (EG) (B2G)
                 (A2U) (EU) (EU) (B1G) (A1G) (EG) (EG) (A2G) (A1G)
                 (B1U) (EU) (EU) (B2U) (B1G) (A1U) (EU) (EU) (EG)
                 (EG) (B2G) (A2U) (EU) (EU) (EG) (EG) (B2U) (A2G)
                 (EG) (EG) (B2G) (A1U) (A2G) (A2U) (A1G) (B1G)
                 (B1U) (A1U) (EU) (EU) (EG) (EG) (A1G) (B1G) (B1U)
                 (A1G) (EU) (EU) (A2U) (B2U) (EU) (EU) (B2G) (EG)
                 (EG) (A2U) (EU) (EU) (A1G) (B1G) (EG) (EG) (A2G)
                 (A1G) (B1U) (A1U) (B1G) (EG) (EG) (B2U) (EU) (EU)
                 (A2G) (B2G) (EG) (EG) (EU) (EU) (B2U) (EU) (EU)
                 (A2U) (B2G) (EG) (EG) (B1G) (A1G) (B1U) (EU) (EU)
                 (A2U) (EG) (EG) (B2G) (A2U) (EU) (EU) (B2U) (EU)
                 (EU) (A1G) (A1G) (B1G) (EG) (EG) (A2G) (A1G) (B1G)
                 (A2U) (EU) (EU) (A1G) (B1U) (A1U) (B2G) (EG) (EG)
                 (B1G) (B2U) (EU) (EU) (B1U) (EG) (EG) (A2G) (B1G)
                 (A1G) (EU) (EU) (A2U) (B2U) (EU) (EU) (EG) (EG)
                 (B2G) (A1G) (B1G) (A2U) (EU) (EU) (A1G) (A1G)
                 (A2U) (EU) (EU) (A1G) (B1G) (A1G) (A1G) (A2U)
                 (EU) (EU) (A1G) (B1G) (A1G)
 Beta  Orbitals:
       Occupied  (A1G) (B1G) (EU) (EU) (A1G) (A2U) (A1G) (EU) (EU)
                 (A2U) (A1G) (B1G) (A1G) (EU) (EU) (A2U) (A1G)
                 (B1G) (B2G) (EG) (EG) (A1G) (EU) (EU) (A2U) (EU)
                 (EU) (A2U) (EU) (EU) (B2U) (A2G) (EG) (EG) (B2G)
       Virtual   (EG) (EG) (A1G) (B1G) (A1G) (EU) (EU) (A2U) (A1G)
                 (EU) (EU) (A2U) (B1G) (A1G) (B2G) (EG) (EG) (B1U)
                 (EU) (EU) (A2U) (EU) (EU) (B2U) (A1G) (EU) (EU)
                 (A1G) (B1G) (A2U) (A1G) (A2G) (EG) (EG) (B2G)
                 (EG) (EG) (EU) (EU) (B2U) (EU) (EU) (A2U) (EU)
                 (EU) (A2U) (B2G) (EG) (EG) (B1U) (EU) (EU) (B2U)
                 (EU) (EU) (B1G) (A2U) (A1G) (B1G) (A1G) (EU) (EU)
                 (A2U) (A1G) (A1U) (B1U) (EG) (EG) (B2G) (B1G)
                 (A2G) (EG) (EG) (A1G) (B1G) (EU) (EU) (B2U) (EU)
                 (EU) (A2U) (EU) (EU) (B2U) (B1U) (A2G) (A1G) (B2G)
                 (B1G) (EG) (EG) (EG) (EG) (A1G) (EU) (EU) (A2U)
                 (A2U) (EU) (EU) (EU) (EU) (B2U) (B2G) (EG) (EG)
                 (A1G) (B1G) (B1U) (A1G) (A1G) (B2G) (EG) (EG)
                 (EU) (EU) (A2U) (EU) (EU) (B2U) (A2U) (EU) (EU)
                 (A2G) (EG) (EG) (B2G) (EG) (EG) (A1G) (B1G) (A1G)
                 (B1G) (A1G) (EU) (EU) (A2U) (A1U) (B1U) (B1G)
                 (EU) (EU) (B2U) (A2G) (EG) (EG) (B2G) (EG) (EG)
                 (A1G) (B1G) (EU) (EU) (B2U) (A2U) (EU) (EU) (EG)
                 (EG) (B2G) (A1G) (A2U) (EU) (EU) (B1U) (B2G) (EG)
                 (EG) (B1G) (A1G) (EU) (EU) (B2U) (A2G) (EG) (EG)
                 (EU) (EU) (A2U) (A1U) (B1U) (B1G) (A1G) (EG) (EG)
                 (B2G) (B1G) (A1G) (EU) (EU) (B2U) (B1U) (A2G)
                 (EG) (EG) (A1G) (B1G) (EU) (EU) (A2U) (B2G) (EG)
                 (EG) (EU) (EU) (B2U) (EU) (EU) (A2U) (A1G) (B1G)
                 (A1G) (A2G) (EG) (EG) (EU) (EU) (A2U) (EU) (EU)
                 (B2U) (EU) (EU) (A2U) (B2G) (EG) (EG) (B1U) (EU)
                 (EU) (B1G) (B2U) (A1G) (A1G) (EU) (EU) (A2U) (B2G)
                 (EG) (EG) (A2U) (EU) (EU) (A1G) (A2G) (B1G) (EG)
                 (EG) (A1G) (EU) (EU) (A1U) (B2U) (B1G) (B1U) (A2U)
                 (EG) (EG) (EU) (EU) (B2G) (B2U) (A2G) (EU) (EU)
                 (EG) (EG) (B2G) (EG) (EG) (B1G) (B1U) (A1U) (EG)
                 (EG) (EU) (EU) (A1G) (A1U) (A2G) (A2U) (A1G) (A1G)
                 (B1U) (B1G) (A2U) (EU) (EU) (EU) (EU) (B2U) (EG)
                 (EG) (B2G) (EU) (EU) (A2U) (B1G) (A1G) (A2G) (EG)
                 (EG) (A1G) (A1U) (B1U) (B1G) (EU) (EU) (B2U) (A2G)
                 (EG) (EG) (B2G) (EG) (EG) (B2U) (EU) (EU) (A2U)
                 (EU) (EU) (EG) (EG) (B2G) (A1G) (B1G) (B1U) (EU)
                 (EU) (A2U) (B2G) (EG) (EG) (EU) (EU) (A2U) (EU)
                 (EU) (B2U) (A1G) (B1G) (A1G) (A2G) (EG) (EG) (B1G)
                 (A1G) (EU) (EU) (A2U) (A1G) (A1U) (B1U) (EG) (EG)
                 (B2G) (B1G) (EU) (EU) (B2U) (B1U) (A2G) (EG) (EG)
                 (A1G) (B1G) (A2U) (EU) (EU) (EU) (EU) (B2U) (B2G)
                 (EG) (EG) (B1G) (A1G) (EU) (EU) (A2U) (A1G) (A1G)
                 (EU) (EU) (A2U) (B1G) (A1G) (A1G) (A1G) (EU) (EU)
                 (A2U) (B1G) (A1G) (A1G)
 The electronic state is 2-B2G.
 Alpha  occ. eigenvalues --  -24.47769 -24.47769 -24.47045 -24.47045 -24.47045
 Alpha  occ. eigenvalues --  -24.47045  -3.42169  -2.21378  -2.19217  -2.19217
 Alpha  occ. eigenvalues --   -1.16571  -1.15276  -1.14829  -1.14656  -1.13467
 Alpha  occ. eigenvalues --   -1.13467  -0.56976  -0.56834  -0.55064  -0.55064
 Alpha  occ. eigenvalues --   -0.52278  -0.50360  -0.46149  -0.45681  -0.45681
 Alpha  occ. eigenvalues --   -0.42518  -0.42518  -0.42299  -0.42061  -0.40692
 Alpha  occ. eigenvalues --   -0.40692  -0.40410  -0.40410  -0.38386  -0.35896
 Alpha  occ. eigenvalues --   -0.35896
 Alpha virt. eigenvalues --   -0.32738  -0.21487  -0.20815  -0.00723   0.01742
 Alpha virt. eigenvalues --    0.01808   0.01808   0.15778   0.16014   0.16188
 Alpha virt. eigenvalues --    0.16188   0.20689   0.20759   0.23870   0.23870
 Alpha virt. eigenvalues --    0.24306   0.28392   0.33362   0.33545   0.33545
 Alpha virt. eigenvalues --    0.36678   0.36813   0.36813   0.39155   0.42839
 Alpha virt. eigenvalues --    0.43022   0.43022   0.43148   0.43229   0.44802
 Alpha virt. eigenvalues --    0.46905   0.46905   0.47251   0.48693   0.48693
 Alpha virt. eigenvalues --    0.48881   0.51659   0.51900   0.51900   0.60325
 Alpha virt. eigenvalues --    0.60454   0.60454   0.74274   0.74345   0.74345
 Alpha virt. eigenvalues --    0.77427   0.77427   0.78297   0.89734   0.92497
 Alpha virt. eigenvalues --    0.93427   0.93427   1.00815   1.01351   1.01351
 Alpha virt. eigenvalues --    1.01351   1.01699   1.10519   1.10633   1.11543
 Alpha virt. eigenvalues --    1.11552   1.11552   1.25589   1.29445   1.29897
 Alpha virt. eigenvalues --    1.32379   1.32889   1.32889   1.38426   1.40718
 Alpha virt. eigenvalues --    1.40718   1.41072   1.50696   1.50808   1.50873
 Alpha virt. eigenvalues --    1.51554   1.51554   1.64432   1.64466   1.64481
 Alpha virt. eigenvalues --    1.64481   1.64985   1.64985   1.66644   1.67579
 Alpha virt. eigenvalues --    1.67579   1.67639   1.68194   1.68326   1.68326
 Alpha virt. eigenvalues --    1.68654   1.69038   1.69633   1.74248   1.74565
 Alpha virt. eigenvalues --    1.74565   1.88060   1.88316   1.88316   1.94082
 Alpha virt. eigenvalues --    1.95578   1.95578   2.06267   2.06267   2.06621
 Alpha virt. eigenvalues --    2.24395   2.24636   2.34566   2.47581   2.52997
 Alpha virt. eigenvalues --    2.60444   2.60444   2.62027   2.63404   2.63692
 Alpha virt. eigenvalues --    2.63692   2.70228   2.71642   2.71642   2.80856
 Alpha virt. eigenvalues --    2.81169   2.81169   2.83096   2.83096   2.83839
 Alpha virt. eigenvalues --    3.08330   3.08330   3.09165   3.11903   3.13106
 Alpha virt. eigenvalues --    3.38222   3.38293   3.84066   3.92801   3.93401
 Alpha virt. eigenvalues --    3.93401   4.02288   4.02796   4.03957   4.04029
 Alpha virt. eigenvalues --    4.04228   4.04228   4.05669   4.05669   4.06354
 Alpha virt. eigenvalues --    4.06822   4.06822   4.07079   4.07663   4.07874
 Alpha virt. eigenvalues --    4.08298   4.08298   4.08486   4.10025   4.10218
 Alpha virt. eigenvalues --    4.10218   4.18207   4.18563   4.18563   4.21051
 Alpha virt. eigenvalues --    4.24806   4.24806   4.24948   4.34521   4.42708
 Alpha virt. eigenvalues --    4.42708   4.43234   4.44950   4.45256   4.57555
 Alpha virt. eigenvalues --    4.57748   4.57748   4.69276   4.69276   4.69989
 Alpha virt. eigenvalues --    4.74678   4.75060   4.75060   4.85434   4.86334
 Alpha virt. eigenvalues --    4.93873   4.93985   4.94107   4.95134   4.95134
 Alpha virt. eigenvalues --    4.95429   5.04159   5.05784   5.06856   5.06856
 Alpha virt. eigenvalues --    5.20780   5.31052   5.31052   5.31826   5.34180
 Alpha virt. eigenvalues --    5.34932   5.36134   5.36401   5.36401   5.53383
 Alpha virt. eigenvalues --    5.53383   5.54145   5.57215   5.57549   5.57549
 Alpha virt. eigenvalues --    5.67551   5.67885   5.67885   5.80404   5.81003
 Alpha virt. eigenvalues --    5.81332   6.13209   6.13209   6.14476   6.16461
 Alpha virt. eigenvalues --    6.16470   6.16470   6.19982   6.20364   6.20364
 Alpha virt. eigenvalues --    6.35374   6.35408   6.35408   6.41844   6.41844
 Alpha virt. eigenvalues --    6.42949   6.93534   7.18812   7.20199   7.20199
 Alpha virt. eigenvalues --    7.22258   7.22756   7.26133   7.53235   7.53614
 Alpha virt. eigenvalues --    7.53614   7.66466   7.66466   7.66521   8.02291
 Alpha virt. eigenvalues --    8.03622   8.03622   8.04183   8.06238   8.06751
 Alpha virt. eigenvalues --    8.06751   8.08364   8.87404  11.37835  11.37979
 Alpha virt. eigenvalues --   11.37979  11.38002  11.38215  11.38614  11.39239
 Alpha virt. eigenvalues --   11.39239  11.39330  11.39330  11.39531  11.39922
 Alpha virt. eigenvalues --   11.40053  11.40053  11.40196  11.40196  11.40382
 Alpha virt. eigenvalues --   11.40457  11.40637  11.40637  11.40770  11.41249
 Alpha virt. eigenvalues --   11.41258  11.41260  11.41291  11.42296  11.42371
 Alpha virt. eigenvalues --   11.42371  11.42379  11.42379  11.42380  11.42380
 Alpha virt. eigenvalues --   11.42447  11.42953  11.43174  11.43350  11.43523
 Alpha virt. eigenvalues --   11.43523  11.43555  11.44849  11.45266  11.45266
 Alpha virt. eigenvalues --   11.46249  11.46253  11.46253  11.51688  11.51833
 Alpha virt. eigenvalues --   11.51833  11.57022  11.57426  11.65553  11.65553
 Alpha virt. eigenvalues --   11.65829  11.81407  14.46052  14.47037  14.47268
 Alpha virt. eigenvalues --   14.47866  14.47866  14.47870  14.48119  14.48119
 Alpha virt. eigenvalues --   14.49367  14.49423  14.49450  14.49450  14.50095
 Alpha virt. eigenvalues --   14.50095  14.50517  14.52857  14.52857  14.53376
 Alpha virt. eigenvalues --   14.53855  14.55002  14.55002  14.61840  14.62302
 Alpha virt. eigenvalues --   14.63871  14.64529  14.64529  14.64928  14.70523
 Alpha virt. eigenvalues --   14.70523  14.71202  14.72703  14.73643  14.73643
 Alpha virt. eigenvalues --   14.81200  14.81204  14.81204  14.84902  14.87158
 Alpha virt. eigenvalues --   14.87352  14.90173  14.90173  14.90666  15.19405
 Alpha virt. eigenvalues --   15.20037  15.22476  15.23310  15.23310  15.51034
 Alpha virt. eigenvalues --   15.61729  15.63025  15.65906  15.67590  15.67590
 Alpha virt. eigenvalues --   15.68675  15.75647  15.77013  15.77013  15.85452
 Alpha virt. eigenvalues --   15.86892  15.86892  15.87991  15.90759  15.92094
 Alpha virt. eigenvalues --   15.98699  15.98699  15.98936  16.12852  16.13054
 Alpha virt. eigenvalues --   16.13054  16.14172  16.14172  16.15040  16.40288
 Alpha virt. eigenvalues --   16.41239  16.42095  16.43069  16.43069  16.48805
 Alpha virt. eigenvalues --   34.49977  53.89547  53.90084  53.90084  53.92069
 Alpha virt. eigenvalues --   53.92613  54.00481 107.62802 286.71639 286.72156
 Alpha virt. eigenvalues --  286.72156 286.75257 286.75805 286.85204
  Beta  occ. eigenvalues --  -24.47108 -24.47108 -24.47108 -24.47108 -24.46929
  Beta  occ. eigenvalues --  -24.46929  -3.40276  -2.18612  -2.18612  -2.16675
  Beta  occ. eigenvalues --   -1.15873  -1.14913  -1.14478  -1.13602  -1.13602
  Beta  occ. eigenvalues --   -1.12902  -0.56736  -0.56196  -0.54406  -0.51849
  Beta  occ. eigenvalues --   -0.51849  -0.50190  -0.45662  -0.45662  -0.45297
  Beta  occ. eigenvalues --   -0.42217  -0.42217  -0.41043  -0.40673  -0.40673
  Beta  occ. eigenvalues --   -0.40524  -0.40243  -0.38410  -0.38410  -0.35318
  Beta virt. eigenvalues --   -0.32093  -0.32093  -0.20919  -0.20125  -0.00634
  Beta virt. eigenvalues --    0.01808   0.01808   0.01843   0.16072   0.16210
  Beta virt. eigenvalues --    0.16210   0.16338   0.20786   0.20795   0.23908
  Beta virt. eigenvalues --    0.24292   0.24292   0.28445   0.33565   0.33565
  Beta virt. eigenvalues --    0.33669   0.36866   0.36866   0.37014   0.39359
  Beta virt. eigenvalues --    0.43141   0.43141   0.43204   0.43271   0.43284
  Beta virt. eigenvalues --    0.45151   0.46950   0.47247   0.47247   0.48699
  Beta virt. eigenvalues --    0.48945   0.48945   0.51908   0.51908   0.52045
  Beta virt. eigenvalues --    0.60517   0.60517   0.60679   0.74373   0.74373
  Beta virt. eigenvalues --    0.74559   0.77668   0.78477   0.78477   0.90982
  Beta virt. eigenvalues --    0.93555   0.93555   0.94489   1.01387   1.01387
  Beta virt. eigenvalues --    1.01598   1.01680   1.01877   1.10681   1.10772
  Beta virt. eigenvalues --    1.12147   1.12147   1.12596   1.25764   1.29841
  Beta virt. eigenvalues --    1.30151   1.32953   1.32953   1.33146   1.38783
  Beta virt. eigenvalues --    1.40646   1.41181   1.41181   1.50910   1.50917
  Beta virt. eigenvalues --    1.51542   1.51542   1.52013   1.64601   1.64601
  Beta virt. eigenvalues --    1.64910   1.64998   1.64998   1.65148   1.67239
  Beta virt. eigenvalues --    1.67722   1.68016   1.68384   1.68385   1.68628
  Beta virt. eigenvalues --    1.68628   1.69106   1.69106   1.69729   1.74671
  Beta virt. eigenvalues --    1.74671   1.75007   1.88811   1.88813   1.88813
  Beta virt. eigenvalues --    1.95716   1.95716   1.96942   2.06888   2.07131
  Beta virt. eigenvalues --    2.07131   2.24729   2.25053   2.36947   2.48462
  Beta virt. eigenvalues --    2.53667   2.61006   2.62749   2.62749   2.63883
  Beta virt. eigenvalues --    2.63883   2.64842   2.71804   2.71804   2.73260
  Beta virt. eigenvalues --    2.81793   2.81895   2.81895   2.83401   2.84338
  Beta virt. eigenvalues --    2.84338   3.09294   3.10149   3.10149   3.12849
  Beta virt. eigenvalues --    3.13897   3.38798   3.38907   3.84780   3.93413
  Beta virt. eigenvalues --    3.93413   3.93971   4.02727   4.02932   4.04250
  Beta virt. eigenvalues --    4.04480   4.04480   4.04496   4.06315   4.06485
  Beta virt. eigenvalues --    4.06485   4.06970   4.07369   4.07369   4.08133
  Beta virt. eigenvalues --    4.08292   4.08770   4.08770   4.08825   4.10385
  Beta virt. eigenvalues --    4.10540   4.10540   4.18680   4.18680   4.19143
  Beta virt. eigenvalues --    4.21586   4.25118   4.25198   4.25198   4.34978
  Beta virt. eigenvalues --    4.42834   4.43646   4.43646   4.45494   4.45577
  Beta virt. eigenvalues --    4.57923   4.57923   4.58418   4.69284   4.70581
  Beta virt. eigenvalues --    4.70581   4.75182   4.75182   4.75890   4.86217
  Beta virt. eigenvalues --    4.86873   4.94265   4.94771   4.95152   4.95152
  Beta virt. eigenvalues --    4.95945   4.96101   5.04969   5.06812   5.06812
  Beta virt. eigenvalues --    5.07653   5.21447   5.31070   5.32191   5.32191
  Beta virt. eigenvalues --    5.34814   5.35461   5.36645   5.36645   5.36877
  Beta virt. eigenvalues --    5.53502   5.54414   5.54414   5.57778   5.57778
  Beta virt. eigenvalues --    5.58329   5.67963   5.67963   5.68702   5.80656
  Beta virt. eigenvalues --    5.81279   5.82146   6.13372   6.14647   6.14647
  Beta virt. eigenvalues --    6.17038   6.17038   6.17569   6.20795   6.20795
  Beta virt. eigenvalues --    6.21052   6.35956   6.35956   6.36781   6.42136
  Beta virt. eigenvalues --    6.43247   6.43247   6.96356   7.21200   7.21200
  Beta virt. eigenvalues --    7.22671   7.23021   7.23052   7.26448   7.54441
  Beta virt. eigenvalues --    7.54441   7.54779   7.69299   7.69438   7.69438
  Beta virt. eigenvalues --    8.03810   8.04194   8.04194   8.06472   8.08008
  Beta virt. eigenvalues --    8.08491   8.10002   8.10002   8.89043  11.38486
  Beta virt. eigenvalues --   11.38486  11.38514  11.38532  11.38702  11.38887
  Beta virt. eigenvalues --   11.39820  11.40080  11.40080  11.40100  11.40100
  Beta virt. eigenvalues --   11.40230  11.40351  11.40352  11.40613  11.40613
  Beta virt. eigenvalues --   11.40636  11.40636  11.40920  11.41162  11.41162
  Beta virt. eigenvalues --   11.42242  11.42259  11.42259  11.42268  11.42268
  Beta virt. eigenvalues --   11.42270  11.42270  11.42327  11.42814  11.42823
  Beta virt. eigenvalues --   11.42823  11.42832  11.43502  11.43610  11.43692
  Beta virt. eigenvalues --   11.43959  11.43993  11.43993  11.45473  11.45473
  Beta virt. eigenvalues --   11.45779  11.46712  11.46712  11.46749  11.51983
  Beta virt. eigenvalues --   11.51983  11.52847  11.57570  11.57867  11.65698
  Beta virt. eigenvalues --   11.66417  11.66417  11.81972  14.46860  14.47435
  Beta virt. eigenvalues --   14.47881  14.48697  14.48697  14.48797  14.49205
  Beta virt. eigenvalues --   14.49285  14.49285  14.49387  14.50214  14.50214
  Beta virt. eigenvalues --   14.50898  14.50898  14.50898  14.53286  14.53820
  Beta virt. eigenvalues --   14.53820  14.54926  14.54926  14.55817  14.62456
  Beta virt. eigenvalues --   14.62838  14.64472  14.65195  14.65195  14.65258
  Beta virt. eigenvalues --   14.70788  14.71559  14.71559  14.73495  14.73495
  Beta virt. eigenvalues --   14.74536  14.81676  14.81676  14.81973  14.85422
  Beta virt. eigenvalues --   14.87563  14.87989  14.90223  14.91289  14.91289
  Beta virt. eigenvalues --   15.19808  15.20875  15.23316  15.23316  15.24382
  Beta virt. eigenvalues --   15.51717  15.62828  15.63738  15.67514  15.67514
  Beta virt. eigenvalues --   15.68690  15.69580  15.77037  15.77037  15.78096
  Beta virt. eigenvalues --   15.86323  15.87129  15.88269  15.88269  15.91750
  Beta virt. eigenvalues --   15.92824  15.99403  15.99429  15.99429  16.13548
  Beta virt. eigenvalues --   16.13548  16.13924  16.14494  16.15425  16.15425
  Beta virt. eigenvalues --   16.41026  16.41646  16.42893  16.42893  16.44056
  Beta virt. eigenvalues --   16.49297  34.51467  53.89974  53.89974  53.90874
  Beta virt. eigenvalues --   53.92497  53.92915  54.00846 107.63965 286.72041
  Beta virt. eigenvalues --  286.72041 286.73125 286.75689 286.76204 286.85627
          Condensed to atoms (all electrons):
               1          2          3          4          5          6
     1  Rh  14.357686   0.232879   0.232879   0.232879   0.232879   0.235154
     2  F    0.232879   9.006793  -0.007227  -0.002616  -0.007227  -0.007092
     3  F    0.232879  -0.007227   9.006793  -0.007227  -0.002616  -0.007092
     4  F    0.232879  -0.002616  -0.007227   9.006793  -0.007227  -0.007092
     5  F    0.232879  -0.007227  -0.002616  -0.007227   9.006793  -0.007092
     6  F    0.235154  -0.007092  -0.007092  -0.007092  -0.007092   8.999214
     7  F    0.235154  -0.007092  -0.007092  -0.007092  -0.007092  -0.002594
               7
     1  Rh   0.235154
     2  F   -0.007092
     3  F   -0.007092
     4  F   -0.007092
     5  F   -0.007092
     6  F   -0.002594
     7  F    8.999214
          Atomic-Atomic Spin Densities.
               1          2          3          4          5          6
     1  Rh   0.665702   0.001676   0.001676   0.001676   0.001676  -0.059538
     2  F    0.001676  -0.022390  -0.005733  -0.000050  -0.005733   0.005479
     3  F    0.001676  -0.005733  -0.022390  -0.005733  -0.000050   0.005479
     4  F    0.001676  -0.000050  -0.005733  -0.022390  -0.005733   0.005479
     5  F    0.001676  -0.005733  -0.000050  -0.005733  -0.022390   0.005479
     6  F   -0.059538   0.005479   0.005479   0.005479   0.005479   0.303730
     7  F   -0.059538   0.005479   0.005479   0.005479   0.005479  -0.000228
               7
     1  Rh  -0.059538
     2  F    0.005479
     3  F    0.005479
     4  F    0.005479
     5  F    0.005479
     6  F   -0.000228
     7  F    0.303730
 Mulliken charges and spin densities:
               1          2
     1  Rh   1.240490   0.553330
     2  F   -0.208419  -0.021272
     3  F   -0.208419  -0.021272
     4  F   -0.208419  -0.021272
     5  F   -0.208419  -0.021272
     6  F   -0.203408   0.265880
     7  F   -0.203408   0.265880
 Sum of Mulliken charges =   0.00000   1.00000
 Mulliken charges and spin densities with hydrogens summed into heavy atoms:
               1          2
     1  Rh   1.240490   0.553330
     2  F   -0.208419  -0.021272
     3  F   -0.208419  -0.021272
     4  F   -0.208419  -0.021272
     5  F   -0.208419  -0.021272
     6  F   -0.203408   0.265880
     7  F   -0.203408   0.265880
 APT charges:
               1
     1  Rh   2.433322
     2  F   -0.408850
     3  F   -0.408850
     4  F   -0.408850
     5  F   -0.408850
     6  F   -0.398962
     7  F   -0.398962
 Sum of APT charges =   0.00000
 APT charges with hydrogens summed into heavy atoms:
               1
     1  Rh   2.433322
     2  F   -0.408850
     3  F   -0.408850
     4  F   -0.408850
     5  F   -0.408850
     6  F   -0.398962
     7  F   -0.398962
 Electronic spatial extent (au):  <R**2>=            773.1857
 Charge=              0.0000 electrons
 Dipole moment (field-independent basis, Debye):
    X=             -0.0000    Y=              0.0000    Z=             -0.0000  Tot=              0.0000
 Quadrupole moment (field-independent basis, Debye-Ang):
   XX=            -52.0739   YY=            -52.0739   ZZ=            -51.8786
   XY=             -0.0000   XZ=              0.0000   YZ=              0.0000
 Traceless Quadrupole moment (field-independent basis, Debye-Ang):
   XX=             -0.0651   YY=             -0.0651   ZZ=              0.1302
   XY=             -0.0000   XZ=              0.0000   YZ=              0.0000
 Octapole moment (field-independent basis, Debye-Ang**2):
  XXX=              0.0000  YYY=             -0.0000  ZZZ=             -0.0000  XYY=             -0.0000
  XXY=              0.0000  XXZ=              0.0000  XZZ=              0.0000  YZZ=             -0.0000
  YYZ=              0.0000  XYZ=              0.0000
 Hexadecapole moment (field-independent basis, Debye-Ang**3):
 XXXX=           -248.2777 YYYY=           -248.2777 ZZZZ=           -246.4086 XXXY=             -0.0000
 XXXZ=             -0.0000 YYYX=              0.0000 YYYZ=             -0.0000 ZZZX=              0.0000
 ZZZY=              0.0000 XXYY=            -78.9653 XXZZ=            -78.8558 YYZZ=            -78.8558
 XXYZ=             -0.0000 YYXZ=              0.0000 ZZXY=             -0.0000
 N-N= 4.949915318580D+02 E-N=-2.652069815181D+03  KE= 6.377706094067D+02
 Symmetry AG   KE= 2.684832737822D+02
 Symmetry B1G  KE= 1.590012164845D+01
 Symmetry B2G  KE= 1.590395062899D+01
 Symmetry B3G  KE= 1.590395062899D+01
 Symmetry AU   KE= 6.196498298931D-22
 Symmetry B1U  KE= 1.071975420065D+02
 Symmetry B2U  KE= 1.071908853558D+02
 Symmetry B3U  KE= 1.071908853558D+02
 Symmetry AG   SP=-3.285399398009D-15
 Symmetry B1G  SP=-1.000000000000D+00
 Symmetry B2G  SP= 1.000000000000D+00
 Symmetry B3G  SP= 1.000000000000D+00
 Symmetry AU   SP= 3.397803240668D-24
 Symmetry B1U  SP=-1.252683801958D-15
 Symmetry B2U  SP=-2.203231057509D-15
 Symmetry B3U  SP=-2.220568233753D-15
  Exact polarizability:      59.662       0.000      59.662      -0.000      -0.000      59.876
 Approx polarizability:     228.432       0.000     228.432       0.000      -0.000     225.395
                          Isotropic Fermi Contact Couplings
        Atom                 a.u.       MegaHertz       Gauss      10(-4) cm-1
     1  Rh(103            -0.00000       0.00021       0.00008       0.00007
     2  F(19)              0.00186       7.80759       2.78594       2.60433
     3  F(19)              0.00186       7.80759       2.78594       2.60433
     4  F(19)              0.00186       7.80759       2.78594       2.60433
     5  F(19)              0.00186       7.80759       2.78594       2.60433
     6  F(19)              0.03078     129.50339      46.21003      43.19768
     7  F(19)              0.03078     129.50339      46.21003      43.19768
 --------------------------------------------------------
       Center         ----  Spin Dipole Couplings  ----
                      3XX-RR        3YY-RR        3ZZ-RR
 --------------------------------------------------------
     1   Atom       -0.345569     -0.345569      0.691138
     2   Atom       -1.380959      0.002190      1.378769
     3   Atom        0.002190     -1.380959      1.378769
     4   Atom       -1.380959      0.002190      1.378769
     5   Atom        0.002190     -1.380959      1.378769
     6   Atom        0.448532      0.448532     -0.897063
     7   Atom        0.448532      0.448532     -0.897063
 --------------------------------------------------------
                        XY            XZ            YZ
 --------------------------------------------------------
     1   Atom        0.000000      0.000000     -0.000000
     2   Atom        0.000000      0.000000      0.000000
     3   Atom       -0.000000      0.000000      0.000000
     4   Atom       -0.000000     -0.000000      0.000000
     5   Atom       -0.000000      0.000000     -0.000000
     6   Atom       -0.000000      0.000000     -0.000000
     7   Atom       -0.000000     -0.000000      0.000000
 --------------------------------------------------------


 ---------------------------------------------------------------------------------
              Anisotropic Spin Dipole Couplings in Principal Axis System
 ---------------------------------------------------------------------------------

       Atom             a.u.   MegaHertz   Gauss  10(-4) cm-1        Axes

              Baa    -0.3456     5.836     2.082     1.947  0.9927  0.1209  0.0000
     1 Rh(103 Bbb    -0.3456     5.836     2.082     1.947 -0.1209  0.9927  0.0000
              Bcc     0.6911   -11.672    -4.165    -3.893  0.0000  0.0000  1.0000
 
              Baa    -1.3810  -693.553  -247.477  -231.344  1.0000  0.0000  0.0000
     2 F(19)  Bbb     0.0022     1.100     0.392     0.367 -0.0000  1.0000  0.0000
              Bcc     1.3788   692.453   247.084   230.977  0.0000  0.0000  1.0000
 
              Baa    -1.3810  -693.553  -247.477  -231.344  0.0000  1.0000 -0.0000
     3 F(19)  Bbb     0.0022     1.100     0.392     0.367  1.0000  0.0000  0.0000
              Bcc     1.3788   692.453   247.084   230.977  0.0000  0.0000  1.0000
 
              Baa    -1.3810  -693.553  -247.477  -231.344  1.0000 -0.0000  0.0000
     4 F(19)  Bbb     0.0022     1.100     0.392     0.367  0.0000  1.0000  0.0000
              Bcc     1.3788   692.453   247.084   230.977  0.0000  0.0000  1.0000
 
              Baa    -1.3810  -693.553  -247.477  -231.344  0.0000  1.0000 -0.0000
     5 F(19)  Bbb     0.0022     1.100     0.392     0.367  1.0000  0.0000  0.0000
              Bcc     1.3788   692.453   247.084   230.977  0.0000  0.0000  1.0000
 
              Baa    -0.8971  -450.528  -160.760  -150.280  0.0000  0.0000  1.0000
     6 F(19)  Bbb     0.4485   225.264    80.380    75.140 -0.0000  1.0000  0.0000
              Bcc     0.4485   225.264    80.380    75.140  1.0000  0.0000  0.0000
 
              Baa    -0.8971  -450.528  -160.760  -150.280  0.0000  0.0000  1.0000
     7 F(19)  Bbb     0.4485   225.264    80.380    75.140 -0.0158  0.9999  0.0000
              Bcc     0.4485   225.264    80.380    75.140  0.9999  0.0158  0.0000
 

 ---------------------------------------------------------------------------------

  16 Symmetry operations used in ECPInt.
 ECPInt:  NShTT=    7750 NPrTT=   21159 LenC2=    7196 LenP2D=   15110.
 LDataN:  DoStor=T MaxTD1=10 Len=  848
 Calling FoFJK, ICntrl=    100527 FMM=F ISym2X=1 I1Cent= 0 IOpClX= 0 NMat=1 NMatS=1 NMatT=0.
 Defaulting to unpruned grid for atomic number  45.
 Defaulting to unpruned grid for atomic number  45.
 Defaulting to unpruned grid for atomic number  45.
 Defaulting to unpruned grid for atomic number  45.
 Defaulting to unpruned grid for atomic number  45.
 Defaulting to unpruned grid for atomic number  45.
 Defaulting to unpruned grid for atomic number  45.
 Defaulting to unpruned grid for atomic number  45.
 Defaulting to unpruned grid for atomic number  45.
 Defaulting to unpruned grid for atomic number  45.
 Defaulting to unpruned grid for atomic number  45.
 Defaulting to unpruned grid for atomic number  45.
 Defaulting to unpruned grid for atomic number  45.
 Defaulting to unpruned grid for atomic number  45.
 Defaulting to unpruned grid for atomic number  45.
 Defaulting to unpruned grid for atomic number  45.
 Full mass-weighted force constant matrix:
 Low frequencies ---   -0.0005    0.0003    0.0004   15.6816   16.0220   16.0222
 Low frequencies ---  187.3886  187.3886  191.4020
 Diagonal vibrational polarizability:
       10.2014543      10.2014542      10.1701628
 Harmonic frequencies (cm**-1), IR intensities (KM/Mole), Raman scattering
 activities (A**4/AMU), depolarization ratios for plane and unpolarized
 incident light, reduced masses (AMU), force constants (mDyne/A),
 and normal coordinates:
                      1                      2                      3
                     EU                     EU                     B2U
 Frequencies --    187.3886               187.3886               191.4020
 Red. masses --     18.9987                18.9987                18.9984
 Frc consts  --      0.3931                 0.3931                 0.4101
 IR Inten    --      0.0089                 0.0089                 0.0000
  Atom  AN      X      Y      Z        X      Y      Z        X      Y      Z
     1  45    -0.00  -0.00  -0.00     0.00  -0.00   0.00     0.00   0.00  -0.00
     2   9    -0.50   0.00  -0.00     0.00   0.00   0.00    -0.00   0.00   0.50
     3   9     0.00  -0.00  -0.00    -0.00  -0.50   0.00     0.00  -0.00  -0.50
     4   9    -0.50   0.00  -0.00     0.00   0.00  -0.00    -0.00   0.00   0.50
     5   9     0.00  -0.00   0.00    -0.00  -0.50   0.00    -0.00  -0.00  -0.50
     6   9     0.50   0.00   0.00    -0.00   0.50   0.00    -0.00   0.00  -0.00
     7   9     0.50   0.00   0.00    -0.00   0.50  -0.00     0.00  -0.00  -0.00
                      4                      5                      6
                     EG                     EG                     B2G
 Frequencies --    263.4590               263.4591               265.5726
 Red. masses --     18.9984                18.9984                18.9984
 Frc consts  --      0.7770                 0.7770                 0.7895
 IR Inten    --      0.0000                 0.0000                 0.0000
  Atom  AN      X      Y      Z        X      Y      Z        X      Y      Z
     1  45     0.00   0.00   0.00     0.00  -0.00  -0.00     0.00  -0.00  -0.00
     2   9    -0.00   0.00   0.50    -0.00  -0.00  -0.00     0.50  -0.00   0.00
     3   9     0.00  -0.00  -0.00     0.00   0.00  -0.50     0.00  -0.50  -0.00
     4   9     0.00   0.00  -0.50    -0.00   0.00   0.00    -0.50  -0.00  -0.00
     5   9     0.00  -0.00   0.00     0.00  -0.00   0.50     0.00   0.50   0.00
     6   9     0.00   0.50   0.00     0.50  -0.00  -0.00    -0.00   0.00  -0.00
     7   9    -0.00  -0.50   0.00    -0.50   0.00  -0.00    -0.00   0.00  -0.00
                      7                      8                      9
                     EU                     EU                     A2U
 Frequencies --    287.7539               287.7539               288.0987
 Red. masses --     23.5446                23.5446                23.5388
 Frc consts  --      1.1486                 1.1486                 1.1511
 IR Inten    --     10.6942                10.6942                10.7541
  Atom  AN      X      Y      Z        X      Y      Z        X      Y      Z
     1  45     0.23   0.00   0.00    -0.00   0.23   0.00    -0.00  -0.00   0.23
     2   9    -0.45   0.00  -0.00     0.00   0.27  -0.00     0.00  -0.00  -0.45
     3   9     0.27  -0.00   0.00    -0.00  -0.45  -0.00    -0.00   0.00  -0.45
     4   9    -0.45   0.00  -0.00     0.00   0.27   0.00     0.00  -0.00  -0.45
     5   9     0.27  -0.00  -0.00    -0.00  -0.45  -0.00     0.00   0.00  -0.45
     6   9    -0.45  -0.00   0.00     0.00  -0.45   0.00     0.00  -0.00   0.27
     7   9    -0.45  -0.00   0.00     0.00  -0.45   0.00     0.00   0.00   0.27
                     10                     11                     12
                     A1G                    B1G                    A1G
 Frequencies --    589.7678               591.6665               634.6785
 Red. masses --     18.9984                18.9984                18.9984
 Frc consts  --      3.8934                 3.9185                 4.5089
 IR Inten    --      0.0000                 0.0000                 0.0000
  Atom  AN      X      Y      Z        X      Y      Z        X      Y      Z
     1  45     0.00   0.00   0.00     0.00   0.00   0.00    -0.00   0.00  -0.00
     2   9    -0.00  -0.31   0.00    -0.00   0.50  -0.00     0.00   0.39   0.00
     3   9     0.31  -0.00   0.00     0.50   0.00   0.00    -0.39   0.00   0.00
     4   9    -0.00   0.31   0.00    -0.00  -0.50  -0.00     0.00  -0.39   0.00
     5   9    -0.31  -0.00   0.00    -0.50   0.00   0.00     0.39   0.00   0.00
     6   9    -0.00   0.00   0.55    -0.00  -0.00  -0.00     0.00  -0.00   0.44
     7   9    -0.00   0.00  -0.55    -0.00  -0.00   0.00     0.00  -0.00  -0.44
                     13                     14                     15
                     EU                     EU                     A2U
 Frequencies --    693.6681               693.6681               697.9315
 Red. masses --     24.8483                24.8483                24.8552
 Frc consts  --      7.0445                 7.0445                 7.1333
 IR Inten    --    120.1356               120.1356               120.9733
  Atom  AN      X      Y      Z        X      Y      Z        X      Y      Z
     1  45    -0.26  -0.00   0.00     0.00  -0.26   0.00    -0.00  -0.00  -0.26
     2   9     0.02   0.00  -0.00    -0.00   0.68   0.00     0.00   0.00   0.02
     3   9     0.68   0.00  -0.00    -0.00   0.02  -0.00     0.00   0.00   0.02
     4   9     0.02   0.00  -0.00    -0.00   0.68  -0.00     0.00   0.00   0.02
     5   9     0.68   0.00   0.00    -0.00   0.02  -0.00    -0.00   0.00   0.02
     6   9     0.01   0.00  -0.00    -0.00   0.01   0.00     0.00  -0.00   0.68
     7   9     0.01   0.00   0.00    -0.00   0.01  -0.00     0.00   0.00   0.68

 -------------------
 - Thermochemistry -
 -------------------
 Temperature   298.150 Kelvin.  Pressure   1.00000 Atm.
 Atom     1 has atomic number 45 and mass 102.90480
 Atom     2 has atomic number  9 and mass  18.99840
 Atom     3 has atomic number  9 and mass  18.99840
 Atom     4 has atomic number  9 and mass  18.99840
 Atom     5 has atomic number  9 and mass  18.99840
 Atom     6 has atomic number  9 and mass  18.99840
 Atom     7 has atomic number  9 and mass  18.99840
 Molecular mass:   216.89522 amu.
 Principal axes and moments of inertia in atomic units:
                           1         2         3
     Eigenvalues --   924.27142 924.27142 926.00054
           X            1.00000  -0.00000   0.00000
           Y            0.00000   1.00000   0.00000
           Z            0.00000   0.00000   1.00000
 This molecule is an oblate symmetric top.
 Rotational symmetry number  8.
 Warning -- assumption of classical behavior for rotation
           may cause significant error
 Rotational temperatures (Kelvin)      0.09371     0.09371     0.09354
 Rotational constants (GHZ):           1.95261     1.95261     1.94896
 Zero-point vibrational energy      36627.6 (Joules/Mol)
                                    8.75421 (Kcal/Mol)
 Warning -- explicit consideration of  11 degrees of freedom as
           vibrations may cause significant error
 Vibrational temperatures:    269.61   269.61   275.38   379.06   379.06
          (Kelvin)            382.10   414.01   414.01   414.51   848.54
                              851.28   913.16   998.03   998.03  1004.17
 
 Zero-point correction=                           0.013951 (Hartree/Particle)
 Thermal correction to Energy=                    0.022043
 Thermal correction to Enthalpy=                  0.022987
 Thermal correction to Gibbs Free Energy=        -0.017768
 Sum of electronic and zero-point Energies=           -709.861253
 Sum of electronic and thermal Energies=              -709.853161
 Sum of electronic and thermal Enthalpies=            -709.852217
 Sum of electronic and thermal Free Energies=         -709.892972
 
                     E (Thermal)             CV                S
                      KCal/Mol        Cal/Mol-Kelvin    Cal/Mol-Kelvin
 Total                   13.832             27.411             85.776
 Electronic               0.000              0.000              1.377
 Translational            0.889              2.981             42.026
 Rotational               0.889              2.981             24.028
 Vibrational             12.054             21.449             18.344
 Vibration     1          0.632              1.857              2.254
 Vibration     2          0.632              1.857              2.254
 Vibration     3          0.634              1.852              2.214
 Vibration     4          0.670              1.740              1.639
 Vibration     5          0.670              1.740              1.639
 Vibration     6          0.671              1.736              1.625
 Vibration     7          0.685              1.696              1.487
 Vibration     8          0.685              1.696              1.487
 Vibration     9          0.685              1.696              1.485
 Vibration    10          0.947              1.054              0.468
 Vibration    11          0.949              1.050              0.464
                       Q            Log10(Q)             Ln(Q)
 Total Bot       0.148874D+09          8.172820         18.818613
 Total V=0       0.388775D+15         14.589698         33.594022
 Vib (Bot)       0.148970D-04         -4.826900        -11.114348
 Vib (Bot)    1  0.106906D+01          0.029001          0.066776
 Vib (Bot)    2  0.106906D+01          0.029001          0.066776
 Vib (Bot)    3  0.104512D+01          0.019165          0.044130
 Vib (Bot)    4  0.735975D+00         -0.133137         -0.306559
 Vib (Bot)    5  0.735975D+00         -0.133137         -0.306559
 Vib (Bot)    6  0.729347D+00         -0.137066         -0.315606
 Vib (Bot)    7  0.665383D+00         -0.176928         -0.407392
 Vib (Bot)    8  0.665383D+00         -0.176928         -0.407392
 Vib (Bot)    9  0.664462D+00         -0.177530         -0.408777
 Vib (Bot)   10  0.255844D+00         -0.592025         -1.363187
 Vib (Bot)   11  0.254532D+00         -0.594258         -1.368330
 Vib (V=0)       0.389026D+02          1.589979          3.661061
 Vib (V=0)    1  0.168020D+01          0.225362          0.518915
 Vib (V=0)    2  0.168020D+01          0.225362          0.518915
 Vib (V=0)    3  0.165856D+01          0.219732          0.505953
 Vib (V=0)    4  0.138975D+01          0.142937          0.329125
 Vib (V=0)    5  0.138975D+01          0.142937          0.329125
 Vib (V=0)    6  0.138428D+01          0.141223          0.325178
 Vib (V=0)    7  0.133231D+01          0.124604          0.286912
 Vib (V=0)    8  0.133231D+01          0.124604          0.286912
 Vib (V=0)    9  0.133157D+01          0.124364          0.286359
 Vib (V=0)   10  0.106165D+01          0.025983          0.059829
 Vib (V=0)   11  0.106106D+01          0.025739          0.059267
 Electronic      0.200000D+01          0.301030          0.693147
 Translational   0.125554D+09          8.098829         18.648243
 Rotational      0.397980D+05          4.599861         10.591571
 ***** Axes restored to original set *****
 -------------------------------------------------------------------
 Center     Atomic                   Forces (Hartrees/Bohr)
 Number     Number              X              Y              Z
 -------------------------------------------------------------------
      1       45          -0.000000000   -0.000000000   -0.000000000
      2        9           0.000071339   -0.000071339    0.000000000
      3        9           0.000071339    0.000071339    0.000000000
      4        9          -0.000071339    0.000071339    0.000000000
      5        9          -0.000071339   -0.000071339    0.000000000
      6        9           0.000000000    0.000000000    0.000024755
      7        9           0.000000000    0.000000000   -0.000024755
 -------------------------------------------------------------------
 Cartesian Forces:  Max     0.000071339 RMS     0.000044689
 FormGI is forming the generalized inverse of G from B-inverse, IUseBI=4.

 GradGradGradGradGradGradGradGradGradGradGradGradGradGradGradGradGradGrad
 Berny optimization.
 Internal  Forces:  Max     0.000100889 RMS     0.000036203
 Search for a local minimum.
 Step number   1 out of a maximum of    2
 All quantities printed in internal units (Hartrees-Bohrs-Radians)
 Second derivative matrix not updated -- analytic derivatives used.
 ITU=  0
     Eigenvalues ---    0.04496   0.04496   0.05152   0.08033   0.10015
     Eigenvalues ---    0.10015   0.11772   0.15179   0.15179   0.25008
     Eigenvalues ---    0.25169   0.25353   0.25353   0.25679   0.28961
 Angle between quadratic step and forces=   3.70 degrees.
 Linear search not attempted -- first point.
 Iteration  1 RMS(Cart)=  0.00012993 RMS(Int)=  0.00000000
 Iteration  2 RMS(Cart)=  0.00000000 RMS(Int)=  0.00000000
 ClnCor:  largest displacement from symmetrization is 2.92D-12 for atom     6.
 Variable       Old X    -DE/DX   Delta X   Delta X   Delta X     New X
                                 (Linear)    (Quad)   (Total)
    R1        3.49074   0.00010   0.00000   0.00037   0.00037   3.49110
    R2        3.49074   0.00010   0.00000   0.00037   0.00037   3.49110
    R3        3.49074   0.00010   0.00000   0.00037   0.00037   3.49110
    R4        3.49074   0.00010   0.00000   0.00037   0.00037   3.49110
    R5        3.48421   0.00002   0.00000   0.00006   0.00006   3.48427
    R6        3.48421   0.00002   0.00000   0.00006   0.00006   3.48427
    A1        1.57080   0.00000   0.00000   0.00000   0.00000   1.57080
    A2        1.57080  -0.00000   0.00000   0.00000   0.00000   1.57080
    A3        1.57080  -0.00000   0.00000  -0.00000   0.00000   1.57080
    A4        1.57080   0.00000   0.00000  -0.00000   0.00000   1.57080
    A5        1.57080   0.00000   0.00000  -0.00000   0.00000   1.57080
    A6        1.57080   0.00000   0.00000   0.00000   0.00000   1.57080
    A7        1.57080   0.00000   0.00000   0.00000   0.00000   1.57080
    A8        1.57080  -0.00000   0.00000  -0.00000  -0.00000   1.57080
    A9        1.57080  -0.00000   0.00000   0.00000   0.00000   1.57080
   A10        1.57080  -0.00000   0.00000   0.00000   0.00000   1.57080
   A11        1.57080  -0.00000   0.00000  -0.00000   0.00000   1.57080
   A12        1.57080  -0.00000   0.00000  -0.00000   0.00000   1.57080
   A13        3.14159   0.00000   0.00000   0.00000   0.00000   3.14159
   A14        3.14159   0.00000   0.00000   0.00000   0.00000   3.14159
   A15        3.14159   0.00000   0.00000  -0.00000   0.00000   3.14159
   A16        3.14159   0.00000   0.00000   0.00000   0.00000   3.14159
   A17        3.14159  -0.00000   0.00000  -0.00000   0.00000   3.14159
   A18        3.14159  -0.00000   0.00000  -0.00000   0.00000   3.14159
    D1        1.57080   0.00000   0.00000   0.00000   0.00000   1.57080
    D2       -1.57080  -0.00000   0.00000  -0.00000  -0.00000  -1.57080
    D3       -1.57080   0.00000   0.00000  -0.00000   0.00000  -1.57080
    D4        1.57080  -0.00000   0.00000   0.00000   0.00000   1.57080
    D5        1.57080   0.00000   0.00000  -0.00000   0.00000   1.57080
    D6       -1.57080  -0.00000   0.00000   0.00000   0.00000  -1.57080
    D7        1.57080  -0.00000   0.00000  -0.00000  -0.00000   1.57080
    D8       -1.57080   0.00000   0.00000   0.00000   0.00000  -1.57080
         Item               Value     Threshold  Converged?
 Maximum Force            0.000101     0.000450     YES
 RMS     Force            0.000036     0.000300     YES
 Maximum Displacement     0.000258     0.001800     YES
 RMS     Displacement     0.000130     0.001200     YES
 Predicted change in Energy=-7.510584D-08
 Optimization completed.
    -- Stationary point found.
                           ----------------------------
                           !   Optimized Parameters   !
                           ! (Angstroms and Degrees)  !
 --------------------------                            --------------------------
 ! Name  Definition              Value          Derivative Info.                !
 --------------------------------------------------------------------------------
 ! R1    R(1,2)                  1.8472         -DE/DX =    0.0001              !
 ! R2    R(1,3)                  1.8472         -DE/DX =    0.0001              !
 ! R3    R(1,4)                  1.8472         -DE/DX =    0.0001              !
 ! R4    R(1,5)                  1.8472         -DE/DX =    0.0001              !
 ! R5    R(1,6)                  1.8438         -DE/DX =    0.0                 !
 ! R6    R(1,7)                  1.8438         -DE/DX =    0.0                 !
 ! A1    A(2,1,3)               90.0            -DE/DX =    0.0                 !
 ! A2    A(2,1,5)               90.0            -DE/DX =    0.0                 !
 ! A3    A(2,1,6)               90.0            -DE/DX =    0.0                 !
 ! A4    A(2,1,7)               90.0            -DE/DX =    0.0                 !
 ! A5    A(3,1,4)               90.0            -DE/DX =    0.0                 !
 ! A6    A(3,1,6)               90.0            -DE/DX =    0.0                 !
 ! A7    A(3,1,7)               90.0            -DE/DX =    0.0                 !
 ! A8    A(4,1,5)               90.0            -DE/DX =    0.0                 !
 ! A9    A(4,1,6)               90.0            -DE/DX =    0.0                 !
 ! A10   A(4,1,7)               90.0            -DE/DX =    0.0                 !
 ! A11   A(5,1,6)               90.0            -DE/DX =    0.0                 !
 ! A12   A(5,1,7)               90.0            -DE/DX =    0.0                 !
 ! A13   L(2,1,4,3,-1)         180.0            -DE/DX =    0.0                 !
 ! A14   L(3,1,5,2,-1)         180.0            -DE/DX =    0.0                 !
 ! A15   L(6,1,7,2,-1)         180.0            -DE/DX =    0.0                 !
 ! A16   L(2,1,4,3,-2)         180.0            -DE/DX =    0.0                 !
 ! A17   L(3,1,5,2,-2)         180.0            -DE/DX =    0.0                 !
 ! A18   L(6,1,7,2,-2)         180.0            -DE/DX =    0.0                 !
 ! D1    D(2,1,6,3)             90.0            -DE/DX =    0.0                 !
 ! D2    D(2,1,7,3)            -90.0            -DE/DX =    0.0                 !
 ! D3    D(2,1,6,5)            -90.0            -DE/DX =    0.0                 !
 ! D4    D(2,1,7,5)             90.0            -DE/DX =    0.0                 !
 ! D5    D(3,1,6,4)             90.0            -DE/DX =    0.0                 !
 ! D6    D(3,1,7,4)            -90.0            -DE/DX =    0.0                 !
 ! D7    D(4,1,6,5)             90.0            -DE/DX =    0.0                 !
 ! D8    D(4,1,7,5)            -90.0            -DE/DX =    0.0                 !
 --------------------------------------------------------------------------------
 GradGradGradGradGradGradGradGradGradGradGradGradGradGradGradGradGradGrad

 Dipole is zero, so no output in dipole orientation.

 ----------------------------------------------------------------------

 Electric dipole moment (input orientation):
 (Debye = 10**-18 statcoulomb cm , SI units = C m)
                  (au)            (Debye)         (10**-30 SI)
   Tot        0.000000D+00      0.000000D+00      0.000000D+00
   x          0.000000D+00      0.000000D+00      0.000000D+00
   y          0.000000D+00      0.000000D+00      0.000000D+00
   z          0.000000D+00      0.000000D+00      0.000000D+00

 Dipole polarizability, Alpha (input orientation).
 (esu units = cm**3 , SI units = C**2 m**2 J**-1)
 Alpha(0;0):
               (au)            (10**-24 esu)      (10**-40 SI)
   iso        0.597337D+02      0.885162D+01      0.984875D+01
   aniso      0.214071D+00      0.317221D-01      0.352956D-01
   xx         0.596623D+02      0.884104D+01      0.983699D+01
   yx         0.000000D+00      0.000000D+00      0.000000D+00
   yy         0.596623D+02      0.884104D+01      0.983699D+01
   zx         0.000000D+00      0.000000D+00      0.000000D+00
   zy         0.000000D+00      0.000000D+00      0.000000D+00
   zz         0.598764D+02      0.887277D+01      0.987228D+01

 ----------------------------------------------------------------------
 Unable to Open any file for archive entry.
 1\1\GINC-TCOPT10\Freq\UTPSSTPSS\def2QZVPP\F6Rh1(2)\HUTTER\01-Aug-2021\
 0\\#N Geom=AllCheck Guess=TCheck SCRF=Check GenChk UTPSSTPSS/def2QZVPP
  Freq\\Mol job 1\\0,2\Rh,8.5,8.5,8.5\F,9.8061805352,7.1938194648,8.5\F
 ,9.8061805352,9.8061805352,8.5\F,7.1938194648,9.8061805352,8.5\F,7.193
 8194648,7.1938194648,8.5\F,8.5,8.5,10.3437657016\F,8.5,8.5,6.656234298
 4\\Version=ES64L-G16RevC.01\State=2-B2G\HF=-709.8752037\S2=1.753768\S2
 -1=0.\S2A=0.762608\RMSD=1.582e-10\RMSF=4.469e-05\ZeroPoint=0.0139507\T
 hermal=0.0220425\ETot=-709.8531611\HTot=-709.8522169\GTot=-709.8929719
 \Dipole=0.,0.,0.\DipoleDeriv=2.4303762,0.,0.,0.,2.4303762,0.,0.,0.,2.4
 392143,-0.509695,0.2930184,0.,0.2930184,-0.509695,0.,0.,0.,-0.2071587,
 -0.509695,-0.2930184,0.,-0.2930184,-0.509695,0.,0.,0.,-0.2071587,-0.50
 9695,0.2930184,0.,0.2930184,-0.509695,0.,0.,0.,-0.2071587,-0.509695,-0
 .2930184,0.,-0.2930184,-0.509695,0.,0.,0.,-0.2071587,-0.195798,0.,0.,0
 .,-0.195798,0.,0.,0.,-0.8052897,-0.195798,0.,0.,0.,-0.195798,0.,0.,0.,
 -0.8052897\Polar=59.662317,0.,59.662317,0.,0.,59.8763881\Quadrupole=-0
 .0483846,-0.0483846,0.0967692,0.,0.,0.\PG=D04H [O(Rh1),C4(F1.F1),2C2'(
 F1.F1)]\NImag=0\\0.61739157,0.,0.61739157,0.,0.,0.62466159,-0.13801426
 ,0.10370124,0.,0.14328011,0.10370124,-0.13801426,0.,-0.11443563,0.1432
 8011,0.,0.,-0.03370880,0.,0.,0.02883251,-0.13801426,-0.10370124,0.,0.0
 0672512,0.00352385,0.,0.14328011,-0.10370124,-0.13801426,0.,-0.0035238
 5,-0.01149270,0.,0.11443563,0.14328011,0.,0.,-0.03370880,0.,0.,0.00317
 089,0.,0.,0.02883251,-0.13801426,0.10370124,0.,-0.00087010,0.00427226,
 0.,-0.01149270,0.00352385,0.,0.14328011,0.10370124,-0.13801426,0.,0.00
 427226,-0.00087010,0.,-0.00352385,0.00672512,0.,-0.11443563,0.14328011
 ,0.,0.,-0.03370880,0.,0.,0.00384840,0.,0.,0.00317089,0.,0.,0.02883251,
 -0.13801426,-0.10370124,0.,-0.01149270,-0.00352385,0.,-0.00087010,-0.0
 0427226,0.,0.00672512,0.00352385,0.,0.14328011,-0.10370124,-0.13801426
 ,0.,0.00352385,0.00672512,0.,-0.00427226,-0.00087010,0.,-0.00352385,-0
 .01149270,0.,0.11443563,0.14328011,0.,0.,-0.03370880,0.,0.,0.00317089,
 0.,0.,0.00384840,0.,0.,0.00317089,0.,0.,0.02883251,-0.03266725,0.,0.,0
 .00018592,0.00323106,0.00878920,0.00018592,-0.00323106,0.00878920,0.00
 018592,0.00323106,-0.00878920,0.00018591,-0.00323106,-0.00878920,0.028
 51399,0.,-0.03266725,0.,0.00323106,0.00018592,-0.00878920,-0.00323106,
 0.00018591,0.00878920,0.00323106,0.00018592,0.00878920,-0.00323106,0.0
 0018592,-0.00878920,0.,0.02851399,0.,0.,-0.24491319,0.00483006,-0.0048
 3006,-0.00265694,0.00483006,0.00483006,-0.00265694,-0.00483006,0.00483
 006,-0.00265694,-0.00483006,-0.00483006,-0.00265694,0.,0.,0.26059984,-
 0.03266725,0.,0.,0.00018592,0.00323106,-0.00878920,0.00018592,-0.00323
 106,-0.00878920,0.00018592,0.00323106,0.00878920,0.00018591,-0.0032310
 6,0.00878920,0.00340960,0.,0.,0.02851399,0.,-0.03266725,0.,0.00323106,
 0.00018592,0.00878920,-0.00323106,0.00018591,-0.00878920,0.00323106,0.
 00018592,-0.00878920,-0.00323106,0.00018592,0.00878920,0.,0.00340960,0
 .,0.,0.02851399,0.,0.,-0.24491319,-0.00483006,0.00483006,-0.00265694,-
 0.00483006,-0.00483006,-0.00265694,0.00483006,-0.00483006,-0.00265694,
 0.00483006,0.00483006,-0.00265694,0.,0.,-0.00505888,0.,0.,0.26059984\\
 0.,0.,0.,-0.00007134,0.00007134,0.,-0.00007134,-0.00007134,0.,0.000071
 34,-0.00007134,0.,0.00007134,0.00007134,0.,0.,0.,-0.00002476,0.,0.,0.0
 0002476\\\@
 The archive entry for this job was punched.


 SIC AS THE CAWSE OF EWERY THING IS, SIC WILBE THE EFFECT.
 -- PROVERBS AND REASONS OF THE YEAR 1585
           AS REPRINTED IN PAISLEY MAGAZINE 1828.
 Job cpu time:       0 days  2 hours 24 minutes 14.8 seconds.
 Elapsed time:       0 days  0 hours  9 minutes  2.0 seconds.
 File lengths (MBytes):  RWF=    205 Int=      0 D2E=      0 Chk=     21 Scr=      1
 Normal termination of Gaussian 16 at Sun Aug  1 02:56:53 2021.
