 Entering Gaussian System, Link 0=g16
 Initial command:
 /sw-ng/spack/opt/spack/linux-opensuse_leap15-sandybridge/pgi-18.10/gaussian-src-16-C.01-zldqaomctopxhethwccpmxmwefdscg3m/g16/l1.exe "/data/hutter/SMG16/TPSS/Gau-83136.inp" -scrdir="/data/hutter/SMG16/TPSS/"
 Entering Link 1 = /sw-ng/spack/opt/spack/linux-opensuse_leap15-sandybridge/pgi-18.10/gaussian-src-16-C.01-zldqaomctopxhethwccpmxmwefdscg3m/g16/l1.exe PID=     83140.
  
 Copyright (c) 1988-2019, Gaussian, Inc.  All Rights Reserved.
  
 This is part of the Gaussian(R) 16 program.  It is based on
 the Gaussian(R) 09 system (copyright 2009, Gaussian, Inc.),
 the Gaussian(R) 03 system (copyright 2003, Gaussian, Inc.),
 the Gaussian(R) 98 system (copyright 1998, Gaussian, Inc.),
 the Gaussian(R) 94 system (copyright 1995, Gaussian, Inc.),
 the Gaussian 92(TM) system (copyright 1992, Gaussian, Inc.),
 the Gaussian 90(TM) system (copyright 1990, Gaussian, Inc.),
 the Gaussian 88(TM) system (copyright 1988, Gaussian, Inc.),
 the Gaussian 86(TM) system (copyright 1986, Carnegie Mellon
 University), and the Gaussian 82(TM) system (copyright 1983,
 Carnegie Mellon University). Gaussian is a federally registered
 trademark of Gaussian, Inc.
  
 This software contains proprietary and confidential information,
 including trade secrets, belonging to Gaussian, Inc.
  
 This software is provided under written license and may be
 used, copied, transmitted, or stored only in accord with that
 written license.
  
 The following legend is applicable only to US Government
 contracts under FAR:
  
                    RESTRICTED RIGHTS LEGEND
  
 Use, reproduction and disclosure by the US Government is
 subject to restrictions as set forth in subparagraphs (a)
 and (c) of the Commercial Computer Software - Restricted
 Rights clause in FAR 52.227-19.
  
 Gaussian, Inc.
 340 Quinnipiac St., Bldg. 40, Wallingford CT 06492
  
  
 ---------------------------------------------------------------
 Warning -- This program may not be used in any manner that
 competes with the business of Gaussian, Inc. or will provide
 assistance to any competitor of Gaussian, Inc.  The licensee
 of this program is prohibited from giving any competitor of
 Gaussian, Inc. access to this program.  By using this program,
 the user acknowledges that Gaussian, Inc. is engaged in the
 business of creating and licensing software in the field of
 computational chemistry and represents and warrants to the
 licensee that it is not a competitor of Gaussian, Inc. and that
 it will not use this program in any manner prohibited above.
 ---------------------------------------------------------------
  

 Cite this work as:
 Gaussian 16, Revision C.01,
 M. J. Frisch, G. W. Trucks, H. B. Schlegel, G. E. Scuseria, 
 M. A. Robb, J. R. Cheeseman, G. Scalmani, V. Barone, 
 G. A. Petersson, H. Nakatsuji, X. Li, M. Caricato, A. V. Marenich, 
 J. Bloino, B. G. Janesko, R. Gomperts, B. Mennucci, H. P. Hratchian, 
 J. V. Ortiz, A. F. Izmaylov, J. L. Sonnenberg, D. Williams-Young, 
 F. Ding, F. Lipparini, F. Egidi, J. Goings, B. Peng, A. Petrone, 
 T. Henderson, D. Ranasinghe, V. G. Zakrzewski, J. Gao, N. Rega, 
 G. Zheng, W. Liang, M. Hada, M. Ehara, K. Toyota, R. Fukuda, 
 J. Hasegawa, M. Ishida, T. Nakajima, Y. Honda, O. Kitao, H. Nakai, 
 T. Vreven, K. Throssell, J. A. Montgomery, Jr., J. E. Peralta, 
 F. Ogliaro, M. J. Bearpark, J. J. Heyd, E. N. Brothers, K. N. Kudin, 
 V. N. Staroverov, T. A. Keith, R. Kobayashi, J. Normand, 
 K. Raghavachari, A. P. Rendell, J. C. Burant, S. S. Iyengar, 
 J. Tomasi, M. Cossi, J. M. Millam, M. Klene, C. Adamo, R. Cammi, 
 J. W. Ochterski, R. L. Martin, K. Morokuma, O. Farkas, 
 J. B. Foresman, and D. J. Fox, Gaussian, Inc., Wallingford CT, 2019.
 
 ******************************************
 Gaussian 16:  ES64L-G16RevC.01  3-Jul-2019
                31-Jul-2021 
 ******************************************
 %mem=8GB
 %NProcShare=8
 Will use up to    8 processors via shared memory.
 -------------------------------------------------------------
 #N RTPSSTPSS/Def2QZVPP scf=tight Int(Grid=ultrafine) OPT FREQ
 -------------------------------------------------------------
 1/18=20,19=15,26=4,38=1/1,3;
 2/9=110,12=2,17=6,18=5,40=1/2;
 3/5=45,7=202,11=2,25=1,30=1,71=1,74=2523,75=-5,116=1/1,2,3;
 4//1;
 5/5=2,32=2,38=5/2;
 6/7=2,8=2,9=2,10=2,28=1/1;
 7//1,2,3,16;
 1/18=20,19=15,26=4/3(2);
 2/9=110/2;
 99//99;
 2/9=110/2;
 3/5=45,7=202,11=2,25=1,30=1,71=1,74=2523,75=-5,116=1/1,2,3;
 4/5=5,16=3,69=1/1;
 5/5=2,32=2,38=5/2;
 7//1,2,3,16;
 1/18=20,19=15,26=4/3(-5);
 2/9=110/2;
 6/7=2,8=2,9=2,10=2,19=2,28=1/1;
 99/9=1/99;
 ---------
 Mol job 1
 ---------
 Symbolic Z-matrix:
 Charge =  0 Multiplicity = 1
 Al                    8.39982   8.        8. 
 H                     9.19947   6.61497   8. 
 H                     9.19947   9.38503   8. 
 H                     6.80053   8.        8. 
 

 GradGradGradGradGradGradGradGradGradGradGradGradGradGradGradGradGradGrad
 Berny optimization.
 Initialization pass.
                           ----------------------------
                           !    Initial Parameters    !
                           ! (Angstroms and Degrees)  !
 --------------------------                            --------------------------
 ! Name  Definition              Value          Derivative Info.                !
 --------------------------------------------------------------------------------
 ! R1    R(1,2)                  1.5993         estimate D2E/DX2                !
 ! R2    R(1,3)                  1.5993         estimate D2E/DX2                !
 ! R3    R(1,4)                  1.5993         estimate D2E/DX2                !
 ! A1    A(2,1,3)              120.0            estimate D2E/DX2                !
 ! A2    A(2,1,4)              120.0            estimate D2E/DX2                !
 ! A3    A(3,1,4)              120.0            estimate D2E/DX2                !
 ! D1    D(2,1,4,3)            180.0            estimate D2E/DX2                !
 --------------------------------------------------------------------------------
 Trust Radius=3.00D-01 FncErr=1.00D-07 GrdErr=1.00D-06 EigMax=2.50D+02 EigMin=1.00D-04
 Number of steps in this run=     20 maximum allowed number of steps=    100.
 GradGradGradGradGradGradGradGradGradGradGradGradGradGradGradGradGradGrad

                          Input orientation:                          
 ---------------------------------------------------------------------
 Center     Atomic      Atomic             Coordinates (Angstroms)
 Number     Number       Type             X           Y           Z
 ---------------------------------------------------------------------
      1         13           0        8.399823    8.000000    8.000000
      2          1           0        9.199468    6.614974    8.000000
      3          1           0        9.199468    9.385026    8.000000
      4          1           0        6.800532    8.000000    8.000000
 ---------------------------------------------------------------------
                    Distance matrix (angstroms):
                    1          2          3          4
     1  Al   0.000000
     2  H    1.599290   0.000000
     3  H    1.599290   2.770052   0.000000
     4  H    1.599290   2.770052   2.770052   0.000000
 Stoichiometry    AlH3
 Framework group  D3H[O(Al),3C2(H)]
 Deg. of freedom     1
 Full point group                 D3H     NOp  12
 Largest Abelian subgroup         C2V     NOp   4
 Largest concise Abelian subgroup C2      NOp   2
                         Standard orientation:                         
 ---------------------------------------------------------------------
 Center     Atomic      Atomic             Coordinates (Angstroms)
 Number     Number       Type             X           Y           Z
 ---------------------------------------------------------------------
      1         13           0        0.000000    0.000000    0.000000
      2          1           0       -0.000000    1.599290    0.000000
      3          1           0        1.385026   -0.799645    0.000000
      4          1           0       -1.385026   -0.799645   -0.000000
 ---------------------------------------------------------------------
 Rotational constants (GHZ):         130.7032004         130.7032004          65.3516002
 Standard basis: def2QZVPP (5D, 7F)
 There are    79 symmetry adapted cartesian basis functions of A1  symmetry.
 There are    23 symmetry adapted cartesian basis functions of A2  symmetry.
 There are    51 symmetry adapted cartesian basis functions of B1  symmetry.
 There are    38 symmetry adapted cartesian basis functions of B2  symmetry.
 There are    63 symmetry adapted basis functions of A1  symmetry.
 There are    21 symmetry adapted basis functions of A2  symmetry.
 There are    43 symmetry adapted basis functions of B1  symmetry.
 There are    33 symmetry adapted basis functions of B2  symmetry.
   160 basis functions,   235 primitive gaussians,   191 cartesian basis functions
     8 alpha electrons        8 beta electrons
       nuclear repulsion energy        13.4775242505 Hartrees.
 NAtoms=    4 NActive=    4 NUniq=    2 SFac= 4.00D+00 NAtFMM=   60 NAOKFM=F Big=F
 Integral buffers will be    131072 words long.
 Raffenetti 2 integral format.
 Two-electron integral symmetry is turned on.
 One-electron integrals computed using PRISM.
  12 Symmetry operations used in ECPInt.
 ECPInt:  NShTT=    1378 NPrTT=    3335 LenC2=    1379 LenP2D=    3131.
 LDataN:  DoStor=T MaxTD1= 8 Len=  415
 NBasis=   160 RedAO= T EigKep=  3.13D-04  NBF=    63    21    43    33
 NBsUse=   160 1.00D-06 EigRej= -1.00D+00 NBFU=    63    21    43    33
 ExpMin= 3.62D-02 ExpMax= 7.55D+05 ExpMxC= 8.58D+02 IAcc=3 IRadAn=         5 AccDes= 0.00D+00
 Harris functional with IExCor= 1009 and IRadAn=       5 diagonalized for initial guess.
 HarFok:  IExCor= 1009 AccDes= 0.00D+00 IRadAn=         5 IDoV= 1 UseB2=F ITyADJ=14
 ICtDFT=  3500011 ScaDFX=  1.000000  1.000000  1.000000  1.000000
 FoFCou: FMM=F IPFlag=           0 FMFlag=      100000 FMFlg1=           0
         NFxFlg=           0 DoJE=T BraDBF=F KetDBF=T FulRan=T
         wScrn=  0.000000 ICntrl=       500 IOpCl=  0 I1Cent=   200000004 NGrid=           0
         NMat0=    1 NMatS0=      1 NMatT0=    0 NMatD0=    1 NMtDS0=    0 NMtDT0=    0
 Petite list used in FoFCou.
 Initial guess orbital symmetries:
       Occupied  (A1') (A1') (E') (E') (A2") (A1') (E') (E')
       Virtual   (A2") (A1') (E') (E') (A1') (E') (E') (A2") (E")
                 (E") (A1') (E') (E') (A1') (E') (E') (A2') (E")
                 (E") (E') (E') (A2") (E") (E") (A1') (A2") (A1')
                 (E') (E') (E') (E') (A1') (E') (E') (A2") (E")
                 (E") (A1') (E') (E') (A2') (E') (E') (E") (E")
                 (A1') (E') (E') (A1') (A2') (A1") (E") (E") (A2")
                 (E') (E') (A1') (E') (E') (E") (E") (A2") (E')
                 (E') (A1') (A2") (E") (E") (E') (E') (A1') (E")
                 (E") (A2") (E') (E') (A1") (E') (E') (A2') (A1')
                 (E') (E') (E") (E") (A1') (A2") (A2') (E') (E')
                 (E') (E') (A1') (E") (E") (E') (E') (A1') (A1')
                 (E') (E') (A2') (E") (E") (A2") (E") (E") (E')
                 (E') (E') (E') (A1') (A2") (A1") (E") (E") (E')
                 (E') (A2') (E') (E') (A1') (A2") (E") (E") (E')
                 (E') (A2") (A2') (E") (E") (E') (E') (A1') (A1")
                 (E') (E') (E") (E") (A2") (A1') (A2') (E') (E')
                 (E') (E') (A1') (E') (E') (A1') (A1') (A1')
 The electronic state of the initial guess is 1-A1'.
 Keep J ints in memory in symmetry-blocked form, NReq=104031662.
 Requested convergence on RMS density matrix=1.00D-08 within 128 cycles.
 Requested convergence on MAX density matrix=1.00D-06.
 Requested convergence on             energy=1.00D-06.
 No special actions if energy rises.
 SCF Done:  E(RTPSS-TPSS) =  -244.238670939     A.U. after    8 cycles
            NFock=  8  Conv=0.25D-08     -V/T= 2.0025

 **********************************************************************

            Population analysis using the SCF Density.

 **********************************************************************

 Orbital symmetries:
       Occupied  (A1') (A1') (A2") (E') (E') (A1') (E') (E')
       Virtual   (A2") (A1') (E') (E') (A1') (E') (E') (A2") (E")
                 (E") (A1') (E') (E') (A1') (E') (E') (A2') (E")
                 (E") (E') (E') (A2") (E") (E") (A2") (A1') (A1')
                 (E') (E') (E') (E') (A1') (E') (E') (A2") (E")
                 (E") (A1') (E') (E') (A2') (E') (E') (E") (E")
                 (A1') (E') (E') (A1') (A1") (A2') (E") (E") (A2")
                 (E') (E') (E') (E') (A1') (E") (E") (A2") (E')
                 (E') (A1') (A2") (E") (E") (E') (E') (A1') (E")
                 (E") (A2") (E') (E') (A1") (E') (E') (A1') (A2')
                 (E') (E') (E") (E") (A1') (A2") (A2') (E') (E')
                 (E') (E') (A1') (E") (E") (E') (E') (A1') (A2')
                 (E") (E") (E') (E') (A2") (A1') (E") (E") (E')
                 (E') (E') (E') (A1') (A2") (A1") (E") (E") (E')
                 (E') (E') (E') (A2') (A1') (A2") (E') (E') (E")
                 (E") (A2") (E') (E') (E") (E") (A2') (A1') (A1")
                 (E') (E') (E") (E") (A2") (E') (E') (A1') (A2')
                 (E') (E') (A1') (E') (E') (A1') (A1') (A1')
 The electronic state is 1-A1'.
 Alpha  occ. eigenvalues --  -55.62205  -3.98593  -2.56187  -2.55039  -2.55039
 Alpha  occ. eigenvalues --   -0.38393  -0.27724  -0.27724
 Alpha virt. eigenvalues --   -0.08561   0.01482   0.02377   0.02377   0.04533
 Alpha virt. eigenvalues --    0.06799   0.06799   0.07860   0.09234   0.09234
 Alpha virt. eigenvalues --    0.19277   0.20156   0.20156   0.24296   0.29041
 Alpha virt. eigenvalues --    0.29041   0.38505   0.39899   0.39899   0.42214
 Alpha virt. eigenvalues --    0.42214   0.42998   0.43737   0.43737   0.47456
 Alpha virt. eigenvalues --    0.48214   0.52223   0.52957   0.52957   0.60932
 Alpha virt. eigenvalues --    0.60932   0.68180   0.77431   0.77431   0.77533
 Alpha virt. eigenvalues --    0.82111   0.82111   0.98068   1.06069   1.06069
 Alpha virt. eigenvalues --    1.07233   1.17687   1.17687   1.23516   1.23516
 Alpha virt. eigenvalues --    1.26598   1.30534   1.30534   1.39468   1.44372
 Alpha virt. eigenvalues --    1.44607   1.46540   1.46540   1.46895   1.58718
 Alpha virt. eigenvalues --    1.58718   1.65376   1.65376   1.66177   1.74089
 Alpha virt. eigenvalues --    1.74089   1.78598   1.88806   1.88806   1.90734
 Alpha virt. eigenvalues --    1.97849   2.14779   2.14779   2.18545   2.18545
 Alpha virt. eigenvalues --    2.34141   2.50461   2.50461   2.52539   2.52726
 Alpha virt. eigenvalues --    2.52726   2.56641   2.63545   2.63545   2.72096
 Alpha virt. eigenvalues --    2.72609   2.84384   2.84384   2.92325   2.92325
 Alpha virt. eigenvalues --    3.09915   3.10452   3.21295   3.22762   3.22762
 Alpha virt. eigenvalues --    3.54325   3.54325   3.91001   4.27533   4.27533
 Alpha virt. eigenvalues --    4.54797   4.54797   4.57480   5.94935   5.95896
 Alpha virt. eigenvalues --    5.95896   5.97784   5.97784   6.01165   6.04070
 Alpha virt. eigenvalues --    6.13412   6.13412   6.18636   6.18636   6.23381
 Alpha virt. eigenvalues --    6.23381   6.25987   6.37390   6.44863   6.50119
 Alpha virt. eigenvalues --    6.50119   6.51734   6.51734   6.64863   6.64863
 Alpha virt. eigenvalues --    6.66066   6.70443   7.43102   8.06374   8.06374
 Alpha virt. eigenvalues --    8.08238   8.08238   8.10259   8.29250   8.29250
 Alpha virt. eigenvalues --    8.31060   8.31060   8.31113   8.41967   8.42689
 Alpha virt. eigenvalues --    8.55088   8.55088   8.90402   8.90402   8.91830
 Alpha virt. eigenvalues --    8.98109   8.98109   8.98792   9.01704   9.20626
 Alpha virt. eigenvalues --    9.20626   9.38953   9.45933   9.45933  12.85179
 Alpha virt. eigenvalues --   45.92901 254.93216
          Condensed to atoms (all electrons):
               1          2          3          4
     1  Al  11.162753   0.396677   0.396677   0.396677
     2  H    0.396677   0.850761  -0.015849  -0.015849
     3  H    0.396677  -0.015849   0.850761  -0.015849
     4  H    0.396677  -0.015849  -0.015849   0.850761
 Mulliken charges:
               1
     1  Al   0.647218
     2  H   -0.215739
     3  H   -0.215739
     4  H   -0.215739
 Sum of Mulliken charges =  -0.00000
 Mulliken charges with hydrogens summed into heavy atoms:
               1
     1  Al  -0.000000
 Electronic spatial extent (au):  <R**2>=             63.2854
 Charge=             -0.0000 electrons
 Dipole moment (field-independent basis, Debye):
    X=              0.0000    Y=             -0.0000    Z=             -0.0000  Tot=              0.0000
 Quadrupole moment (field-independent basis, Debye-Ang):
   XX=            -18.2682   YY=            -18.2682   ZZ=            -11.7286
   XY=              0.0000   XZ=              0.0000   YZ=             -0.0000
 Traceless Quadrupole moment (field-independent basis, Debye-Ang):
   XX=             -2.1799   YY=             -2.1799   ZZ=              4.3597
   XY=              0.0000   XZ=              0.0000   YZ=             -0.0000
 Octapole moment (field-independent basis, Debye-Ang**2):
  XXX=              0.0000  YYY=             -2.8556  ZZZ=             -0.0000  XYY=              0.0000
  XXY=              2.8556  XXZ=             -0.0000  XZZ=              0.0000  YZZ=              0.0000
  YYZ=             -0.0000  XYZ=             -0.0000
 Hexadecapole moment (field-independent basis, Debye-Ang**3):
 XXXX=            -62.9230 YYYY=            -62.9230 ZZZZ=            -14.9286 XXXY=              0.0000
 XXXZ=              0.0000 YYYX=              0.0000 YYYZ=             -0.0000 ZZZX=              0.0000
 ZZZY=             -0.0000 XXYY=            -20.9743 XXZZ=            -12.7478 YYZZ=            -12.7478
 XXYZ=             -0.0000 YYXZ=              0.0000 ZZXY=              0.0000
 N-N= 1.347752425047D+01 E-N=-6.091731870781D+02  KE= 2.436338559263D+02
 Symmetry A1   KE= 2.027980802220D+02
 Symmetry A2   KE=-1.881946366899D-22
 Symmetry B1   KE= 2.116032291979D+01
 Symmetry B2   KE= 1.967545278445D+01
  12 Symmetry operations used in ECPInt.
 ECPInt:  NShTT=    1378 NPrTT=    3335 LenC2=    1379 LenP2D=    3131.
 LDataN:  DoStor=T MaxTD1= 9 Len=  602
 Calling FoFJK, ICntrl=      2527 FMM=F ISym2X=1 I1Cent= 0 IOpClX= 0 NMat=1 NMatS=1 NMatT=0.
 ***** Axes restored to original set *****
 -------------------------------------------------------------------
 Center     Atomic                   Forces (Hartrees/Bohr)
 Number     Number              X              Y              Z
 -------------------------------------------------------------------
      1       13          -0.000000000   -0.000000000   -0.000000000
      2        1          -0.002074215    0.003592646    0.000000000
      3        1          -0.002074215   -0.003592646   -0.000000000
      4        1           0.004148430    0.000000000    0.000000000
 -------------------------------------------------------------------
 Cartesian Forces:  Max     0.004148430 RMS     0.002074215

 GradGradGradGradGradGradGradGradGradGradGradGradGradGradGradGradGradGrad
 Berny optimization.
 FormGI is forming the generalized inverse of G from B-inverse, IUseBI=4.
 Internal  Forces:  Max     0.004148430 RMS     0.002715785
 Search for a local minimum.
 Step number   1 out of a maximum of   20
 All quantities printed in internal units (Hartrees-Bohrs-Radians)
 Mixed Optimization -- RFO/linear search
 Second derivative matrix not updated -- first step.
 The second derivative matrix:
                          R1        R2        R3        A1        A2
           R1           0.13155
           R2           0.00000   0.13155
           R3           0.00000   0.00000   0.13155
           A1           0.00000   0.00000   0.00000   0.16000
           A2           0.00000   0.00000   0.00000   0.00000   0.16000
           A3           0.00000   0.00000   0.00000   0.00000   0.00000
           D1           0.00000   0.00000   0.00000   0.00000   0.00000
                          A3        D1
           A3           0.16000
           D1           0.00000   0.00511
 ITU=  0
     Eigenvalues ---    0.00511   0.13155   0.13155   0.13155   0.16000
     Eigenvalues ---    0.16000
 RFO step:  Lambda=-3.91297730D-04 EMin= 5.11129089D-03
 Linear search not attempted -- first point.
 Iteration  1 RMS(Cart)=  0.02058343 RMS(Int)=  0.00000000
 Iteration  2 RMS(Cart)=  0.00000000 RMS(Int)=  0.00000000
 ClnCor:  largest displacement from symmetrization is 4.31D-12 for atom     1.
 Variable       Old X    -DE/DX   Delta X   Delta X   Delta X     New X
                                 (Linear)    (Quad)   (Total)
    R1        3.02222  -0.00415   0.00000  -0.03144  -0.03144   2.99078
    R2        3.02222  -0.00415   0.00000  -0.03144  -0.03144   2.99078
    R3        3.02222  -0.00415   0.00000  -0.03144  -0.03144   2.99078
    A1        2.09440  -0.00000   0.00000  -0.00000   0.00000   2.09440
    A2        2.09440   0.00000   0.00000   0.00000   0.00000   2.09440
    A3        2.09440  -0.00000   0.00000  -0.00000  -0.00000   2.09440
    D1        3.14159  -0.00000   0.00000  -0.00000   0.00000   3.14159
         Item               Value     Threshold  Converged?
 Maximum Force            0.004148     0.000450     NO 
 RMS     Force            0.002716     0.000300     NO 
 Maximum Displacement     0.031442     0.001800     NO 
 RMS     Displacement     0.020583     0.001200     NO 
 Predicted change in Energy=-1.962308D-04
 GradGradGradGradGradGradGradGradGradGradGradGradGradGradGradGradGradGrad

                          Input orientation:                          
 ---------------------------------------------------------------------
 Center     Atomic      Atomic             Coordinates (Angstroms)
 Number     Number       Type             X           Y           Z
 ---------------------------------------------------------------------
      1         13           0        8.399823    8.000000    8.000000
      2          1           0        9.191149    6.629383    8.000000
      3          1           0        9.191149    9.370617    8.000000
      4          1           0        6.817171    8.000000    8.000000
 ---------------------------------------------------------------------
                    Distance matrix (angstroms):
                    1          2          3          4
     1  Al   0.000000
     2  H    1.582652   0.000000
     3  H    1.582652   2.741234   0.000000
     4  H    1.582652   2.741234   2.741234   0.000000
 Stoichiometry    AlH3
 Framework group  D3H[O(Al),3C2(H)]
 Deg. of freedom     1
 Full point group                 D3H     NOp  12
 Largest Abelian subgroup         C2V     NOp   4
 Largest concise Abelian subgroup C2      NOp   2
                         Standard orientation:                         
 ---------------------------------------------------------------------
 Center     Atomic      Atomic             Coordinates (Angstroms)
 Number     Number       Type             X           Y           Z
 ---------------------------------------------------------------------
      1         13           0        0.000000    0.000000    0.000000
      2          1           0       -0.000000    1.582652    0.000000
      3          1           0        1.370617   -0.791326    0.000000
      4          1           0       -1.370617   -0.791326   -0.000000
 ---------------------------------------------------------------------
 Rotational constants (GHZ):         133.4657806         133.4657806          66.7328903
 Standard basis: def2QZVPP (5D, 7F)
 There are    79 symmetry adapted cartesian basis functions of A1  symmetry.
 There are    23 symmetry adapted cartesian basis functions of A2  symmetry.
 There are    51 symmetry adapted cartesian basis functions of B1  symmetry.
 There are    38 symmetry adapted cartesian basis functions of B2  symmetry.
 There are    63 symmetry adapted basis functions of A1  symmetry.
 There are    21 symmetry adapted basis functions of A2  symmetry.
 There are    43 symmetry adapted basis functions of B1  symmetry.
 There are    33 symmetry adapted basis functions of B2  symmetry.
   160 basis functions,   235 primitive gaussians,   191 cartesian basis functions
     8 alpha electrons        8 beta electrons
       nuclear repulsion energy        13.6192118835 Hartrees.
 NAtoms=    4 NActive=    4 NUniq=    2 SFac= 4.00D+00 NAtFMM=   60 NAOKFM=F Big=F
 Integral buffers will be    131072 words long.
 Raffenetti 2 integral format.
 Two-electron integral symmetry is turned on.
 One-electron integrals computed using PRISM.
  12 Symmetry operations used in ECPInt.
 ECPInt:  NShTT=    1378 NPrTT=    3335 LenC2=    1379 LenP2D=    3137.
 LDataN:  DoStor=T MaxTD1= 8 Len=  415
 NBasis=   160 RedAO= T EigKep=  3.00D-04  NBF=    63    21    43    33
 NBsUse=   160 1.00D-06 EigRej= -1.00D+00 NBFU=    63    21    43    33
 Initial guess from the checkpoint file:  "/data/hutter/SMG16/TPSS/Gau-83140.chk"
 B after Tr=     0.000000    0.000000   -0.000000
         Rot=    1.000000   -0.000000   -0.000000    0.000000 Ang=   0.00 deg.
 Initial guess orbital symmetries:
       Occupied  (A1') (A1') (A2") (E') (E') (A1') (E') (E')
       Virtual   (A2") (A1') (E') (E') (A1') (E') (E') (A2") (E")
                 (E") (A1') (E') (E') (A1') (E') (E') (A2') (E")
                 (E") (E') (E') (A2") (E") (E") (A2") (A1') (A1')
                 (E') (E') (E') (E') (A1') (E') (E') (A2") (E")
                 (E") (A1') (E') (E') (A2') (E') (E') (E") (E")
                 (A1') (E') (E') (A1') (A1") (A2') (E") (E") (A2")
                 (E') (E') (E') (E') (A1') (E") (E") (A2") (E')
                 (E') (A1') (A2") (E") (E") (E') (E') (A1') (E")
                 (E") (A2") (E') (E') (A1") (E') (E') (A1') (A2')
                 (E') (E') (E") (E") (A1') (A2") (A2') (E') (E')
                 (E') (E') (A1') (E") (E") (E') (E') (A1') (A2')
                 (E") (E") (E') (E') (A2") (A1') (E") (E") (E')
                 (E') (E') (E') (A1') (A2") (A1") (E") (E") (E')
                 (E') (E') (E') (A2') (A1') (A2") (E') (E') (E")
                 (E") (A2") (E') (E') (E") (E") (A2') (A1') (A1")
                 (E') (E') (E") (E") (A2") (E') (E') (A1') (A2')
                 (E') (E') (A1') (E') (E') (A1') (A1') (A1')
 ExpMin= 3.62D-02 ExpMax= 7.55D+05 ExpMxC= 8.58D+02 IAcc=3 IRadAn=         5 AccDes= 0.00D+00
 Harris functional with IExCor= 1009 and IRadAn=       5 diagonalized for initial guess.
 HarFok:  IExCor= 1009 AccDes= 0.00D+00 IRadAn=         5 IDoV= 1 UseB2=F ITyADJ=14
 ICtDFT=  3500011 ScaDFX=  1.000000  1.000000  1.000000  1.000000
 FoFCou: FMM=F IPFlag=           0 FMFlag=      100000 FMFlg1=           0
         NFxFlg=           0 DoJE=T BraDBF=F KetDBF=T FulRan=T
         wScrn=  0.000000 ICntrl=       500 IOpCl=  0 I1Cent=   200000004 NGrid=           0
         NMat0=    1 NMatS0=      1 NMatT0=    0 NMatD0=    1 NMtDS0=    0 NMtDT0=    0
 Petite list used in FoFCou.
 Keep J ints in memory in symmetry-blocked form, NReq=104031662.
 Requested convergence on RMS density matrix=1.00D-08 within 128 cycles.
 Requested convergence on MAX density matrix=1.00D-06.
 Requested convergence on             energy=1.00D-06.
 No special actions if energy rises.
 SCF Done:  E(RTPSS-TPSS) =  -244.238860467     A.U. after    7 cycles
            NFock=  7  Conv=0.75D-09     -V/T= 2.0023
  12 Symmetry operations used in ECPInt.
 ECPInt:  NShTT=    1378 NPrTT=    3335 LenC2=    1379 LenP2D=    3137.
 LDataN:  DoStor=T MaxTD1= 9 Len=  602
 Calling FoFJK, ICntrl=      2527 FMM=F ISym2X=1 I1Cent= 0 IOpClX= 0 NMat=1 NMatS=1 NMatT=0.
 ***** Axes restored to original set *****
 -------------------------------------------------------------------
 Center     Atomic                   Forces (Hartrees/Bohr)
 Number     Number              X              Y              Z
 -------------------------------------------------------------------
      1       13          -0.000000000    0.000000000   -0.000000000
      2        1           0.000089193   -0.000154487    0.000000000
      3        1           0.000089193    0.000154487   -0.000000000
      4        1          -0.000178387    0.000000000    0.000000000
 -------------------------------------------------------------------
 Cartesian Forces:  Max     0.000178387 RMS     0.000089193

 GradGradGradGradGradGradGradGradGradGradGradGradGradGradGradGradGradGrad
 Berny optimization.
 Using GEDIIS/GDIIS optimizer.
 FormGI is forming the generalized inverse of G from B-inverse, IUseBI=4.
 Internal  Forces:  Max     0.000178387 RMS     0.000116781
 Search for a local minimum.
 Step number   2 out of a maximum of   20
 All quantities printed in internal units (Hartrees-Bohrs-Radians)
 Mixed Optimization -- En-DIIS/RFO-DIIS
 Update second derivatives using D2CorX and points    1    2
 DE= -1.90D-04 DEPred=-1.96D-04 R= 9.66D-01
 TightC=F SS=  1.41D+00  RLast= 5.45D-02 DXNew= 5.0454D-01 1.6338D-01
 Trust test= 9.66D-01 RLast= 5.45D-02 DXMaxT set to 3.00D-01
 The second derivative matrix:
                          R1        R2        R3        A1        A2
           R1           0.13357
           R2           0.00202   0.13357
           R3           0.00202   0.00202   0.13357
           A1           0.00000   0.00000   0.00000   0.16000
           A2          -0.00000  -0.00000  -0.00000  -0.00000   0.16000
           A3           0.00000   0.00000   0.00000   0.00000  -0.00000
           D1           0.00000   0.00000   0.00000   0.00000  -0.00000
                          A3        D1
           A3           0.16000
           D1           0.00000   0.00511
 ITU=  1  0
 Use linear search instead of GDIIS.
     Eigenvalues ---    0.00511   0.13155   0.13155   0.13761   0.16000
     Eigenvalues ---    0.16000
 RFO step:  Lambda= 0.00000000D+00 EMin= 5.11129089D-03
 Quartic linear search produced a step of -0.03993.
 Iteration  1 RMS(Cart)=  0.00082191 RMS(Int)=  0.00000000
 Iteration  2 RMS(Cart)=  0.00000000 RMS(Int)=  0.00000000
 ClnCor:  largest displacement from symmetrization is 4.74D-12 for atom     1.
 Variable       Old X    -DE/DX   Delta X   Delta X   Delta X     New X
                                 (Linear)    (Quad)   (Total)
    R1        2.99078   0.00018   0.00126  -0.00000   0.00126   2.99203
    R2        2.99078   0.00018   0.00126   0.00000   0.00126   2.99203
    R3        2.99078   0.00018   0.00126   0.00000   0.00126   2.99203
    A1        2.09440  -0.00000   0.00000  -0.00000   0.00000   2.09440
    A2        2.09440   0.00000  -0.00000   0.00000  -0.00000   2.09440
    A3        2.09440   0.00000   0.00000   0.00000  -0.00000   2.09440
    D1        3.14159  -0.00000   0.00000  -0.00000   0.00000   3.14159
         Item               Value     Threshold  Converged?
 Maximum Force            0.000178     0.000450     YES
 RMS     Force            0.000117     0.000300     YES
 Maximum Displacement     0.001255     0.001800     YES
 RMS     Displacement     0.000822     0.001200     YES
 Predicted change in Energy=-3.465158D-07
 Optimization completed.
    -- Stationary point found.
                           ----------------------------
                           !   Optimized Parameters   !
                           ! (Angstroms and Degrees)  !
 --------------------------                            --------------------------
 ! Name  Definition              Value          Derivative Info.                !
 --------------------------------------------------------------------------------
 ! R1    R(1,2)                  1.5827         -DE/DX =    0.0002              !
 ! R2    R(1,3)                  1.5827         -DE/DX =    0.0002              !
 ! R3    R(1,4)                  1.5827         -DE/DX =    0.0002              !
 ! A1    A(2,1,3)              120.0            -DE/DX =    0.0                 !
 ! A2    A(2,1,4)              120.0            -DE/DX =    0.0                 !
 ! A3    A(3,1,4)              120.0            -DE/DX =    0.0                 !
 ! D1    D(2,1,4,3)            180.0            -DE/DX =    0.0                 !
 --------------------------------------------------------------------------------
 GradGradGradGradGradGradGradGradGradGradGradGradGradGradGradGradGradGrad

                          Input orientation:                          
 ---------------------------------------------------------------------
 Center     Atomic      Atomic             Coordinates (Angstroms)
 Number     Number       Type             X           Y           Z
 ---------------------------------------------------------------------
      1         13           0        8.399823    8.000000    8.000000
      2          1           0        9.191149    6.629383    8.000000
      3          1           0        9.191149    9.370617    8.000000
      4          1           0        6.817171    8.000000    8.000000
 ---------------------------------------------------------------------
                    Distance matrix (angstroms):
                    1          2          3          4
     1  Al   0.000000
     2  H    1.582652   0.000000
     3  H    1.582652   2.741234   0.000000
     4  H    1.582652   2.741234   2.741234   0.000000
 Stoichiometry    AlH3
 Framework group  D3H[O(Al),3C2(H)]
 Deg. of freedom     1
 Full point group                 D3H     NOp  12
 Largest Abelian subgroup         C2V     NOp   4
 Largest concise Abelian subgroup C2      NOp   2
                         Standard orientation:                         
 ---------------------------------------------------------------------
 Center     Atomic      Atomic             Coordinates (Angstroms)
 Number     Number       Type             X           Y           Z
 ---------------------------------------------------------------------
      1         13           0        0.000000    0.000000    0.000000
      2          1           0       -0.000000    1.582652    0.000000
      3          1           0        1.370617   -0.791326    0.000000
      4          1           0       -1.370617   -0.791326   -0.000000
 ---------------------------------------------------------------------
 Rotational constants (GHZ):         133.4657806         133.4657806          66.7328903

 **********************************************************************

            Population analysis using the SCF Density.

 **********************************************************************

 Orbital symmetries:
       Occupied  (A1') (A1') (A2") (E') (E') (A1') (E') (E')
       Virtual   (A2") (A1') (E') (E') (A1') (E') (E') (A2") (E")
                 (E") (A1') (E') (E') (A1') (E') (E') (A2') (E")
                 (E") (E') (E') (A2") (E") (E") (A2") (A1') (A1')
                 (E') (E') (E') (E') (A1') (A2") (E') (E') (E")
                 (E") (A1') (E') (E') (A2') (E') (E') (E") (E")
                 (A1') (E') (E') (A1') (A1") (A2') (E") (E") (A2")
                 (E') (E') (E') (E') (A1') (E") (E") (A2") (E')
                 (E') (A1') (A2") (E") (E") (E') (E') (A1') (E")
                 (E") (A2") (E') (E') (A1") (E') (E') (A2') (A1')
                 (E') (E') (E") (E") (A1') (A2") (E') (E') (A2')
                 (E') (E') (A1') (E") (E") (E') (E') (A1') (A2')
                 (E") (E") (E') (E') (A2") (A1') (E") (E") (E')
                 (E') (E') (E') (A1') (A2") (A1") (E") (E") (E')
                 (E') (E') (E') (A2') (A1') (A2") (E') (E') (E")
                 (E") (A2") (E') (E') (E") (E") (A2') (A1') (A1")
                 (E') (E') (E") (E") (A2") (E') (E') (A1') (A2')
                 (E') (E') (A1') (E') (E') (A1') (A1') (A1')
 The electronic state is 1-A1'.
 Alpha  occ. eigenvalues --  -55.61813  -3.98288  -2.55882  -2.54731  -2.54731
 Alpha  occ. eigenvalues --   -0.38529  -0.27780  -0.27780
 Alpha virt. eigenvalues --   -0.08496   0.01855   0.02433   0.02433   0.04502
 Alpha virt. eigenvalues --    0.06880   0.06880   0.07894   0.09286   0.09286
 Alpha virt. eigenvalues --    0.19392   0.20209   0.20209   0.24491   0.29200
 Alpha virt. eigenvalues --    0.29200   0.38602   0.39934   0.39934   0.42136
 Alpha virt. eigenvalues --    0.42136   0.43122   0.43801   0.43801   0.47490
 Alpha virt. eigenvalues --    0.48407   0.51975   0.53135   0.53135   0.61401
 Alpha virt. eigenvalues --    0.61401   0.68297   0.77937   0.77950   0.77950
 Alpha virt. eigenvalues --    0.82596   0.82596   0.98532   1.06640   1.06640
 Alpha virt. eigenvalues --    1.06824   1.17192   1.17192   1.23526   1.23526
 Alpha virt. eigenvalues --    1.26842   1.30936   1.30936   1.39480   1.44596
 Alpha virt. eigenvalues --    1.45702   1.46584   1.46584   1.47081   1.59019
 Alpha virt. eigenvalues --    1.59019   1.65766   1.65766   1.66460   1.74528
 Alpha virt. eigenvalues --    1.74528   1.78732   1.89319   1.89319   1.90845
 Alpha virt. eigenvalues --    1.98336   2.15677   2.15677   2.19364   2.19364
 Alpha virt. eigenvalues --    2.35306   2.51061   2.51061   2.53320   2.54094
 Alpha virt. eigenvalues --    2.54094   2.58646   2.64917   2.64917   2.73903
 Alpha virt. eigenvalues --    2.74443   2.85533   2.85533   2.93745   2.93745
 Alpha virt. eigenvalues --    3.11274   3.12099   3.23521   3.23521   3.24193
 Alpha virt. eigenvalues --    3.56428   3.56428   3.91222   4.28876   4.28876
 Alpha virt. eigenvalues --    4.54233   4.54233   4.56539   5.94813   5.95930
 Alpha virt. eigenvalues --    5.95930   5.98392   5.98392   6.01661   6.08331
 Alpha virt. eigenvalues --    6.14194   6.14194   6.23748   6.23748   6.24421
 Alpha virt. eigenvalues --    6.24421   6.26968   6.35921   6.46031   6.50711
 Alpha virt. eigenvalues --    6.50711   6.53582   6.53582   6.63553   6.63553
 Alpha virt. eigenvalues --    6.67040   6.70397   7.44433   8.07382   8.07382
 Alpha virt. eigenvalues --    8.09211   8.09211   8.11405   8.29329   8.29329
 Alpha virt. eigenvalues --    8.31652   8.31652   8.33329   8.42761   8.44169
 Alpha virt. eigenvalues --    8.56447   8.56447   8.92101   8.92101   8.93515
 Alpha virt. eigenvalues --    9.02549   9.02549   9.02727   9.04096   9.22837
 Alpha virt. eigenvalues --    9.22837   9.37502   9.46595   9.46595  12.87458
 Alpha virt. eigenvalues --   45.95282 254.97134
          Condensed to atoms (all electrons):
               1          2          3          4
     1  Al  11.155609   0.398638   0.398638   0.398638
     2  H    0.398638   0.849450  -0.015964  -0.015964
     3  H    0.398638  -0.015964   0.849450  -0.015964
     4  H    0.398638  -0.015964  -0.015964   0.849450
 Mulliken charges:
               1
     1  Al   0.648478
     2  H   -0.216159
     3  H   -0.216159
     4  H   -0.216159
 Sum of Mulliken charges =   0.00000
 Mulliken charges with hydrogens summed into heavy atoms:
               1
     1  Al   0.000000
 Electronic spatial extent (au):  <R**2>=             62.5434
 Charge=              0.0000 electrons
 Dipole moment (field-independent basis, Debye):
    X=             -0.0000    Y=             -0.0000    Z=              0.0000  Tot=              0.0000
 Quadrupole moment (field-independent basis, Debye-Ang):
   XX=            -18.1821   YY=            -18.1821   ZZ=            -11.6658
   XY=             -0.0000   XZ=              0.0000   YZ=              0.0000
 Traceless Quadrupole moment (field-independent basis, Debye-Ang):
   XX=             -2.1721   YY=             -2.1721   ZZ=              4.3442
   XY=             -0.0000   XZ=              0.0000   YZ=              0.0000
 Octapole moment (field-independent basis, Debye-Ang**2):
  XXX=              0.0000  YYY=             -2.8409  ZZZ=             -0.0000  XYY=             -0.0000
  XXY=              2.8409  XXZ=             -0.0000  XZZ=              0.0000  YZZ=             -0.0000
  YYZ=              0.0000  XYZ=             -0.0000
 Hexadecapole moment (field-independent basis, Debye-Ang**3):
 XXXX=            -61.8777 YYYY=            -61.8777 ZZZZ=            -14.7653 XXXY=             -0.0000
 XXXZ=              0.0000 YYYX=             -0.0000 YYYZ=              0.0000 ZZZX=              0.0000
 ZZZY=              0.0000 XXYY=            -20.6259 XXZZ=            -12.5390 YYZZ=            -12.5390
 XXYZ=              0.0000 YYXZ=              0.0000 ZZXY=             -0.0000
 N-N= 1.361921188349D+01 E-N=-6.095169670642D+02  KE= 2.436732083360D+02
 Symmetry A1   KE= 2.028245951136D+02
 Symmetry A2   KE=-1.530917210751D-22
 Symmetry B1   KE= 2.117668065832D+01
 Symmetry B2   KE= 1.967193256406D+01
 Unable to Open any file for archive entry.
 1\1\GINC-TCOPT10\FOpt\RTPSSTPSS\def2QZVPP\Al1H3\HUTTER\31-Jul-2021\0\\
 #N RTPSSTPSS/Def2QZVPP scf=tight Int(Grid=ultrafine) OPT FREQ\\Mol job
  1\\0,1\Al,8.39982256,8.,8.\H,9.1911485642,6.6293831553,8.\H,9.1911485
 642,9.3706168447,8.\H,6.8171705515,8.,8.\\Version=ES64L-G16RevC.01\Sta
 te=1-A1'\HF=-244.2388605\RMSD=7.545e-10\RMSF=8.919e-05\Dipole=0.,0.,0.
 \Quadrupole=-1.614895,-1.614895,3.22979,0.,0.,0.\PG=D03H [O(Al1),3C2(H
 1)]\\@
 The archive entry for this job was punched.


 MOM AND DAD WENT TO ALPHA CENTAURI AND ALL
 I GOT WAS THIS DUMB T-SHIRT.
 Job cpu time:       0 days  0 hours  1 minutes 56.7 seconds.
 Elapsed time:       0 days  0 hours  0 minutes 15.1 seconds.
 File lengths (MBytes):  RWF=     16 Int=      0 D2E=      0 Chk=      3 Scr=      1
 Normal termination of Gaussian 16 at Sat Jul 31 21:01:02 2021.
 Link1:  Proceeding to internal job step number  2.
 ----------------------------------------------------------------------
 #N Geom=AllCheck Guess=TCheck SCRF=Check GenChk RTPSSTPSS/def2QZVPP Fr
 eq
 ----------------------------------------------------------------------
 1/10=4,29=7,30=1,38=1,40=1/1,3;
 2/12=2,40=1/2;
 3/5=45,7=202,11=2,14=-4,25=1,30=1,70=2,71=2,74=2523,75=-5,116=1,140=1/1,2,3;
 4/5=101/1;
 5/5=2,32=2,38=6,98=1/2;
 8/6=4,10=90,11=11/1;
 11/6=1,8=1,9=11,15=111,16=1/1,2,10;
 10/6=1/2;
 6/7=2,8=2,9=2,10=2,28=1/1;
 7/8=1,10=1,25=1/1,2,3,16;
 1/10=4,30=1/3;
 99//99;
 Structure from the checkpoint file:  "/data/hutter/SMG16/TPSS/Gau-83140.chk"
 ---------
 Mol job 1
 ---------
 Charge =  0 Multiplicity = 1
 Redundant internal coordinates found in file.  (old form).
 Al,0,8.39982256,8.,8.
 H,0,9.1911485642,6.6293831553,8.
 H,0,9.1911485642,9.3706168447,8.
 H,0,6.8171705515,8.,8.
 Recover connectivity data from disk.

 GradGradGradGradGradGradGradGradGradGradGradGradGradGradGradGradGradGrad
 Berny optimization.
 Initialization pass.
                           ----------------------------
                           !    Initial Parameters    !
                           ! (Angstroms and Degrees)  !
 --------------------------                            --------------------------
 ! Name  Definition              Value          Derivative Info.                !
 --------------------------------------------------------------------------------
 ! R1    R(1,2)                  1.5827         calculate D2E/DX2 analytically  !
 ! R2    R(1,3)                  1.5827         calculate D2E/DX2 analytically  !
 ! R3    R(1,4)                  1.5827         calculate D2E/DX2 analytically  !
 ! A1    A(2,1,3)              120.0            calculate D2E/DX2 analytically  !
 ! A2    A(2,1,4)              120.0            calculate D2E/DX2 analytically  !
 ! A3    A(3,1,4)              120.0            calculate D2E/DX2 analytically  !
 ! D1    D(2,1,4,3)            180.0            calculate D2E/DX2 analytically  !
 --------------------------------------------------------------------------------
 Trust Radius=3.00D-01 FncErr=1.00D-07 GrdErr=1.00D-07 EigMax=2.50D+02 EigMin=1.00D-04
 Number of steps in this run=      2 maximum allowed number of steps=      2.
 GradGradGradGradGradGradGradGradGradGradGradGradGradGradGradGradGradGrad

                          Input orientation:                          
 ---------------------------------------------------------------------
 Center     Atomic      Atomic             Coordinates (Angstroms)
 Number     Number       Type             X           Y           Z
 ---------------------------------------------------------------------
      1         13           0        8.399823    8.000000    8.000000
      2          1           0        9.191149    6.629383    8.000000
      3          1           0        9.191149    9.370617    8.000000
      4          1           0        6.817171    8.000000    8.000000
 ---------------------------------------------------------------------
                    Distance matrix (angstroms):
                    1          2          3          4
     1  Al   0.000000
     2  H    1.582652   0.000000
     3  H    1.582652   2.741234   0.000000
     4  H    1.582652   2.741234   2.741234   0.000000
 Stoichiometry    AlH3
 Framework group  D3H[O(Al),3C2(H)]
 Deg. of freedom     1
 Full point group                 D3H     NOp  12
 Largest Abelian subgroup         C2V     NOp   4
 Largest concise Abelian subgroup C2      NOp   2
                         Standard orientation:                         
 ---------------------------------------------------------------------
 Center     Atomic      Atomic             Coordinates (Angstroms)
 Number     Number       Type             X           Y           Z
 ---------------------------------------------------------------------
      1         13           0        0.000000    0.000000    0.000000
      2          1           0       -0.000000    1.582652    0.000000
      3          1           0        1.370617   -0.791326    0.000000
      4          1           0       -1.370617   -0.791326   -0.000000
 ---------------------------------------------------------------------
 Rotational constants (GHZ):         133.4657806         133.4657806          66.7328903
 Standard basis: def2QZVPP (5D, 7F)
 There are    79 symmetry adapted cartesian basis functions of A1  symmetry.
 There are    23 symmetry adapted cartesian basis functions of A2  symmetry.
 There are    51 symmetry adapted cartesian basis functions of B1  symmetry.
 There are    38 symmetry adapted cartesian basis functions of B2  symmetry.
 There are    63 symmetry adapted basis functions of A1  symmetry.
 There are    21 symmetry adapted basis functions of A2  symmetry.
 There are    43 symmetry adapted basis functions of B1  symmetry.
 There are    33 symmetry adapted basis functions of B2  symmetry.
   160 basis functions,   235 primitive gaussians,   191 cartesian basis functions
     8 alpha electrons        8 beta electrons
       nuclear repulsion energy        13.6192118835 Hartrees.
 NAtoms=    4 NActive=    4 NUniq=    2 SFac= 4.00D+00 NAtFMM=   60 NAOKFM=F Big=F
 Integral buffers will be    131072 words long.
 Raffenetti 2 integral format.
 Two-electron integral symmetry is turned on.
 One-electron integrals computed using PRISM.
  12 Symmetry operations used in ECPInt.
 ECPInt:  NShTT=    1378 NPrTT=    3335 LenC2=    1379 LenP2D=    3137.
 LDataN:  DoStor=T MaxTD1= 8 Len=  415
 NBasis=   160 RedAO= T EigKep=  3.00D-04  NBF=    63    21    43    33
 NBsUse=   160 1.00D-06 EigRej= -1.00D+00 NBFU=    63    21    43    33
 Initial guess from the checkpoint file:  "/data/hutter/SMG16/TPSS/Gau-83140.chk"
 B after Tr=     0.000000   -0.000000    0.000000
         Rot=    1.000000   -0.000000    0.000000   -0.000000 Ang=   0.00 deg.
 Initial guess orbital symmetries:
       Occupied  (A1') (A1') (A2") (E') (E') (A1') (E') (E')
       Virtual   (A2") (A1') (E') (E') (A1') (E') (E') (A2") (E")
                 (E") (A1') (E') (E') (A1') (E') (E') (A2') (E")
                 (E") (E') (E') (A2") (E") (E") (A2") (A1') (A1')
                 (E') (E') (E') (E') (A1') (A2") (E') (E') (E")
                 (E") (A1') (E') (E') (A2') (E') (E') (E") (E")
                 (A1') (E') (E') (A1') (A1") (A2') (E") (E") (A2")
                 (E') (E') (E') (E') (A1') (E") (E") (A2") (E')
                 (E') (A1') (A2") (E") (E") (E') (E') (A1') (E")
                 (E") (A2") (E') (E') (A1") (E') (E') (A2') (A1')
                 (E') (E') (E") (E") (A1') (A2") (E') (E') (A2')
                 (E') (E') (A1') (E") (E") (E') (E') (A1') (A2')
                 (E") (E") (E') (E') (A2") (A1') (E") (E") (E')
                 (E') (E') (E') (A1') (A2") (A1") (E") (E") (E')
                 (E') (E') (E') (A2') (A1') (A2") (E') (E') (E")
                 (E") (A2") (E') (E') (E") (E") (A2') (A1') (A1")
                 (E') (E') (E") (E") (A2") (E') (E') (A1') (A2')
                 (E') (E') (A1') (E') (E') (A1') (A1') (A1')
 Keep J ints in memory in symmetry-blocked form, NReq=104031662.
 Requested convergence on RMS density matrix=1.00D-08 within 128 cycles.
 Requested convergence on MAX density matrix=1.00D-06.
 Requested convergence on             energy=1.00D-06.
 No special actions if energy rises.
 SCF Done:  E(RTPSS-TPSS) =  -244.238860467     A.U. after    1 cycles
            NFock=  1  Conv=0.25D-10     -V/T= 2.0023
 DoSCS=F DFT=T ScalE2(SS,OS)=  1.000000  1.000000
 Range of M.O.s used for correlation:     1   160
 NBasis=   160 NAE=     8 NBE=     8 NFC=     0 NFV=     0
 NROrb=    160 NOA=     8 NOB=     8 NVA=   152 NVB=   152

 **** Warning!!: The largest alpha MO coefficient is  0.19438156D+02

  12 Symmetry operations used in ECPInt.
 ECPInt:  NShTT=    1378 NPrTT=    3335 LenC2=    1379 LenP2D=    3137.
 LDataN:  DoStor=T MaxTD1= 9 Len=  602
 Symmetrizing basis deriv contribution to polar:
 IMax=3 JMax=2 DiffMx= 0.00D+00
 G2DrvN: will do     5 centers at a time, making    1 passes.
 Calling FoFCou, ICntrl=  3507 FMM=F I1Cent=   0 AccDes= 0.00D+00.
 End of G2Drv F.D. properties file   721 does not exist.
 End of G2Drv F.D. properties file   722 does not exist.
 End of G2Drv F.D. properties file   788 does not exist.
          IDoAtm=1111
          Differentiating once with respect to electric field.
                with respect to dipole field.
          Differentiating once with respect to nuclear coordinates.
 Keep J ints in memory in symmetry-blocked form, NReq=104033926.
          There are     9 degrees of freedom in the 1st order CPHF.  IDoFFX=4 NUNeed=     9.
      9 vectors produced by pass  0 Test12= 1.35D-14 1.11D-08 XBig12= 3.45D+01 3.87D+00.
 AX will form     9 AO Fock derivatives at one time.
      9 vectors produced by pass  1 Test12= 1.35D-14 1.11D-08 XBig12= 7.44D-01 4.43D-01.
      9 vectors produced by pass  2 Test12= 1.35D-14 1.11D-08 XBig12= 2.80D-03 2.30D-02.
      9 vectors produced by pass  3 Test12= 1.35D-14 1.11D-08 XBig12= 4.86D-05 2.68D-03.
      9 vectors produced by pass  4 Test12= 1.35D-14 1.11D-08 XBig12= 1.83D-07 1.14D-04.
      6 vectors produced by pass  5 Test12= 1.35D-14 1.11D-08 XBig12= 4.31D-10 5.34D-06.
      4 vectors produced by pass  6 Test12= 1.35D-14 1.11D-08 XBig12= 1.32D-12 2.95D-07.
      1 vectors produced by pass  7 Test12= 1.35D-14 1.11D-08 XBig12= 1.09D-15 1.20D-08.
 InvSVY:  IOpt=1 It=  1 EMax= 1.97D-16
 Solved reduced A of dimension    56 with     9 vectors.
 Isotropic polarizability for W=    0.000000       32.00 Bohr**3.
 End of Minotr F.D. properties file   721 does not exist.
 End of Minotr F.D. properties file   722 does not exist.
 End of Minotr F.D. properties file   788 does not exist.

 **********************************************************************

            Population analysis using the SCF Density.

 **********************************************************************

 Orbital symmetries:
       Occupied  (A1') (A1') (A2") (E') (E') (A1') (E') (E')
       Virtual   (A2") (A1') (E') (E') (A1') (E') (E') (A2") (E")
                 (E") (A1') (E') (E') (A1') (E') (E') (A2') (E")
                 (E") (E') (E') (A2") (E") (E") (A2") (A1') (A1')
                 (E') (E') (E') (E') (A1') (A2") (E') (E') (E")
                 (E") (A1') (E') (E') (A2') (E') (E') (E") (E")
                 (A1') (E') (E') (A1') (A1") (A2') (E") (E") (A2")
                 (E') (E') (E') (E') (A1') (E") (E") (A2") (E')
                 (E') (A1') (A2") (E") (E") (E') (E') (A1') (E")
                 (E") (A2") (E') (E') (A1") (E') (E') (A2') (A1')
                 (E') (E') (E") (E") (A1') (A2") (E') (E') (A2')
                 (E') (E') (A1') (E") (E") (E') (E') (A1') (A2')
                 (E") (E") (E') (E') (A2") (A1') (E") (E") (E')
                 (E') (E') (E') (A1') (A2") (A1") (E") (E") (E')
                 (E') (E') (E') (A2') (A1') (A2") (E') (E') (E")
                 (E") (A2") (E') (E') (E") (E") (A2') (A1') (A1")
                 (E') (E') (E") (E") (A2") (E') (E') (A1') (A2')
                 (E') (E') (A1') (E') (E') (A1') (A1') (A1')
 The electronic state is 1-A1'.
 Alpha  occ. eigenvalues --  -55.61813  -3.98288  -2.55882  -2.54731  -2.54731
 Alpha  occ. eigenvalues --   -0.38529  -0.27780  -0.27780
 Alpha virt. eigenvalues --   -0.08496   0.01855   0.02433   0.02433   0.04502
 Alpha virt. eigenvalues --    0.06880   0.06880   0.07894   0.09286   0.09286
 Alpha virt. eigenvalues --    0.19392   0.20209   0.20209   0.24491   0.29200
 Alpha virt. eigenvalues --    0.29200   0.38602   0.39934   0.39934   0.42136
 Alpha virt. eigenvalues --    0.42136   0.43122   0.43801   0.43801   0.47490
 Alpha virt. eigenvalues --    0.48407   0.51975   0.53135   0.53135   0.61401
 Alpha virt. eigenvalues --    0.61401   0.68297   0.77937   0.77950   0.77950
 Alpha virt. eigenvalues --    0.82596   0.82596   0.98532   1.06640   1.06640
 Alpha virt. eigenvalues --    1.06824   1.17192   1.17192   1.23526   1.23526
 Alpha virt. eigenvalues --    1.26842   1.30936   1.30936   1.39480   1.44596
 Alpha virt. eigenvalues --    1.45702   1.46584   1.46584   1.47081   1.59019
 Alpha virt. eigenvalues --    1.59019   1.65766   1.65766   1.66460   1.74528
 Alpha virt. eigenvalues --    1.74528   1.78732   1.89319   1.89319   1.90845
 Alpha virt. eigenvalues --    1.98336   2.15677   2.15677   2.19364   2.19364
 Alpha virt. eigenvalues --    2.35306   2.51061   2.51061   2.53320   2.54094
 Alpha virt. eigenvalues --    2.54094   2.58646   2.64917   2.64917   2.73903
 Alpha virt. eigenvalues --    2.74443   2.85533   2.85533   2.93745   2.93745
 Alpha virt. eigenvalues --    3.11274   3.12099   3.23521   3.23521   3.24193
 Alpha virt. eigenvalues --    3.56428   3.56428   3.91222   4.28876   4.28876
 Alpha virt. eigenvalues --    4.54233   4.54233   4.56539   5.94813   5.95930
 Alpha virt. eigenvalues --    5.95930   5.98392   5.98392   6.01661   6.08331
 Alpha virt. eigenvalues --    6.14194   6.14194   6.23748   6.23748   6.24421
 Alpha virt. eigenvalues --    6.24421   6.26968   6.35921   6.46031   6.50711
 Alpha virt. eigenvalues --    6.50711   6.53582   6.53582   6.63553   6.63553
 Alpha virt. eigenvalues --    6.67040   6.70397   7.44433   8.07382   8.07382
 Alpha virt. eigenvalues --    8.09211   8.09211   8.11405   8.29329   8.29329
 Alpha virt. eigenvalues --    8.31652   8.31652   8.33329   8.42761   8.44169
 Alpha virt. eigenvalues --    8.56447   8.56447   8.92101   8.92101   8.93515
 Alpha virt. eigenvalues --    9.02549   9.02549   9.02727   9.04096   9.22837
 Alpha virt. eigenvalues --    9.22837   9.37502   9.46595   9.46595  12.87458
 Alpha virt. eigenvalues --   45.95282 254.97134
          Condensed to atoms (all electrons):
               1          2          3          4
     1  Al  11.155609   0.398638   0.398638   0.398638
     2  H    0.398638   0.849450  -0.015964  -0.015964
     3  H    0.398638  -0.015964   0.849450  -0.015964
     4  H    0.398638  -0.015964  -0.015964   0.849450
 Mulliken charges:
               1
     1  Al   0.648478
     2  H   -0.216159
     3  H   -0.216159
     4  H   -0.216159
 Sum of Mulliken charges =   0.00000
 Mulliken charges with hydrogens summed into heavy atoms:
               1
     1  Al   0.000000
 APT charges:
               1
     1  Al   1.067574
     2  H   -0.355977
     3  H   -0.355888
     4  H   -0.355888
 Sum of APT charges =  -0.00018
 APT charges with hydrogens summed into heavy atoms:
               1
     1  Al  -0.000179
 Electronic spatial extent (au):  <R**2>=             62.5434
 Charge=              0.0000 electrons
 Dipole moment (field-independent basis, Debye):
    X=              0.0000    Y=             -0.0000    Z=             -0.0000  Tot=              0.0000
 Quadrupole moment (field-independent basis, Debye-Ang):
   XX=            -18.1821   YY=            -18.1821   ZZ=            -11.6658
   XY=              0.0000   XZ=              0.0000   YZ=              0.0000
 Traceless Quadrupole moment (field-independent basis, Debye-Ang):
   XX=             -2.1721   YY=             -2.1721   ZZ=              4.3442
   XY=              0.0000   XZ=              0.0000   YZ=              0.0000
 Octapole moment (field-independent basis, Debye-Ang**2):
  XXX=              0.0000  YYY=             -2.8409  ZZZ=             -0.0000  XYY=              0.0000
  XXY=              2.8409  XXZ=             -0.0000  XZZ=              0.0000  YZZ=              0.0000
  YYZ=             -0.0000  XYZ=             -0.0000
 Hexadecapole moment (field-independent basis, Debye-Ang**3):
 XXXX=            -61.8777 YYYY=            -61.8777 ZZZZ=            -14.7653 XXXY=              0.0000
 XXXZ=              0.0000 YYYX=              0.0000 YYYZ=             -0.0000 ZZZX=              0.0000
 ZZZY=             -0.0000 XXYY=            -20.6259 XXZZ=            -12.5390 YYZZ=            -12.5390
 XXYZ=             -0.0000 YYXZ=              0.0000 ZZXY=              0.0000
 N-N= 1.361921188349D+01 E-N=-6.095169670801D+02  KE= 2.436732083452D+02
 Symmetry A1   KE= 2.028245951189D+02
 Symmetry A2   KE= 4.547261528038D-22
 Symmetry B1   KE= 2.117668066077D+01
 Symmetry B2   KE= 1.967193256548D+01
  Exact polarizability:      34.222      -0.000      34.229       0.000       0.000      27.552
 Approx polarizability:      45.648      -0.000      45.648      -0.000       0.000      40.444
  12 Symmetry operations used in ECPInt.
 ECPInt:  NShTT=    1378 NPrTT=    3335 LenC2=    1379 LenP2D=    3137.
 LDataN:  DoStor=T MaxTD1=10 Len=  848
 Calling FoFJK, ICntrl=    100527 FMM=F ISym2X=1 I1Cent= 0 IOpClX= 0 NMat=1 NMatS=1 NMatT=0.
 Full mass-weighted force constant matrix:
 Low frequencies ---  -47.2235  -44.6567  -44.6567   -0.0100    0.0013    0.1037
 Low frequencies ---  697.7602  787.2609  787.2659
 Diagonal vibrational polarizability:
       10.6500714      10.6540369      18.1851330
 Harmonic frequencies (cm**-1), IR intensities (KM/Mole), Raman scattering
 activities (A**4/AMU), depolarization ratios for plane and unpolarized
 incident light, reduced masses (AMU), force constants (mDyne/A),
 and normal coordinates:
                      1                      2                      3
                     A2"                    E'                     E'
 Frequencies --    697.7602               787.2609               787.2659
 Red. masses --      1.1161                 1.0582                 1.0582
 Frc consts  --      0.3202                 0.3864                 0.3864
 IR Inten    --    328.9999               204.4878               204.4067
  Atom  AN      X      Y      Z        X      Y      Z        X      Y      Z
     1  13     0.00  -0.00  -0.06    -0.00  -0.04   0.00    -0.04   0.00  -0.00
     2   1    -0.00  -0.00   0.58     0.00  -0.03  -0.00     0.82   0.00   0.00
     3   1    -0.00   0.00   0.58     0.37   0.60  -0.00     0.18   0.37   0.00
     4   1    -0.00  -0.00   0.58    -0.37   0.60  -0.00     0.18  -0.37   0.00
                      4                      5                      6
                     A1'                    E'                     E'
 Frequencies --   1931.4652              1939.7737              1939.7792
 Red. masses --      1.0078                 1.0602                 1.0602
 Frc consts  --      2.2152                 2.3504                 2.3505
 IR Inten    --      0.0000               248.1882               248.1434
  Atom  AN      X      Y      Z        X      Y      Z        X      Y      Z
     1  13    -0.00  -0.00   0.00     0.00  -0.04  -0.00    -0.04  -0.00  -0.00
     2   1    -0.00   0.58  -0.00     0.00   0.82   0.00    -0.01   0.00   0.00
     3   1     0.50  -0.29  -0.00    -0.36   0.19   0.00     0.61  -0.36   0.00
     4   1    -0.50  -0.29  -0.00     0.36   0.19   0.00     0.61   0.36   0.00

 -------------------
 - Thermochemistry -
 -------------------
 Temperature   298.150 Kelvin.  Pressure   1.00000 Atm.
 Atom     1 has atomic number 13 and mass  26.98154
 Atom     2 has atomic number  1 and mass   1.00783
 Atom     3 has atomic number  1 and mass   1.00783
 Atom     4 has atomic number  1 and mass   1.00783
 Molecular mass:    30.00502 amu.
 Principal axes and moments of inertia in atomic units:
                           1         2         3
     Eigenvalues --    13.52213  13.52213  27.04425
           X           -0.36252   0.93197   0.00000
           Y            0.93197   0.36252   0.00000
           Z           -0.00000   0.00000   1.00000
 This molecule is an oblate symmetric top.
 Rotational symmetry number  6.
 Rotational temperatures (Kelvin)      6.40535     6.40535     3.20267
 Rotational constants (GHZ):         133.46578   133.46578    66.73289
 Zero-point vibrational energy      48348.9 (Joules/Mol)
                                   11.55566 (Kcal/Mol)
 Vibrational temperatures:   1003.92  1132.69  1132.70  2778.95  2790.90
          (Kelvin)           2790.91
 
 Zero-point correction=                           0.018415 (Hartree/Particle)
 Thermal correction to Energy=                    0.021528
 Thermal correction to Enthalpy=                  0.022472
 Thermal correction to Gibbs Free Energy=        -0.001082
 Sum of electronic and zero-point Energies=           -244.220445
 Sum of electronic and thermal Energies=              -244.217333
 Sum of electronic and thermal Enthalpies=            -244.216388
 Sum of electronic and thermal Free Energies=         -244.239942
 
                     E (Thermal)             CV                S
                      KCal/Mol        Cal/Mol-Kelvin    Cal/Mol-Kelvin
 Total                   13.509              8.184             49.574
 Electronic               0.000              0.000              0.000
 Translational            0.889              2.981             36.130
 Rotational               0.889              2.981             12.694
 Vibrational             11.731              2.223              0.750
                       Q            Log10(Q)             Ln(Q)
 Total Bot       0.314547D+01          0.497685          1.145963
 Total V=0       0.929067D+09          8.968047         20.649691
 Vib (Bot)       0.366998D-08         -8.435336        -19.423079
 Vib (V=0)       0.108399D+01          0.035025          0.080649
 Electronic      0.100000D+01          0.000000          0.000000
 Translational   0.646018D+07          6.810245         15.681168
 Rotational      0.132671D+03          2.122777          4.887874
 ***** Axes restored to original set *****
 -------------------------------------------------------------------
 Center     Atomic                   Forces (Hartrees/Bohr)
 Number     Number              X              Y              Z
 -------------------------------------------------------------------
      1       13          -0.000000000   -0.000000000    0.000000000
      2        1           0.000089193   -0.000154487    0.000000000
      3        1           0.000089193    0.000154487    0.000000000
      4        1          -0.000178387   -0.000000000   -0.000000000
 -------------------------------------------------------------------
 Cartesian Forces:  Max     0.000178387 RMS     0.000089193
 FormGI is forming the generalized inverse of G from B-inverse, IUseBI=4.

 GradGradGradGradGradGradGradGradGradGradGradGradGradGradGradGradGradGrad
 Berny optimization.
 Internal  Forces:  Max     0.000178387 RMS     0.000116781
 Search for a local minimum.
 Step number   1 out of a maximum of    2
 All quantities printed in internal units (Hartrees-Bohrs-Radians)
 Second derivative matrix not updated -- analytic derivatives used.
 The second derivative matrix:
                          R1        R2        R3        A1        A2
           R1           0.13818
           R2           0.00205   0.13818
           R3           0.00205   0.00205   0.13818
           A1           0.00180   0.00180  -0.00360   0.04481
           A2           0.00180  -0.00360   0.00180  -0.02240   0.04481
           A3          -0.00361   0.00180   0.00180  -0.02240  -0.02240
           D1           0.00000   0.00000  -0.00000   0.00000  -0.00000
                          A3        D1
           A3           0.04480
           D1          -0.00000   0.03747
 ITU=  0
     Eigenvalues ---    0.03747   0.06678   0.06679   0.13655   0.13656
     Eigenvalues ---    0.14228
 Angle between quadratic step and forces=   0.00 degrees.
 Linear search not attempted -- first point.
 Iteration  1 RMS(Cart)=  0.00082077 RMS(Int)=  0.00000000
 Iteration  2 RMS(Cart)=  0.00000000 RMS(Int)=  0.00000000
 ClnCor:  largest displacement from symmetrization is 1.45D-08 for atom     4.
 Variable       Old X    -DE/DX   Delta X   Delta X   Delta X     New X
                                 (Linear)    (Quad)   (Total)
    R1        2.99078   0.00018   0.00000   0.00125   0.00125   2.99203
    R2        2.99078   0.00018   0.00000   0.00125   0.00125   2.99203
    R3        2.99078   0.00018   0.00000   0.00125   0.00125   2.99203
    A1        2.09440   0.00000   0.00000  -0.00000   0.00000   2.09440
    A2        2.09440  -0.00000   0.00000  -0.00000   0.00000   2.09440
    A3        2.09440   0.00000   0.00000   0.00000   0.00000   2.09440
    D1        3.14159   0.00000   0.00000   0.00000   0.00000   3.14159
         Item               Value     Threshold  Converged?
 Maximum Force            0.000178     0.000450     YES
 RMS     Force            0.000117     0.000300     YES
 Maximum Displacement     0.001254     0.001800     YES
 RMS     Displacement     0.000821     0.001200     YES
 Predicted change in Energy=-3.354787D-07
 Optimization completed.
    -- Stationary point found.
                           ----------------------------
                           !   Optimized Parameters   !
                           ! (Angstroms and Degrees)  !
 --------------------------                            --------------------------
 ! Name  Definition              Value          Derivative Info.                !
 --------------------------------------------------------------------------------
 ! R1    R(1,2)                  1.5827         -DE/DX =    0.0002              !
 ! R2    R(1,3)                  1.5827         -DE/DX =    0.0002              !
 ! R3    R(1,4)                  1.5827         -DE/DX =    0.0002              !
 ! A1    A(2,1,3)              120.0            -DE/DX =    0.0                 !
 ! A2    A(2,1,4)              120.0            -DE/DX =    0.0                 !
 ! A3    A(3,1,4)              120.0            -DE/DX =    0.0                 !
 ! D1    D(2,1,4,3)            180.0            -DE/DX =    0.0                 !
 --------------------------------------------------------------------------------
 GradGradGradGradGradGradGradGradGradGradGradGradGradGradGradGradGradGrad

 Dipole is zero, so no output in dipole orientation.

 ----------------------------------------------------------------------

 Electric dipole moment (input orientation):
 (Debye = 10**-18 statcoulomb cm , SI units = C m)
                  (au)            (Debye)         (10**-30 SI)
   Tot        0.000000D+00      0.000000D+00      0.000000D+00
   x          0.000000D+00      0.000000D+00      0.000000D+00
   y          0.000000D+00      0.000000D+00      0.000000D+00
   z          0.000000D+00      0.000000D+00      0.000000D+00

 Dipole polarizability, Alpha (input orientation).
 (esu units = cm**3 , SI units = C**2 m**2 J**-1)
 Alpha(0;0):
               (au)            (10**-24 esu)      (10**-40 SI)
   iso        0.320009D+02      0.474205D+01      0.527624D+01
   aniso      0.667390D+01      0.988970D+00      0.110038D+01
   xx         0.342236D+02      0.507142D+01      0.564271D+01
   yx        -0.335651D-02     -0.497383D-03     -0.553413D-03
   yy         0.342275D+02      0.507199D+01      0.564335D+01
   zx         0.000000D+00      0.000000D+00      0.000000D+00
   zy         0.000000D+00      0.000000D+00      0.000000D+00
   zz         0.275517D+02      0.408274D+01      0.454266D+01

 ----------------------------------------------------------------------
 Unable to Open any file for archive entry.
 1\1\GINC-TCOPT10\Freq\RTPSSTPSS\def2QZVPP\Al1H3\HUTTER\31-Jul-2021\0\\
 #N Geom=AllCheck Guess=TCheck SCRF=Check GenChk RTPSSTPSS/def2QZVPP Fr
 eq\\Mol job 1\\0,1\Al,8.39982256,8.,8.\H,9.1911485642,6.6293831553,8.\
 H,9.1911485642,9.3706168447,8.\H,6.8171705515,8.,8.\\Version=ES64L-G16
 RevC.01\State=1-A1'\HF=-244.2388605\RMSD=2.533e-11\RMSF=8.919e-05\Zero
 Point=0.0184151\Thermal=0.0215279\ETot=-244.2173326\HTot=-244.2163884\
 GTot=-244.2399425\Dipole=0.,0.,0.\DipoleDeriv=1.1223982,-0.0001245,0.,
 -0.0001245,1.1225419,0.,0.,0.,0.9577829,-0.3666278,0.0132862,0.,0.0132
 862,-0.3819694,0.,0.,0.,-0.3193342,-0.3664579,-0.0132049,0.,-0.0133578
 ,-0.3819264,0.,0.,0.,-0.3192793,-0.3895613,-0.0000191,0.,0.0001338,-0.
 358823,0.,0.,0.,-0.3192793\Polar=34.2236286,-0.0033565,34.2275043,0.,0
 .,27.5516728\Quadrupole=-1.614895,-1.614895,3.22979,0.,0.,0.\PG=D03H [
 O(Al1),3C2(H1)]\NImag=0\\0.22853254,0.00001293,0.22851761,0.,0.,0.0500
 9358,-0.04776184,0.04920918,0.,0.04576431,0.04920918,-0.10458370,0.,-0
 .05335712,0.10737581,0.,0.,-0.01669790,0.,0.,0.00551526,-0.04776266,-0
 .04921296,0.,0.00458740,0.00327367,0.,0.04576431,-0.04921502,-0.104586
 26,0.,-0.00327367,-0.00498469,0.,0.05335712,0.10737581,0.,0.,-0.016697
 87,0.,0.,0.00559132,0.,0.,0.00551526,-0.13300093,-0.00000269,0.,-0.002
 59167,0.00087116,0.,-0.00259167,-0.00087116,0.,0.13818156,-0.00000062,
 -0.01934800,0.,0.00741851,0.00219438,0.,-0.00741851,0.00219438,0.,0.,0
 .01495856,0.,0.,-0.01669787,0.,0.,0.00559132,0.,0.,0.00559132,0.,0.,0.
 00551526\\0.,0.,0.,-0.00008919,0.00015449,0.,-0.00008919,-0.00015449,0
 .,0.00017839,0.,0.\\\@
 The archive entry for this job was punched.


 THE WORLD OF CHEMICAL REACTIONS IS LIKE A STAGE,
 ON WHICH SCENE AFTER SCENE IS CEASELESSLY PLAYED.
 THE ACTORS ON IT ARE THE ELEMENTS.
   -- CLEMENS WINKLER   BER. 30,13(1897)
 (DISCOVERER OF GERMANIUM, FEB 6, 1886)
 Job cpu time:       0 days  0 hours  4 minutes 45.5 seconds.
 Elapsed time:       0 days  0 hours  0 minutes 36.1 seconds.
 File lengths (MBytes):  RWF=     16 Int=      0 D2E=      0 Chk=      3 Scr=      1
 Normal termination of Gaussian 16 at Sat Jul 31 21:01:39 2021.
