 Entering Gaussian System, Link 0=g16
 Initial command:
 /sw-ng/spack/opt/spack/linux-opensuse_leap15-sandybridge/pgi-18.10/gaussian-src-16-C.01-zldqaomctopxhethwccpmxmwefdscg3m/g16/l1.exe "/data/hutter/SMG16/TPSS/Gau-56366.inp" -scrdir="/data/hutter/SMG16/TPSS/"
 Entering Link 1 = /sw-ng/spack/opt/spack/linux-opensuse_leap15-sandybridge/pgi-18.10/gaussian-src-16-C.01-zldqaomctopxhethwccpmxmwefdscg3m/g16/l1.exe PID=     56371.
  
 Copyright (c) 1988-2019, Gaussian, Inc.  All Rights Reserved.
  
 This is part of the Gaussian(R) 16 program.  It is based on
 the Gaussian(R) 09 system (copyright 2009, Gaussian, Inc.),
 the Gaussian(R) 03 system (copyright 2003, Gaussian, Inc.),
 the Gaussian(R) 98 system (copyright 1998, Gaussian, Inc.),
 the Gaussian(R) 94 system (copyright 1995, Gaussian, Inc.),
 the Gaussian 92(TM) system (copyright 1992, Gaussian, Inc.),
 the Gaussian 90(TM) system (copyright 1990, Gaussian, Inc.),
 the Gaussian 88(TM) system (copyright 1988, Gaussian, Inc.),
 the Gaussian 86(TM) system (copyright 1986, Carnegie Mellon
 University), and the Gaussian 82(TM) system (copyright 1983,
 Carnegie Mellon University). Gaussian is a federally registered
 trademark of Gaussian, Inc.
  
 This software contains proprietary and confidential information,
 including trade secrets, belonging to Gaussian, Inc.
  
 This software is provided under written license and may be
 used, copied, transmitted, or stored only in accord with that
 written license.
  
 The following legend is applicable only to US Government
 contracts under FAR:
  
                    RESTRICTED RIGHTS LEGEND
  
 Use, reproduction and disclosure by the US Government is
 subject to restrictions as set forth in subparagraphs (a)
 and (c) of the Commercial Computer Software - Restricted
 Rights clause in FAR 52.227-19.
  
 Gaussian, Inc.
 340 Quinnipiac St., Bldg. 40, Wallingford CT 06492
  
  
 ---------------------------------------------------------------
 Warning -- This program may not be used in any manner that
 competes with the business of Gaussian, Inc. or will provide
 assistance to any competitor of Gaussian, Inc.  The licensee
 of this program is prohibited from giving any competitor of
 Gaussian, Inc. access to this program.  By using this program,
 the user acknowledges that Gaussian, Inc. is engaged in the
 business of creating and licensing software in the field of
 computational chemistry and represents and warrants to the
 licensee that it is not a competitor of Gaussian, Inc. and that
 it will not use this program in any manner prohibited above.
 ---------------------------------------------------------------
  

 Cite this work as:
 Gaussian 16, Revision C.01,
 M. J. Frisch, G. W. Trucks, H. B. Schlegel, G. E. Scuseria, 
 M. A. Robb, J. R. Cheeseman, G. Scalmani, V. Barone, 
 G. A. Petersson, H. Nakatsuji, X. Li, M. Caricato, A. V. Marenich, 
 J. Bloino, B. G. Janesko, R. Gomperts, B. Mennucci, H. P. Hratchian, 
 J. V. Ortiz, A. F. Izmaylov, J. L. Sonnenberg, D. Williams-Young, 
 F. Ding, F. Lipparini, F. Egidi, J. Goings, B. Peng, A. Petrone, 
 T. Henderson, D. Ranasinghe, V. G. Zakrzewski, J. Gao, N. Rega, 
 G. Zheng, W. Liang, M. Hada, M. Ehara, K. Toyota, R. Fukuda, 
 J. Hasegawa, M. Ishida, T. Nakajima, Y. Honda, O. Kitao, H. Nakai, 
 T. Vreven, K. Throssell, J. A. Montgomery, Jr., J. E. Peralta, 
 F. Ogliaro, M. J. Bearpark, J. J. Heyd, E. N. Brothers, K. N. Kudin, 
 V. N. Staroverov, T. A. Keith, R. Kobayashi, J. Normand, 
 K. Raghavachari, A. P. Rendell, J. C. Burant, S. S. Iyengar, 
 J. Tomasi, M. Cossi, J. M. Millam, M. Klene, C. Adamo, R. Cammi, 
 J. W. Ochterski, R. L. Martin, K. Morokuma, O. Farkas, 
 J. B. Foresman, and D. J. Fox, Gaussian, Inc., Wallingford CT, 2019.
 
 ******************************************
 Gaussian 16:  ES64L-G16RevC.01  3-Jul-2019
                31-Jul-2021 
 ******************************************
 %mem=8GB
 %NProcShare=8
 Will use up to    8 processors via shared memory.
 -------------------------------------------------------------
 #N RTPSSTPSS/Def2QZVPP scf=tight Int(Grid=ultrafine) OPT FREQ
 -------------------------------------------------------------
 1/18=20,19=15,26=4,38=1/1,3;
 2/9=110,12=2,17=6,18=5,40=1/2;
 3/5=45,7=202,11=2,25=1,30=1,71=1,74=2523,75=-5,116=1/1,2,3;
 4//1;
 5/5=2,32=2,38=5/2;
 6/7=2,8=2,9=2,10=2,28=1/1;
 7//1,2,3,16;
 1/18=20,19=15,26=4/3(2);
 2/9=110/2;
 99//99;
 2/9=110/2;
 3/5=45,7=202,11=2,25=1,30=1,71=1,74=2523,75=-5,116=1/1,2,3;
 4/5=5,16=3,69=1/1;
 5/5=2,32=2,38=5/2;
 7//1,2,3,16;
 1/18=20,19=15,26=4/3(-5);
 2/9=110/2;
 6/7=2,8=2,9=2,10=2,19=2,28=1/1;
 99/9=1/99;
 ---------
 Mol job 1
 ---------
 Symbolic Z-matrix:
 Charge =  0 Multiplicity = 1
 S                     10.5      10.5      11.1965 
 K                     8.01915   10.5      9.8035 
 K                     12.98085   10.5      9.8035 
 

 GradGradGradGradGradGradGradGradGradGradGradGradGradGradGradGradGradGrad
 Berny optimization.
 Initialization pass.
                           ----------------------------
                           !    Initial Parameters    !
                           ! (Angstroms and Degrees)  !
 --------------------------                            --------------------------
 ! Name  Definition              Value          Derivative Info.                !
 --------------------------------------------------------------------------------
 ! R1    R(1,2)                  2.8452         estimate D2E/DX2                !
 ! R2    R(1,3)                  2.8452         estimate D2E/DX2                !
 ! A1    A(2,1,3)              121.3712         estimate D2E/DX2                !
 --------------------------------------------------------------------------------
 Trust Radius=3.00D-01 FncErr=1.00D-07 GrdErr=1.00D-06 EigMax=2.50D+02 EigMin=1.00D-04
 Number of steps in this run=     20 maximum allowed number of steps=    100.
 GradGradGradGradGradGradGradGradGradGradGradGradGradGradGradGradGradGrad

                          Input orientation:                          
 ---------------------------------------------------------------------
 Center     Atomic      Atomic             Coordinates (Angstroms)
 Number     Number       Type             X           Y           Z
 ---------------------------------------------------------------------
      1         16           0       10.500000   10.500000   11.196503
      2         19           0        8.019151   10.500000    9.803497
      3         19           0       12.980849   10.500000    9.803497
 ---------------------------------------------------------------------
                    Distance matrix (angstroms):
                    1          2          3
     1  S    0.000000
     2  K    2.845185   0.000000
     3  K    2.845185   4.961697   0.000000
 Stoichiometry    K2S
 Framework group  C2V[C2(S),SGV(K2)]
 Deg. of freedom     2
 Full point group                 C2V     NOp   4
 Largest Abelian subgroup         C2V     NOp   4
 Largest concise Abelian subgroup C2      NOp   2
                         Standard orientation:                         
 ---------------------------------------------------------------------
 Center     Atomic      Atomic             Coordinates (Angstroms)
 Number     Number       Type             X           Y           Z
 ---------------------------------------------------------------------
      1         16           0        0.000000    0.000000    0.980264
      2         19           0        0.000000    2.480849   -0.412743
      3         19           0       -0.000000   -2.480849   -0.412743
 ---------------------------------------------------------------------
 Rotational constants (GHZ):          11.4880304           1.0537228           0.9651920
 Standard basis: def2QZVPP (5D, 7F)
 There are    96 symmetry adapted cartesian basis functions of A1  symmetry.
 There are    35 symmetry adapted cartesian basis functions of A2  symmetry.
 There are    45 symmetry adapted cartesian basis functions of B1  symmetry.
 There are    76 symmetry adapted cartesian basis functions of B2  symmetry.
 There are    77 symmetry adapted basis functions of A1  symmetry.
 There are    31 symmetry adapted basis functions of A2  symmetry.
 There are    39 symmetry adapted basis functions of B1  symmetry.
 There are    63 symmetry adapted basis functions of B2  symmetry.
   210 basis functions,   385 primitive gaussians,   252 cartesian basis functions
    27 alpha electrons       27 beta electrons
       nuclear repulsion energy       151.5837272986 Hartrees.
 NAtoms=    3 NActive=    3 NUniq=    2 SFac= 2.25D+00 NAtFMM=   60 NAOKFM=F Big=F
 Integral buffers will be    131072 words long.
 Raffenetti 2 integral format.
 Two-electron integral symmetry is turned on.
 One-electron integrals computed using PRISM.
   4 Symmetry operations used in ECPInt.
 ECPInt:  NShTT=    2485 NPrTT=   10021 LenC2=    2324 LenP2D=    7271.
 LDataN:  DoStor=T MaxTD1= 8 Len=  415
 NBasis=   210 RedAO= T EigKep=  7.52D-04  NBF=    77    31    39    63
 NBsUse=   210 1.00D-06 EigRej= -1.00D+00 NBFU=    77    31    39    63
 ExpMin= 1.53D-02 ExpMax= 2.02D+06 ExpMxC= 2.31D+03 IAcc=3 IRadAn=         5 AccDes= 0.00D+00
 Harris functional with IExCor= 1009 and IRadAn=       5 diagonalized for initial guess.
 HarFok:  IExCor= 1009 AccDes= 0.00D+00 IRadAn=         5 IDoV= 1 UseB2=F ITyADJ=14
 ICtDFT=  3500011 ScaDFX=  1.000000  1.000000  1.000000  1.000000
 FoFCou: FMM=F IPFlag=           0 FMFlag=      100000 FMFlg1=           0
         NFxFlg=           0 DoJE=T BraDBF=F KetDBF=T FulRan=T
         wScrn=  0.000000 ICntrl=       500 IOpCl=  0 I1Cent=   200000004 NGrid=           0
         NMat0=    1 NMatS0=      1 NMatT0=    0 NMatD0=    1 NMtDS0=    0 NMtDT0=    0
 Petite list used in FoFCou.
 Initial guess orbital symmetries:
       Occupied  (B2) (A1) (A1) (B2) (A1) (B2) (A1) (B2) (A1) (A2)
                 (B1) (A1) (B2) (A1) (B1) (A1) (B2) (A1) (B2) (A1)
                 (B2) (B1) (A2) (A1) (B2) (A1) (B1)
       Virtual   (A1) (B2) (A1) (B1) (A1) (A2) (B2) (B2) (A1) (B1)
                 (A2) (A1) (A1) (B2) (B2) (A1) (B1) (B1) (A2) (B2)
                 (A1) (A2) (B2) (A1) (B2) (B2) (A1) (B1) (A1) (B2)
                 (A2) (A1) (B2) (B1) (A1) (B2) (B1) (A1) (A2) (B1)
                 (B2) (A1) (A1) (A2) (A2) (B1) (A1) (B2) (B1) (B2)
                 (B2) (A2) (A1) (A1) (B2) (B1) (A1) (B2) (A2) (A1)
                 (B2) (B1) (A1) (A2) (B2) (B2) (A1) (B1) (A1) (A2)
                 (B2) (A1) (B2) (B1) (A1) (B1) (B2) (A2) (A2) (B2)
                 (A1) (A1) (A1) (B1) (B2) (A2) (B2) (A1) (B1) (B1)
                 (A1) (B2) (A1) (A1) (B1) (A2) (B2) (B2) (A1) (B2)
                 (A1) (B1) (A1) (B1) (A2) (B2) (A1) (A1) (A2) (B2)
                 (B1) (A2) (B2) (B2) (A1) (A1) (B1) (A2) (A1) (B2)
                 (A2) (B2) (A1) (A1) (B1) (B1) (A2) (A1) (B2) (B1)
                 (A1) (B2) (A2) (B1) (A2) (B2) (A1) (A1) (B2) (B1)
                 (A1) (A2) (B1) (B2) (B2) (A1) (B1) (A1) (B2) (A1)
                 (B2) (A1) (B1) (A1) (B1) (A2) (B2) (A1) (A2) (B2)
                 (A1) (B1) (A2) (B2) (B2) (A1) (A1) (B1) (A2) (A1)
                 (B2) (A1) (B2) (A1) (B1) (A1) (B2) (A1) (B2) (A1)
                 (A1) (B2) (A1)
 The electronic state of the initial guess is 1-A1.
 Keep J ints in memory in symmetry-blocked form, NReq=307684869.
 Requested convergence on RMS density matrix=1.00D-08 within 128 cycles.
 Requested convergence on MAX density matrix=1.00D-06.
 Requested convergence on             energy=1.00D-06.
 No special actions if energy rises.
 SCF Done:  E(RTPSS-TPSS) =  -1598.20529110     A.U. after   14 cycles
            NFock= 14  Conv=0.51D-08     -V/T= 2.0019

 **********************************************************************

            Population analysis using the SCF Density.

 **********************************************************************

 Orbital symmetries:
       Occupied  (B2) (A1) (A1) (B2) (A1) (B2) (A1) (A2) (B1) (B2)
                 (A1) (A1) (A1) (B2) (B1) (A1) (B2) (A1) (B2) (B1)
                 (A2) (A1) (B2) (A1) (B2) (A1) (B1)
       Virtual   (A1) (B2) (A1) (B1) (A2) (B2) (A1) (B2) (A1) (B2)
                 (A1) (B1) (A2) (B2) (A1) (B1) (A1) (A2) (B2) (B2)
                 (A1) (B1) (A2) (B2) (A1) (B2) (A1) (A1) (B1) (A2)
                 (B2) (B2) (A1) (A1) (B1) (B1) (A2) (A1) (B2) (A1)
                 (A2) (B1) (B2) (B2) (B2) (A1) (B1) (A1) (A2) (B2)
                 (A2) (A1) (B1) (B2) (A1) (B1) (B2) (A2) (A1) (B2)
                 (A1) (B1) (B2) (A1) (A2) (B2) (A1) (B1) (A1) (A2)
                 (B2) (A1) (B2) (B1) (A1) (A2) (B2) (B1) (B2) (A2)
                 (A1) (A1) (B2) (A1) (B2) (B1) (A1) (A2) (B1) (A1)
                 (B1) (B2) (A1) (A1) (B2) (B1) (A2) (B2) (A1) (B2)
                 (A1) (B1) (A1) (A2) (B2) (B1) (A1) (A2) (B2) (A1)
                 (B1) (A2) (B2) (B2) (A1) (A1) (B1) (A2) (A1) (B1)
                 (B2) (A2) (A1) (B2) (B1) (A2) (B2) (A1) (A1) (B2)
                 (A2) (B2) (B1) (A1) (B1) (A2) (A1) (A1) (B2) (B1)
                 (A1) (A2) (B1) (B2) (B2) (A1) (B1) (A1) (B2) (A1)
                 (B2) (A1) (B1) (A1) (A2) (B2) (B1) (A1) (A2) (B2)
                 (A1) (B1) (A2) (B2) (B2) (A1) (A1) (B1) (A2) (A1)
                 (B2) (A1) (B2) (A1) (B1) (A1) (B2) (A1) (B2) (A1)
                 (A1) (B2) (A1)
 The electronic state is 1-A1.
 Alpha  occ. eigenvalues -- -129.16413-129.16413 -88.17640 -12.92459 -12.92459
 Alpha  occ. eigenvalues --  -10.28363 -10.28362 -10.28360 -10.28360 -10.28349
 Alpha  occ. eigenvalues --  -10.28349  -7.56225  -5.53887  -5.53847  -5.53766
 Alpha  occ. eigenvalues --   -1.26955  -1.26953  -0.66249  -0.66240  -0.66226
 Alpha  occ. eigenvalues --   -0.66222  -0.65815  -0.65676  -0.44207  -0.10359
 Alpha  occ. eigenvalues --   -0.09449  -0.08795
 Alpha virt. eigenvalues --   -0.04852  -0.04010  -0.00716  -0.00157   0.00404
 Alpha virt. eigenvalues --    0.00557   0.01152   0.01883   0.03411   0.04515
 Alpha virt. eigenvalues --    0.04975   0.05154   0.05878   0.05985   0.06122
 Alpha virt. eigenvalues --    0.06515   0.07396   0.08244   0.08265   0.08549
 Alpha virt. eigenvalues --    0.09632   0.10394   0.10671   0.12590   0.13925
 Alpha virt. eigenvalues --    0.15681   0.18704   0.20161   0.20403   0.20924
 Alpha virt. eigenvalues --    0.21013   0.21691   0.22819   0.22877   0.23055
 Alpha virt. eigenvalues --    0.23594   0.24158   0.24395   0.24421   0.25430
 Alpha virt. eigenvalues --    0.25441   0.25856   0.26788   0.28109   0.28256
 Alpha virt. eigenvalues --    0.28309   0.28321   0.29076   0.29491   0.30435
 Alpha virt. eigenvalues --    0.31595   0.32506   0.32759   0.34622   0.34987
 Alpha virt. eigenvalues --    0.38132   0.39447   0.40441   0.42458   0.43864
 Alpha virt. eigenvalues --    0.47765   0.50155   0.50385   0.52541   0.52601
 Alpha virt. eigenvalues --    0.59106   0.61942   0.66231   0.66646   0.67578
 Alpha virt. eigenvalues --    0.69174   0.72932   0.76858   0.81184   0.81944
 Alpha virt. eigenvalues --    0.82853   0.82865   0.84033   0.85920   0.86409
 Alpha virt. eigenvalues --    0.89094   0.98366   0.99539   1.06182   1.09666
 Alpha virt. eigenvalues --    1.12505   1.14413   1.16801   1.17459   1.19177
 Alpha virt. eigenvalues --    1.20244   1.21287   1.25021   1.27872   1.31261
 Alpha virt. eigenvalues --    1.31549   1.31635   1.34172   1.45540   1.48303
 Alpha virt. eigenvalues --    2.02068   2.13999   2.14018   2.14259   2.14273
 Alpha virt. eigenvalues --    2.14653   2.14903   2.15506   2.15707   2.16138
 Alpha virt. eigenvalues --    2.16492   2.17085   2.18996   2.32258   2.35044
 Alpha virt. eigenvalues --    2.85177   2.85717   2.90811   2.91641   2.91866
 Alpha virt. eigenvalues --    2.92163   2.92639   2.94283   2.94518   2.95369
 Alpha virt. eigenvalues --    2.95873   2.96537   2.98328   3.01565   3.06147
 Alpha virt. eigenvalues --    3.14859   3.14938   3.14946   3.15062   3.15597
 Alpha virt. eigenvalues --    3.16067   3.16371   3.17859   3.19406   3.31442
 Alpha virt. eigenvalues --    3.31770   3.37510   3.39111   3.41040   3.47260
 Alpha virt. eigenvalues --    3.55890   3.69335   3.83733   3.94123   4.16801
 Alpha virt. eigenvalues --    4.19735   7.05363   7.44069   7.44082   7.44208
 Alpha virt. eigenvalues --    7.44216   7.44307   7.44449   7.44797   7.44949
 Alpha virt. eigenvalues --    7.45427   7.45675   7.45939   7.47090   7.55883
 Alpha virt. eigenvalues --    7.56885   8.78711   8.78739   8.82756   8.87593
 Alpha virt. eigenvalues --    8.91597  14.30032  14.32697  24.17856  28.67732
 Alpha virt. eigenvalues --   28.71564  28.77216  49.41937  49.44359  83.60893
 Alpha virt. eigenvalues --  342.34967 342.39057 451.26729
          Condensed to atoms (all electrons):
               1          2          3
     1  S   16.504778   0.257597   0.257597
     2  K    0.257597  18.244625  -0.012208
     3  K    0.257597  -0.012208  18.244625
 Mulliken charges:
               1
     1  S   -1.019972
     2  K    0.509986
     3  K    0.509986
 Sum of Mulliken charges =  -0.00000
 Mulliken charges with hydrogens summed into heavy atoms:
               1
     1  S   -1.019972
     2  K    0.509986
     3  K    0.509986
 Electronic spatial extent (au):  <R**2>=            980.9334
 Charge=             -0.0000 electrons
 Dipole moment (field-independent basis, Debye):
    X=              0.0000    Y=              0.0000    Z=             -7.3414  Tot=              7.3414
 Quadrupole moment (field-independent basis, Debye-Ang):
   XX=            -43.9659   YY=             -0.5831   ZZ=            -46.5482
   XY=             -0.0000   XZ=              0.0000   YZ=              0.0000
 Traceless Quadrupole moment (field-independent basis, Debye-Ang):
   XX=            -13.6002   YY=             29.7827   ZZ=            -16.1824
   XY=             -0.0000   XZ=              0.0000   YZ=              0.0000
 Octapole moment (field-independent basis, Debye-Ang**2):
  XXX=              0.0000  YYY=              0.0000  ZZZ=            -28.5323  XYY=              0.0000
  XXY=              0.0000  XXZ=             -9.0545  XZZ=              0.0000  YZZ=             -0.0000
  YYZ=            -21.2180  XYZ=              0.0000
 Hexadecapole moment (field-independent basis, Debye-Ang**3):
 XXXX=            -95.0700 YYYY=           -653.7681 ZZZZ=           -220.8958 XXXY=              0.0000
 XXXZ=              0.0000 YYYX=              0.0000 YYYZ=              0.0000 ZZZX=              0.0000
 ZZZY=              0.0000 XXYY=           -160.2622 XXZZ=            -52.4098 YYZZ=           -182.9357
 XXYZ=              0.0000 YYXZ=              0.0000 ZZXY=              0.0000
 N-N= 1.515837272986D+02 E-N=-4.100792090378D+03  KE= 1.595212469541D+03
 Symmetry A1   KE= 8.579831069637D+02
 Symmetry A2   KE= 6.255457151207D+01
 Symmetry B1   KE= 1.005931883295D+02
 Symmetry B2   KE= 5.740816027358D+02
   4 Symmetry operations used in ECPInt.
 ECPInt:  NShTT=    2485 NPrTT=   10021 LenC2=    2324 LenP2D=    7271.
 LDataN:  DoStor=T MaxTD1= 9 Len=  602
 Calling FoFJK, ICntrl=      2527 FMM=F ISym2X=1 I1Cent= 0 IOpClX= 0 NMat=1 NMatS=1 NMatT=0.
 ***** Axes restored to original set *****
 -------------------------------------------------------------------
 Center     Atomic                   Forces (Hartrees/Bohr)
 Number     Number              X              Y              Z
 -------------------------------------------------------------------
      1       16           0.000000000   -0.000000000   -0.008971900
      2       19           0.006245495    0.000000000    0.004485950
      3       19          -0.006245495   -0.000000000    0.004485950
 -------------------------------------------------------------------
 Cartesian Forces:  Max     0.008971900 RMS     0.004699349

 GradGradGradGradGradGradGradGradGradGradGradGradGradGradGradGradGradGrad
 Berny optimization.
 FormGI is forming the generalized inverse of G from B-inverse, IUseBI=4.
 Internal  Forces:  Max     0.007642064 RMS     0.006779155
 Search for a local minimum.
 Step number   1 out of a maximum of   20
 All quantities printed in internal units (Hartrees-Bohrs-Radians)
 Mixed Optimization -- RFO/linear search
 Second derivative matrix not updated -- first step.
 The second derivative matrix:
                          R1        R2        A1
           R1           0.03867
           R2           0.00000   0.03867
           A1           0.00000   0.00000   0.25000
 ITU=  0
     Eigenvalues ---    0.03867   0.03867   0.25000
 RFO step:  Lambda=-2.89377847D-03 EMin= 3.86660120D-02
 Linear search not attempted -- first point.
 Iteration  1 RMS(Cart)=  0.12773910 RMS(Int)=  0.00041532
 Iteration  2 RMS(Cart)=  0.00103784 RMS(Int)=  0.00000022
 Iteration  3 RMS(Cart)=  0.00000019 RMS(Int)=  0.00000000
 ClnCor:  largest displacement from symmetrization is 9.87D-14 for atom     3.
 Variable       Old X    -DE/DX   Delta X   Delta X   Delta X     New X
                                 (Linear)    (Quad)   (Total)
    R1        5.37662  -0.00764   0.00000  -0.18388  -0.18388   5.19274
    R2        5.37662  -0.00764   0.00000  -0.18388  -0.18388   5.19274
    A1        2.11833   0.00459   0.00000   0.01815   0.01815   2.13648
         Item               Value     Threshold  Converged?
 Maximum Force            0.007642     0.000450     NO 
 RMS     Force            0.006779     0.000300     NO 
 Maximum Displacement     0.137449     0.001800     NO 
 RMS     Displacement     0.128146     0.001200     NO 
 Predicted change in Energy=-1.545209D-03
 GradGradGradGradGradGradGradGradGradGradGradGradGradGradGradGradGradGrad

                          Input orientation:                          
 ---------------------------------------------------------------------
 Center     Atomic      Atomic             Coordinates (Angstroms)
 Number     Number       Type             X           Y           Z
 ---------------------------------------------------------------------
      1         16           0       10.500000   10.500000   11.150210
      2         19           0        8.091886   10.500000    9.826643
      3         19           0       12.908114   10.500000    9.826643
 ---------------------------------------------------------------------
                    Distance matrix (angstroms):
                    1          2          3
     1  S    0.000000
     2  K    2.747879   0.000000
     3  K    2.747879   4.816227   0.000000
 Stoichiometry    K2S
 Framework group  C2V[C2(S),SGV(K2)]
 Deg. of freedom     2
 Full point group                 C2V     NOp   4
 Largest Abelian subgroup         C2V     NOp   4
 Largest concise Abelian subgroup C2      NOp   2
                         Standard orientation:                         
 ---------------------------------------------------------------------
 Center     Atomic      Atomic             Coordinates (Angstroms)
 Number     Number       Type             X           Y           Z
 ---------------------------------------------------------------------
      1         16           0        0.000000    0.000000    0.931399
      2         19           0       -0.000000    2.408114   -0.392168
      3         19           0       -0.000000   -2.408114   -0.392168
 ---------------------------------------------------------------------
 Rotational constants (GHZ):          12.7250739           1.1183376           1.0279929
 Standard basis: def2QZVPP (5D, 7F)
 There are    96 symmetry adapted cartesian basis functions of A1  symmetry.
 There are    35 symmetry adapted cartesian basis functions of A2  symmetry.
 There are    45 symmetry adapted cartesian basis functions of B1  symmetry.
 There are    76 symmetry adapted cartesian basis functions of B2  symmetry.
 There are    77 symmetry adapted basis functions of A1  symmetry.
 There are    31 symmetry adapted basis functions of A2  symmetry.
 There are    39 symmetry adapted basis functions of B1  symmetry.
 There are    63 symmetry adapted basis functions of B2  symmetry.
   210 basis functions,   385 primitive gaussians,   252 cartesian basis functions
    27 alpha electrons       27 beta electrons
       nuclear repulsion energy       156.7510102329 Hartrees.
 NAtoms=    3 NActive=    3 NUniq=    2 SFac= 2.25D+00 NAtFMM=   60 NAOKFM=F Big=F
 Integral buffers will be    131072 words long.
 Raffenetti 2 integral format.
 Two-electron integral symmetry is turned on.
 One-electron integrals computed using PRISM.
   4 Symmetry operations used in ECPInt.
 ECPInt:  NShTT=    2485 NPrTT=   10021 LenC2=    2334 LenP2D=    7311.
 LDataN:  DoStor=T MaxTD1= 8 Len=  415
 NBasis=   210 RedAO= T EigKep=  6.68D-04  NBF=    77    31    39    63
 NBsUse=   210 1.00D-06 EigRej= -1.00D+00 NBFU=    77    31    39    63
 Initial guess from the checkpoint file:  "/data/hutter/SMG16/TPSS/Gau-56371.chk"
 B after Tr=     0.000000    0.000000   -0.000000
         Rot=    1.000000   -0.000000    0.000000    0.000000 Ang=   0.00 deg.
 Initial guess orbital symmetries:
       Occupied  (B2) (A1) (A1) (B2) (A1) (B2) (A1) (A2) (B1) (B2)
                 (A1) (A1) (A1) (B2) (B1) (A1) (B2) (A1) (B2) (B1)
                 (A2) (A1) (B2) (A1) (B2) (A1) (B1)
       Virtual   (A1) (B2) (A1) (B1) (A2) (B2) (A1) (B2) (A1) (B2)
                 (A1) (B1) (A2) (B2) (A1) (B1) (A1) (A2) (B2) (B2)
                 (A1) (B1) (A2) (B2) (A1) (B2) (A1) (A1) (B1) (A2)
                 (B2) (B2) (A1) (A1) (B1) (B1) (A2) (A1) (B2) (A1)
                 (A2) (B1) (B2) (B2) (B2) (A1) (B1) (A1) (A2) (B2)
                 (A2) (A1) (B1) (B2) (A1) (B1) (B2) (A2) (A1) (B2)
                 (A1) (B1) (B2) (A1) (A2) (B2) (A1) (B1) (A1) (A2)
                 (B2) (A1) (B2) (B1) (A1) (A2) (B2) (B1) (B2) (A2)
                 (A1) (A1) (B2) (A1) (B2) (B1) (A1) (A2) (B1) (A1)
                 (B1) (B2) (A1) (A1) (B2) (B1) (A2) (B2) (A1) (B2)
                 (A1) (B1) (A1) (A2) (B2) (B1) (A1) (A2) (B2) (A1)
                 (B1) (A2) (B2) (B2) (A1) (A1) (B1) (A2) (A1) (B1)
                 (B2) (A2) (A1) (B2) (B1) (A2) (B2) (A1) (A1) (B2)
                 (A2) (B2) (B1) (A1) (B1) (A2) (A1) (A1) (B2) (B1)
                 (A1) (A2) (B1) (B2) (B2) (A1) (B1) (A1) (B2) (A1)
                 (B2) (A1) (B1) (A1) (A2) (B2) (B1) (A1) (A2) (B2)
                 (A1) (B1) (A2) (B2) (B2) (A1) (A1) (B1) (A2) (A1)
                 (B2) (A1) (B2) (A1) (B1) (A1) (B2) (A1) (B2) (A1)
                 (A1) (B2) (A1)
 ExpMin= 1.53D-02 ExpMax= 2.02D+06 ExpMxC= 2.31D+03 IAcc=3 IRadAn=         5 AccDes= 0.00D+00
 Harris functional with IExCor= 1009 and IRadAn=       5 diagonalized for initial guess.
 HarFok:  IExCor= 1009 AccDes= 0.00D+00 IRadAn=         5 IDoV= 1 UseB2=F ITyADJ=14
 ICtDFT=  3500011 ScaDFX=  1.000000  1.000000  1.000000  1.000000
 FoFCou: FMM=F IPFlag=           0 FMFlag=      100000 FMFlg1=           0
         NFxFlg=           0 DoJE=T BraDBF=F KetDBF=T FulRan=T
         wScrn=  0.000000 ICntrl=       500 IOpCl=  0 I1Cent=   200000004 NGrid=           0
         NMat0=    1 NMatS0=      1 NMatT0=    0 NMatD0=    1 NMtDS0=    0 NMtDT0=    0
 Petite list used in FoFCou.
 Keep J ints in memory in symmetry-blocked form, NReq=307684869.
 Requested convergence on RMS density matrix=1.00D-08 within 128 cycles.
 Requested convergence on MAX density matrix=1.00D-06.
 Requested convergence on             energy=1.00D-06.
 No special actions if energy rises.
 SCF Done:  E(RTPSS-TPSS) =  -1598.20691232     A.U. after    9 cycles
            NFock=  9  Conv=0.74D-08     -V/T= 2.0018
   4 Symmetry operations used in ECPInt.
 ECPInt:  NShTT=    2485 NPrTT=   10021 LenC2=    2334 LenP2D=    7311.
 LDataN:  DoStor=T MaxTD1= 9 Len=  602
 Calling FoFJK, ICntrl=      2527 FMM=F ISym2X=1 I1Cent= 0 IOpClX= 0 NMat=1 NMatS=1 NMatT=0.
 ***** Axes restored to original set *****
 -------------------------------------------------------------------
 Center     Atomic                   Forces (Hartrees/Bohr)
 Number     Number              X              Y              Z
 -------------------------------------------------------------------
      1       16          -0.000000000   -0.000000000   -0.002230052
      2       19          -0.000350353    0.000000000    0.001115026
      3       19           0.000350353   -0.000000000    0.001115026
 -------------------------------------------------------------------
 Cartesian Forces:  Max     0.002230052 RMS     0.000925274

 GradGradGradGradGradGradGradGradGradGradGradGradGradGradGradGradGradGrad
 Berny optimization.
 Using GEDIIS/GDIIS optimizer.
 FormGI is forming the generalized inverse of G from B-inverse, IUseBI=4.
 Internal  Forces:  Max     0.005950417 RMS     0.003440605
 Search for a local minimum.
 Step number   2 out of a maximum of   20
 All quantities printed in internal units (Hartrees-Bohrs-Radians)
 Mixed Optimization -- RFO/linear search
 Update second derivatives using D2CorX and points    1    2
 DE= -1.62D-03 DEPred=-1.55D-03 R= 1.05D+00
 TightC=F SS=  1.41D+00  RLast= 2.61D-01 DXNew= 5.0454D-01 7.8204D-01
 Trust test= 1.05D+00 RLast= 2.61D-01 DXMaxT set to 5.05D-01
 The second derivative matrix:
                          R1        R2        A1
           R1           0.04026
           R2           0.00160   0.04026
           A1           0.01569   0.01569   0.24305
 ITU=  1  0
 Use linear search instead of GDIIS.
     Eigenvalues ---    0.03867   0.03944   0.24547
 RFO step:  Lambda=-1.49617938D-04 EMin= 3.86660120D-02
 Quartic linear search produced a step of  0.05993.
 Iteration  1 RMS(Cart)=  0.03550578 RMS(Int)=  0.00036535
 Iteration  2 RMS(Cart)=  0.00038702 RMS(Int)=  0.00000000
 Iteration  3 RMS(Cart)=  0.00000001 RMS(Int)=  0.00000000
 ClnCor:  largest displacement from symmetrization is 3.66D-14 for atom     3.
 Variable       Old X    -DE/DX   Delta X   Delta X   Delta X     New X
                                 (Linear)    (Quad)   (Total)
    R1        5.19274  -0.00023  -0.01102  -0.00229  -0.01331   5.17943
    R2        5.19274  -0.00023  -0.01102  -0.00229  -0.01331   5.17943
    A1        2.13648   0.00595   0.00109   0.02506   0.02615   2.16263
         Item               Value     Threshold  Converged?
 Maximum Force            0.005950     0.000450     NO 
 RMS     Force            0.003441     0.000300     NO 
 Maximum Displacement     0.043982     0.001800     NO 
 RMS     Displacement     0.035345     0.001200     NO 
 Predicted change in Energy=-8.213432D-05
 GradGradGradGradGradGradGradGradGradGradGradGradGradGradGradGradGradGrad

                          Input orientation:                          
 ---------------------------------------------------------------------
 Center     Atomic      Atomic             Coordinates (Angstroms)
 Number     Number       Type             X           Y           Z
 ---------------------------------------------------------------------
      1         16           0       10.500000   10.500000   11.126936
      2         19           0        8.081001   10.500000    9.838281
      3         19           0       12.918999   10.500000    9.838281
 ---------------------------------------------------------------------
                    Distance matrix (angstroms):
                    1          2          3
     1  S    0.000000
     2  K    2.740837   0.000000
     3  K    2.740837   4.837998   0.000000
 Stoichiometry    K2S
 Framework group  C2V[C2(S),SGV(K2)]
 Deg. of freedom     2
 Full point group                 C2V     NOp   4
 Largest Abelian subgroup         C2V     NOp   4
 Largest concise Abelian subgroup C2      NOp   2
                         Standard orientation:                         
 ---------------------------------------------------------------------
 Center     Atomic      Atomic             Coordinates (Angstroms)
 Number     Number       Type             X           Y           Z
 ---------------------------------------------------------------------
      1         16           0        0.000000    0.000000    0.906831
      2         19           0       -0.000000    2.418999   -0.381824
      3         19           0       -0.000000   -2.418999   -0.381824
 ---------------------------------------------------------------------
 Rotational constants (GHZ):          13.4238888           1.1082956           1.0237716
 Standard basis: def2QZVPP (5D, 7F)
 There are    96 symmetry adapted cartesian basis functions of A1  symmetry.
 There are    35 symmetry adapted cartesian basis functions of A2  symmetry.
 There are    45 symmetry adapted cartesian basis functions of B1  symmetry.
 There are    76 symmetry adapted cartesian basis functions of B2  symmetry.
 There are    77 symmetry adapted basis functions of A1  symmetry.
 There are    31 symmetry adapted basis functions of A2  symmetry.
 There are    39 symmetry adapted basis functions of B1  symmetry.
 There are    63 symmetry adapted basis functions of B2  symmetry.
   210 basis functions,   385 primitive gaussians,   252 cartesian basis functions
    27 alpha electrons       27 beta electrons
       nuclear repulsion energy       156.8733634266 Hartrees.
 NAtoms=    3 NActive=    3 NUniq=    2 SFac= 2.25D+00 NAtFMM=   60 NAOKFM=F Big=F
 Integral buffers will be    131072 words long.
 Raffenetti 2 integral format.
 Two-electron integral symmetry is turned on.
 One-electron integrals computed using PRISM.
   4 Symmetry operations used in ECPInt.
 ECPInt:  NShTT=    2485 NPrTT=   10021 LenC2=    2334 LenP2D=    7311.
 LDataN:  DoStor=T MaxTD1= 8 Len=  415
 NBasis=   210 RedAO= T EigKep=  6.78D-04  NBF=    77    31    39    63
 NBsUse=   210 1.00D-06 EigRej= -1.00D+00 NBFU=    77    31    39    63
 Initial guess from the checkpoint file:  "/data/hutter/SMG16/TPSS/Gau-56371.chk"
 B after Tr=    -0.000000    0.000000   -0.000000
         Rot=    1.000000    0.000000   -0.000000    0.000000 Ang=   0.00 deg.
 Initial guess orbital symmetries:
       Occupied  (B2) (A1) (A1) (B2) (A1) (B2) (A1) (A2) (B1) (B2)
                 (A1) (A1) (A1) (B2) (B1) (A1) (B2) (A1) (B2) (B1)
                 (A2) (A1) (B2) (A1) (B2) (A1) (B1)
       Virtual   (A1) (B2) (A1) (B1) (A2) (B2) (A1) (B2) (A1) (B2)
                 (A1) (B1) (A2) (B2) (A1) (B1) (A1) (A2) (B2) (B2)
                 (A1) (B1) (A2) (B2) (A1) (B2) (A1) (A1) (B1) (A2)
                 (B2) (B2) (A1) (B1) (A1) (B1) (A2) (A1) (B2) (A1)
                 (A2) (B1) (B2) (B1) (A1) (B2) (B2) (A1) (A2) (B2)
                 (A2) (B1) (A1) (B2) (A1) (B1) (B2) (A2) (A1) (B2)
                 (A1) (B1) (B2) (A1) (A2) (B2) (A1) (B1) (A1) (A2)
                 (B2) (A1) (B2) (B1) (A1) (A2) (B2) (B1) (B2) (A2)
                 (A1) (A1) (B2) (A1) (B2) (B1) (A1) (A2) (B1) (A1)
                 (B1) (B2) (A1) (A1) (B2) (B1) (A2) (B2) (A1) (B2)
                 (A1) (B1) (A1) (A2) (B2) (B1) (A1) (A2) (B2) (A1)
                 (B1) (A2) (B2) (B2) (A1) (A1) (B1) (B2) (A2) (A1)
                 (B1) (B2) (A2) (A1) (B1) (A2) (B2) (A1) (A1) (B2)
                 (A2) (B2) (B1) (A1) (B1) (A2) (A1) (A1) (B2) (B1)
                 (A1) (A2) (B1) (B2) (B2) (A1) (B1) (A1) (B2) (A1)
                 (B2) (A1) (B1) (A1) (A2) (B2) (B1) (A1) (A2) (B2)
                 (A1) (B1) (A2) (B2) (B2) (A1) (A1) (B1) (A2) (A1)
                 (B2) (A1) (B2) (A1) (B1) (A1) (B2) (A1) (B2) (A1)
                 (A1) (B2) (A1)
 ExpMin= 1.53D-02 ExpMax= 2.02D+06 ExpMxC= 2.31D+03 IAcc=3 IRadAn=         5 AccDes= 0.00D+00
 Harris functional with IExCor= 1009 and IRadAn=       5 diagonalized for initial guess.
 HarFok:  IExCor= 1009 AccDes= 0.00D+00 IRadAn=         5 IDoV= 1 UseB2=F ITyADJ=14
 ICtDFT=  3500011 ScaDFX=  1.000000  1.000000  1.000000  1.000000
 FoFCou: FMM=F IPFlag=           0 FMFlag=      100000 FMFlg1=           0
         NFxFlg=           0 DoJE=T BraDBF=F KetDBF=T FulRan=T
         wScrn=  0.000000 ICntrl=       500 IOpCl=  0 I1Cent=   200000004 NGrid=           0
         NMat0=    1 NMatS0=      1 NMatT0=    0 NMatD0=    1 NMtDS0=    0 NMtDT0=    0
 Petite list used in FoFCou.
 Keep J ints in memory in symmetry-blocked form, NReq=307684869.
 Requested convergence on RMS density matrix=1.00D-08 within 128 cycles.
 Requested convergence on MAX density matrix=1.00D-06.
 Requested convergence on             energy=1.00D-06.
 No special actions if energy rises.
 SCF Done:  E(RTPSS-TPSS) =  -1598.20706177     A.U. after    8 cycles
            NFock=  8  Conv=0.64D-08     -V/T= 2.0018
   4 Symmetry operations used in ECPInt.
 ECPInt:  NShTT=    2485 NPrTT=   10021 LenC2=    2334 LenP2D=    7311.
 LDataN:  DoStor=T MaxTD1= 9 Len=  602
 Calling FoFJK, ICntrl=      2527 FMM=F ISym2X=1 I1Cent= 0 IOpClX= 0 NMat=1 NMatS=1 NMatT=0.
 ***** Axes restored to original set *****
 -------------------------------------------------------------------
 Center     Atomic                   Forces (Hartrees/Bohr)
 Number     Number              X              Y              Z
 -------------------------------------------------------------------
      1       16           0.000000000   -0.000000000   -0.001615120
      2       19          -0.000760451    0.000000000    0.000807560
      3       19           0.000760451   -0.000000000    0.000807560
 -------------------------------------------------------------------
 Cartesian Forces:  Max     0.001615120 RMS     0.000750518

 GradGradGradGradGradGradGradGradGradGradGradGradGradGradGradGradGradGrad
 Berny optimization.
 Using GEDIIS/GDIIS optimizer.
 FormGI is forming the generalized inverse of G from B-inverse, IUseBI=4.
 Internal  Forces:  Max     0.005543410 RMS     0.003209325
 Search for a local minimum.
 Step number   3 out of a maximum of   20
 All quantities printed in internal units (Hartrees-Bohrs-Radians)
 Mixed Optimization -- RFO/linear search
 Update second derivatives using D2CorX and points    1    2    3
 DE= -1.49D-04 DEPred=-8.21D-05 R= 1.82D+00
 TightC=F SS=  1.41D+00  RLast= 3.22D-02 DXNew= 8.4853D-01 9.6659D-02
 Trust test= 1.82D+00 RLast= 3.22D-02 DXMaxT set to 5.05D-01
 The second derivative matrix:
                          R1        R2        A1
           R1           0.05366
           R2           0.01500   0.05366
           A1           0.01500   0.01500   0.03083
 ITU=  1  1  0
 Use linear search instead of GDIIS.
     Eigenvalues ---    0.02132   0.03867   0.07816
 RFO step:  Lambda=-2.60201480D-04 EMin= 2.13237614D-02
 Quartic linear search produced a step of  2.00000.
 Iteration  1 RMS(Cart)=  0.16037724 RMS(Int)=  0.00644156
 Iteration  2 RMS(Cart)=  0.00573970 RMS(Int)=  0.00000059
 Iteration  3 RMS(Cart)=  0.00000144 RMS(Int)=  0.00000000
 Iteration  4 RMS(Cart)=  0.00000000 RMS(Int)=  0.00000000
 ClnCor:  largest displacement from symmetrization is 8.53D-13 for atom     3.
 Variable       Old X    -DE/DX   Delta X   Delta X   Delta X     New X
                                 (Linear)    (Quad)   (Total)
    R1        5.17943   0.00029  -0.02662   0.02304  -0.00358   5.17586
    R2        5.17943   0.00029  -0.02662   0.02304  -0.00358   5.17586
    A1        2.16263   0.00554   0.05230   0.05846   0.11076   2.27339
         Item               Value     Threshold  Converged?
 Maximum Force            0.005543     0.000450     NO 
 RMS     Force            0.003209     0.000300     NO 
 Maximum Displacement     0.172177     0.001800     NO 
 RMS     Displacement     0.158628     0.001200     NO 
 Predicted change in Energy=-4.338155D-04
 GradGradGradGradGradGradGradGradGradGradGradGradGradGradGradGradGradGrad

                          Input orientation:                          
 ---------------------------------------------------------------------
 Center     Atomic      Atomic             Coordinates (Angstroms)
 Number     Number       Type             X           Y           Z
 ---------------------------------------------------------------------
      1         16           0       10.500000   10.500000   11.035824
      2         19           0        8.015097   10.500000    9.883837
      3         19           0       12.984903   10.500000    9.883837
 ---------------------------------------------------------------------
                    Distance matrix (angstroms):
                    1          2          3
     1  S    0.000000
     2  K    2.738945   0.000000
     3  K    2.738945   4.969807   0.000000
 Stoichiometry    K2S
 Framework group  C2V[C2(S),SGV(K2)]
 Deg. of freedom     2
 Full point group                 C2V     NOp   4
 Largest Abelian subgroup         C2V     NOp   4
 Largest concise Abelian subgroup C2      NOp   2
                         Standard orientation:                         
 ---------------------------------------------------------------------
 Center     Atomic      Atomic             Coordinates (Angstroms)
 Number     Number       Type             X           Y           Z
 ---------------------------------------------------------------------
      1         16           0       -0.000000   -0.000000    0.810658
      2         19           0        0.000000    2.484903   -0.341330
      3         19           0       -0.000000   -2.484903   -0.341330
 ---------------------------------------------------------------------
 Rotational constants (GHZ):          16.7979601           1.0502869           0.9884823
 Standard basis: def2QZVPP (5D, 7F)
 There are    96 symmetry adapted cartesian basis functions of A1  symmetry.
 There are    35 symmetry adapted cartesian basis functions of A2  symmetry.
 There are    45 symmetry adapted cartesian basis functions of B1  symmetry.
 There are    76 symmetry adapted cartesian basis functions of B2  symmetry.
 There are    77 symmetry adapted basis functions of A1  symmetry.
 There are    31 symmetry adapted basis functions of A2  symmetry.
 There are    39 symmetry adapted basis functions of B1  symmetry.
 There are    63 symmetry adapted basis functions of B2  symmetry.
   210 basis functions,   385 primitive gaussians,   252 cartesian basis functions
    27 alpha electrons       27 beta electrons
       nuclear repulsion energy       155.9072145375 Hartrees.
 NAtoms=    3 NActive=    3 NUniq=    2 SFac= 2.25D+00 NAtFMM=   60 NAOKFM=F Big=F
 Integral buffers will be    131072 words long.
 Raffenetti 2 integral format.
 Two-electron integral symmetry is turned on.
 One-electron integrals computed using PRISM.
   4 Symmetry operations used in ECPInt.
 ECPInt:  NShTT=    2485 NPrTT=   10021 LenC2=    2330 LenP2D=    7297.
 LDataN:  DoStor=T MaxTD1= 8 Len=  415
 NBasis=   210 RedAO= T EigKep=  7.38D-04  NBF=    77    31    39    63
 NBsUse=   210 1.00D-06 EigRej= -1.00D+00 NBFU=    77    31    39    63
 Initial guess from the checkpoint file:  "/data/hutter/SMG16/TPSS/Gau-56371.chk"
 B after Tr=    -0.000000   -0.000000    0.000000
         Rot=    1.000000    0.000000    0.000000    0.000000 Ang=   0.00 deg.
 Initial guess orbital symmetries:
       Occupied  (B2) (A1) (A1) (B2) (A1) (B2) (A1) (A2) (B1) (B2)
                 (A1) (A1) (A1) (B2) (B1) (A1) (B2) (A1) (B2) (B1)
                 (A2) (A1) (B2) (A1) (B2) (A1) (B1)
       Virtual   (A1) (B2) (A1) (B1) (A2) (B2) (A1) (B2) (A1) (B2)
                 (A1) (B1) (A2) (B2) (A1) (B1) (A1) (A2) (B2) (B2)
                 (A1) (B1) (A2) (B2) (A1) (B2) (A1) (A1) (B1) (A2)
                 (B2) (B2) (A1) (B1) (A1) (B1) (A2) (A1) (B2) (A2)
                 (A1) (B1) (B2) (B1) (A1) (B2) (B2) (A1) (A2) (B2)
                 (A2) (B1) (A1) (B2) (A1) (B1) (B2) (A2) (A1) (B2)
                 (A1) (B1) (B2) (A1) (A2) (B2) (A1) (B1) (A1) (A2)
                 (B2) (A1) (B2) (B1) (A1) (A2) (B2) (B1) (B2) (A2)
                 (A1) (A1) (B2) (A1) (B2) (B1) (A1) (A2) (B1) (A1)
                 (B1) (B2) (A1) (A1) (B2) (A2) (B1) (B2) (A1) (B2)
                 (A1) (B1) (A1) (A2) (B2) (B1) (A1) (A2) (B2) (A1)
                 (B1) (A2) (B2) (B2) (A1) (A1) (B1) (B2) (A2) (A1)
                 (B1) (B2) (A2) (A1) (B1) (B2) (A2) (A1) (A1) (B2)
                 (A2) (B2) (B1) (A1) (B1) (A2) (A1) (A1) (B2) (B1)
                 (A1) (A2) (B1) (B2) (B2) (A1) (B1) (A1) (B2) (A1)
                 (B2) (A1) (B1) (A1) (A2) (B2) (B1) (A1) (A2) (B2)
                 (A1) (B1) (A2) (B2) (B2) (A1) (A1) (B1) (A2) (A1)
                 (B2) (A1) (B2) (A1) (B1) (A1) (B2) (A1) (B2) (A1)
                 (A1) (B2) (A1)
 ExpMin= 1.53D-02 ExpMax= 2.02D+06 ExpMxC= 2.31D+03 IAcc=3 IRadAn=         5 AccDes= 0.00D+00
 Harris functional with IExCor= 1009 and IRadAn=       5 diagonalized for initial guess.
 HarFok:  IExCor= 1009 AccDes= 0.00D+00 IRadAn=         5 IDoV= 1 UseB2=F ITyADJ=14
 ICtDFT=  3500011 ScaDFX=  1.000000  1.000000  1.000000  1.000000
 FoFCou: FMM=F IPFlag=           0 FMFlag=      100000 FMFlg1=           0
         NFxFlg=           0 DoJE=T BraDBF=F KetDBF=T FulRan=T
         wScrn=  0.000000 ICntrl=       500 IOpCl=  0 I1Cent=   200000004 NGrid=           0
         NMat0=    1 NMatS0=      1 NMatT0=    0 NMatD0=    1 NMtDS0=    0 NMtDT0=    0
 Petite list used in FoFCou.
 Keep J ints in memory in symmetry-blocked form, NReq=307684869.
 Requested convergence on RMS density matrix=1.00D-08 within 128 cycles.
 Requested convergence on MAX density matrix=1.00D-06.
 Requested convergence on             energy=1.00D-06.
 No special actions if energy rises.
 SCF Done:  E(RTPSS-TPSS) =  -1598.20756919     A.U. after   10 cycles
            NFock= 10  Conv=0.24D-08     -V/T= 2.0018
   4 Symmetry operations used in ECPInt.
 ECPInt:  NShTT=    2485 NPrTT=   10021 LenC2=    2330 LenP2D=    7297.
 LDataN:  DoStor=T MaxTD1= 9 Len=  602
 Calling FoFJK, ICntrl=      2527 FMM=F ISym2X=1 I1Cent= 0 IOpClX= 0 NMat=1 NMatS=1 NMatT=0.
 ***** Axes restored to original set *****
 -------------------------------------------------------------------
 Center     Atomic                   Forces (Hartrees/Bohr)
 Number     Number              X              Y              Z
 -------------------------------------------------------------------
      1       16           0.000000000    0.000000000   -0.001315371
      2       19          -0.000301560   -0.000000000    0.000657686
      3       19           0.000301560   -0.000000000    0.000657686
 -------------------------------------------------------------------
 Cartesian Forces:  Max     0.001315371 RMS     0.000555496

 GradGradGradGradGradGradGradGradGradGradGradGradGradGradGradGradGradGrad
 Berny optimization.
 Using GEDIIS/GDIIS optimizer.
 FormGI is forming the generalized inverse of G from B-inverse, IUseBI=4.
 Internal  Forces:  Max     0.003744830 RMS     0.002162080
 Search for a local minimum.
 Step number   4 out of a maximum of   20
 All quantities printed in internal units (Hartrees-Bohrs-Radians)
 Mixed Optimization -- RFO/linear search
 Update second derivatives using D2CorX and points    1    2    3    4
 DE= -5.07D-04 DEPred=-4.34D-04 R= 1.17D+00
 TightC=F SS=  1.41D+00  RLast= 1.11D-01 DXNew= 8.4853D-01 3.3263D-01
 Trust test= 1.17D+00 RLast= 1.11D-01 DXMaxT set to 5.05D-01
 The second derivative matrix:
                          R1        R2        A1
           R1           0.04176
           R2           0.00309   0.04176
           A1           0.00411   0.00411   0.01650
 ITU=  1  1  1  0
 Use linear search instead of GDIIS.
     Eigenvalues ---    0.01536   0.03867   0.04599
 RFO step:  Lambda=-1.56224225D-05 EMin= 1.53597226D-02
 Quartic linear search produced a step of  2.00000.
 Iteration  1 RMS(Cart)=  0.27581135 RMS(Int)=  0.02623214
 Iteration  2 RMS(Cart)=  0.03546684 RMS(Int)=  0.00040335
 Iteration  3 RMS(Cart)=  0.00047209 RMS(Int)=  0.00000001
 Iteration  4 RMS(Cart)=  0.00000002 RMS(Int)=  0.00000000
 ClnCor:  largest displacement from symmetrization is 2.71D-13 for atom     3.
 Variable       Old X    -DE/DX   Delta X   Delta X   Delta X     New X
                                 (Linear)    (Quad)   (Total)
    R1        5.17586  -0.00000  -0.00715  -0.01347  -0.02062   5.15524
    R2        5.17586  -0.00000  -0.00715  -0.01347  -0.02062   5.15524
    A1        2.27339   0.00374   0.22152   0.00440   0.22593   2.49932
         Item               Value     Threshold  Converged?
 Maximum Force            0.003745     0.000450     NO 
 RMS     Force            0.002162     0.000300     NO 
 Maximum Displacement     0.366471     0.001800     NO 
 RMS     Displacement     0.304524     0.001200     NO 
 Predicted change in Energy=-4.441812D-04
 GradGradGradGradGradGradGradGradGradGradGradGradGradGradGradGradGradGrad

                          Input orientation:                          
 ---------------------------------------------------------------------
 Center     Atomic      Atomic             Coordinates (Angstroms)
 Number     Number       Type             X           Y           Z
 ---------------------------------------------------------------------
      1         16           0       10.500000   10.500000   10.841896
      2         19           0        7.911431   10.500000    9.980800
      3         19           0       13.088569   10.500000    9.980800
 ---------------------------------------------------------------------
                    Distance matrix (angstroms):
                    1          2          3
     1  S    0.000000
     2  K    2.728035   0.000000
     3  K    2.728035   5.177137   0.000000
 Stoichiometry    K2S
 Framework group  C2V[C2(S),SGV(K2)]
 Deg. of freedom     2
 Full point group                 C2V     NOp   4
 Largest Abelian subgroup         C2V     NOp   4
 Largest concise Abelian subgroup C2      NOp   2
                         Standard orientation:                         
 ---------------------------------------------------------------------
 Center     Atomic      Atomic             Coordinates (Angstroms)
 Number     Number       Type             X           Y           Z
 ---------------------------------------------------------------------
      1         16           0       -0.000000    0.000000    0.605956
      2         19           0       -0.000000    2.588569   -0.255139
      3         19           0       -0.000000   -2.588569   -0.255139
 ---------------------------------------------------------------------
 Rotational constants (GHZ):          30.0641801           0.9678489           0.9376629
 Standard basis: def2QZVPP (5D, 7F)
 There are    96 symmetry adapted cartesian basis functions of A1  symmetry.
 There are    35 symmetry adapted cartesian basis functions of A2  symmetry.
 There are    45 symmetry adapted cartesian basis functions of B1  symmetry.
 There are    76 symmetry adapted cartesian basis functions of B2  symmetry.
 There are    77 symmetry adapted basis functions of A1  symmetry.
 There are    31 symmetry adapted basis functions of A2  symmetry.
 There are    39 symmetry adapted basis functions of B1  symmetry.
 There are    63 symmetry adapted basis functions of B2  symmetry.
   210 basis functions,   385 primitive gaussians,   252 cartesian basis functions
    27 alpha electrons       27 beta electrons
       nuclear repulsion energy       154.8376395793 Hartrees.
 NAtoms=    3 NActive=    3 NUniq=    2 SFac= 2.25D+00 NAtFMM=   60 NAOKFM=F Big=F
 Integral buffers will be    131072 words long.
 Raffenetti 2 integral format.
 Two-electron integral symmetry is turned on.
 One-electron integrals computed using PRISM.
   4 Symmetry operations used in ECPInt.
 ECPInt:  NShTT=    2485 NPrTT=   10021 LenC2=    2327 LenP2D=    7270.
 LDataN:  DoStor=T MaxTD1= 8 Len=  415
 NBasis=   210 RedAO= T EigKep=  8.05D-04  NBF=    77    31    39    63
 NBsUse=   210 1.00D-06 EigRej= -1.00D+00 NBFU=    77    31    39    63
 Initial guess from the checkpoint file:  "/data/hutter/SMG16/TPSS/Gau-56371.chk"
 B after Tr=     0.000000   -0.000000   -0.000000
         Rot=    1.000000    0.000000    0.000000    0.000000 Ang=   0.00 deg.
 Initial guess orbital symmetries:
       Occupied  (B2) (A1) (A1) (B2) (A1) (B2) (A1) (A2) (B1) (B2)
                 (A1) (A1) (A1) (B2) (B1) (A1) (B2) (A1) (B2) (B1)
                 (A2) (A1) (B2) (A1) (B2) (A1) (B1)
       Virtual   (A1) (B2) (A1) (B1) (A2) (B2) (A1) (B2) (A1) (B2)
                 (A1) (B1) (A2) (B2) (A1) (B1) (A1) (A2) (B2) (B2)
                 (A1) (A2) (B1) (B2) (A1) (B2) (A1) (A1) (B1) (B2)
                 (A2) (B2) (A1) (A1) (B1) (B1) (A2) (B2) (A1) (A2)
                 (A1) (B1) (B2) (B2) (A1) (B1) (B2) (A2) (A1) (B2)
                 (A2) (A1) (B1) (B2) (A1) (B1) (B2) (A2) (A1) (B2)
                 (A1) (B1) (B2) (A1) (A2) (B2) (A1) (B1) (A1) (A2)
                 (B2) (A1) (B2) (B1) (A1) (A2) (B2) (B1) (B2) (A2)
                 (A1) (A1) (B2) (A1) (B2) (B1) (A1) (A2) (B1) (A1)
                 (B1) (B2) (A1) (A1) (B2) (A2) (B1) (B2) (A1) (B2)
                 (A1) (B1) (A1) (A2) (B2) (B1) (A1) (A2) (B2) (A1)
                 (B1) (A2) (B2) (B2) (A1) (A1) (B1) (B2) (A2) (A1)
                 (B1) (B2) (A1) (A2) (B1) (B2) (A2) (A1) (A1) (B2)
                 (A2) (B2) (B1) (A1) (B1) (A2) (A1) (A1) (B2) (B1)
                 (A1) (A2) (B2) (B1) (B2) (A1) (B1) (A1) (B2) (A1)
                 (B2) (A1) (B1) (A1) (A2) (B2) (B1) (A1) (A2) (B2)
                 (A1) (B1) (A2) (B2) (B2) (A1) (B1) (A1) (A2) (A1)
                 (B2) (A1) (B2) (A1) (B1) (A1) (B2) (A1) (B2) (A1)
                 (A1) (B2) (A1)
 ExpMin= 1.53D-02 ExpMax= 2.02D+06 ExpMxC= 2.31D+03 IAcc=3 IRadAn=         5 AccDes= 0.00D+00
 Harris functional with IExCor= 1009 and IRadAn=       5 diagonalized for initial guess.
 HarFok:  IExCor= 1009 AccDes= 0.00D+00 IRadAn=         5 IDoV= 1 UseB2=F ITyADJ=14
 ICtDFT=  3500011 ScaDFX=  1.000000  1.000000  1.000000  1.000000
 FoFCou: FMM=F IPFlag=           0 FMFlag=      100000 FMFlg1=           0
         NFxFlg=           0 DoJE=T BraDBF=F KetDBF=T FulRan=T
         wScrn=  0.000000 ICntrl=       500 IOpCl=  0 I1Cent=   200000004 NGrid=           0
         NMat0=    1 NMatS0=      1 NMatT0=    0 NMatD0=    1 NMtDS0=    0 NMtDT0=    0
 Petite list used in FoFCou.
 Keep J ints in memory in symmetry-blocked form, NReq=307684869.
 Requested convergence on RMS density matrix=1.00D-08 within 128 cycles.
 Requested convergence on MAX density matrix=1.00D-06.
 Requested convergence on             energy=1.00D-06.
 No special actions if energy rises.
 SCF Done:  E(RTPSS-TPSS) =  -1598.20813300     A.U. after   10 cycles
            NFock= 10  Conv=0.36D-08     -V/T= 2.0018
   4 Symmetry operations used in ECPInt.
 ECPInt:  NShTT=    2485 NPrTT=   10021 LenC2=    2327 LenP2D=    7270.
 LDataN:  DoStor=T MaxTD1= 9 Len=  602
 Calling FoFJK, ICntrl=      2527 FMM=F ISym2X=1 I1Cent= 0 IOpClX= 0 NMat=1 NMatS=1 NMatT=0.
 ***** Axes restored to original set *****
 -------------------------------------------------------------------
 Center     Atomic                   Forces (Hartrees/Bohr)
 Number     Number              X              Y              Z
 -------------------------------------------------------------------
      1       16           0.000000000   -0.000000000   -0.000348192
      2       19          -0.000420570   -0.000000000    0.000174096
      3       19           0.000420570    0.000000000    0.000174096
 -------------------------------------------------------------------
 Cartesian Forces:  Max     0.000420570 RMS     0.000243952

 GradGradGradGradGradGradGradGradGradGradGradGradGradGradGradGradGradGrad
 Berny optimization.
 Using GEDIIS/GDIIS optimizer.
 FormGI is forming the generalized inverse of G from B-inverse, IUseBI=4.
 Internal  Forces:  Max     0.001535989 RMS     0.000930250
 Search for a local minimum.
 Step number   5 out of a maximum of   20
 All quantities printed in internal units (Hartrees-Bohrs-Radians)
 Mixed Optimization -- En-DIIS/RFO-DIIS
 Update second derivatives using D2CorX and points    2    3    4    5
 DE= -5.64D-04 DEPred=-4.44D-04 R= 1.27D+00
 TightC=F SS=  1.41D+00  RLast= 2.28D-01 DXNew= 8.4853D-01 6.8340D-01
 Trust test= 1.27D+00 RLast= 2.28D-01 DXMaxT set to 6.83D-01
 The second derivative matrix:
                          R1        R2        A1
           R1           0.04208
           R2           0.00342   0.04208
           A1           0.00262   0.00262   0.01025
 ITU=  1  1  1  1
 Use linear search instead of GDIIS.
     Eigenvalues ---    0.00987   0.03867   0.04589
 RFO step:  Lambda=-2.51797034D-05 EMin= 9.87018102D-03
 Quartic linear search produced a step of  1.93335.
 Iteration  1 RMS(Cart)=  0.25957279 RMS(Int)=  0.14155408
 Iteration  2 RMS(Cart)=  0.24996335 RMS(Int)=  0.03234191
 Iteration  3 RMS(Cart)=  0.05371113 RMS(Int)=  0.00096295
 Iteration  4 RMS(Cart)=  0.00101291 RMS(Int)=  0.00000004
 Iteration  5 RMS(Cart)=  0.00000006 RMS(Int)=  0.00000000
 ClnCor:  largest displacement from symmetrization is 5.36D-13 for atom     3.
 Variable       Old X    -DE/DX   Delta X   Delta X   Delta X     New X
                                 (Linear)    (Quad)   (Total)
    R1        5.15524   0.00034  -0.03986   0.01625  -0.02361   5.13163
    R2        5.15524   0.00034  -0.03986   0.01625  -0.02361   5.13163
    A1        2.49932   0.00154   0.43679   0.00510   0.44190   2.94121
         Item               Value     Threshold  Converged?
 Maximum Force            0.001536     0.000450     NO 
 RMS     Force            0.000930     0.000300     NO 
 Maximum Displacement     0.742637     0.001800     NO 
 RMS     Displacement     0.553484     0.001200     NO 
 Predicted change in Energy=-3.094693D-04
 GradGradGradGradGradGradGradGradGradGradGradGradGradGradGradGradGradGrad

                          Input orientation:                          
 ---------------------------------------------------------------------
 Center     Atomic      Atomic             Coordinates (Angstroms)
 Number     Number       Type             X           Y           Z
 ---------------------------------------------------------------------
      1         16           0       10.500000   10.500000   10.448909
      2         19           0        7.798078   10.500000   10.177294
      3         19           0       13.201922   10.500000   10.177294
 ---------------------------------------------------------------------
                    Distance matrix (angstroms):
                    1          2          3
     1  S    0.000000
     2  K    2.715540   0.000000
     3  K    2.715540   5.403845   0.000000
 Stoichiometry    K2S
 Framework group  C2V[C2(S),SGV(K2)]
 Deg. of freedom     2
 Full point group                 C2V     NOp   4
 Largest Abelian subgroup         C2V     NOp   4
 Largest concise Abelian subgroup C2      NOp   2
                         Standard orientation:                         
 ---------------------------------------------------------------------
 Center     Atomic      Atomic             Coordinates (Angstroms)
 Number     Number       Type             X           Y           Z
 ---------------------------------------------------------------------
      1         16           0        0.000000    0.000000    0.191137
      2         19           0       -0.000000    2.701922   -0.080479
      3         19           0       -0.000000   -2.701922   -0.080479
 ---------------------------------------------------------------------
 Rotational constants (GHZ):         302.1643985           0.8883441           0.8857400
 Standard basis: def2QZVPP (5D, 7F)
 There are    96 symmetry adapted cartesian basis functions of A1  symmetry.
 There are    35 symmetry adapted cartesian basis functions of A2  symmetry.
 There are    45 symmetry adapted cartesian basis functions of B1  symmetry.
 There are    76 symmetry adapted cartesian basis functions of B2  symmetry.
 There are    77 symmetry adapted basis functions of A1  symmetry.
 There are    31 symmetry adapted basis functions of A2  symmetry.
 There are    39 symmetry adapted basis functions of B1  symmetry.
 There are    63 symmetry adapted basis functions of B2  symmetry.
   210 basis functions,   385 primitive gaussians,   252 cartesian basis functions
    27 alpha electrons       27 beta electrons
       nuclear repulsion energy       153.8322390454 Hartrees.
 NAtoms=    3 NActive=    3 NUniq=    2 SFac= 2.25D+00 NAtFMM=   60 NAOKFM=F Big=F
 Integral buffers will be    131072 words long.
 Raffenetti 2 integral format.
 Two-electron integral symmetry is turned on.
 One-electron integrals computed using PRISM.
   4 Symmetry operations used in ECPInt.
 ECPInt:  NShTT=    2485 NPrTT=   10021 LenC2=    2323 LenP2D=    7252.
 LDataN:  DoStor=T MaxTD1= 8 Len=  415
 NBasis=   210 RedAO= T EigKep=  7.61D-04  NBF=    77    31    39    63
 NBsUse=   210 1.00D-06 EigRej= -1.00D+00 NBFU=    77    31    39    63
 Initial guess from the checkpoint file:  "/data/hutter/SMG16/TPSS/Gau-56371.chk"
 B after Tr=    -0.000000    0.000000    0.000000
         Rot=    1.000000    0.000000    0.000000   -0.000000 Ang=   0.00 deg.
 Initial guess orbital symmetries:
       Occupied  (B2) (A1) (A1) (B2) (A1) (B2) (A1) (A2) (B1) (B2)
                 (A1) (A1) (B2) (A1) (B1) (A1) (B2) (A1) (B2) (B1)
                 (A2) (A1) (B2) (A1) (B2) (A1) (B1)
       Virtual   (A1) (B2) (A1) (B1) (A2) (B2) (A1) (B2) (A1) (B2)
                 (B1) (A1) (A2) (B2) (A1) (B1) (A1) (A2) (B2) (B2)
                 (A2) (A1) (B1) (B2) (A1) (B2) (A1) (B2) (A1) (B1)
                 (A2) (B2) (A1) (A1) (B1) (B1) (A2) (B2) (A1) (A2)
                 (B1) (A1) (B2) (B2) (A1) (B1) (A1) (B2) (A2) (B2)
                 (A2) (A1) (B1) (B2) (A1) (A2) (B2) (B1) (A1) (B2)
                 (A1) (B1) (A1) (B2) (A2) (B2) (A1) (A1) (B1) (A2)
                 (B2) (B2) (A1) (B1) (A1) (A2) (B2) (B1) (A1) (B2)
                 (A2) (B2) (A1) (A1) (B2) (B1) (A1) (B1) (A1) (B1)
                 (A2) (B2) (A1) (A1) (A2) (B2) (B1) (B2) (A1) (B2)
                 (A1) (B1) (A1) (A2) (B2) (B1) (A1) (A2) (B2) (A1)
                 (A2) (B1) (B2) (B2) (A1) (A1) (B1) (A1) (B2) (B1)
                 (A1) (A2) (B2) (A2) (B1) (B2) (A2) (A1) (A1) (B2)
                 (A2) (B2) (B1) (A1) (B1) (A1) (A2) (B2) (A1) (B1)
                 (A1) (A2) (B2) (B1) (B2) (A1) (B1) (A1) (B2) (A1)
                 (B2) (A1) (B1) (A1) (A2) (B2) (B1) (A1) (A2) (B2)
                 (A1) (A2) (B1) (B2) (B2) (A1) (B1) (A1) (A2) (B2)
                 (A1) (A1) (B2) (A1) (B1) (A1) (B2) (A1) (B2) (A1)
                 (A1) (B2) (A1)
 ExpMin= 1.53D-02 ExpMax= 2.02D+06 ExpMxC= 2.31D+03 IAcc=3 IRadAn=         5 AccDes= 0.00D+00
 Harris functional with IExCor= 1009 and IRadAn=       5 diagonalized for initial guess.
 HarFok:  IExCor= 1009 AccDes= 0.00D+00 IRadAn=         5 IDoV= 1 UseB2=F ITyADJ=14
 ICtDFT=  3500011 ScaDFX=  1.000000  1.000000  1.000000  1.000000
 FoFCou: FMM=F IPFlag=           0 FMFlag=      100000 FMFlg1=           0
         NFxFlg=           0 DoJE=T BraDBF=F KetDBF=T FulRan=T
         wScrn=  0.000000 ICntrl=       500 IOpCl=  0 I1Cent=   200000004 NGrid=           0
         NMat0=    1 NMatS0=      1 NMatT0=    0 NMatD0=    1 NMtDS0=    0 NMtDT0=    0
 Petite list used in FoFCou.
 Keep J ints in memory in symmetry-blocked form, NReq=307684869.
 Requested convergence on RMS density matrix=1.00D-08 within 128 cycles.
 Requested convergence on MAX density matrix=1.00D-06.
 Requested convergence on             energy=1.00D-06.
 No special actions if energy rises.
 SCF Done:  E(RTPSS-TPSS) =  -1598.20841525     A.U. after   10 cycles
            NFock= 10  Conv=0.42D-08     -V/T= 2.0018
   4 Symmetry operations used in ECPInt.
 ECPInt:  NShTT=    2485 NPrTT=   10021 LenC2=    2323 LenP2D=    7252.
 LDataN:  DoStor=T MaxTD1= 9 Len=  602
 Calling FoFJK, ICntrl=      2527 FMM=F ISym2X=1 I1Cent= 0 IOpClX= 0 NMat=1 NMatS=1 NMatT=0.
 ***** Axes restored to original set *****
 -------------------------------------------------------------------
 Center     Atomic                   Forces (Hartrees/Bohr)
 Number     Number              X              Y              Z
 -------------------------------------------------------------------
      1       16           0.000000000   -0.000000000    0.000088274
      2       19          -0.000796929    0.000000000   -0.000044137
      3       19           0.000796929    0.000000000   -0.000044137
 -------------------------------------------------------------------
 Cartesian Forces:  Max     0.000796929 RMS     0.000377400

 GradGradGradGradGradGradGradGradGradGradGradGradGradGradGradGradGradGrad
 Berny optimization.
 Using GEDIIS/GDIIS optimizer.
 FormGI is forming the generalized inverse of G from B-inverse, IUseBI=4.
 Internal  Forces:  Max     0.000797347 RMS     0.000659612
 Search for a local minimum.
 Step number   6 out of a maximum of   20
 All quantities printed in internal units (Hartrees-Bohrs-Radians)
 Mixed Optimization -- En-DIIS/RFO-DIIS
 Swapping is turned off.
 Update second derivatives using D2CorX and points    5    6
 DE= -2.82D-04 DEPred=-3.09D-04 R= 9.12D-01
 TightC=F SS=  1.41D+00  RLast= 4.43D-01 DXNew= 1.1493D+00 1.3295D+00
 Trust test= 9.12D-01 RLast= 4.43D-01 DXMaxT set to 1.15D+00
 The second derivative matrix:
                          R1        R2        A1
           R1           0.04241
           R2           0.00375   0.04241
           A1           0.00144   0.00144   0.00321
 ITU=  1  1  1  1
     Eigenvalues ---    0.00312   0.03867   0.04626
 En-DIIS/RFO-DIIS/Sim-DIIS IScMMF=       -3 using points:     6    5
 RFO step:  Lambda=-3.32085503D-05.
 DidBck=F Rises=F RFO-DIIS coefs:    1.09258   -0.09258
 Iteration  1 RMS(Cart)=  0.05456164 RMS(Int)=  0.00086174
 Iteration  2 RMS(Cart)=  0.00112149 RMS(Int)=  0.00000030
 Iteration  3 RMS(Cart)=  0.00000034 RMS(Int)=  0.00000000
 ClnCor:  largest displacement from symmetrization is 1.46D-13 for atom     3.
 Variable       Old X    -DE/DX   Delta X   Delta X   Delta X     New X
                                 (Linear)    (Quad)   (Total)
    R1        5.13163   0.00080  -0.00219   0.01811   0.01592   5.14755
    R2        5.13163   0.00080  -0.00219   0.01811   0.01592   5.14755
    A1        2.94121   0.00018   0.04091   0.00194   0.04285   2.98407
         Item               Value     Threshold  Converged?
 Maximum Force            0.000797     0.000450     NO 
 RMS     Force            0.000660     0.000300     NO 
 Maximum Displacement     0.072175     0.001800     NO 
 RMS     Displacement     0.055181     0.001200     NO 
 Predicted change in Energy=-1.664295D-05
 GradGradGradGradGradGradGradGradGradGradGradGradGradGradGradGradGradGrad

                          Input orientation:                          
 ---------------------------------------------------------------------
 Center     Atomic      Atomic             Coordinates (Angstroms)
 Number     Number       Type             X           Y           Z
 ---------------------------------------------------------------------
      1         16           0       10.500000   10.500000   10.410716
      2         19           0        7.784478   10.500000   10.196391
      3         19           0       13.215522   10.500000   10.196391
 ---------------------------------------------------------------------
                    Distance matrix (angstroms):
                    1          2          3
     1  S    0.000000
     2  K    2.723966   0.000000
     3  K    2.723966   5.431043   0.000000
 Stoichiometry    K2S
 Framework group  C2V[C2(S),SGV(K2)]
 Deg. of freedom     2
 Full point group                 C2V     NOp   4
 Largest Abelian subgroup         C2V     NOp   4
 Largest concise Abelian subgroup C2      NOp   2
                         Standard orientation:                         
 ---------------------------------------------------------------------
 Center     Atomic      Atomic             Coordinates (Angstroms)
 Number     Number       Type             X           Y           Z
 ---------------------------------------------------------------------
      1         16           0       -0.000000    0.000000    0.150821
      2         19           0        0.000000    2.715522   -0.063504
      3         19           0       -0.000000   -2.715522   -0.063504
 ---------------------------------------------------------------------
 Rotational constants (GHZ):         485.2949478           0.8794688           0.8778779
 Standard basis: def2QZVPP (5D, 7F)
 There are    96 symmetry adapted cartesian basis functions of A1  symmetry.
 There are    35 symmetry adapted cartesian basis functions of A2  symmetry.
 There are    45 symmetry adapted cartesian basis functions of B1  symmetry.
 There are    76 symmetry adapted cartesian basis functions of B2  symmetry.
 There are    77 symmetry adapted basis functions of A1  symmetry.
 There are    31 symmetry adapted basis functions of A2  symmetry.
 There are    39 symmetry adapted basis functions of B1  symmetry.
 There are    63 symmetry adapted basis functions of B2  symmetry.
   210 basis functions,   385 primitive gaussians,   252 cartesian basis functions
    27 alpha electrons       27 beta electrons
       nuclear repulsion energy       153.2887065253 Hartrees.
 NAtoms=    3 NActive=    3 NUniq=    2 SFac= 2.25D+00 NAtFMM=   60 NAOKFM=F Big=F
 Integral buffers will be    131072 words long.
 Raffenetti 2 integral format.
 Two-electron integral symmetry is turned on.
 One-electron integrals computed using PRISM.
   4 Symmetry operations used in ECPInt.
 ECPInt:  NShTT=    2485 NPrTT=   10021 LenC2=    2321 LenP2D=    7248.
 LDataN:  DoStor=T MaxTD1= 8 Len=  415
 NBasis=   210 RedAO= T EigKep=  7.65D-04  NBF=    77    31    39    63
 NBsUse=   210 1.00D-06 EigRej= -1.00D+00 NBFU=    77    31    39    63
 Initial guess from the checkpoint file:  "/data/hutter/SMG16/TPSS/Gau-56371.chk"
 B after Tr=     0.000000   -0.000000   -0.000000
         Rot=    1.000000   -0.000000    0.000000    0.000000 Ang=   0.00 deg.
 Initial guess orbital symmetries:
       Occupied  (B2) (A1) (A1) (B2) (A1) (B2) (A1) (B1) (A2) (A1)
                 (B2) (A1) (B2) (A1) (B1) (A1) (B2) (A1) (B1) (B2)
                 (A2) (A1) (B2) (A1) (B2) (A1) (B1)
       Virtual   (A1) (B2) (A1) (B1) (A2) (B2) (A1) (B2) (A1) (B2)
                 (B1) (A1) (A2) (B2) (A1) (B1) (A1) (B2) (A2) (B2)
                 (A2) (B2) (A1) (B1) (A1) (B2) (A1) (B2) (A2) (B2)
                 (A1) (B1) (A1) (B1) (A1) (B1) (A2) (B2) (A2) (B2)
                 (A1) (A1) (B1) (A1) (B2) (A1) (B1) (B2) (A2) (B2)
                 (A2) (A1) (B1) (B2) (A2) (B2) (A1) (B1) (A1) (B2)
                 (A1) (B1) (A1) (A2) (B2) (B2) (A1) (A1) (B1) (B2)
                 (A2) (B2) (A1) (B1) (A1) (A2) (B2) (B1) (A1) (A2)
                 (B2) (B2) (A1) (A1) (B1) (A1) (B1) (A1) (B1) (A1)
                 (B2) (A2) (B2) (A2) (B2) (A1) (B1) (B2) (A1) (B2)
                 (A1) (B1) (A1) (A2) (B2) (B1) (A1) (A2) (B2) (A2)
                 (B2) (A1) (B1) (A1) (B2) (A1) (B1) (A1) (A1) (B1)
                 (A2) (B2) (B2) (A2) (B1) (A1) (B2) (A2) (B2) (A1)
                 (A2) (B2) (B1) (A1) (B1) (A1) (A2) (B2) (B1) (A1)
                 (A2) (B2) (A1) (B1) (A1) (B2) (B1) (A1) (B2) (A1)
                 (B2) (A1) (B1) (A1) (A2) (B2) (A1) (B1) (B2) (A2)
                 (A2) (B2) (A1) (B1) (A1) (B2) (B1) (A1) (A2) (B2)
                 (A1) (A1) (B2) (A1) (B1) (A1) (B2) (A1) (B2) (A1)
                 (A1) (B2) (A1)
 ExpMin= 1.53D-02 ExpMax= 2.02D+06 ExpMxC= 2.31D+03 IAcc=3 IRadAn=         5 AccDes= 0.00D+00
 Harris functional with IExCor= 1009 and IRadAn=       5 diagonalized for initial guess.
 HarFok:  IExCor= 1009 AccDes= 0.00D+00 IRadAn=         5 IDoV= 1 UseB2=F ITyADJ=14
 ICtDFT=  3500011 ScaDFX=  1.000000  1.000000  1.000000  1.000000
 FoFCou: FMM=F IPFlag=           0 FMFlag=      100000 FMFlg1=           0
         NFxFlg=           0 DoJE=T BraDBF=F KetDBF=T FulRan=T
         wScrn=  0.000000 ICntrl=       500 IOpCl=  0 I1Cent=   200000004 NGrid=           0
         NMat0=    1 NMatS0=      1 NMatT0=    0 NMatD0=    1 NMtDS0=    0 NMtDT0=    0
 Petite list used in FoFCou.
 Keep J ints in memory in symmetry-blocked form, NReq=307684869.
 Requested convergence on RMS density matrix=1.00D-08 within 128 cycles.
 Requested convergence on MAX density matrix=1.00D-06.
 Requested convergence on             energy=1.00D-06.
 No special actions if energy rises.
 SCF Done:  E(RTPSS-TPSS) =  -1598.20843295     A.U. after    8 cycles
            NFock=  8  Conv=0.35D-08     -V/T= 2.0018
   4 Symmetry operations used in ECPInt.
 ECPInt:  NShTT=    2485 NPrTT=   10021 LenC2=    2321 LenP2D=    7248.
 LDataN:  DoStor=T MaxTD1= 9 Len=  602
 Calling FoFJK, ICntrl=      2527 FMM=F ISym2X=1 I1Cent= 0 IOpClX= 0 NMat=1 NMatS=1 NMatT=0.
 ***** Axes restored to original set *****
 -------------------------------------------------------------------
 Center     Atomic                   Forces (Hartrees/Bohr)
 Number     Number              X              Y              Z
 -------------------------------------------------------------------
      1       16           0.000000000   -0.000000000   -0.000065873
      2       19           0.000097402   -0.000000000    0.000032936
      3       19          -0.000097402    0.000000000    0.000032936
 -------------------------------------------------------------------
 Cartesian Forces:  Max     0.000097402 RMS     0.000053211

 GradGradGradGradGradGradGradGradGradGradGradGradGradGradGradGradGradGrad
 Berny optimization.
 Using GEDIIS/GDIIS optimizer.
 FormGI is forming the generalized inverse of G from B-inverse, IUseBI=4.
 Internal  Forces:  Max     0.000129567 RMS     0.000110551
 Search for a local minimum.
 Step number   7 out of a maximum of   20
 All quantities printed in internal units (Hartrees-Bohrs-Radians)
 Mixed Optimization -- En-DIIS/RFO-DIIS
 Swapping is turned off.
 Update second derivatives using D2CorX and points    5    6    7
 DE= -1.77D-05 DEPred=-1.66D-05 R= 1.06D+00
 TightC=F SS=  1.41D+00  RLast= 4.84D-02 DXNew= 1.9329D+00 1.4523D-01
 Trust test= 1.06D+00 RLast= 4.84D-02 DXMaxT set to 1.15D+00
 The second derivative matrix:
                          R1        R2        A1
           R1           0.04900
           R2           0.01033   0.04900
           A1          -0.00111  -0.00111   0.00209
 ITU=  1  1  1  1
     Eigenvalues ---    0.00205   0.03867   0.05937
 En-DIIS/RFO-DIIS/Sim-DIIS IScMMF=       -3 using points:     7    6    5
 RFO step:  Lambda=-8.03686605D-06.
 DidBck=F Rises=F RFO-DIIS coefs:    0.93852    0.15975   -0.09827
 Iteration  1 RMS(Cart)=  0.04962749 RMS(Int)=  0.00087475
 Iteration  2 RMS(Cart)=  0.00087570 RMS(Int)=  0.00000000
 Iteration  3 RMS(Cart)=  0.00000001 RMS(Int)=  0.00000000
 ClnCor:  largest displacement from symmetrization is 1.67D-13 for atom     3.
 Variable       Old X    -DE/DX   Delta X   Delta X   Delta X     New X
                                 (Linear)    (Quad)   (Total)
    R1        5.14755  -0.00010  -0.00330   0.00000  -0.00330   5.14425
    R2        5.14755  -0.00010  -0.00330  -0.00000  -0.00330   5.14425
    A1        2.98407   0.00013   0.04079   0.00000   0.04079   3.02486
         Item               Value     Threshold  Converged?
 Maximum Force            0.000130     0.000450     YES
 RMS     Force            0.000111     0.000300     YES
 Maximum Displacement     0.069955     0.001800     NO 
 RMS     Displacement     0.049568     0.001200     NO 
 Predicted change in Energy=-3.259575D-06
 GradGradGradGradGradGradGradGradGradGradGradGradGradGradGradGradGradGrad

                          Input orientation:                          
 ---------------------------------------------------------------------
 Center     Atomic      Atomic             Coordinates (Angstroms)
 Number     Number       Type             X           Y           Z
 ---------------------------------------------------------------------
      1         16           0       10.500000   10.500000   10.373697
      2         19           0        7.782415   10.500000   10.214900
      3         19           0       13.217585   10.500000   10.214900
 ---------------------------------------------------------------------
                    Distance matrix (angstroms):
                    1          2          3
     1  S    0.000000
     2  K    2.722220   0.000000
     3  K    2.722220   5.435170   0.000000
 Stoichiometry    K2S
 Framework group  C2V[C2(S),SGV(K2)]
 Deg. of freedom     2
 Full point group                 C2V     NOp   4
 Largest Abelian subgroup         C2V     NOp   4
 Largest concise Abelian subgroup C2      NOp   2
                         Standard orientation:                         
 ---------------------------------------------------------------------
 Center     Atomic      Atomic             Coordinates (Angstroms)
 Number     Number       Type             X           Y           Z
 ---------------------------------------------------------------------
      1         16           0        0.000000    0.000000    0.111746
      2         19           0       -0.000000    2.717585   -0.047051
      3         19           0       -0.000000   -2.717585   -0.047051
 ---------------------------------------------------------------------
 Rotational constants (GHZ):         884.0303977           0.8781338           0.8772624
 Standard basis: def2QZVPP (5D, 7F)
 There are    96 symmetry adapted cartesian basis functions of A1  symmetry.
 There are    35 symmetry adapted cartesian basis functions of A2  symmetry.
 There are    45 symmetry adapted cartesian basis functions of B1  symmetry.
 There are    76 symmetry adapted cartesian basis functions of B2  symmetry.
 There are    77 symmetry adapted basis functions of A1  symmetry.
 There are    31 symmetry adapted basis functions of A2  symmetry.
 There are    39 symmetry adapted basis functions of B1  symmetry.
 There are    63 symmetry adapted basis functions of B2  symmetry.
   210 basis functions,   385 primitive gaussians,   252 cartesian basis functions
    27 alpha electrons       27 beta electrons
       nuclear repulsion energy       153.3377527511 Hartrees.
 NAtoms=    3 NActive=    3 NUniq=    2 SFac= 2.25D+00 NAtFMM=   60 NAOKFM=F Big=F
 Integral buffers will be    131072 words long.
 Raffenetti 2 integral format.
 Two-electron integral symmetry is turned on.
 One-electron integrals computed using PRISM.
   4 Symmetry operations used in ECPInt.
 ECPInt:  NShTT=    2485 NPrTT=   10021 LenC2=    2321 LenP2D=    7248.
 LDataN:  DoStor=T MaxTD1= 8 Len=  415
 NBasis=   210 RedAO= T EigKep=  7.59D-04  NBF=    77    31    39    63
 NBsUse=   210 1.00D-06 EigRej= -1.00D+00 NBFU=    77    31    39    63
 Initial guess from the checkpoint file:  "/data/hutter/SMG16/TPSS/Gau-56371.chk"
 B after Tr=    -0.000000    0.000000    0.000000
         Rot=    1.000000   -0.000000   -0.000000    0.000000 Ang=   0.00 deg.
 Initial guess orbital symmetries:
       Occupied  (B2) (A1) (A1) (B2) (A1) (A1) (B2) (B1) (A2) (A1)
                 (B2) (A1) (B2) (A1) (B1) (A1) (B2) (A1) (B1) (B2)
                 (A2) (A1) (B2) (A1) (B2) (A1) (B1)
       Virtual   (A1) (B2) (A1) (B1) (A2) (B2) (A1) (B2) (A1) (B2)
                 (B1) (A1) (A2) (B2) (A1) (B1) (A1) (B2) (A2) (B2)
                 (A2) (B2) (A1) (B1) (A1) (B2) (A1) (B2) (A2) (B2)
                 (A1) (B1) (A1) (B1) (A1) (B1) (A2) (B2) (A2) (B2)
                 (A1) (A1) (B1) (A1) (B2) (A1) (B1) (B2) (A2) (B2)
                 (A2) (A1) (B1) (B2) (A2) (B2) (A1) (B1) (A1) (B2)
                 (A1) (B1) (A1) (A2) (B2) (B2) (A1) (A1) (B1) (B2)
                 (A2) (B2) (A1) (B1) (A1) (A2) (B2) (B1) (A1) (A2)
                 (B2) (B2) (A1) (A1) (B1) (A1) (B1) (A1) (B1) (A1)
                 (B2) (A2) (B2) (A2) (B2) (A1) (B1) (B2) (A1) (B2)
                 (A1) (B1) (A1) (A2) (B2) (B1) (A1) (A2) (B2) (A2)
                 (B2) (A1) (B1) (A1) (B2) (A1) (B1) (A1) (A1) (B1)
                 (A2) (B2) (B2) (A2) (B1) (A1) (B2) (A2) (B2) (A1)
                 (B2) (A2) (B1) (A1) (B1) (A1) (A2) (B2) (A1) (B1)
                 (A2) (B2) (A1) (B1) (A1) (B2) (B1) (A1) (B2) (A1)
                 (B2) (A1) (B1) (A1) (A2) (B2) (A1) (B1) (B2) (A2)
                 (A2) (B2) (A1) (B1) (A1) (B2) (B1) (A1) (A2) (B2)
                 (A1) (A1) (B2) (A1) (B1) (A1) (B2) (A1) (B2) (A1)
                 (A1) (B2) (A1)
 ExpMin= 1.53D-02 ExpMax= 2.02D+06 ExpMxC= 2.31D+03 IAcc=3 IRadAn=         5 AccDes= 0.00D+00
 Harris functional with IExCor= 1009 and IRadAn=       5 diagonalized for initial guess.
 HarFok:  IExCor= 1009 AccDes= 0.00D+00 IRadAn=         5 IDoV= 1 UseB2=F ITyADJ=14
 ICtDFT=  3500011 ScaDFX=  1.000000  1.000000  1.000000  1.000000
 FoFCou: FMM=F IPFlag=           0 FMFlag=      100000 FMFlg1=           0
         NFxFlg=           0 DoJE=T BraDBF=F KetDBF=T FulRan=T
         wScrn=  0.000000 ICntrl=       500 IOpCl=  0 I1Cent=   200000004 NGrid=           0
         NMat0=    1 NMatS0=      1 NMatT0=    0 NMatD0=    1 NMtDS0=    0 NMtDT0=    0
 Petite list used in FoFCou.
 Keep J ints in memory in symmetry-blocked form, NReq=307684869.
 Requested convergence on RMS density matrix=1.00D-08 within 128 cycles.
 Requested convergence on MAX density matrix=1.00D-06.
 Requested convergence on             energy=1.00D-06.
 No special actions if energy rises.
 EnCoef did     4 forward-backward iterations
 SCF Done:  E(RTPSS-TPSS) =  -1598.20843797     A.U. after    8 cycles
            NFock=  8  Conv=0.35D-08     -V/T= 2.0018
   4 Symmetry operations used in ECPInt.
 ECPInt:  NShTT=    2485 NPrTT=   10021 LenC2=    2321 LenP2D=    7248.
 LDataN:  DoStor=T MaxTD1= 9 Len=  602
 Calling FoFJK, ICntrl=      2527 FMM=F ISym2X=1 I1Cent= 0 IOpClX= 0 NMat=1 NMatS=1 NMatT=0.
 ***** Axes restored to original set *****
 -------------------------------------------------------------------
 Center     Atomic                   Forces (Hartrees/Bohr)
 Number     Number              X              Y              Z
 -------------------------------------------------------------------
      1       16           0.000000000   -0.000000000   -0.000035545
      2       19          -0.000052024   -0.000000000    0.000017772
      3       19           0.000052024    0.000000000    0.000017772
 -------------------------------------------------------------------
 Cartesian Forces:  Max     0.000052024 RMS     0.000028496

 GradGradGradGradGradGradGradGradGradGradGradGradGradGradGradGradGradGrad
 Berny optimization.
 Using GEDIIS/GDIIS optimizer.
 FormGI is forming the generalized inverse of G from B-inverse, IUseBI=4.
 Internal  Forces:  Max     0.000106882 RMS     0.000074398
 Search for a local minimum.
 Step number   8 out of a maximum of   20
 All quantities printed in internal units (Hartrees-Bohrs-Radians)
 Mixed Optimization -- En-DIIS/RFO-DIIS
 Swapping is turned off.
 Update second derivatives using D2CorX and points    5    6    7    8
 DE= -5.01D-06 DEPred=-3.26D-06 R= 1.54D+00
 TightC=F SS=  1.41D+00  RLast= 4.11D-02 DXNew= 1.9329D+00 1.2317D-01
 Trust test= 1.54D+00 RLast= 4.11D-02 DXMaxT set to 1.15D+00
 The second derivative matrix:
                          R1        R2        A1
           R1           0.04746
           R2           0.00879   0.04746
           A1           0.00086   0.00086   0.00069
 ITU=  1  1  1  1
     Eigenvalues ---    0.00067   0.03867   0.05627
 En-DIIS/RFO-DIIS/Sim-DIIS IScMMF=       -3 using points:     8    7    6    5
 RFO step:  Lambda=-1.62791396D-05.
 DIIS inversion failure, remove point   4.
 RFO-DIIS uses    3 points instead of    4
 DidBck=F Rises=F RFO-DIIS coefs:    3.00000   -1.60268   -0.39732    0.00000
 Iteration  1 RMS(Cart)=  0.19119983 RMS(Int)=  0.04834183
 Iteration  2 RMS(Cart)=  0.09867948 RMS(Int)=  0.04698094
 Iteration  3 RMS(Cart)=  0.09847873 RMS(Int)=  0.04687746
 Iteration  4 RMS(Cart)=  0.09825761 RMS(Int)=  0.04687669
 Iteration  5 RMS(Cart)=  0.09825786 RMS(Int)=  0.04687652
 Iteration  6 RMS(Cart)=  0.09825749 RMS(Int)=  0.04687652
 Iteration  7 RMS(Cart)=  0.09825749 RMS(Int)=  0.04687652
 Iteration  8 RMS(Cart)=  0.09825749 RMS(Int)=  0.04687652
 Iteration  9 RMS(Cart)=  0.09825749 RMS(Int)=  0.04687652
 Iteration 10 RMS(Cart)=  0.09825749 RMS(Int)=  0.04687652
 Iteration 11 RMS(Cart)=  0.09825749 RMS(Int)=  0.04687652
 Iteration 12 RMS(Cart)=  0.09825749 RMS(Int)=  0.04687652
 Iteration 13 RMS(Cart)=  0.09825749 RMS(Int)=  0.04687652
 Iteration 14 RMS(Cart)=  0.09825749 RMS(Int)=  0.04687652
 Iteration 15 RMS(Cart)=  0.09825749 RMS(Int)=  0.04687652
 Iteration 16 RMS(Cart)=  0.09825749 RMS(Int)=  0.04687652
 Iteration 17 RMS(Cart)=  0.09825749 RMS(Int)=  0.04687652
 Iteration 18 RMS(Cart)=  0.09825749 RMS(Int)=  0.04687652
 Iteration 19 RMS(Cart)=  0.09825749 RMS(Int)=  0.04687652
 Iteration 20 RMS(Cart)=  0.09825749 RMS(Int)=  0.04687652
 Iteration 21 RMS(Cart)=  0.09825749 RMS(Int)=  0.04687652
 Iteration 22 RMS(Cart)=  0.09825749 RMS(Int)=  0.04687652
 Iteration 23 RMS(Cart)=  0.09825749 RMS(Int)=  0.04687652
 Iteration 24 RMS(Cart)=  0.09825749 RMS(Int)=  0.04687652
 Iteration 25 RMS(Cart)=  0.09825749 RMS(Int)=  0.04687652
 Iteration 26 RMS(Cart)=  0.09825749 RMS(Int)=  0.04687652
 Iteration 27 RMS(Cart)=  0.09825749 RMS(Int)=  0.04687652
 Iteration 28 RMS(Cart)=  0.09825749 RMS(Int)=  0.04687652
 Iteration 29 RMS(Cart)=  0.09825749 RMS(Int)=  0.04687652
 Iteration 30 RMS(Cart)=  0.09825749 RMS(Int)=  0.04687652
 Iteration 31 RMS(Cart)=  0.09825749 RMS(Int)=  0.04687652
 Iteration 32 RMS(Cart)=  0.09825749 RMS(Int)=  0.04687652
 Iteration 33 RMS(Cart)=  0.09825749 RMS(Int)=  0.04687652
 Iteration 34 RMS(Cart)=  0.09825749 RMS(Int)=  0.04687652
 Iteration 35 RMS(Cart)=  0.09825749 RMS(Int)=  0.04687652
 Iteration 36 RMS(Cart)=  0.09825749 RMS(Int)=  0.04687652
 Iteration 37 RMS(Cart)=  0.09825749 RMS(Int)=  0.04687652
 Iteration 38 RMS(Cart)=  0.09825749 RMS(Int)=  0.04687652
 Iteration 39 RMS(Cart)=  0.09825749 RMS(Int)=  0.04687652
 Iteration 40 RMS(Cart)=  0.09825749 RMS(Int)=  0.04687652
 Iteration 41 RMS(Cart)=  0.09825749 RMS(Int)=  0.04687652
 Iteration 42 RMS(Cart)=  0.09825749 RMS(Int)=  0.04687652
 Iteration 43 RMS(Cart)=  0.09825749 RMS(Int)=  0.04687652
 Iteration 44 RMS(Cart)=  0.09825749 RMS(Int)=  0.04687652
 Iteration 45 RMS(Cart)=  0.09825749 RMS(Int)=  0.04687652
 Iteration 46 RMS(Cart)=  0.09825749 RMS(Int)=  0.04687652
 Iteration 47 RMS(Cart)=  0.09825749 RMS(Int)=  0.04687652
 Iteration 48 RMS(Cart)=  0.09825749 RMS(Int)=  0.04687652
 Iteration 49 RMS(Cart)=  0.09825749 RMS(Int)=  0.04687652
 Iteration 50 RMS(Cart)=  0.09825749 RMS(Int)=  0.04687652
 Iteration 51 RMS(Cart)=  0.09825749 RMS(Int)=  0.04687652
 Iteration 52 RMS(Cart)=  0.09825749 RMS(Int)=  0.04687652
 Iteration 53 RMS(Cart)=  0.09825749 RMS(Int)=  0.04687652
 Iteration 54 RMS(Cart)=  0.09825749 RMS(Int)=  0.04687652
 Iteration 55 RMS(Cart)=  0.09825749 RMS(Int)=  0.04687652
 Iteration 56 RMS(Cart)=  0.09825749 RMS(Int)=  0.04687652
 Iteration 57 RMS(Cart)=  0.09825749 RMS(Int)=  0.04687652
 Iteration 58 RMS(Cart)=  0.09825749 RMS(Int)=  0.04687652
 Iteration 59 RMS(Cart)=  0.09825749 RMS(Int)=  0.04687652
 Iteration 60 RMS(Cart)=  0.09825749 RMS(Int)=  0.04687652
 Iteration 61 RMS(Cart)=  0.09825749 RMS(Int)=  0.04687652
 Iteration 62 RMS(Cart)=  0.09825749 RMS(Int)=  0.04687652
 Iteration 63 RMS(Cart)=  0.09825749 RMS(Int)=  0.04687652
 Iteration 64 RMS(Cart)=  0.09825749 RMS(Int)=  0.04687652
 Iteration 65 RMS(Cart)=  0.09825749 RMS(Int)=  0.04687652
 Iteration 66 RMS(Cart)=  0.09825749 RMS(Int)=  0.04687652
 Iteration 67 RMS(Cart)=  0.09825749 RMS(Int)=  0.04687652
 Iteration 68 RMS(Cart)=  0.09825749 RMS(Int)=  0.04687652
 Iteration 69 RMS(Cart)=  0.09825749 RMS(Int)=  0.04687652
 Iteration 70 RMS(Cart)=  0.09825749 RMS(Int)=  0.04687652
 Iteration 71 RMS(Cart)=  0.09825749 RMS(Int)=  0.04687652
 Iteration 72 RMS(Cart)=  0.09825749 RMS(Int)=  0.04687652
 Iteration 73 RMS(Cart)=  0.09825749 RMS(Int)=  0.04687652
 Iteration 74 RMS(Cart)=  0.09825749 RMS(Int)=  0.04687652
 Iteration 75 RMS(Cart)=  0.09825749 RMS(Int)=  0.04687652
 Iteration 76 RMS(Cart)=  0.09825749 RMS(Int)=  0.04687652
 Iteration 77 RMS(Cart)=  0.09825749 RMS(Int)=  0.04687652
 Iteration 78 RMS(Cart)=  0.09825749 RMS(Int)=  0.04687652
 Iteration 79 RMS(Cart)=  0.09825749 RMS(Int)=  0.04687652
 Iteration 80 RMS(Cart)=  0.09825749 RMS(Int)=  0.04687652
 Iteration 81 RMS(Cart)=  0.09825749 RMS(Int)=  0.04687652
 Iteration 82 RMS(Cart)=  0.09825749 RMS(Int)=  0.04687652
 Iteration 83 RMS(Cart)=  0.09825749 RMS(Int)=  0.04687652
 Iteration 84 RMS(Cart)=  0.09825749 RMS(Int)=  0.04687652
 Iteration 85 RMS(Cart)=  0.09825749 RMS(Int)=  0.04687652
 Iteration 86 RMS(Cart)=  0.09825749 RMS(Int)=  0.04687652
 Iteration 87 RMS(Cart)=  0.09825749 RMS(Int)=  0.04687652
 Iteration 88 RMS(Cart)=  0.09825749 RMS(Int)=  0.04687652
 Iteration 89 RMS(Cart)=  0.09825749 RMS(Int)=  0.04687652
 Iteration 90 RMS(Cart)=  0.09825749 RMS(Int)=  0.04687652
 Iteration 91 RMS(Cart)=  0.09825749 RMS(Int)=  0.04687652
 Iteration 92 RMS(Cart)=  0.09825749 RMS(Int)=  0.04687652
 Iteration 93 RMS(Cart)=  0.09825749 RMS(Int)=  0.04687652
 Iteration 94 RMS(Cart)=  0.09825749 RMS(Int)=  0.04687652
 Iteration 95 RMS(Cart)=  0.09825749 RMS(Int)=  0.04687652
 Iteration 96 RMS(Cart)=  0.09825749 RMS(Int)=  0.04687652
 Iteration 97 RMS(Cart)=  0.09825749 RMS(Int)=  0.04687652
 Iteration 98 RMS(Cart)=  0.09825749 RMS(Int)=  0.04687652
 Iteration 99 RMS(Cart)=  0.09825749 RMS(Int)=  0.04687652
 Iteration100 RMS(Cart)=  0.09825749 RMS(Int)=  0.04687652
 New curvilinear step not converged.
 ITry= 1 IFail=1 DXMaxC= 1.31D-01 DCOld= 1.00D+10 DXMaxT= 1.15D+00 DXLimC= 3.00D+00 Rises=F
 Iteration  1 RMS(Cart)=  0.18407560 RMS(Int)=  0.04159591
 Iteration  2 RMS(Cart)=  0.08449979 RMS(Int)=  0.04014718
 Iteration  3 RMS(Cart)=  0.08419336 RMS(Int)=  0.04005845
 Iteration  4 RMS(Cart)=  0.08400458 RMS(Int)=  0.04005797
 Iteration  5 RMS(Cart)=  0.08400475 RMS(Int)=  0.04005786
 Iteration  6 RMS(Cart)=  0.08400452 RMS(Int)=  0.04005786
 Iteration  7 RMS(Cart)=  0.08400452 RMS(Int)=  0.04005786
 Iteration  8 RMS(Cart)=  0.08400452 RMS(Int)=  0.04005786
 Iteration  9 RMS(Cart)=  0.08400452 RMS(Int)=  0.04005786
 Iteration 10 RMS(Cart)=  0.08400452 RMS(Int)=  0.04005786
 Iteration 11 RMS(Cart)=  0.08400452 RMS(Int)=  0.04005786
 Iteration 12 RMS(Cart)=  0.08400452 RMS(Int)=  0.04005786
 Iteration 13 RMS(Cart)=  0.08400452 RMS(Int)=  0.04005786
 Iteration 14 RMS(Cart)=  0.08400452 RMS(Int)=  0.04005786
 Iteration 15 RMS(Cart)=  0.08400452 RMS(Int)=  0.04005786
 Iteration 16 RMS(Cart)=  0.08400452 RMS(Int)=  0.04005786
 Iteration 17 RMS(Cart)=  0.08400452 RMS(Int)=  0.04005786
 Iteration 18 RMS(Cart)=  0.08400452 RMS(Int)=  0.04005786
 Iteration 19 RMS(Cart)=  0.08400452 RMS(Int)=  0.04005786
 Iteration 20 RMS(Cart)=  0.08400452 RMS(Int)=  0.04005786
 Iteration 21 RMS(Cart)=  0.08400452 RMS(Int)=  0.04005786
 Iteration 22 RMS(Cart)=  0.08400452 RMS(Int)=  0.04005786
 Iteration 23 RMS(Cart)=  0.08400452 RMS(Int)=  0.04005786
 Iteration 24 RMS(Cart)=  0.08400452 RMS(Int)=  0.04005786
 Iteration 25 RMS(Cart)=  0.08400452 RMS(Int)=  0.04005786
 Iteration 26 RMS(Cart)=  0.08400452 RMS(Int)=  0.04005786
 Iteration 27 RMS(Cart)=  0.08400452 RMS(Int)=  0.04005786
 Iteration 28 RMS(Cart)=  0.08400452 RMS(Int)=  0.04005786
 Iteration 29 RMS(Cart)=  0.08400452 RMS(Int)=  0.04005786
 Iteration 30 RMS(Cart)=  0.08400452 RMS(Int)=  0.04005786
 Iteration 31 RMS(Cart)=  0.08400452 RMS(Int)=  0.04005786
 Iteration 32 RMS(Cart)=  0.08400452 RMS(Int)=  0.04005786
 Iteration 33 RMS(Cart)=  0.08400452 RMS(Int)=  0.04005786
 Iteration 34 RMS(Cart)=  0.08400452 RMS(Int)=  0.04005786
 Iteration 35 RMS(Cart)=  0.08400452 RMS(Int)=  0.04005786
 Iteration 36 RMS(Cart)=  0.08400452 RMS(Int)=  0.04005786
 Iteration 37 RMS(Cart)=  0.08400452 RMS(Int)=  0.04005786
 Iteration 38 RMS(Cart)=  0.08400452 RMS(Int)=  0.04005786
 Iteration 39 RMS(Cart)=  0.08400452 RMS(Int)=  0.04005786
 Iteration 40 RMS(Cart)=  0.08400452 RMS(Int)=  0.04005786
 Iteration 41 RMS(Cart)=  0.08400452 RMS(Int)=  0.04005786
 Iteration 42 RMS(Cart)=  0.08400452 RMS(Int)=  0.04005786
 Iteration 43 RMS(Cart)=  0.08400452 RMS(Int)=  0.04005786
 Iteration 44 RMS(Cart)=  0.08400452 RMS(Int)=  0.04005786
 Iteration 45 RMS(Cart)=  0.08400452 RMS(Int)=  0.04005786
 Iteration 46 RMS(Cart)=  0.08400452 RMS(Int)=  0.04005786
 Iteration 47 RMS(Cart)=  0.08400452 RMS(Int)=  0.04005786
 Iteration 48 RMS(Cart)=  0.08400452 RMS(Int)=  0.04005786
 Iteration 49 RMS(Cart)=  0.08400452 RMS(Int)=  0.04005786
 Iteration 50 RMS(Cart)=  0.08400452 RMS(Int)=  0.04005786
 Iteration 51 RMS(Cart)=  0.08400452 RMS(Int)=  0.04005786
 Iteration 52 RMS(Cart)=  0.08400452 RMS(Int)=  0.04005786
 Iteration 53 RMS(Cart)=  0.08400452 RMS(Int)=  0.04005786
 Iteration 54 RMS(Cart)=  0.08400452 RMS(Int)=  0.04005786
 Iteration 55 RMS(Cart)=  0.08400452 RMS(Int)=  0.04005786
 Iteration 56 RMS(Cart)=  0.08400452 RMS(Int)=  0.04005786
 Iteration 57 RMS(Cart)=  0.08400452 RMS(Int)=  0.04005786
 Iteration 58 RMS(Cart)=  0.08400452 RMS(Int)=  0.04005786
 Iteration 59 RMS(Cart)=  0.08400452 RMS(Int)=  0.04005786
 Iteration 60 RMS(Cart)=  0.08400452 RMS(Int)=  0.04005786
 Iteration 61 RMS(Cart)=  0.08400452 RMS(Int)=  0.04005786
 Iteration 62 RMS(Cart)=  0.08400452 RMS(Int)=  0.04005786
 Iteration 63 RMS(Cart)=  0.08400452 RMS(Int)=  0.04005786
 Iteration 64 RMS(Cart)=  0.08400452 RMS(Int)=  0.04005786
 Iteration 65 RMS(Cart)=  0.08400452 RMS(Int)=  0.04005786
 Iteration 66 RMS(Cart)=  0.08400452 RMS(Int)=  0.04005786
 Iteration 67 RMS(Cart)=  0.08400452 RMS(Int)=  0.04005786
 Iteration 68 RMS(Cart)=  0.08400452 RMS(Int)=  0.04005786
 Iteration 69 RMS(Cart)=  0.08400452 RMS(Int)=  0.04005786
 Iteration 70 RMS(Cart)=  0.08400452 RMS(Int)=  0.04005786
 Iteration 71 RMS(Cart)=  0.08400452 RMS(Int)=  0.04005786
 Iteration 72 RMS(Cart)=  0.08400452 RMS(Int)=  0.04005786
 Iteration 73 RMS(Cart)=  0.08400452 RMS(Int)=  0.04005786
 Iteration 74 RMS(Cart)=  0.08400452 RMS(Int)=  0.04005786
 Iteration 75 RMS(Cart)=  0.08400452 RMS(Int)=  0.04005786
 Iteration 76 RMS(Cart)=  0.08400452 RMS(Int)=  0.04005786
 Iteration 77 RMS(Cart)=  0.08400452 RMS(Int)=  0.04005786
 Iteration 78 RMS(Cart)=  0.08400452 RMS(Int)=  0.04005786
 Iteration 79 RMS(Cart)=  0.08400452 RMS(Int)=  0.04005786
 Iteration 80 RMS(Cart)=  0.08400452 RMS(Int)=  0.04005786
 Iteration 81 RMS(Cart)=  0.08400452 RMS(Int)=  0.04005786
 Iteration 82 RMS(Cart)=  0.08400452 RMS(Int)=  0.04005786
 Iteration 83 RMS(Cart)=  0.08400452 RMS(Int)=  0.04005786
 Iteration 84 RMS(Cart)=  0.08400452 RMS(Int)=  0.04005786
 Iteration 85 RMS(Cart)=  0.08400452 RMS(Int)=  0.04005786
 Iteration 86 RMS(Cart)=  0.08400452 RMS(Int)=  0.04005786
 Iteration 87 RMS(Cart)=  0.08400452 RMS(Int)=  0.04005786
 Iteration 88 RMS(Cart)=  0.08400452 RMS(Int)=  0.04005786
 Iteration 89 RMS(Cart)=  0.08400452 RMS(Int)=  0.04005786
 Iteration 90 RMS(Cart)=  0.08400452 RMS(Int)=  0.04005786
 Iteration 91 RMS(Cart)=  0.08400452 RMS(Int)=  0.04005786
 Iteration 92 RMS(Cart)=  0.08400452 RMS(Int)=  0.04005786
 Iteration 93 RMS(Cart)=  0.08400452 RMS(Int)=  0.04005786
 Iteration 94 RMS(Cart)=  0.08400452 RMS(Int)=  0.04005786
 Iteration 95 RMS(Cart)=  0.08400452 RMS(Int)=  0.04005786
 Iteration 96 RMS(Cart)=  0.08400452 RMS(Int)=  0.04005786
 Iteration 97 RMS(Cart)=  0.08400452 RMS(Int)=  0.04005786
 Iteration 98 RMS(Cart)=  0.08400452 RMS(Int)=  0.04005786
 Iteration 99 RMS(Cart)=  0.08400452 RMS(Int)=  0.04005786
 Iteration100 RMS(Cart)=  0.08400452 RMS(Int)=  0.04005786
 New curvilinear step not converged.
 ITry= 2 IFail=1 DXMaxC= 1.41D-01 DCOld= 1.00D+10 DXMaxT= 1.15D+00 DXLimC= 3.00D+00 Rises=F
 Iteration  1 RMS(Cart)=  0.17695137 RMS(Int)=  0.03488688
 Iteration  2 RMS(Cart)=  0.07034080 RMS(Int)=  0.03332757
 Iteration  3 RMS(Cart)=  0.06991948 RMS(Int)=  0.03325459
 Iteration  4 RMS(Cart)=  0.06976479 RMS(Int)=  0.03325432
 Iteration  5 RMS(Cart)=  0.06976490 RMS(Int)=  0.03325426
 Iteration  6 RMS(Cart)=  0.06976477 RMS(Int)=  0.03325426
 Iteration  7 RMS(Cart)=  0.06976477 RMS(Int)=  0.03325426
 Iteration  8 RMS(Cart)=  0.06976477 RMS(Int)=  0.03325426
 Iteration  9 RMS(Cart)=  0.06976477 RMS(Int)=  0.03325426
 Iteration 10 RMS(Cart)=  0.06976477 RMS(Int)=  0.03325426
 Iteration 11 RMS(Cart)=  0.06976477 RMS(Int)=  0.03325426
 Iteration 12 RMS(Cart)=  0.06976477 RMS(Int)=  0.03325426
 Iteration 13 RMS(Cart)=  0.06976477 RMS(Int)=  0.03325426
 Iteration 14 RMS(Cart)=  0.06976477 RMS(Int)=  0.03325426
 Iteration 15 RMS(Cart)=  0.06976477 RMS(Int)=  0.03325426
 Iteration 16 RMS(Cart)=  0.06976477 RMS(Int)=  0.03325426
 Iteration 17 RMS(Cart)=  0.06976477 RMS(Int)=  0.03325426
 Iteration 18 RMS(Cart)=  0.06976477 RMS(Int)=  0.03325426
 Iteration 19 RMS(Cart)=  0.06976477 RMS(Int)=  0.03325426
 Iteration 20 RMS(Cart)=  0.06976477 RMS(Int)=  0.03325426
 Iteration 21 RMS(Cart)=  0.06976477 RMS(Int)=  0.03325426
 Iteration 22 RMS(Cart)=  0.06976477 RMS(Int)=  0.03325426
 Iteration 23 RMS(Cart)=  0.06976477 RMS(Int)=  0.03325426
 Iteration 24 RMS(Cart)=  0.06976477 RMS(Int)=  0.03325426
 Iteration 25 RMS(Cart)=  0.06976477 RMS(Int)=  0.03325426
 Iteration 26 RMS(Cart)=  0.06976477 RMS(Int)=  0.03325426
 Iteration 27 RMS(Cart)=  0.06976477 RMS(Int)=  0.03325426
 Iteration 28 RMS(Cart)=  0.06976477 RMS(Int)=  0.03325426
 Iteration 29 RMS(Cart)=  0.06976477 RMS(Int)=  0.03325426
 Iteration 30 RMS(Cart)=  0.06976477 RMS(Int)=  0.03325426
 Iteration 31 RMS(Cart)=  0.06976477 RMS(Int)=  0.03325426
 Iteration 32 RMS(Cart)=  0.06976477 RMS(Int)=  0.03325426
 Iteration 33 RMS(Cart)=  0.06976477 RMS(Int)=  0.03325426
 Iteration 34 RMS(Cart)=  0.06976477 RMS(Int)=  0.03325426
 Iteration 35 RMS(Cart)=  0.06976477 RMS(Int)=  0.03325426
 Iteration 36 RMS(Cart)=  0.06976477 RMS(Int)=  0.03325426
 Iteration 37 RMS(Cart)=  0.06976477 RMS(Int)=  0.03325426
 Iteration 38 RMS(Cart)=  0.06976477 RMS(Int)=  0.03325426
 Iteration 39 RMS(Cart)=  0.06976477 RMS(Int)=  0.03325426
 Iteration 40 RMS(Cart)=  0.06976477 RMS(Int)=  0.03325426
 Iteration 41 RMS(Cart)=  0.06976477 RMS(Int)=  0.03325426
 Iteration 42 RMS(Cart)=  0.06976477 RMS(Int)=  0.03325426
 Iteration 43 RMS(Cart)=  0.06976477 RMS(Int)=  0.03325426
 Iteration 44 RMS(Cart)=  0.06976477 RMS(Int)=  0.03325426
 Iteration 45 RMS(Cart)=  0.06976477 RMS(Int)=  0.03325426
 Iteration 46 RMS(Cart)=  0.06976477 RMS(Int)=  0.03325426
 Iteration 47 RMS(Cart)=  0.06976477 RMS(Int)=  0.03325426
 Iteration 48 RMS(Cart)=  0.06976477 RMS(Int)=  0.03325426
 Iteration 49 RMS(Cart)=  0.06976477 RMS(Int)=  0.03325426
 Iteration 50 RMS(Cart)=  0.06976477 RMS(Int)=  0.03325426
 Iteration 51 RMS(Cart)=  0.06976477 RMS(Int)=  0.03325426
 Iteration 52 RMS(Cart)=  0.06976477 RMS(Int)=  0.03325426
 Iteration 53 RMS(Cart)=  0.06976477 RMS(Int)=  0.03325426
 Iteration 54 RMS(Cart)=  0.06976477 RMS(Int)=  0.03325426
 Iteration 55 RMS(Cart)=  0.06976477 RMS(Int)=  0.03325426
 Iteration 56 RMS(Cart)=  0.06976477 RMS(Int)=  0.03325426
 Iteration 57 RMS(Cart)=  0.06976477 RMS(Int)=  0.03325426
 Iteration 58 RMS(Cart)=  0.06976477 RMS(Int)=  0.03325426
 Iteration 59 RMS(Cart)=  0.06976477 RMS(Int)=  0.03325426
 Iteration 60 RMS(Cart)=  0.06976477 RMS(Int)=  0.03325426
 Iteration 61 RMS(Cart)=  0.06976477 RMS(Int)=  0.03325426
 Iteration 62 RMS(Cart)=  0.06976477 RMS(Int)=  0.03325426
 Iteration 63 RMS(Cart)=  0.06976477 RMS(Int)=  0.03325426
 Iteration 64 RMS(Cart)=  0.06976477 RMS(Int)=  0.03325426
 Iteration 65 RMS(Cart)=  0.06976477 RMS(Int)=  0.03325426
 Iteration 66 RMS(Cart)=  0.06976477 RMS(Int)=  0.03325426
 Iteration 67 RMS(Cart)=  0.06976477 RMS(Int)=  0.03325426
 Iteration 68 RMS(Cart)=  0.06976477 RMS(Int)=  0.03325426
 Iteration 69 RMS(Cart)=  0.06976477 RMS(Int)=  0.03325426
 Iteration 70 RMS(Cart)=  0.06976477 RMS(Int)=  0.03325426
 Iteration 71 RMS(Cart)=  0.06976477 RMS(Int)=  0.03325426
 Iteration 72 RMS(Cart)=  0.06976477 RMS(Int)=  0.03325426
 Iteration 73 RMS(Cart)=  0.06976477 RMS(Int)=  0.03325426
 Iteration 74 RMS(Cart)=  0.06976477 RMS(Int)=  0.03325426
 Iteration 75 RMS(Cart)=  0.06976477 RMS(Int)=  0.03325426
 Iteration 76 RMS(Cart)=  0.06976477 RMS(Int)=  0.03325426
 Iteration 77 RMS(Cart)=  0.06976477 RMS(Int)=  0.03325426
 Iteration 78 RMS(Cart)=  0.06976477 RMS(Int)=  0.03325426
 Iteration 79 RMS(Cart)=  0.06976477 RMS(Int)=  0.03325426
 Iteration 80 RMS(Cart)=  0.06976477 RMS(Int)=  0.03325426
 Iteration 81 RMS(Cart)=  0.06976477 RMS(Int)=  0.03325426
 Iteration 82 RMS(Cart)=  0.06976477 RMS(Int)=  0.03325426
 Iteration 83 RMS(Cart)=  0.06976477 RMS(Int)=  0.03325426
 Iteration 84 RMS(Cart)=  0.06976477 RMS(Int)=  0.03325426
 Iteration 85 RMS(Cart)=  0.06976477 RMS(Int)=  0.03325426
 Iteration 86 RMS(Cart)=  0.06976477 RMS(Int)=  0.03325426
 Iteration 87 RMS(Cart)=  0.06976477 RMS(Int)=  0.03325426
 Iteration 88 RMS(Cart)=  0.06976477 RMS(Int)=  0.03325426
 Iteration 89 RMS(Cart)=  0.06976477 RMS(Int)=  0.03325426
 Iteration 90 RMS(Cart)=  0.06976477 RMS(Int)=  0.03325426
 Iteration 91 RMS(Cart)=  0.06976477 RMS(Int)=  0.03325426
 Iteration 92 RMS(Cart)=  0.06976477 RMS(Int)=  0.03325426
 Iteration 93 RMS(Cart)=  0.06976477 RMS(Int)=  0.03325426
 Iteration 94 RMS(Cart)=  0.06976477 RMS(Int)=  0.03325426
 Iteration 95 RMS(Cart)=  0.06976477 RMS(Int)=  0.03325426
 Iteration 96 RMS(Cart)=  0.06976477 RMS(Int)=  0.03325426
 Iteration 97 RMS(Cart)=  0.06976477 RMS(Int)=  0.03325426
 Iteration 98 RMS(Cart)=  0.06976477 RMS(Int)=  0.03325426
 Iteration 99 RMS(Cart)=  0.06976477 RMS(Int)=  0.03325426
 Iteration100 RMS(Cart)=  0.06976477 RMS(Int)=  0.03325426
 New curvilinear step not converged.
 ITry= 3 IFail=1 DXMaxC= 1.51D-01 DCOld= 1.00D+10 DXMaxT= 1.15D+00 DXLimC= 3.00D+00 Rises=F
 Iteration  1 RMS(Cart)=  0.16982716 RMS(Int)=  0.02823864
 Iteration  2 RMS(Cart)=  0.05621515 RMS(Int)=  0.02652009
 Iteration  3 RMS(Cart)=  0.05565590 RMS(Int)=  0.02646331
 Iteration  4 RMS(Cart)=  0.05553588 RMS(Int)=  0.02646318
 Iteration  5 RMS(Cart)=  0.05553595 RMS(Int)=  0.02646315
 Iteration  6 RMS(Cart)=  0.05553589 RMS(Int)=  0.02646315
 Iteration  7 RMS(Cart)=  0.05553589 RMS(Int)=  0.02646315
 Iteration  8 RMS(Cart)=  0.05553589 RMS(Int)=  0.02646315
 Iteration  9 RMS(Cart)=  0.05553589 RMS(Int)=  0.02646315
 Iteration 10 RMS(Cart)=  0.05553589 RMS(Int)=  0.02646315
 Iteration 11 RMS(Cart)=  0.05553589 RMS(Int)=  0.02646315
 Iteration 12 RMS(Cart)=  0.05553589 RMS(Int)=  0.02646315
 Iteration 13 RMS(Cart)=  0.05553589 RMS(Int)=  0.02646315
 Iteration 14 RMS(Cart)=  0.05553589 RMS(Int)=  0.02646315
 Iteration 15 RMS(Cart)=  0.05553589 RMS(Int)=  0.02646315
 Iteration 16 RMS(Cart)=  0.05553589 RMS(Int)=  0.02646315
 Iteration 17 RMS(Cart)=  0.05553589 RMS(Int)=  0.02646315
 Iteration 18 RMS(Cart)=  0.05553589 RMS(Int)=  0.02646315
 Iteration 19 RMS(Cart)=  0.05553589 RMS(Int)=  0.02646315
 Iteration 20 RMS(Cart)=  0.05553589 RMS(Int)=  0.02646315
 Iteration 21 RMS(Cart)=  0.05553589 RMS(Int)=  0.02646315
 Iteration 22 RMS(Cart)=  0.05553589 RMS(Int)=  0.02646315
 Iteration 23 RMS(Cart)=  0.05553589 RMS(Int)=  0.02646315
 Iteration 24 RMS(Cart)=  0.05553589 RMS(Int)=  0.02646315
 Iteration 25 RMS(Cart)=  0.05553589 RMS(Int)=  0.02646315
 Iteration 26 RMS(Cart)=  0.05553589 RMS(Int)=  0.02646315
 Iteration 27 RMS(Cart)=  0.05553589 RMS(Int)=  0.02646315
 Iteration 28 RMS(Cart)=  0.05553589 RMS(Int)=  0.02646315
 Iteration 29 RMS(Cart)=  0.05553589 RMS(Int)=  0.02646315
 Iteration 30 RMS(Cart)=  0.05553589 RMS(Int)=  0.02646315
 Iteration 31 RMS(Cart)=  0.05553589 RMS(Int)=  0.02646315
 Iteration 32 RMS(Cart)=  0.05553589 RMS(Int)=  0.02646315
 Iteration 33 RMS(Cart)=  0.05553589 RMS(Int)=  0.02646315
 Iteration 34 RMS(Cart)=  0.05553589 RMS(Int)=  0.02646315
 Iteration 35 RMS(Cart)=  0.05553589 RMS(Int)=  0.02646315
 Iteration 36 RMS(Cart)=  0.05553589 RMS(Int)=  0.02646315
 Iteration 37 RMS(Cart)=  0.05553589 RMS(Int)=  0.02646315
 Iteration 38 RMS(Cart)=  0.05553589 RMS(Int)=  0.02646315
 Iteration 39 RMS(Cart)=  0.05553589 RMS(Int)=  0.02646315
 Iteration 40 RMS(Cart)=  0.05553589 RMS(Int)=  0.02646315
 Iteration 41 RMS(Cart)=  0.05553589 RMS(Int)=  0.02646315
 Iteration 42 RMS(Cart)=  0.05553589 RMS(Int)=  0.02646315
 Iteration 43 RMS(Cart)=  0.05553589 RMS(Int)=  0.02646315
 Iteration 44 RMS(Cart)=  0.05553589 RMS(Int)=  0.02646315
 Iteration 45 RMS(Cart)=  0.05553589 RMS(Int)=  0.02646315
 Iteration 46 RMS(Cart)=  0.05553589 RMS(Int)=  0.02646315
 Iteration 47 RMS(Cart)=  0.05553589 RMS(Int)=  0.02646315
 Iteration 48 RMS(Cart)=  0.05553589 RMS(Int)=  0.02646315
 Iteration 49 RMS(Cart)=  0.05553589 RMS(Int)=  0.02646315
 Iteration 50 RMS(Cart)=  0.05553589 RMS(Int)=  0.02646315
 Iteration 51 RMS(Cart)=  0.05553589 RMS(Int)=  0.02646315
 Iteration 52 RMS(Cart)=  0.05553589 RMS(Int)=  0.02646315
 Iteration 53 RMS(Cart)=  0.05553589 RMS(Int)=  0.02646315
 Iteration 54 RMS(Cart)=  0.05553589 RMS(Int)=  0.02646315
 Iteration 55 RMS(Cart)=  0.05553589 RMS(Int)=  0.02646315
 Iteration 56 RMS(Cart)=  0.05553589 RMS(Int)=  0.02646315
 Iteration 57 RMS(Cart)=  0.05553589 RMS(Int)=  0.02646315
 Iteration 58 RMS(Cart)=  0.05553589 RMS(Int)=  0.02646315
 Iteration 59 RMS(Cart)=  0.05553589 RMS(Int)=  0.02646315
 Iteration 60 RMS(Cart)=  0.05553589 RMS(Int)=  0.02646315
 Iteration 61 RMS(Cart)=  0.05553589 RMS(Int)=  0.02646315
 Iteration 62 RMS(Cart)=  0.05553589 RMS(Int)=  0.02646315
 Iteration 63 RMS(Cart)=  0.05553589 RMS(Int)=  0.02646315
 Iteration 64 RMS(Cart)=  0.05553589 RMS(Int)=  0.02646315
 Iteration 65 RMS(Cart)=  0.05553589 RMS(Int)=  0.02646315
 Iteration 66 RMS(Cart)=  0.05553589 RMS(Int)=  0.02646315
 Iteration 67 RMS(Cart)=  0.05553589 RMS(Int)=  0.02646315
 Iteration 68 RMS(Cart)=  0.05553589 RMS(Int)=  0.02646315
 Iteration 69 RMS(Cart)=  0.05553589 RMS(Int)=  0.02646315
 Iteration 70 RMS(Cart)=  0.05553589 RMS(Int)=  0.02646315
 Iteration 71 RMS(Cart)=  0.05553589 RMS(Int)=  0.02646315
 Iteration 72 RMS(Cart)=  0.05553589 RMS(Int)=  0.02646315
 Iteration 73 RMS(Cart)=  0.05553589 RMS(Int)=  0.02646315
 Iteration 74 RMS(Cart)=  0.05553589 RMS(Int)=  0.02646315
 Iteration 75 RMS(Cart)=  0.05553589 RMS(Int)=  0.02646315
 Iteration 76 RMS(Cart)=  0.05553589 RMS(Int)=  0.02646315
 Iteration 77 RMS(Cart)=  0.05553589 RMS(Int)=  0.02646315
 Iteration 78 RMS(Cart)=  0.05553589 RMS(Int)=  0.02646315
 Iteration 79 RMS(Cart)=  0.05553589 RMS(Int)=  0.02646315
 Iteration 80 RMS(Cart)=  0.05553589 RMS(Int)=  0.02646315
 Iteration 81 RMS(Cart)=  0.05553589 RMS(Int)=  0.02646315
 Iteration 82 RMS(Cart)=  0.05553589 RMS(Int)=  0.02646315
 Iteration 83 RMS(Cart)=  0.05553589 RMS(Int)=  0.02646315
 Iteration 84 RMS(Cart)=  0.05553589 RMS(Int)=  0.02646315
 Iteration 85 RMS(Cart)=  0.05553589 RMS(Int)=  0.02646315
 Iteration 86 RMS(Cart)=  0.05553589 RMS(Int)=  0.02646315
 Iteration 87 RMS(Cart)=  0.05553589 RMS(Int)=  0.02646315
 Iteration 88 RMS(Cart)=  0.05553589 RMS(Int)=  0.02646315
 Iteration 89 RMS(Cart)=  0.05553589 RMS(Int)=  0.02646315
 Iteration 90 RMS(Cart)=  0.05553589 RMS(Int)=  0.02646315
 Iteration 91 RMS(Cart)=  0.05553589 RMS(Int)=  0.02646315
 Iteration 92 RMS(Cart)=  0.05553589 RMS(Int)=  0.02646315
 Iteration 93 RMS(Cart)=  0.05553589 RMS(Int)=  0.02646315
 Iteration 94 RMS(Cart)=  0.05553589 RMS(Int)=  0.02646315
 Iteration 95 RMS(Cart)=  0.05553589 RMS(Int)=  0.02646315
 Iteration 96 RMS(Cart)=  0.05553589 RMS(Int)=  0.02646315
 Iteration 97 RMS(Cart)=  0.05553589 RMS(Int)=  0.02646315
 Iteration 98 RMS(Cart)=  0.05553589 RMS(Int)=  0.02646315
 Iteration 99 RMS(Cart)=  0.05553589 RMS(Int)=  0.02646315
 Iteration100 RMS(Cart)=  0.05553589 RMS(Int)=  0.02646315
 New curvilinear step not converged.
 ITry= 4 IFail=1 DXMaxC= 1.61D-01 DCOld= 1.00D+10 DXMaxT= 1.15D+00 DXLimC= 3.00D+00 Rises=F
 Iteration  1 RMS(Cart)=  0.16270295 RMS(Int)=  0.02170404
 Iteration  2 RMS(Cart)=  0.04215323 RMS(Int)=  0.01972274
 Iteration  3 RMS(Cart)=  0.04140138 RMS(Int)=  0.01968203
 Iteration  4 RMS(Cart)=  0.04131553 RMS(Int)=  0.01968199
 Iteration  5 RMS(Cart)=  0.04131557 RMS(Int)=  0.01968198
 Iteration  6 RMS(Cart)=  0.04131555 RMS(Int)=  0.01968198
 Iteration  7 RMS(Cart)=  0.04131555 RMS(Int)=  0.01968198
 Iteration  8 RMS(Cart)=  0.04131555 RMS(Int)=  0.01968198
 Iteration  9 RMS(Cart)=  0.04131555 RMS(Int)=  0.01968198
 Iteration 10 RMS(Cart)=  0.04131555 RMS(Int)=  0.01968198
 Iteration 11 RMS(Cart)=  0.04131555 RMS(Int)=  0.01968198
 Iteration 12 RMS(Cart)=  0.04131555 RMS(Int)=  0.01968198
 Iteration 13 RMS(Cart)=  0.04131555 RMS(Int)=  0.01968198
 Iteration 14 RMS(Cart)=  0.04131555 RMS(Int)=  0.01968198
 Iteration 15 RMS(Cart)=  0.04131555 RMS(Int)=  0.01968198
 Iteration 16 RMS(Cart)=  0.04131555 RMS(Int)=  0.01968198
 Iteration 17 RMS(Cart)=  0.04131555 RMS(Int)=  0.01968198
 Iteration 18 RMS(Cart)=  0.04131555 RMS(Int)=  0.01968198
 Iteration 19 RMS(Cart)=  0.04131555 RMS(Int)=  0.01968198
 Iteration 20 RMS(Cart)=  0.04131555 RMS(Int)=  0.01968198
 Iteration 21 RMS(Cart)=  0.04131555 RMS(Int)=  0.01968198
 Iteration 22 RMS(Cart)=  0.04131555 RMS(Int)=  0.01968198
 Iteration 23 RMS(Cart)=  0.04131555 RMS(Int)=  0.01968198
 Iteration 24 RMS(Cart)=  0.04131555 RMS(Int)=  0.01968198
 Iteration 25 RMS(Cart)=  0.04131555 RMS(Int)=  0.01968198
 Iteration 26 RMS(Cart)=  0.04131555 RMS(Int)=  0.01968198
 Iteration 27 RMS(Cart)=  0.04131555 RMS(Int)=  0.01968198
 Iteration 28 RMS(Cart)=  0.04131555 RMS(Int)=  0.01968198
 Iteration 29 RMS(Cart)=  0.04131555 RMS(Int)=  0.01968198
 Iteration 30 RMS(Cart)=  0.04131555 RMS(Int)=  0.01968198
 Iteration 31 RMS(Cart)=  0.04131555 RMS(Int)=  0.01968198
 Iteration 32 RMS(Cart)=  0.04131555 RMS(Int)=  0.01968198
 Iteration 33 RMS(Cart)=  0.04131555 RMS(Int)=  0.01968198
 Iteration 34 RMS(Cart)=  0.04131555 RMS(Int)=  0.01968198
 Iteration 35 RMS(Cart)=  0.04131555 RMS(Int)=  0.01968198
 Iteration 36 RMS(Cart)=  0.04131555 RMS(Int)=  0.01968198
 Iteration 37 RMS(Cart)=  0.04131555 RMS(Int)=  0.01968198
 Iteration 38 RMS(Cart)=  0.04131555 RMS(Int)=  0.01968198
 Iteration 39 RMS(Cart)=  0.04131555 RMS(Int)=  0.01968198
 Iteration 40 RMS(Cart)=  0.04131555 RMS(Int)=  0.01968198
 Iteration 41 RMS(Cart)=  0.04131555 RMS(Int)=  0.01968198
 Iteration 42 RMS(Cart)=  0.04131555 RMS(Int)=  0.01968198
 Iteration 43 RMS(Cart)=  0.04131555 RMS(Int)=  0.01968198
 Iteration 44 RMS(Cart)=  0.04131555 RMS(Int)=  0.01968198
 Iteration 45 RMS(Cart)=  0.04131555 RMS(Int)=  0.01968198
 Iteration 46 RMS(Cart)=  0.04131555 RMS(Int)=  0.01968198
 Iteration 47 RMS(Cart)=  0.04131555 RMS(Int)=  0.01968198
 Iteration 48 RMS(Cart)=  0.04131555 RMS(Int)=  0.01968198
 Iteration 49 RMS(Cart)=  0.04131555 RMS(Int)=  0.01968198
 Iteration 50 RMS(Cart)=  0.04131555 RMS(Int)=  0.01968198
 Iteration 51 RMS(Cart)=  0.04131555 RMS(Int)=  0.01968198
 Iteration 52 RMS(Cart)=  0.04131555 RMS(Int)=  0.01968198
 Iteration 53 RMS(Cart)=  0.04131555 RMS(Int)=  0.01968198
 Iteration 54 RMS(Cart)=  0.04131555 RMS(Int)=  0.01968198
 Iteration 55 RMS(Cart)=  0.04131555 RMS(Int)=  0.01968198
 Iteration 56 RMS(Cart)=  0.04131555 RMS(Int)=  0.01968198
 Iteration 57 RMS(Cart)=  0.04131555 RMS(Int)=  0.01968198
 Iteration 58 RMS(Cart)=  0.04131555 RMS(Int)=  0.01968198
 Iteration 59 RMS(Cart)=  0.04131555 RMS(Int)=  0.01968198
 Iteration 60 RMS(Cart)=  0.04131555 RMS(Int)=  0.01968198
 Iteration 61 RMS(Cart)=  0.04131555 RMS(Int)=  0.01968198
 Iteration 62 RMS(Cart)=  0.04131555 RMS(Int)=  0.01968198
 Iteration 63 RMS(Cart)=  0.04131555 RMS(Int)=  0.01968198
 Iteration 64 RMS(Cart)=  0.04131555 RMS(Int)=  0.01968198
 Iteration 65 RMS(Cart)=  0.04131555 RMS(Int)=  0.01968198
 Iteration 66 RMS(Cart)=  0.04131555 RMS(Int)=  0.01968198
 Iteration 67 RMS(Cart)=  0.04131555 RMS(Int)=  0.01968198
 Iteration 68 RMS(Cart)=  0.04131555 RMS(Int)=  0.01968198
 Iteration 69 RMS(Cart)=  0.04131555 RMS(Int)=  0.01968198
 Iteration 70 RMS(Cart)=  0.04131555 RMS(Int)=  0.01968198
 Iteration 71 RMS(Cart)=  0.04131555 RMS(Int)=  0.01968198
 Iteration 72 RMS(Cart)=  0.04131555 RMS(Int)=  0.01968198
 Iteration 73 RMS(Cart)=  0.04131555 RMS(Int)=  0.01968198
 Iteration 74 RMS(Cart)=  0.04131555 RMS(Int)=  0.01968198
 Iteration 75 RMS(Cart)=  0.04131555 RMS(Int)=  0.01968198
 Iteration 76 RMS(Cart)=  0.04131555 RMS(Int)=  0.01968198
 Iteration 77 RMS(Cart)=  0.04131555 RMS(Int)=  0.01968198
 Iteration 78 RMS(Cart)=  0.04131555 RMS(Int)=  0.01968198
 Iteration 79 RMS(Cart)=  0.04131555 RMS(Int)=  0.01968198
 Iteration 80 RMS(Cart)=  0.04131555 RMS(Int)=  0.01968198
 Iteration 81 RMS(Cart)=  0.04131555 RMS(Int)=  0.01968198
 Iteration 82 RMS(Cart)=  0.04131555 RMS(Int)=  0.01968198
 Iteration 83 RMS(Cart)=  0.04131555 RMS(Int)=  0.01968198
 Iteration 84 RMS(Cart)=  0.04131555 RMS(Int)=  0.01968198
 Iteration 85 RMS(Cart)=  0.04131555 RMS(Int)=  0.01968198
 Iteration 86 RMS(Cart)=  0.04131555 RMS(Int)=  0.01968198
 Iteration 87 RMS(Cart)=  0.04131555 RMS(Int)=  0.01968198
 Iteration 88 RMS(Cart)=  0.04131555 RMS(Int)=  0.01968198
 Iteration 89 RMS(Cart)=  0.04131555 RMS(Int)=  0.01968198
 Iteration 90 RMS(Cart)=  0.04131555 RMS(Int)=  0.01968198
 Iteration 91 RMS(Cart)=  0.04131555 RMS(Int)=  0.01968198
 Iteration 92 RMS(Cart)=  0.04131555 RMS(Int)=  0.01968198
 Iteration 93 RMS(Cart)=  0.04131555 RMS(Int)=  0.01968198
 Iteration 94 RMS(Cart)=  0.04131555 RMS(Int)=  0.01968198
 Iteration 95 RMS(Cart)=  0.04131555 RMS(Int)=  0.01968198
 Iteration 96 RMS(Cart)=  0.04131555 RMS(Int)=  0.01968198
 Iteration 97 RMS(Cart)=  0.04131555 RMS(Int)=  0.01968198
 Iteration 98 RMS(Cart)=  0.04131555 RMS(Int)=  0.01968198
 Iteration 99 RMS(Cart)=  0.04131555 RMS(Int)=  0.01968198
 Iteration100 RMS(Cart)=  0.04131555 RMS(Int)=  0.01968198
 New curvilinear step not converged.
 ITry= 5 IFail=1 DXMaxC= 1.71D-01 DCOld= 1.00D+10 DXMaxT= 1.15D+00 DXLimC= 3.00D+00 Rises=F
 Iteration  1 RMS(Cart)=  0.15557877 RMS(Int)=  0.01542401
 Iteration  2 RMS(Cart)=  0.02824709 RMS(Int)=  0.01293352
 Iteration  3 RMS(Cart)=  0.02715471 RMS(Int)=  0.01290819
 Iteration  4 RMS(Cart)=  0.02710140 RMS(Int)=  0.01290819
 Iteration  5 RMS(Cart)=  0.02710142 RMS(Int)=  0.01290818
 Iteration  6 RMS(Cart)=  0.02710141 RMS(Int)=  0.01290818
 Iteration  7 RMS(Cart)=  0.02710141 RMS(Int)=  0.01290818
 Iteration  8 RMS(Cart)=  0.02710141 RMS(Int)=  0.01290818
 Iteration  9 RMS(Cart)=  0.02710141 RMS(Int)=  0.01290818
 Iteration 10 RMS(Cart)=  0.02710141 RMS(Int)=  0.01290818
 Iteration 11 RMS(Cart)=  0.02710141 RMS(Int)=  0.01290818
 Iteration 12 RMS(Cart)=  0.02710141 RMS(Int)=  0.01290818
 Iteration 13 RMS(Cart)=  0.02710141 RMS(Int)=  0.01290818
 Iteration 14 RMS(Cart)=  0.02710141 RMS(Int)=  0.01290818
 Iteration 15 RMS(Cart)=  0.02710141 RMS(Int)=  0.01290818
 Iteration 16 RMS(Cart)=  0.02710141 RMS(Int)=  0.01290818
 Iteration 17 RMS(Cart)=  0.02710141 RMS(Int)=  0.01290818
 Iteration 18 RMS(Cart)=  0.02710141 RMS(Int)=  0.01290818
 Iteration 19 RMS(Cart)=  0.02710141 RMS(Int)=  0.01290818
 Iteration 20 RMS(Cart)=  0.02710141 RMS(Int)=  0.01290818
 Iteration 21 RMS(Cart)=  0.02710141 RMS(Int)=  0.01290818
 Iteration 22 RMS(Cart)=  0.02710141 RMS(Int)=  0.01290818
 Iteration 23 RMS(Cart)=  0.02710141 RMS(Int)=  0.01290818
 Iteration 24 RMS(Cart)=  0.02710141 RMS(Int)=  0.01290818
 Iteration 25 RMS(Cart)=  0.02710141 RMS(Int)=  0.01290818
 Iteration 26 RMS(Cart)=  0.02710141 RMS(Int)=  0.01290818
 Iteration 27 RMS(Cart)=  0.02710141 RMS(Int)=  0.01290818
 Iteration 28 RMS(Cart)=  0.02710141 RMS(Int)=  0.01290818
 Iteration 29 RMS(Cart)=  0.02710141 RMS(Int)=  0.01290818
 Iteration 30 RMS(Cart)=  0.02710141 RMS(Int)=  0.01290818
 Iteration 31 RMS(Cart)=  0.02710141 RMS(Int)=  0.01290818
 Iteration 32 RMS(Cart)=  0.02710141 RMS(Int)=  0.01290818
 Iteration 33 RMS(Cart)=  0.02710141 RMS(Int)=  0.01290818
 Iteration 34 RMS(Cart)=  0.02710141 RMS(Int)=  0.01290818
 Iteration 35 RMS(Cart)=  0.02710141 RMS(Int)=  0.01290818
 Iteration 36 RMS(Cart)=  0.02710141 RMS(Int)=  0.01290818
 Iteration 37 RMS(Cart)=  0.02710141 RMS(Int)=  0.01290818
 Iteration 38 RMS(Cart)=  0.02710141 RMS(Int)=  0.01290818
 Iteration 39 RMS(Cart)=  0.02710141 RMS(Int)=  0.01290818
 Iteration 40 RMS(Cart)=  0.02710141 RMS(Int)=  0.01290818
 Iteration 41 RMS(Cart)=  0.02710141 RMS(Int)=  0.01290818
 Iteration 42 RMS(Cart)=  0.02710141 RMS(Int)=  0.01290818
 Iteration 43 RMS(Cart)=  0.02710141 RMS(Int)=  0.01290818
 Iteration 44 RMS(Cart)=  0.02710141 RMS(Int)=  0.01290818
 Iteration 45 RMS(Cart)=  0.02710141 RMS(Int)=  0.01290818
 Iteration 46 RMS(Cart)=  0.02710141 RMS(Int)=  0.01290818
 Iteration 47 RMS(Cart)=  0.02710141 RMS(Int)=  0.01290818
 Iteration 48 RMS(Cart)=  0.02710141 RMS(Int)=  0.01290818
 Iteration 49 RMS(Cart)=  0.02710141 RMS(Int)=  0.01290818
 Iteration 50 RMS(Cart)=  0.02710141 RMS(Int)=  0.01290818
 Iteration 51 RMS(Cart)=  0.02710141 RMS(Int)=  0.01290818
 Iteration 52 RMS(Cart)=  0.02710141 RMS(Int)=  0.01290818
 Iteration 53 RMS(Cart)=  0.02710141 RMS(Int)=  0.01290818
 Iteration 54 RMS(Cart)=  0.02710141 RMS(Int)=  0.01290818
 Iteration 55 RMS(Cart)=  0.02710141 RMS(Int)=  0.01290818
 Iteration 56 RMS(Cart)=  0.02710141 RMS(Int)=  0.01290818
 Iteration 57 RMS(Cart)=  0.02710141 RMS(Int)=  0.01290818
 Iteration 58 RMS(Cart)=  0.02710141 RMS(Int)=  0.01290818
 Iteration 59 RMS(Cart)=  0.02710141 RMS(Int)=  0.01290818
 Iteration 60 RMS(Cart)=  0.02710141 RMS(Int)=  0.01290818
 Iteration 61 RMS(Cart)=  0.02710141 RMS(Int)=  0.01290818
 Iteration 62 RMS(Cart)=  0.02710141 RMS(Int)=  0.01290818
 Iteration 63 RMS(Cart)=  0.02710141 RMS(Int)=  0.01290818
 Iteration 64 RMS(Cart)=  0.02710141 RMS(Int)=  0.01290818
 Iteration 65 RMS(Cart)=  0.02710141 RMS(Int)=  0.01290818
 Iteration 66 RMS(Cart)=  0.02710141 RMS(Int)=  0.01290818
 Iteration 67 RMS(Cart)=  0.02710141 RMS(Int)=  0.01290818
 Iteration 68 RMS(Cart)=  0.02710141 RMS(Int)=  0.01290818
 Iteration 69 RMS(Cart)=  0.02710141 RMS(Int)=  0.01290818
 Iteration 70 RMS(Cart)=  0.02710141 RMS(Int)=  0.01290818
 Iteration 71 RMS(Cart)=  0.02710141 RMS(Int)=  0.01290818
 Iteration 72 RMS(Cart)=  0.02710141 RMS(Int)=  0.01290818
 Iteration 73 RMS(Cart)=  0.02710141 RMS(Int)=  0.01290818
 Iteration 74 RMS(Cart)=  0.02710141 RMS(Int)=  0.01290818
 Iteration 75 RMS(Cart)=  0.02710141 RMS(Int)=  0.01290818
 Iteration 76 RMS(Cart)=  0.02710141 RMS(Int)=  0.01290818
 Iteration 77 RMS(Cart)=  0.02710141 RMS(Int)=  0.01290818
 Iteration 78 RMS(Cart)=  0.02710141 RMS(Int)=  0.01290818
 Iteration 79 RMS(Cart)=  0.02710141 RMS(Int)=  0.01290818
 Iteration 80 RMS(Cart)=  0.02710141 RMS(Int)=  0.01290818
 Iteration 81 RMS(Cart)=  0.02710141 RMS(Int)=  0.01290818
 Iteration 82 RMS(Cart)=  0.02710141 RMS(Int)=  0.01290818
 Iteration 83 RMS(Cart)=  0.02710141 RMS(Int)=  0.01290818
 Iteration 84 RMS(Cart)=  0.02710141 RMS(Int)=  0.01290818
 Iteration 85 RMS(Cart)=  0.02710141 RMS(Int)=  0.01290818
 Iteration 86 RMS(Cart)=  0.02710141 RMS(Int)=  0.01290818
 Iteration 87 RMS(Cart)=  0.02710141 RMS(Int)=  0.01290818
 Iteration 88 RMS(Cart)=  0.02710141 RMS(Int)=  0.01290818
 Iteration 89 RMS(Cart)=  0.02710141 RMS(Int)=  0.01290818
 Iteration 90 RMS(Cart)=  0.02710141 RMS(Int)=  0.01290818
 Iteration 91 RMS(Cart)=  0.02710141 RMS(Int)=  0.01290818
 Iteration 92 RMS(Cart)=  0.02710141 RMS(Int)=  0.01290818
 Iteration 93 RMS(Cart)=  0.02710141 RMS(Int)=  0.01290818
 Iteration 94 RMS(Cart)=  0.02710141 RMS(Int)=  0.01290818
 Iteration 95 RMS(Cart)=  0.02710141 RMS(Int)=  0.01290818
 Iteration 96 RMS(Cart)=  0.02710141 RMS(Int)=  0.01290818
 Iteration 97 RMS(Cart)=  0.02710141 RMS(Int)=  0.01290818
 Iteration 98 RMS(Cart)=  0.02710141 RMS(Int)=  0.01290818
 Iteration 99 RMS(Cart)=  0.02710141 RMS(Int)=  0.01290818
 Iteration100 RMS(Cart)=  0.02710141 RMS(Int)=  0.01290818
 New curvilinear step not converged.
 ITry= 6 IFail=1 DXMaxC= 1.81D-01 DCOld= 1.00D+10 DXMaxT= 1.15D+00 DXLimC= 3.00D+00 Rises=F
 Iteration  1 RMS(Cart)=  0.14845460 RMS(Int)=  0.00988946
 Iteration  2 RMS(Cart)=  0.01490983 RMS(Int)=  0.00614044
 Iteration  3 RMS(Cart)=  0.01289350 RMS(Int)=  0.00613925
 Iteration  4 RMS(Cart)=  0.01289120 RMS(Int)=  0.00613923
 Iteration  5 RMS(Cart)=  0.01289117 RMS(Int)=  0.00613923
 Iteration  6 RMS(Cart)=  0.01289117 RMS(Int)=  0.00613923
 Iteration  7 RMS(Cart)=  0.01289117 RMS(Int)=  0.00613923
 Iteration  8 RMS(Cart)=  0.01289117 RMS(Int)=  0.00613923
 Iteration  9 RMS(Cart)=  0.01289117 RMS(Int)=  0.00613923
 Iteration 10 RMS(Cart)=  0.01289117 RMS(Int)=  0.00613923
 Iteration 11 RMS(Cart)=  0.01289117 RMS(Int)=  0.00613923
 Iteration 12 RMS(Cart)=  0.01289117 RMS(Int)=  0.00613923
 Iteration 13 RMS(Cart)=  0.01289117 RMS(Int)=  0.00613923
 Iteration 14 RMS(Cart)=  0.01289117 RMS(Int)=  0.00613923
 Iteration 15 RMS(Cart)=  0.01289117 RMS(Int)=  0.00613923
 Iteration 16 RMS(Cart)=  0.01289117 RMS(Int)=  0.00613923
 Iteration 17 RMS(Cart)=  0.01289117 RMS(Int)=  0.00613923
 Iteration 18 RMS(Cart)=  0.01289117 RMS(Int)=  0.00613923
 Iteration 19 RMS(Cart)=  0.01289117 RMS(Int)=  0.00613923
 Iteration 20 RMS(Cart)=  0.01289117 RMS(Int)=  0.00613923
 Iteration 21 RMS(Cart)=  0.01289117 RMS(Int)=  0.00613923
 Iteration 22 RMS(Cart)=  0.01289117 RMS(Int)=  0.00613923
 Iteration 23 RMS(Cart)=  0.01289117 RMS(Int)=  0.00613923
 Iteration 24 RMS(Cart)=  0.01289117 RMS(Int)=  0.00613923
 Iteration 25 RMS(Cart)=  0.01289117 RMS(Int)=  0.00613923
 Iteration 26 RMS(Cart)=  0.01289117 RMS(Int)=  0.00613923
 Iteration 27 RMS(Cart)=  0.01289117 RMS(Int)=  0.00613923
 Iteration 28 RMS(Cart)=  0.01289117 RMS(Int)=  0.00613923
 Iteration 29 RMS(Cart)=  0.01289117 RMS(Int)=  0.00613923
 Iteration 30 RMS(Cart)=  0.01289117 RMS(Int)=  0.00613923
 Iteration 31 RMS(Cart)=  0.01289117 RMS(Int)=  0.00613923
 Iteration 32 RMS(Cart)=  0.01289117 RMS(Int)=  0.00613923
 Iteration 33 RMS(Cart)=  0.01289117 RMS(Int)=  0.00613923
 Iteration 34 RMS(Cart)=  0.01289117 RMS(Int)=  0.00613923
 Iteration 35 RMS(Cart)=  0.01289117 RMS(Int)=  0.00613923
 Iteration 36 RMS(Cart)=  0.01289117 RMS(Int)=  0.00613923
 Iteration 37 RMS(Cart)=  0.01289117 RMS(Int)=  0.00613923
 Iteration 38 RMS(Cart)=  0.01289117 RMS(Int)=  0.00613923
 Iteration 39 RMS(Cart)=  0.01289117 RMS(Int)=  0.00613923
 Iteration 40 RMS(Cart)=  0.01289117 RMS(Int)=  0.00613923
 Iteration 41 RMS(Cart)=  0.01289117 RMS(Int)=  0.00613923
 Iteration 42 RMS(Cart)=  0.01289117 RMS(Int)=  0.00613923
 Iteration 43 RMS(Cart)=  0.01289117 RMS(Int)=  0.00613923
 Iteration 44 RMS(Cart)=  0.01289117 RMS(Int)=  0.00613923
 Iteration 45 RMS(Cart)=  0.01289117 RMS(Int)=  0.00613923
 Iteration 46 RMS(Cart)=  0.01289117 RMS(Int)=  0.00613923
 Iteration 47 RMS(Cart)=  0.01289117 RMS(Int)=  0.00613923
 Iteration 48 RMS(Cart)=  0.01289117 RMS(Int)=  0.00613923
 Iteration 49 RMS(Cart)=  0.01289117 RMS(Int)=  0.00613923
 Iteration 50 RMS(Cart)=  0.01289117 RMS(Int)=  0.00613923
 Iteration 51 RMS(Cart)=  0.01289117 RMS(Int)=  0.00613923
 Iteration 52 RMS(Cart)=  0.01289117 RMS(Int)=  0.00613923
 Iteration 53 RMS(Cart)=  0.01289117 RMS(Int)=  0.00613923
 Iteration 54 RMS(Cart)=  0.01289117 RMS(Int)=  0.00613923
 Iteration 55 RMS(Cart)=  0.01289117 RMS(Int)=  0.00613923
 Iteration 56 RMS(Cart)=  0.01289117 RMS(Int)=  0.00613923
 Iteration 57 RMS(Cart)=  0.01289117 RMS(Int)=  0.00613923
 Iteration 58 RMS(Cart)=  0.01289117 RMS(Int)=  0.00613923
 Iteration 59 RMS(Cart)=  0.01289117 RMS(Int)=  0.00613923
 Iteration 60 RMS(Cart)=  0.01289117 RMS(Int)=  0.00613923
 Iteration 61 RMS(Cart)=  0.01289117 RMS(Int)=  0.00613923
 Iteration 62 RMS(Cart)=  0.01289117 RMS(Int)=  0.00613923
 Iteration 63 RMS(Cart)=  0.01289117 RMS(Int)=  0.00613923
 Iteration 64 RMS(Cart)=  0.01289117 RMS(Int)=  0.00613923
 Iteration 65 RMS(Cart)=  0.01289117 RMS(Int)=  0.00613923
 Iteration 66 RMS(Cart)=  0.01289117 RMS(Int)=  0.00613923
 Iteration 67 RMS(Cart)=  0.01289117 RMS(Int)=  0.00613923
 Iteration 68 RMS(Cart)=  0.01289117 RMS(Int)=  0.00613923
 Iteration 69 RMS(Cart)=  0.01289117 RMS(Int)=  0.00613923
 Iteration 70 RMS(Cart)=  0.01289117 RMS(Int)=  0.00613923
 Iteration 71 RMS(Cart)=  0.01289117 RMS(Int)=  0.00613923
 Iteration 72 RMS(Cart)=  0.01289117 RMS(Int)=  0.00613923
 Iteration 73 RMS(Cart)=  0.01289117 RMS(Int)=  0.00613923
 Iteration 74 RMS(Cart)=  0.01289117 RMS(Int)=  0.00613923
 Iteration 75 RMS(Cart)=  0.01289117 RMS(Int)=  0.00613923
 Iteration 76 RMS(Cart)=  0.01289117 RMS(Int)=  0.00613923
 Iteration 77 RMS(Cart)=  0.01289117 RMS(Int)=  0.00613923
 Iteration 78 RMS(Cart)=  0.01289117 RMS(Int)=  0.00613923
 Iteration 79 RMS(Cart)=  0.01289117 RMS(Int)=  0.00613923
 Iteration 80 RMS(Cart)=  0.01289117 RMS(Int)=  0.00613923
 Iteration 81 RMS(Cart)=  0.01289117 RMS(Int)=  0.00613923
 Iteration 82 RMS(Cart)=  0.01289117 RMS(Int)=  0.00613923
 Iteration 83 RMS(Cart)=  0.01289117 RMS(Int)=  0.00613923
 Iteration 84 RMS(Cart)=  0.01289117 RMS(Int)=  0.00613923
 Iteration 85 RMS(Cart)=  0.01289117 RMS(Int)=  0.00613923
 Iteration 86 RMS(Cart)=  0.01289117 RMS(Int)=  0.00613923
 Iteration 87 RMS(Cart)=  0.01289117 RMS(Int)=  0.00613923
 Iteration 88 RMS(Cart)=  0.01289117 RMS(Int)=  0.00613923
 Iteration 89 RMS(Cart)=  0.01289117 RMS(Int)=  0.00613923
 Iteration 90 RMS(Cart)=  0.01289117 RMS(Int)=  0.00613923
 Iteration 91 RMS(Cart)=  0.01289117 RMS(Int)=  0.00613923
 Iteration 92 RMS(Cart)=  0.01289117 RMS(Int)=  0.00613923
 Iteration 93 RMS(Cart)=  0.01289117 RMS(Int)=  0.00613923
 Iteration 94 RMS(Cart)=  0.01289117 RMS(Int)=  0.00613923
 Iteration 95 RMS(Cart)=  0.01289117 RMS(Int)=  0.00613923
 Iteration 96 RMS(Cart)=  0.01289117 RMS(Int)=  0.00613923
 Iteration 97 RMS(Cart)=  0.01289117 RMS(Int)=  0.00613923
 Iteration 98 RMS(Cart)=  0.01289117 RMS(Int)=  0.00613923
 Iteration 99 RMS(Cart)=  0.01289117 RMS(Int)=  0.00613923
 Iteration100 RMS(Cart)=  0.01289117 RMS(Int)=  0.00613923
 New curvilinear step not converged.
 ITry= 7 IFail=1 DXMaxC= 1.91D-01 DCOld= 1.00D+10 DXMaxT= 1.15D+00 DXLimC= 3.00D+00 Rises=F
 Iteration  1 RMS(Cart)=  0.14001048 RMS(Int)=  0.00698994
 Iteration  2 RMS(Cart)=  0.00710501 RMS(Int)=  0.00000137
 Iteration  3 RMS(Cart)=  0.00000253 RMS(Int)=  0.00000000
 Iteration  4 RMS(Cart)=  0.00000000 RMS(Int)=  0.00000000
 ITry= 8 IFail=0 DXMaxC= 1.99D-01 DCOld= 1.00D+10 DXMaxT= 1.15D+00 DXLimC= 3.00D+00 Rises=F
 ClnCor:  largest displacement from symmetrization is 2.78D-13 for atom     3.
 Variable       Old X    -DE/DX   Delta X   Delta X   Delta X     New X
                                 (Linear)    (Quad)   (Total)
    R1        5.14425   0.00005  -0.00027  -0.00097  -0.00056   5.14369
    R2        5.14425   0.00005  -0.00027  -0.00097  -0.00056   5.14369
    A1        3.02486   0.00011   0.09861   0.05860   0.11619   3.14105
         Item               Value     Threshold  Converged?
 Maximum Force            0.000107     0.000450     YES
 RMS     Force            0.000074     0.000300     YES
 Maximum Displacement     0.199124     0.001800     NO 
 RMS     Displacement     0.140961     0.001200     NO 
 Predicted change in Energy=-7.765334D-06
 GradGradGradGradGradGradGradGradGradGradGradGradGradGradGradGradGradGrad

                          Input orientation:                          
 ---------------------------------------------------------------------
 Center     Atomic      Atomic             Coordinates (Angstroms)
 Number     Number       Type             X           Y           Z
 ---------------------------------------------------------------------
      1         16           0       10.500000   10.500000   10.268325
      2         19           0        7.778078   10.500000   10.267586
      3         19           0       13.221922   10.500000   10.267586
 ---------------------------------------------------------------------
                    Distance matrix (angstroms):
                    1          2          3
     1  S    0.000000
     2  K    2.721922   0.000000
     3  K    2.721922   5.443845   0.000000
 Stoichiometry    K2S
 Framework group  C2V[C2(S),SGV(K2)]
 Deg. of freedom     2
 Full point group                 C2V     NOp   4
 Largest Abelian subgroup         C2V     NOp   4
 Largest concise Abelian subgroup C2      NOp   2
                         Standard orientation:                         
 ---------------------------------------------------------------------
 Center     Atomic      Atomic             Coordinates (Angstroms)
 Number     Number       Type             X           Y           Z
 ---------------------------------------------------------------------
      1         16           0        0.000000    0.000000    0.000520
      2         19           0       -0.000000    2.721922   -0.000219
      3         19           0       -0.000000   -2.721922   -0.000219
 ---------------------------------------------------------------------
 Rotational constants (GHZ):    40764884.2756839           0.8753374           0.8753374
 Standard basis: def2QZVPP (5D, 7F)
 There are    96 symmetry adapted cartesian basis functions of A1  symmetry.
 There are    35 symmetry adapted cartesian basis functions of A2  symmetry.
 There are    45 symmetry adapted cartesian basis functions of B1  symmetry.
 There are    76 symmetry adapted cartesian basis functions of B2  symmetry.
 There are    77 symmetry adapted basis functions of A1  symmetry.
 There are    31 symmetry adapted basis functions of A2  symmetry.
 There are    39 symmetry adapted basis functions of B1  symmetry.
 There are    63 symmetry adapted basis functions of B2  symmetry.
   210 basis functions,   385 primitive gaussians,   252 cartesian basis functions
    27 alpha electrons       27 beta electrons
       nuclear repulsion energy       153.2946829295 Hartrees.
 NAtoms=    3 NActive=    3 NUniq=    2 SFac= 2.25D+00 NAtFMM=   60 NAOKFM=F Big=F
 Integral buffers will be    131072 words long.
 Raffenetti 2 integral format.
 Two-electron integral symmetry is turned on.
 One-electron integrals computed using PRISM.
   4 Symmetry operations used in ECPInt.
 ECPInt:  NShTT=    2485 NPrTT=   10021 LenC2=    2319 LenP2D=    7244.
 LDataN:  DoStor=T MaxTD1= 8 Len=  415
 NBasis=   210 RedAO= T EigKep=  7.53D-04  NBF=    77    31    39    63
 NBsUse=   210 1.00D-06 EigRej= -1.00D+00 NBFU=    77    31    39    63
 Initial guess from the checkpoint file:  "/data/hutter/SMG16/TPSS/Gau-56371.chk"
 B after Tr=     0.000000    0.000000   -0.000000
         Rot=    1.000000    0.000000    0.000000   -0.000000 Ang=   0.00 deg.
 Initial guess orbital symmetries:
       Occupied  (B2) (A1) (A1) (B2) (A1) (A1) (B2) (B1) (A2) (A1)
                 (B2) (A1) (B2) (A1) (B1) (A1) (B2) (A1) (B1) (B2)
                 (A2) (A1) (B2) (A1) (B2) (A1) (B1)
       Virtual   (A1) (B2) (A1) (B1) (A2) (B2) (A1) (B2) (A1) (B2)
                 (B1) (A1) (A2) (B2) (A1) (B1) (A1) (B2) (A2) (B2)
                 (A2) (B2) (A1) (B1) (A1) (B2) (A1) (B2) (A2) (B2)
                 (A1) (B1) (A1) (B1) (A1) (B1) (A2) (B2) (A2) (B2)
                 (A1) (A1) (B1) (A1) (B2) (A1) (B1) (B2) (A2) (B2)
                 (A2) (A1) (B1) (B2) (A2) (B2) (A1) (B1) (A1) (A1)
                 (B2) (B1) (A1) (A2) (B2) (B2) (A1) (A1) (B1) (B2)
                 (A2) (B2) (A1) (B1) (A1) (A2) (B2) (B1) (A1) (A2)
                 (B2) (B2) (A1) (A1) (B1) (A1) (B1) (A1) (B1) (A1)
                 (B2) (A2) (B2) (A2) (B2) (A1) (B1) (B2) (A1) (B2)
                 (A1) (B1) (A1) (A2) (B2) (B1) (A1) (A2) (B2) (A2)
                 (B2) (A1) (B1) (A1) (B2) (A1) (B1) (A1) (A1) (B1)
                 (A2) (B2) (B2) (A2) (B1) (A1) (B2) (A2) (B2) (A1)
                 (B2) (A2) (B1) (A1) (B1) (A1) (A2) (B2) (A1) (B1)
                 (A2) (B2) (A1) (B1) (A1) (B2) (B1) (A1) (B2) (A1)
                 (B2) (A1) (B1) (A1) (A2) (B2) (B1) (A1) (A2) (B2)
                 (A2) (B2) (A1) (B1) (A1) (B2) (B1) (A1) (A2) (B2)
                 (A1) (A1) (B2) (A1) (B1) (A1) (B2) (A1) (B2) (A1)
                 (A1) (B2) (A1)
 ExpMin= 1.53D-02 ExpMax= 2.02D+06 ExpMxC= 2.31D+03 IAcc=3 IRadAn=         5 AccDes= 0.00D+00
 Harris functional with IExCor= 1009 and IRadAn=       5 diagonalized for initial guess.
 HarFok:  IExCor= 1009 AccDes= 0.00D+00 IRadAn=         5 IDoV= 1 UseB2=F ITyADJ=14
 ICtDFT=  3500011 ScaDFX=  1.000000  1.000000  1.000000  1.000000
 FoFCou: FMM=F IPFlag=           0 FMFlag=      100000 FMFlg1=           0
         NFxFlg=           0 DoJE=T BraDBF=F KetDBF=T FulRan=T
         wScrn=  0.000000 ICntrl=       500 IOpCl=  0 I1Cent=   200000004 NGrid=           0
         NMat0=    1 NMatS0=      1 NMatT0=    0 NMatD0=    1 NMtDS0=    0 NMtDT0=    0
 Petite list used in FoFCou.
 Keep J ints in memory in symmetry-blocked form, NReq=307684869.
 Requested convergence on RMS density matrix=1.00D-08 within 128 cycles.
 Requested convergence on MAX density matrix=1.00D-06.
 Requested convergence on             energy=1.00D-06.
 No special actions if energy rises.
 SCF Done:  E(RTPSS-TPSS) =  -1598.20844449     A.U. after    8 cycles
            NFock=  8  Conv=0.97D-08     -V/T= 2.0018
   4 Symmetry operations used in ECPInt.
 ECPInt:  NShTT=    2485 NPrTT=   10021 LenC2=    2319 LenP2D=    7244.
 LDataN:  DoStor=T MaxTD1= 9 Len=  602
 Calling FoFJK, ICntrl=      2527 FMM=F ISym2X=1 I1Cent= 0 IOpClX= 0 NMat=1 NMatS=1 NMatT=0.
 ***** Axes restored to original set *****
 -------------------------------------------------------------------
 Center     Atomic                   Forces (Hartrees/Bohr)
 Number     Number              X              Y              Z
 -------------------------------------------------------------------
      1       16           0.000000000   -0.000000000   -0.000000191
      2       19          -0.000045345    0.000000000    0.000000095
      3       19           0.000045345   -0.000000000    0.000000095
 -------------------------------------------------------------------
 Cartesian Forces:  Max     0.000045345 RMS     0.000021376

 GradGradGradGradGradGradGradGradGradGradGradGradGradGradGradGradGradGrad
 Berny optimization.
 Using GEDIIS/GDIIS optimizer.
 FormGI is forming the generalized inverse of G from B-inverse, IUseBI=4.
 Internal  Forces:  Max     0.000045345 RMS     0.000037026
 Search for a local minimum.
 Step number   9 out of a maximum of   20
 All quantities printed in internal units (Hartrees-Bohrs-Radians)
 Mixed Optimization -- En-DIIS/RFO-DIIS
 Swapping is turned off.
 Update second derivatives using D2CorX and points    6    7    8    9
 DE= -6.52D-06 DEPred=-7.77D-06 R= 8.40D-01
 TightC=F SS=  1.41D+00  RLast= 1.16D-01 DXNew= 1.9329D+00 3.4858D-01
 Trust test= 8.40D-01 RLast= 1.16D-01 DXMaxT set to 1.15D+00
 The second derivative matrix:
                          R1        R2        A1
           R1           0.04475
           R2           0.00609   0.04475
           A1           0.00029   0.00029   0.00092
 ITU=  1  1  1  1
     Eigenvalues ---    0.00091   0.03867   0.05084
 En-DIIS/RFO-DIIS/Sim-DIIS IScMMF=       -3 using points:     9    8    7    6
 RFO step:  Lambda=-8.08891179D-08.
 DIIS inversion failure, remove point   4.
 RFO-DIIS uses    3 points instead of    4
 DidBck=F Rises=F RFO-DIIS coefs:    1.06891   -0.36749    0.29858    0.00000
 Iteration  1 RMS(Cart)=  0.00511230 RMS(Int)=  0.00000882
 Iteration  2 RMS(Cart)=  0.00001017 RMS(Int)=  0.00000000
 Iteration  3 RMS(Cart)=  0.00000000 RMS(Int)=  0.00000000
 ClnCor:  largest displacement from symmetrization is 2.17D-13 for atom     1.
 Variable       Old X    -DE/DX   Delta X   Delta X   Delta X     New X
                                 (Linear)    (Quad)   (Total)
    R1        5.14369   0.00005   0.00095   0.00000   0.00095   5.14463
    R2        5.14369   0.00005   0.00095  -0.00000   0.00095   5.14463
    A1        3.14105   0.00000  -0.00417   0.00000  -0.00417   3.13688
         Item               Value     Threshold  Converged?
 Maximum Force            0.000045     0.000450     YES
 RMS     Force            0.000037     0.000300     YES
 Maximum Displacement     0.007156     0.001800     NO 
 RMS     Displacement     0.005117     0.001200     NO 
 Predicted change in Energy=-3.231482D-08
 GradGradGradGradGradGradGradGradGradGradGradGradGradGradGradGradGradGrad

                          Input orientation:                          
 ---------------------------------------------------------------------
 Center     Atomic      Atomic             Coordinates (Angstroms)
 Number     Number       Type             X           Y           Z
 ---------------------------------------------------------------------
      1         16           0       10.500000   10.500000   10.272112
      2         19           0        7.777584   10.500000   10.265692
      3         19           0       13.222416   10.500000   10.265692
 ---------------------------------------------------------------------
                    Distance matrix (angstroms):
                    1          2          3
     1  S    0.000000
     2  K    2.722423   0.000000
     3  K    2.722423   5.444831   0.000000
 Stoichiometry    K2S
 Framework group  C2V[C2(S),SGV(K2)]
 Deg. of freedom     2
 Full point group                 C2V     NOp   4
 Largest Abelian subgroup         C2V     NOp   4
 Largest concise Abelian subgroup C2      NOp   2
                         Standard orientation:                         
 ---------------------------------------------------------------------
 Center     Atomic      Atomic             Coordinates (Angstroms)
 Number     Number       Type             X           Y           Z
 ---------------------------------------------------------------------
      1         16           0       -0.000000    0.000000    0.004517
      2         19           0        0.000000    2.722416   -0.001902
      3         19           0       -0.000000   -2.722416   -0.001902
 ---------------------------------------------------------------------
 Rotational constants (GHZ):      540964.9997353           0.8750202           0.8750188
 Standard basis: def2QZVPP (5D, 7F)
 There are    96 symmetry adapted cartesian basis functions of A1  symmetry.
 There are    35 symmetry adapted cartesian basis functions of A2  symmetry.
 There are    45 symmetry adapted cartesian basis functions of B1  symmetry.
 There are    76 symmetry adapted cartesian basis functions of B2  symmetry.
 There are    77 symmetry adapted basis functions of A1  symmetry.
 There are    31 symmetry adapted basis functions of A2  symmetry.
 There are    39 symmetry adapted basis functions of B1  symmetry.
 There are    63 symmetry adapted basis functions of B2  symmetry.
   210 basis functions,   385 primitive gaussians,   252 cartesian basis functions
    27 alpha electrons       27 beta electrons
       nuclear repulsion energy       153.2665830314 Hartrees.
 NAtoms=    3 NActive=    3 NUniq=    2 SFac= 2.25D+00 NAtFMM=   60 NAOKFM=F Big=F
 Integral buffers will be    131072 words long.
 Raffenetti 2 integral format.
 Two-electron integral symmetry is turned on.
 One-electron integrals computed using PRISM.
   4 Symmetry operations used in ECPInt.
 ECPInt:  NShTT=    2485 NPrTT=   10021 LenC2=    2319 LenP2D=    7244.
 LDataN:  DoStor=T MaxTD1= 8 Len=  415
 NBasis=   210 RedAO= T EigKep=  7.54D-04  NBF=    77    31    39    63
 NBsUse=   210 1.00D-06 EigRej= -1.00D+00 NBFU=    77    31    39    63
 Initial guess from the checkpoint file:  "/data/hutter/SMG16/TPSS/Gau-56371.chk"
 B after Tr=     0.000000   -0.000000   -0.000000
         Rot=    1.000000   -0.000000    0.000000   -0.000000 Ang=   0.00 deg.
 Initial guess orbital symmetries:
       Occupied  (B2) (A1) (A1) (B2) (A1) (B1) (A1) (A2) (B2) (A1)
                 (B2) (A1) (B2) (A1) (B1) (A1) (B2) (B1) (A1) (A2)
                 (B2) (A1) (B2) (A1) (B2) (A1) (B1)
       Virtual   (A1) (B2) (A1) (B1) (A2) (B2) (A1) (B2) (A1) (B2)
                 (B1) (A1) (A2) (B2) (A1) (A1) (B1) (B2) (A2) (B2)
                 (A2) (B2) (A1) (B1) (A1) (B2) (A1) (B2) (A2) (B2)
                 (B1) (A1) (A1) (B1) (B1) (A1) (A2) (B2) (A2) (B2)
                 (A1) (A1) (B1) (A1) (B2) (A1) (B1) (B2) (A2) (B2)
                 (A2) (A1) (B1) (B2) (A2) (B2) (A1) (B1) (A1) (A1)
                 (B1) (B2) (A1) (A2) (B2) (B2) (A1) (A1) (B1) (B2)
                 (A2) (B2) (A1) (A1) (B1) (B2) (A2) (B1) (A1) (A2)
                 (B2) (B2) (A1) (A1) (A1) (B1) (B1) (A1) (B1) (A1)
                 (B2) (A2) (B2) (A2) (B2) (A1) (B1) (B2) (A1) (B2)
                 (A1) (B1) (A1) (A2) (B2) (B1) (A1) (A2) (B2) (A2)
                 (B2) (A1) (B1) (A1) (B2) (A1) (B1) (A1) (B1) (A1)
                 (A2) (B2) (B2) (A2) (B1) (A1) (B2) (A2) (B2) (A1)
                 (B2) (A2) (A1) (B1) (B1) (A1) (A2) (B2) (A1) (B1)
                 (B2) (A2) (A1) (B1) (A1) (B2) (B1) (A1) (B2) (A1)
                 (B2) (A1) (B1) (A1) (A2) (B2) (B1) (A1) (A2) (B2)
                 (A2) (B2) (A1) (B1) (A1) (B2) (A1) (B1) (A2) (B2)
                 (A1) (A1) (B2) (A1) (B1) (A1) (B2) (A1) (B2) (A1)
                 (A1) (B2) (A1)
 Keep J ints in memory in symmetry-blocked form, NReq=307684869.
 Requested convergence on RMS density matrix=1.00D-08 within 128 cycles.
 Requested convergence on MAX density matrix=1.00D-06.
 Requested convergence on             energy=1.00D-06.
 No special actions if energy rises.
 SCF Done:  E(RTPSS-TPSS) =  -1598.20844451     A.U. after    7 cycles
            NFock=  7  Conv=0.40D-08     -V/T= 2.0018
   4 Symmetry operations used in ECPInt.
 ECPInt:  NShTT=    2485 NPrTT=   10021 LenC2=    2319 LenP2D=    7244.
 LDataN:  DoStor=T MaxTD1= 9 Len=  602
 Calling FoFJK, ICntrl=      2527 FMM=F ISym2X=1 I1Cent= 0 IOpClX= 0 NMat=1 NMatS=1 NMatT=0.
 ***** Axes restored to original set *****
 -------------------------------------------------------------------
 Center     Atomic                   Forces (Hartrees/Bohr)
 Number     Number              X              Y              Z
 -------------------------------------------------------------------
      1       16           0.000000000   -0.000000000   -0.000001891
      2       19           0.000005578    0.000000000    0.000000946
      3       19          -0.000005578   -0.000000000    0.000000946
 -------------------------------------------------------------------
 Cartesian Forces:  Max     0.000005578 RMS     0.000002740

 GradGradGradGradGradGradGradGradGradGradGradGradGradGradGradGradGradGrad
 Berny optimization.
 Using GEDIIS/GDIIS optimizer.
 FormGI is forming the generalized inverse of G from B-inverse, IUseBI=4.
 Internal  Forces:  Max     0.000005580 RMS     0.000005332
 Search for a local minimum.
 Step number  10 out of a maximum of   20
 All quantities printed in internal units (Hartrees-Bohrs-Radians)
 Mixed Optimization -- En-DIIS/RFO-DIIS
 Swapping is turned off.
 Update second derivatives using D2CorX and points    7    8    9   10
 DE= -2.64D-08 DEPred=-3.23D-08 R= 8.16D-01
 Trust test= 8.16D-01 RLast= 4.38D-03 DXMaxT set to 1.15D+00
 The second derivative matrix:
                          R1        R2        A1
           R1           0.04600
           R2           0.00734   0.04600
           A1          -0.00011  -0.00011   0.00097
 ITU=  0  1  1  1
     Eigenvalues ---    0.00097   0.03867   0.05334
 En-DIIS/RFO-DIIS/Sim-DIIS IScMMF=       -3 using points:    10    9    8    7
 RFO step:  Lambda=-2.47316335D-08.
 DIIS inversion failure, remove point   4.
 RFO-DIIS uses    3 points instead of    4
 DidBck=F Rises=F RFO-DIIS coefs:    0.88600    0.15457   -0.04057    0.00000
 Iteration  1 RMS(Cart)=  0.00629327 RMS(Int)=  0.00054693
 Iteration  2 RMS(Cart)=  0.00114839 RMS(Int)=  0.00054668
 Iteration  3 RMS(Cart)=  0.00114816 RMS(Int)=  0.00054668
 Iteration  4 RMS(Cart)=  0.00114815 RMS(Int)=  0.00054668
 Iteration  5 RMS(Cart)=  0.00114815 RMS(Int)=  0.00054668
 Iteration  6 RMS(Cart)=  0.00114815 RMS(Int)=  0.00054668
 Iteration  7 RMS(Cart)=  0.00114815 RMS(Int)=  0.00054668
 Iteration  8 RMS(Cart)=  0.00114815 RMS(Int)=  0.00054668
 Iteration  9 RMS(Cart)=  0.00114815 RMS(Int)=  0.00054668
 Iteration 10 RMS(Cart)=  0.00114815 RMS(Int)=  0.00054668
 Iteration 11 RMS(Cart)=  0.00114815 RMS(Int)=  0.00054668
 Iteration 12 RMS(Cart)=  0.00114815 RMS(Int)=  0.00054668
 Iteration 13 RMS(Cart)=  0.00114815 RMS(Int)=  0.00054668
 Iteration 14 RMS(Cart)=  0.00114815 RMS(Int)=  0.00054668
 Iteration 15 RMS(Cart)=  0.00114815 RMS(Int)=  0.00054668
 Iteration 16 RMS(Cart)=  0.00114815 RMS(Int)=  0.00054668
 Iteration 17 RMS(Cart)=  0.00114815 RMS(Int)=  0.00054668
 Iteration 18 RMS(Cart)=  0.00114815 RMS(Int)=  0.00054668
 Iteration 19 RMS(Cart)=  0.00114815 RMS(Int)=  0.00054668
 Iteration 20 RMS(Cart)=  0.00114815 RMS(Int)=  0.00054668
 Iteration 21 RMS(Cart)=  0.00114815 RMS(Int)=  0.00054668
 Iteration 22 RMS(Cart)=  0.00114815 RMS(Int)=  0.00054668
 Iteration 23 RMS(Cart)=  0.00114815 RMS(Int)=  0.00054668
 Iteration 24 RMS(Cart)=  0.00114815 RMS(Int)=  0.00054668
 Iteration 25 RMS(Cart)=  0.00114815 RMS(Int)=  0.00054668
 Iteration 26 RMS(Cart)=  0.00114815 RMS(Int)=  0.00054668
 Iteration 27 RMS(Cart)=  0.00114815 RMS(Int)=  0.00054668
 Iteration 28 RMS(Cart)=  0.00114815 RMS(Int)=  0.00054668
 Iteration 29 RMS(Cart)=  0.00114815 RMS(Int)=  0.00054668
 Iteration 30 RMS(Cart)=  0.00114815 RMS(Int)=  0.00054668
 Iteration 31 RMS(Cart)=  0.00114815 RMS(Int)=  0.00054668
 Iteration 32 RMS(Cart)=  0.00114815 RMS(Int)=  0.00054668
 Iteration 33 RMS(Cart)=  0.00114815 RMS(Int)=  0.00054668
 Iteration 34 RMS(Cart)=  0.00114815 RMS(Int)=  0.00054668
 Iteration 35 RMS(Cart)=  0.00114815 RMS(Int)=  0.00054668
 Iteration 36 RMS(Cart)=  0.00114815 RMS(Int)=  0.00054668
 Iteration 37 RMS(Cart)=  0.00114815 RMS(Int)=  0.00054668
 Iteration 38 RMS(Cart)=  0.00114815 RMS(Int)=  0.00054668
 Iteration 39 RMS(Cart)=  0.00114815 RMS(Int)=  0.00054668
 Iteration 40 RMS(Cart)=  0.00114815 RMS(Int)=  0.00054668
 Iteration 41 RMS(Cart)=  0.00114815 RMS(Int)=  0.00054668
 Iteration 42 RMS(Cart)=  0.00114815 RMS(Int)=  0.00054668
 Iteration 43 RMS(Cart)=  0.00114815 RMS(Int)=  0.00054668
 Iteration 44 RMS(Cart)=  0.00114815 RMS(Int)=  0.00054668
 Iteration 45 RMS(Cart)=  0.00114815 RMS(Int)=  0.00054668
 Iteration 46 RMS(Cart)=  0.00114815 RMS(Int)=  0.00054668
 Iteration 47 RMS(Cart)=  0.00114815 RMS(Int)=  0.00054668
 Iteration 48 RMS(Cart)=  0.00114815 RMS(Int)=  0.00054668
 Iteration 49 RMS(Cart)=  0.00114815 RMS(Int)=  0.00054668
 Iteration 50 RMS(Cart)=  0.00114815 RMS(Int)=  0.00054668
 Iteration 51 RMS(Cart)=  0.00114815 RMS(Int)=  0.00054668
 Iteration 52 RMS(Cart)=  0.00114815 RMS(Int)=  0.00054668
 Iteration 53 RMS(Cart)=  0.00114815 RMS(Int)=  0.00054668
 Iteration 54 RMS(Cart)=  0.00114815 RMS(Int)=  0.00054668
 Iteration 55 RMS(Cart)=  0.00114815 RMS(Int)=  0.00054668
 Iteration 56 RMS(Cart)=  0.00114815 RMS(Int)=  0.00054668
 Iteration 57 RMS(Cart)=  0.00114815 RMS(Int)=  0.00054668
 Iteration 58 RMS(Cart)=  0.00114815 RMS(Int)=  0.00054668
 Iteration 59 RMS(Cart)=  0.00114815 RMS(Int)=  0.00054668
 Iteration 60 RMS(Cart)=  0.00114815 RMS(Int)=  0.00054668
 Iteration 61 RMS(Cart)=  0.00114815 RMS(Int)=  0.00054668
 Iteration 62 RMS(Cart)=  0.00114815 RMS(Int)=  0.00054668
 Iteration 63 RMS(Cart)=  0.00114815 RMS(Int)=  0.00054668
 Iteration 64 RMS(Cart)=  0.00114815 RMS(Int)=  0.00054668
 Iteration 65 RMS(Cart)=  0.00114815 RMS(Int)=  0.00054668
 Iteration 66 RMS(Cart)=  0.00114815 RMS(Int)=  0.00054668
 Iteration 67 RMS(Cart)=  0.00114815 RMS(Int)=  0.00054668
 Iteration 68 RMS(Cart)=  0.00114815 RMS(Int)=  0.00054668
 Iteration 69 RMS(Cart)=  0.00114815 RMS(Int)=  0.00054668
 Iteration 70 RMS(Cart)=  0.00114815 RMS(Int)=  0.00054668
 Iteration 71 RMS(Cart)=  0.00114815 RMS(Int)=  0.00054668
 Iteration 72 RMS(Cart)=  0.00114815 RMS(Int)=  0.00054668
 Iteration 73 RMS(Cart)=  0.00114815 RMS(Int)=  0.00054668
 Iteration 74 RMS(Cart)=  0.00114815 RMS(Int)=  0.00054668
 Iteration 75 RMS(Cart)=  0.00114815 RMS(Int)=  0.00054668
 Iteration 76 RMS(Cart)=  0.00114815 RMS(Int)=  0.00054668
 Iteration 77 RMS(Cart)=  0.00114815 RMS(Int)=  0.00054668
 Iteration 78 RMS(Cart)=  0.00114815 RMS(Int)=  0.00054668
 Iteration 79 RMS(Cart)=  0.00114815 RMS(Int)=  0.00054668
 Iteration 80 RMS(Cart)=  0.00114815 RMS(Int)=  0.00054668
 Iteration 81 RMS(Cart)=  0.00114815 RMS(Int)=  0.00054668
 Iteration 82 RMS(Cart)=  0.00114815 RMS(Int)=  0.00054668
 Iteration 83 RMS(Cart)=  0.00114815 RMS(Int)=  0.00054668
 Iteration 84 RMS(Cart)=  0.00114815 RMS(Int)=  0.00054668
 Iteration 85 RMS(Cart)=  0.00114815 RMS(Int)=  0.00054668
 Iteration 86 RMS(Cart)=  0.00114815 RMS(Int)=  0.00054668
 Iteration 87 RMS(Cart)=  0.00114815 RMS(Int)=  0.00054668
 Iteration 88 RMS(Cart)=  0.00114815 RMS(Int)=  0.00054668
 Iteration 89 RMS(Cart)=  0.00114815 RMS(Int)=  0.00054668
 Iteration 90 RMS(Cart)=  0.00114815 RMS(Int)=  0.00054668
 Iteration 91 RMS(Cart)=  0.00114815 RMS(Int)=  0.00054668
 Iteration 92 RMS(Cart)=  0.00114815 RMS(Int)=  0.00054668
 Iteration 93 RMS(Cart)=  0.00114815 RMS(Int)=  0.00054668
 Iteration 94 RMS(Cart)=  0.00114815 RMS(Int)=  0.00054668
 Iteration 95 RMS(Cart)=  0.00114815 RMS(Int)=  0.00054668
 Iteration 96 RMS(Cart)=  0.00114815 RMS(Int)=  0.00054668
 Iteration 97 RMS(Cart)=  0.00114815 RMS(Int)=  0.00054668
 Iteration 98 RMS(Cart)=  0.00114815 RMS(Int)=  0.00054668
 Iteration 99 RMS(Cart)=  0.00114815 RMS(Int)=  0.00054668
 Iteration100 RMS(Cart)=  0.00114815 RMS(Int)=  0.00054668
 New curvilinear step not converged.
 ITry= 1 IFail=1 DXMaxC= 7.28D-03 DCOld= 1.00D+10 DXMaxT= 1.15D+00 DXLimC= 3.00D+00 Rises=F
 Iteration  1 RMS(Cart)=  0.00629327 RMS(Int)=  0.00054693
 Iteration  2 RMS(Cart)=  0.00114839 RMS(Int)=  0.00054668
 Iteration  3 RMS(Cart)=  0.00114816 RMS(Int)=  0.00054668
 Iteration  4 RMS(Cart)=  0.00114815 RMS(Int)=  0.00054668
 Iteration  5 RMS(Cart)=  0.00114815 RMS(Int)=  0.00054668
 Iteration  6 RMS(Cart)=  0.00114815 RMS(Int)=  0.00054668
 Iteration  7 RMS(Cart)=  0.00114815 RMS(Int)=  0.00054668
 Iteration  8 RMS(Cart)=  0.00114815 RMS(Int)=  0.00054668
 Iteration  9 RMS(Cart)=  0.00114815 RMS(Int)=  0.00054668
 Iteration 10 RMS(Cart)=  0.00114815 RMS(Int)=  0.00054668
 Iteration 11 RMS(Cart)=  0.00114815 RMS(Int)=  0.00054668
 Iteration 12 RMS(Cart)=  0.00114815 RMS(Int)=  0.00054668
 Iteration 13 RMS(Cart)=  0.00114815 RMS(Int)=  0.00054668
 Iteration 14 RMS(Cart)=  0.00114815 RMS(Int)=  0.00054668
 Iteration 15 RMS(Cart)=  0.00114815 RMS(Int)=  0.00054668
 Iteration 16 RMS(Cart)=  0.00114815 RMS(Int)=  0.00054668
 Iteration 17 RMS(Cart)=  0.00114815 RMS(Int)=  0.00054668
 Iteration 18 RMS(Cart)=  0.00114815 RMS(Int)=  0.00054668
 Iteration 19 RMS(Cart)=  0.00114815 RMS(Int)=  0.00054668
 Iteration 20 RMS(Cart)=  0.00114815 RMS(Int)=  0.00054668
 Iteration 21 RMS(Cart)=  0.00114815 RMS(Int)=  0.00054668
 Iteration 22 RMS(Cart)=  0.00114815 RMS(Int)=  0.00054668
 Iteration 23 RMS(Cart)=  0.00114815 RMS(Int)=  0.00054668
 Iteration 24 RMS(Cart)=  0.00114815 RMS(Int)=  0.00054668
 Iteration 25 RMS(Cart)=  0.00114815 RMS(Int)=  0.00054668
 Iteration 26 RMS(Cart)=  0.00114815 RMS(Int)=  0.00054668
 Iteration 27 RMS(Cart)=  0.00114815 RMS(Int)=  0.00054668
 Iteration 28 RMS(Cart)=  0.00114815 RMS(Int)=  0.00054668
 Iteration 29 RMS(Cart)=  0.00114815 RMS(Int)=  0.00054668
 Iteration 30 RMS(Cart)=  0.00114815 RMS(Int)=  0.00054668
 Iteration 31 RMS(Cart)=  0.00114815 RMS(Int)=  0.00054668
 Iteration 32 RMS(Cart)=  0.00114815 RMS(Int)=  0.00054668
 Iteration 33 RMS(Cart)=  0.00114815 RMS(Int)=  0.00054668
 Iteration 34 RMS(Cart)=  0.00114815 RMS(Int)=  0.00054668
 Iteration 35 RMS(Cart)=  0.00114815 RMS(Int)=  0.00054668
 Iteration 36 RMS(Cart)=  0.00114815 RMS(Int)=  0.00054668
 Iteration 37 RMS(Cart)=  0.00114815 RMS(Int)=  0.00054668
 Iteration 38 RMS(Cart)=  0.00114815 RMS(Int)=  0.00054668
 Iteration 39 RMS(Cart)=  0.00114815 RMS(Int)=  0.00054668
 Iteration 40 RMS(Cart)=  0.00114815 RMS(Int)=  0.00054668
 Iteration 41 RMS(Cart)=  0.00114815 RMS(Int)=  0.00054668
 Iteration 42 RMS(Cart)=  0.00114815 RMS(Int)=  0.00054668
 Iteration 43 RMS(Cart)=  0.00114815 RMS(Int)=  0.00054668
 Iteration 44 RMS(Cart)=  0.00114815 RMS(Int)=  0.00054668
 Iteration 45 RMS(Cart)=  0.00114815 RMS(Int)=  0.00054668
 Iteration 46 RMS(Cart)=  0.00114815 RMS(Int)=  0.00054668
 Iteration 47 RMS(Cart)=  0.00114815 RMS(Int)=  0.00054668
 Iteration 48 RMS(Cart)=  0.00114815 RMS(Int)=  0.00054668
 Iteration 49 RMS(Cart)=  0.00114815 RMS(Int)=  0.00054668
 Iteration 50 RMS(Cart)=  0.00114815 RMS(Int)=  0.00054668
 Iteration 51 RMS(Cart)=  0.00114815 RMS(Int)=  0.00054668
 Iteration 52 RMS(Cart)=  0.00114815 RMS(Int)=  0.00054668
 Iteration 53 RMS(Cart)=  0.00114815 RMS(Int)=  0.00054668
 Iteration 54 RMS(Cart)=  0.00114815 RMS(Int)=  0.00054668
 Iteration 55 RMS(Cart)=  0.00114815 RMS(Int)=  0.00054668
 Iteration 56 RMS(Cart)=  0.00114815 RMS(Int)=  0.00054668
 Iteration 57 RMS(Cart)=  0.00114815 RMS(Int)=  0.00054668
 Iteration 58 RMS(Cart)=  0.00114815 RMS(Int)=  0.00054668
 Iteration 59 RMS(Cart)=  0.00114815 RMS(Int)=  0.00054668
 Iteration 60 RMS(Cart)=  0.00114815 RMS(Int)=  0.00054668
 Iteration 61 RMS(Cart)=  0.00114815 RMS(Int)=  0.00054668
 Iteration 62 RMS(Cart)=  0.00114815 RMS(Int)=  0.00054668
 Iteration 63 RMS(Cart)=  0.00114815 RMS(Int)=  0.00054668
 Iteration 64 RMS(Cart)=  0.00114815 RMS(Int)=  0.00054668
 Iteration 65 RMS(Cart)=  0.00114815 RMS(Int)=  0.00054668
 Iteration 66 RMS(Cart)=  0.00114815 RMS(Int)=  0.00054668
 Iteration 67 RMS(Cart)=  0.00114815 RMS(Int)=  0.00054668
 Iteration 68 RMS(Cart)=  0.00114815 RMS(Int)=  0.00054668
 Iteration 69 RMS(Cart)=  0.00114815 RMS(Int)=  0.00054668
 Iteration 70 RMS(Cart)=  0.00114815 RMS(Int)=  0.00054668
 Iteration 71 RMS(Cart)=  0.00114815 RMS(Int)=  0.00054668
 Iteration 72 RMS(Cart)=  0.00114815 RMS(Int)=  0.00054668
 Iteration 73 RMS(Cart)=  0.00114815 RMS(Int)=  0.00054668
 Iteration 74 RMS(Cart)=  0.00114815 RMS(Int)=  0.00054668
 Iteration 75 RMS(Cart)=  0.00114815 RMS(Int)=  0.00054668
 Iteration 76 RMS(Cart)=  0.00114815 RMS(Int)=  0.00054668
 Iteration 77 RMS(Cart)=  0.00114815 RMS(Int)=  0.00054668
 Iteration 78 RMS(Cart)=  0.00114815 RMS(Int)=  0.00054668
 Iteration 79 RMS(Cart)=  0.00114815 RMS(Int)=  0.00054668
 Iteration 80 RMS(Cart)=  0.00114815 RMS(Int)=  0.00054668
 Iteration 81 RMS(Cart)=  0.00114815 RMS(Int)=  0.00054668
 Iteration 82 RMS(Cart)=  0.00114815 RMS(Int)=  0.00054668
 Iteration 83 RMS(Cart)=  0.00114815 RMS(Int)=  0.00054668
 Iteration 84 RMS(Cart)=  0.00114815 RMS(Int)=  0.00054668
 Iteration 85 RMS(Cart)=  0.00114815 RMS(Int)=  0.00054668
 Iteration 86 RMS(Cart)=  0.00114815 RMS(Int)=  0.00054668
 Iteration 87 RMS(Cart)=  0.00114815 RMS(Int)=  0.00054668
 Iteration 88 RMS(Cart)=  0.00114815 RMS(Int)=  0.00054668
 Iteration 89 RMS(Cart)=  0.00114815 RMS(Int)=  0.00054668
 Iteration 90 RMS(Cart)=  0.00114815 RMS(Int)=  0.00054668
 Iteration 91 RMS(Cart)=  0.00114815 RMS(Int)=  0.00054668
 Iteration 92 RMS(Cart)=  0.00114815 RMS(Int)=  0.00054668
 Iteration 93 RMS(Cart)=  0.00114815 RMS(Int)=  0.00054668
 Iteration 94 RMS(Cart)=  0.00114815 RMS(Int)=  0.00054668
 Iteration 95 RMS(Cart)=  0.00114815 RMS(Int)=  0.00054668
 Iteration 96 RMS(Cart)=  0.00114815 RMS(Int)=  0.00054668
 Iteration 97 RMS(Cart)=  0.00114815 RMS(Int)=  0.00054668
 Iteration 98 RMS(Cart)=  0.00114815 RMS(Int)=  0.00054668
 Iteration 99 RMS(Cart)=  0.00114815 RMS(Int)=  0.00054668
 Iteration100 RMS(Cart)=  0.00114815 RMS(Int)=  0.00054668
 New curvilinear step not converged.
 ITry= 2 IFail=1 DXMaxC= 7.28D-03 DCOld= 1.00D+10 DXMaxT= 1.15D+00 DXLimC= 3.00D+00 Rises=F
 Iteration  1 RMS(Cart)=  0.00629327 RMS(Int)=  0.00054693
 Iteration  2 RMS(Cart)=  0.00114839 RMS(Int)=  0.00054668
 Iteration  3 RMS(Cart)=  0.00114816 RMS(Int)=  0.00054668
 Iteration  4 RMS(Cart)=  0.00114815 RMS(Int)=  0.00054668
 Iteration  5 RMS(Cart)=  0.00114815 RMS(Int)=  0.00054668
 Iteration  6 RMS(Cart)=  0.00114815 RMS(Int)=  0.00054668
 Iteration  7 RMS(Cart)=  0.00114815 RMS(Int)=  0.00054668
 Iteration  8 RMS(Cart)=  0.00114815 RMS(Int)=  0.00054668
 Iteration  9 RMS(Cart)=  0.00114815 RMS(Int)=  0.00054668
 Iteration 10 RMS(Cart)=  0.00114815 RMS(Int)=  0.00054668
 Iteration 11 RMS(Cart)=  0.00114815 RMS(Int)=  0.00054668
 Iteration 12 RMS(Cart)=  0.00114815 RMS(Int)=  0.00054668
 Iteration 13 RMS(Cart)=  0.00114815 RMS(Int)=  0.00054668
 Iteration 14 RMS(Cart)=  0.00114815 RMS(Int)=  0.00054668
 Iteration 15 RMS(Cart)=  0.00114815 RMS(Int)=  0.00054668
 Iteration 16 RMS(Cart)=  0.00114815 RMS(Int)=  0.00054668
 Iteration 17 RMS(Cart)=  0.00114815 RMS(Int)=  0.00054668
 Iteration 18 RMS(Cart)=  0.00114815 RMS(Int)=  0.00054668
 Iteration 19 RMS(Cart)=  0.00114815 RMS(Int)=  0.00054668
 Iteration 20 RMS(Cart)=  0.00114815 RMS(Int)=  0.00054668
 Iteration 21 RMS(Cart)=  0.00114815 RMS(Int)=  0.00054668
 Iteration 22 RMS(Cart)=  0.00114815 RMS(Int)=  0.00054668
 Iteration 23 RMS(Cart)=  0.00114815 RMS(Int)=  0.00054668
 Iteration 24 RMS(Cart)=  0.00114815 RMS(Int)=  0.00054668
 Iteration 25 RMS(Cart)=  0.00114815 RMS(Int)=  0.00054668
 Iteration 26 RMS(Cart)=  0.00114815 RMS(Int)=  0.00054668
 Iteration 27 RMS(Cart)=  0.00114815 RMS(Int)=  0.00054668
 Iteration 28 RMS(Cart)=  0.00114815 RMS(Int)=  0.00054668
 Iteration 29 RMS(Cart)=  0.00114815 RMS(Int)=  0.00054668
 Iteration 30 RMS(Cart)=  0.00114815 RMS(Int)=  0.00054668
 Iteration 31 RMS(Cart)=  0.00114815 RMS(Int)=  0.00054668
 Iteration 32 RMS(Cart)=  0.00114815 RMS(Int)=  0.00054668
 Iteration 33 RMS(Cart)=  0.00114815 RMS(Int)=  0.00054668
 Iteration 34 RMS(Cart)=  0.00114815 RMS(Int)=  0.00054668
 Iteration 35 RMS(Cart)=  0.00114815 RMS(Int)=  0.00054668
 Iteration 36 RMS(Cart)=  0.00114815 RMS(Int)=  0.00054668
 Iteration 37 RMS(Cart)=  0.00114815 RMS(Int)=  0.00054668
 Iteration 38 RMS(Cart)=  0.00114815 RMS(Int)=  0.00054668
 Iteration 39 RMS(Cart)=  0.00114815 RMS(Int)=  0.00054668
 Iteration 40 RMS(Cart)=  0.00114815 RMS(Int)=  0.00054668
 Iteration 41 RMS(Cart)=  0.00114815 RMS(Int)=  0.00054668
 Iteration 42 RMS(Cart)=  0.00114815 RMS(Int)=  0.00054668
 Iteration 43 RMS(Cart)=  0.00114815 RMS(Int)=  0.00054668
 Iteration 44 RMS(Cart)=  0.00114815 RMS(Int)=  0.00054668
 Iteration 45 RMS(Cart)=  0.00114815 RMS(Int)=  0.00054668
 Iteration 46 RMS(Cart)=  0.00114815 RMS(Int)=  0.00054668
 Iteration 47 RMS(Cart)=  0.00114815 RMS(Int)=  0.00054668
 Iteration 48 RMS(Cart)=  0.00114815 RMS(Int)=  0.00054668
 Iteration 49 RMS(Cart)=  0.00114815 RMS(Int)=  0.00054668
 Iteration 50 RMS(Cart)=  0.00114815 RMS(Int)=  0.00054668
 Iteration 51 RMS(Cart)=  0.00114815 RMS(Int)=  0.00054668
 Iteration 52 RMS(Cart)=  0.00114815 RMS(Int)=  0.00054668
 Iteration 53 RMS(Cart)=  0.00114815 RMS(Int)=  0.00054668
 Iteration 54 RMS(Cart)=  0.00114815 RMS(Int)=  0.00054668
 Iteration 55 RMS(Cart)=  0.00114815 RMS(Int)=  0.00054668
 Iteration 56 RMS(Cart)=  0.00114815 RMS(Int)=  0.00054668
 Iteration 57 RMS(Cart)=  0.00114815 RMS(Int)=  0.00054668
 Iteration 58 RMS(Cart)=  0.00114815 RMS(Int)=  0.00054668
 Iteration 59 RMS(Cart)=  0.00114815 RMS(Int)=  0.00054668
 Iteration 60 RMS(Cart)=  0.00114815 RMS(Int)=  0.00054668
 Iteration 61 RMS(Cart)=  0.00114815 RMS(Int)=  0.00054668
 Iteration 62 RMS(Cart)=  0.00114815 RMS(Int)=  0.00054668
 Iteration 63 RMS(Cart)=  0.00114815 RMS(Int)=  0.00054668
 Iteration 64 RMS(Cart)=  0.00114815 RMS(Int)=  0.00054668
 Iteration 65 RMS(Cart)=  0.00114815 RMS(Int)=  0.00054668
 Iteration 66 RMS(Cart)=  0.00114815 RMS(Int)=  0.00054668
 Iteration 67 RMS(Cart)=  0.00114815 RMS(Int)=  0.00054668
 Iteration 68 RMS(Cart)=  0.00114815 RMS(Int)=  0.00054668
 Iteration 69 RMS(Cart)=  0.00114815 RMS(Int)=  0.00054668
 Iteration 70 RMS(Cart)=  0.00114815 RMS(Int)=  0.00054668
 Iteration 71 RMS(Cart)=  0.00114815 RMS(Int)=  0.00054668
 Iteration 72 RMS(Cart)=  0.00114815 RMS(Int)=  0.00054668
 Iteration 73 RMS(Cart)=  0.00114815 RMS(Int)=  0.00054668
 Iteration 74 RMS(Cart)=  0.00114815 RMS(Int)=  0.00054668
 Iteration 75 RMS(Cart)=  0.00114815 RMS(Int)=  0.00054668
 Iteration 76 RMS(Cart)=  0.00114815 RMS(Int)=  0.00054668
 Iteration 77 RMS(Cart)=  0.00114815 RMS(Int)=  0.00054668
 Iteration 78 RMS(Cart)=  0.00114815 RMS(Int)=  0.00054668
 Iteration 79 RMS(Cart)=  0.00114815 RMS(Int)=  0.00054668
 Iteration 80 RMS(Cart)=  0.00114815 RMS(Int)=  0.00054668
 Iteration 81 RMS(Cart)=  0.00114815 RMS(Int)=  0.00054668
 Iteration 82 RMS(Cart)=  0.00114815 RMS(Int)=  0.00054668
 Iteration 83 RMS(Cart)=  0.00114815 RMS(Int)=  0.00054668
 Iteration 84 RMS(Cart)=  0.00114815 RMS(Int)=  0.00054668
 Iteration 85 RMS(Cart)=  0.00114815 RMS(Int)=  0.00054668
 Iteration 86 RMS(Cart)=  0.00114815 RMS(Int)=  0.00054668
 Iteration 87 RMS(Cart)=  0.00114815 RMS(Int)=  0.00054668
 Iteration 88 RMS(Cart)=  0.00114815 RMS(Int)=  0.00054668
 Iteration 89 RMS(Cart)=  0.00114815 RMS(Int)=  0.00054668
 Iteration 90 RMS(Cart)=  0.00114815 RMS(Int)=  0.00054668
 Iteration 91 RMS(Cart)=  0.00114815 RMS(Int)=  0.00054668
 Iteration 92 RMS(Cart)=  0.00114815 RMS(Int)=  0.00054668
 Iteration 93 RMS(Cart)=  0.00114815 RMS(Int)=  0.00054668
 Iteration 94 RMS(Cart)=  0.00114815 RMS(Int)=  0.00054668
 Iteration 95 RMS(Cart)=  0.00114815 RMS(Int)=  0.00054668
 Iteration 96 RMS(Cart)=  0.00114815 RMS(Int)=  0.00054668
 Iteration 97 RMS(Cart)=  0.00114815 RMS(Int)=  0.00054668
 Iteration 98 RMS(Cart)=  0.00114815 RMS(Int)=  0.00054668
 Iteration 99 RMS(Cart)=  0.00114815 RMS(Int)=  0.00054668
 Iteration100 RMS(Cart)=  0.00114815 RMS(Int)=  0.00054668
 New curvilinear step not converged.
 ITry= 3 IFail=1 DXMaxC= 7.28D-03 DCOld= 1.00D+10 DXMaxT= 1.15D+00 DXLimC= 3.00D+00 Rises=F
 Iteration  1 RMS(Cart)=  0.00629327 RMS(Int)=  0.00054693
 Iteration  2 RMS(Cart)=  0.00114839 RMS(Int)=  0.00054668
 Iteration  3 RMS(Cart)=  0.00114816 RMS(Int)=  0.00054668
 Iteration  4 RMS(Cart)=  0.00114815 RMS(Int)=  0.00054668
 Iteration  5 RMS(Cart)=  0.00114815 RMS(Int)=  0.00054668
 Iteration  6 RMS(Cart)=  0.00114815 RMS(Int)=  0.00054668
 Iteration  7 RMS(Cart)=  0.00114815 RMS(Int)=  0.00054668
 Iteration  8 RMS(Cart)=  0.00114815 RMS(Int)=  0.00054668
 Iteration  9 RMS(Cart)=  0.00114815 RMS(Int)=  0.00054668
 Iteration 10 RMS(Cart)=  0.00114815 RMS(Int)=  0.00054668
 Iteration 11 RMS(Cart)=  0.00114815 RMS(Int)=  0.00054668
 Iteration 12 RMS(Cart)=  0.00114815 RMS(Int)=  0.00054668
 Iteration 13 RMS(Cart)=  0.00114815 RMS(Int)=  0.00054668
 Iteration 14 RMS(Cart)=  0.00114815 RMS(Int)=  0.00054668
 Iteration 15 RMS(Cart)=  0.00114815 RMS(Int)=  0.00054668
 Iteration 16 RMS(Cart)=  0.00114815 RMS(Int)=  0.00054668
 Iteration 17 RMS(Cart)=  0.00114815 RMS(Int)=  0.00054668
 Iteration 18 RMS(Cart)=  0.00114815 RMS(Int)=  0.00054668
 Iteration 19 RMS(Cart)=  0.00114815 RMS(Int)=  0.00054668
 Iteration 20 RMS(Cart)=  0.00114815 RMS(Int)=  0.00054668
 Iteration 21 RMS(Cart)=  0.00114815 RMS(Int)=  0.00054668
 Iteration 22 RMS(Cart)=  0.00114815 RMS(Int)=  0.00054668
 Iteration 23 RMS(Cart)=  0.00114815 RMS(Int)=  0.00054668
 Iteration 24 RMS(Cart)=  0.00114815 RMS(Int)=  0.00054668
 Iteration 25 RMS(Cart)=  0.00114815 RMS(Int)=  0.00054668
 Iteration 26 RMS(Cart)=  0.00114815 RMS(Int)=  0.00054668
 Iteration 27 RMS(Cart)=  0.00114815 RMS(Int)=  0.00054668
 Iteration 28 RMS(Cart)=  0.00114815 RMS(Int)=  0.00054668
 Iteration 29 RMS(Cart)=  0.00114815 RMS(Int)=  0.00054668
 Iteration 30 RMS(Cart)=  0.00114815 RMS(Int)=  0.00054668
 Iteration 31 RMS(Cart)=  0.00114815 RMS(Int)=  0.00054668
 Iteration 32 RMS(Cart)=  0.00114815 RMS(Int)=  0.00054668
 Iteration 33 RMS(Cart)=  0.00114815 RMS(Int)=  0.00054668
 Iteration 34 RMS(Cart)=  0.00114815 RMS(Int)=  0.00054668
 Iteration 35 RMS(Cart)=  0.00114815 RMS(Int)=  0.00054668
 Iteration 36 RMS(Cart)=  0.00114815 RMS(Int)=  0.00054668
 Iteration 37 RMS(Cart)=  0.00114815 RMS(Int)=  0.00054668
 Iteration 38 RMS(Cart)=  0.00114815 RMS(Int)=  0.00054668
 Iteration 39 RMS(Cart)=  0.00114815 RMS(Int)=  0.00054668
 Iteration 40 RMS(Cart)=  0.00114815 RMS(Int)=  0.00054668
 Iteration 41 RMS(Cart)=  0.00114815 RMS(Int)=  0.00054668
 Iteration 42 RMS(Cart)=  0.00114815 RMS(Int)=  0.00054668
 Iteration 43 RMS(Cart)=  0.00114815 RMS(Int)=  0.00054668
 Iteration 44 RMS(Cart)=  0.00114815 RMS(Int)=  0.00054668
 Iteration 45 RMS(Cart)=  0.00114815 RMS(Int)=  0.00054668
 Iteration 46 RMS(Cart)=  0.00114815 RMS(Int)=  0.00054668
 Iteration 47 RMS(Cart)=  0.00114815 RMS(Int)=  0.00054668
 Iteration 48 RMS(Cart)=  0.00114815 RMS(Int)=  0.00054668
 Iteration 49 RMS(Cart)=  0.00114815 RMS(Int)=  0.00054668
 Iteration 50 RMS(Cart)=  0.00114815 RMS(Int)=  0.00054668
 Iteration 51 RMS(Cart)=  0.00114815 RMS(Int)=  0.00054668
 Iteration 52 RMS(Cart)=  0.00114815 RMS(Int)=  0.00054668
 Iteration 53 RMS(Cart)=  0.00114815 RMS(Int)=  0.00054668
 Iteration 54 RMS(Cart)=  0.00114815 RMS(Int)=  0.00054668
 Iteration 55 RMS(Cart)=  0.00114815 RMS(Int)=  0.00054668
 Iteration 56 RMS(Cart)=  0.00114815 RMS(Int)=  0.00054668
 Iteration 57 RMS(Cart)=  0.00114815 RMS(Int)=  0.00054668
 Iteration 58 RMS(Cart)=  0.00114815 RMS(Int)=  0.00054668
 Iteration 59 RMS(Cart)=  0.00114815 RMS(Int)=  0.00054668
 Iteration 60 RMS(Cart)=  0.00114815 RMS(Int)=  0.00054668
 Iteration 61 RMS(Cart)=  0.00114815 RMS(Int)=  0.00054668
 Iteration 62 RMS(Cart)=  0.00114815 RMS(Int)=  0.00054668
 Iteration 63 RMS(Cart)=  0.00114815 RMS(Int)=  0.00054668
 Iteration 64 RMS(Cart)=  0.00114815 RMS(Int)=  0.00054668
 Iteration 65 RMS(Cart)=  0.00114815 RMS(Int)=  0.00054668
 Iteration 66 RMS(Cart)=  0.00114815 RMS(Int)=  0.00054668
 Iteration 67 RMS(Cart)=  0.00114815 RMS(Int)=  0.00054668
 Iteration 68 RMS(Cart)=  0.00114815 RMS(Int)=  0.00054668
 Iteration 69 RMS(Cart)=  0.00114815 RMS(Int)=  0.00054668
 Iteration 70 RMS(Cart)=  0.00114815 RMS(Int)=  0.00054668
 Iteration 71 RMS(Cart)=  0.00114815 RMS(Int)=  0.00054668
 Iteration 72 RMS(Cart)=  0.00114815 RMS(Int)=  0.00054668
 Iteration 73 RMS(Cart)=  0.00114815 RMS(Int)=  0.00054668
 Iteration 74 RMS(Cart)=  0.00114815 RMS(Int)=  0.00054668
 Iteration 75 RMS(Cart)=  0.00114815 RMS(Int)=  0.00054668
 Iteration 76 RMS(Cart)=  0.00114815 RMS(Int)=  0.00054668
 Iteration 77 RMS(Cart)=  0.00114815 RMS(Int)=  0.00054668
 Iteration 78 RMS(Cart)=  0.00114815 RMS(Int)=  0.00054668
 Iteration 79 RMS(Cart)=  0.00114815 RMS(Int)=  0.00054668
 Iteration 80 RMS(Cart)=  0.00114815 RMS(Int)=  0.00054668
 Iteration 81 RMS(Cart)=  0.00114815 RMS(Int)=  0.00054668
 Iteration 82 RMS(Cart)=  0.00114815 RMS(Int)=  0.00054668
 Iteration 83 RMS(Cart)=  0.00114815 RMS(Int)=  0.00054668
 Iteration 84 RMS(Cart)=  0.00114815 RMS(Int)=  0.00054668
 Iteration 85 RMS(Cart)=  0.00114815 RMS(Int)=  0.00054668
 Iteration 86 RMS(Cart)=  0.00114815 RMS(Int)=  0.00054668
 Iteration 87 RMS(Cart)=  0.00114815 RMS(Int)=  0.00054668
 Iteration 88 RMS(Cart)=  0.00114815 RMS(Int)=  0.00054668
 Iteration 89 RMS(Cart)=  0.00114815 RMS(Int)=  0.00054668
 Iteration 90 RMS(Cart)=  0.00114815 RMS(Int)=  0.00054668
 Iteration 91 RMS(Cart)=  0.00114815 RMS(Int)=  0.00054668
 Iteration 92 RMS(Cart)=  0.00114815 RMS(Int)=  0.00054668
 Iteration 93 RMS(Cart)=  0.00114815 RMS(Int)=  0.00054668
 Iteration 94 RMS(Cart)=  0.00114815 RMS(Int)=  0.00054668
 Iteration 95 RMS(Cart)=  0.00114815 RMS(Int)=  0.00054668
 Iteration 96 RMS(Cart)=  0.00114815 RMS(Int)=  0.00054668
 Iteration 97 RMS(Cart)=  0.00114815 RMS(Int)=  0.00054668
 Iteration 98 RMS(Cart)=  0.00114815 RMS(Int)=  0.00054668
 Iteration 99 RMS(Cart)=  0.00114815 RMS(Int)=  0.00054668
 Iteration100 RMS(Cart)=  0.00114815 RMS(Int)=  0.00054668
 New curvilinear step not converged.
 ITry= 4 IFail=1 DXMaxC= 7.28D-03 DCOld= 1.00D+10 DXMaxT= 1.15D+00 DXLimC= 3.00D+00 Rises=F
 Iteration  1 RMS(Cart)=  0.00629327 RMS(Int)=  0.00054693
 Iteration  2 RMS(Cart)=  0.00114839 RMS(Int)=  0.00054668
 Iteration  3 RMS(Cart)=  0.00114816 RMS(Int)=  0.00054668
 Iteration  4 RMS(Cart)=  0.00114815 RMS(Int)=  0.00054668
 Iteration  5 RMS(Cart)=  0.00114815 RMS(Int)=  0.00054668
 Iteration  6 RMS(Cart)=  0.00114815 RMS(Int)=  0.00054668
 Iteration  7 RMS(Cart)=  0.00114815 RMS(Int)=  0.00054668
 Iteration  8 RMS(Cart)=  0.00114815 RMS(Int)=  0.00054668
 Iteration  9 RMS(Cart)=  0.00114815 RMS(Int)=  0.00054668
 Iteration 10 RMS(Cart)=  0.00114815 RMS(Int)=  0.00054668
 Iteration 11 RMS(Cart)=  0.00114815 RMS(Int)=  0.00054668
 Iteration 12 RMS(Cart)=  0.00114815 RMS(Int)=  0.00054668
 Iteration 13 RMS(Cart)=  0.00114815 RMS(Int)=  0.00054668
 Iteration 14 RMS(Cart)=  0.00114815 RMS(Int)=  0.00054668
 Iteration 15 RMS(Cart)=  0.00114815 RMS(Int)=  0.00054668
 Iteration 16 RMS(Cart)=  0.00114815 RMS(Int)=  0.00054668
 Iteration 17 RMS(Cart)=  0.00114815 RMS(Int)=  0.00054668
 Iteration 18 RMS(Cart)=  0.00114815 RMS(Int)=  0.00054668
 Iteration 19 RMS(Cart)=  0.00114815 RMS(Int)=  0.00054668
 Iteration 20 RMS(Cart)=  0.00114815 RMS(Int)=  0.00054668
 Iteration 21 RMS(Cart)=  0.00114815 RMS(Int)=  0.00054668
 Iteration 22 RMS(Cart)=  0.00114815 RMS(Int)=  0.00054668
 Iteration 23 RMS(Cart)=  0.00114815 RMS(Int)=  0.00054668
 Iteration 24 RMS(Cart)=  0.00114815 RMS(Int)=  0.00054668
 Iteration 25 RMS(Cart)=  0.00114815 RMS(Int)=  0.00054668
 Iteration 26 RMS(Cart)=  0.00114815 RMS(Int)=  0.00054668
 Iteration 27 RMS(Cart)=  0.00114815 RMS(Int)=  0.00054668
 Iteration 28 RMS(Cart)=  0.00114815 RMS(Int)=  0.00054668
 Iteration 29 RMS(Cart)=  0.00114815 RMS(Int)=  0.00054668
 Iteration 30 RMS(Cart)=  0.00114815 RMS(Int)=  0.00054668
 Iteration 31 RMS(Cart)=  0.00114815 RMS(Int)=  0.00054668
 Iteration 32 RMS(Cart)=  0.00114815 RMS(Int)=  0.00054668
 Iteration 33 RMS(Cart)=  0.00114815 RMS(Int)=  0.00054668
 Iteration 34 RMS(Cart)=  0.00114815 RMS(Int)=  0.00054668
 Iteration 35 RMS(Cart)=  0.00114815 RMS(Int)=  0.00054668
 Iteration 36 RMS(Cart)=  0.00114815 RMS(Int)=  0.00054668
 Iteration 37 RMS(Cart)=  0.00114815 RMS(Int)=  0.00054668
 Iteration 38 RMS(Cart)=  0.00114815 RMS(Int)=  0.00054668
 Iteration 39 RMS(Cart)=  0.00114815 RMS(Int)=  0.00054668
 Iteration 40 RMS(Cart)=  0.00114815 RMS(Int)=  0.00054668
 Iteration 41 RMS(Cart)=  0.00114815 RMS(Int)=  0.00054668
 Iteration 42 RMS(Cart)=  0.00114815 RMS(Int)=  0.00054668
 Iteration 43 RMS(Cart)=  0.00114815 RMS(Int)=  0.00054668
 Iteration 44 RMS(Cart)=  0.00114815 RMS(Int)=  0.00054668
 Iteration 45 RMS(Cart)=  0.00114815 RMS(Int)=  0.00054668
 Iteration 46 RMS(Cart)=  0.00114815 RMS(Int)=  0.00054668
 Iteration 47 RMS(Cart)=  0.00114815 RMS(Int)=  0.00054668
 Iteration 48 RMS(Cart)=  0.00114815 RMS(Int)=  0.00054668
 Iteration 49 RMS(Cart)=  0.00114815 RMS(Int)=  0.00054668
 Iteration 50 RMS(Cart)=  0.00114815 RMS(Int)=  0.00054668
 Iteration 51 RMS(Cart)=  0.00114815 RMS(Int)=  0.00054668
 Iteration 52 RMS(Cart)=  0.00114815 RMS(Int)=  0.00054668
 Iteration 53 RMS(Cart)=  0.00114815 RMS(Int)=  0.00054668
 Iteration 54 RMS(Cart)=  0.00114815 RMS(Int)=  0.00054668
 Iteration 55 RMS(Cart)=  0.00114815 RMS(Int)=  0.00054668
 Iteration 56 RMS(Cart)=  0.00114815 RMS(Int)=  0.00054668
 Iteration 57 RMS(Cart)=  0.00114815 RMS(Int)=  0.00054668
 Iteration 58 RMS(Cart)=  0.00114815 RMS(Int)=  0.00054668
 Iteration 59 RMS(Cart)=  0.00114815 RMS(Int)=  0.00054668
 Iteration 60 RMS(Cart)=  0.00114815 RMS(Int)=  0.00054668
 Iteration 61 RMS(Cart)=  0.00114815 RMS(Int)=  0.00054668
 Iteration 62 RMS(Cart)=  0.00114815 RMS(Int)=  0.00054668
 Iteration 63 RMS(Cart)=  0.00114815 RMS(Int)=  0.00054668
 Iteration 64 RMS(Cart)=  0.00114815 RMS(Int)=  0.00054668
 Iteration 65 RMS(Cart)=  0.00114815 RMS(Int)=  0.00054668
 Iteration 66 RMS(Cart)=  0.00114815 RMS(Int)=  0.00054668
 Iteration 67 RMS(Cart)=  0.00114815 RMS(Int)=  0.00054668
 Iteration 68 RMS(Cart)=  0.00114815 RMS(Int)=  0.00054668
 Iteration 69 RMS(Cart)=  0.00114815 RMS(Int)=  0.00054668
 Iteration 70 RMS(Cart)=  0.00114815 RMS(Int)=  0.00054668
 Iteration 71 RMS(Cart)=  0.00114815 RMS(Int)=  0.00054668
 Iteration 72 RMS(Cart)=  0.00114815 RMS(Int)=  0.00054668
 Iteration 73 RMS(Cart)=  0.00114815 RMS(Int)=  0.00054668
 Iteration 74 RMS(Cart)=  0.00114815 RMS(Int)=  0.00054668
 Iteration 75 RMS(Cart)=  0.00114815 RMS(Int)=  0.00054668
 Iteration 76 RMS(Cart)=  0.00114815 RMS(Int)=  0.00054668
 Iteration 77 RMS(Cart)=  0.00114815 RMS(Int)=  0.00054668
 Iteration 78 RMS(Cart)=  0.00114815 RMS(Int)=  0.00054668
 Iteration 79 RMS(Cart)=  0.00114815 RMS(Int)=  0.00054668
 Iteration 80 RMS(Cart)=  0.00114815 RMS(Int)=  0.00054668
 Iteration 81 RMS(Cart)=  0.00114815 RMS(Int)=  0.00054668
 Iteration 82 RMS(Cart)=  0.00114815 RMS(Int)=  0.00054668
 Iteration 83 RMS(Cart)=  0.00114815 RMS(Int)=  0.00054668
 Iteration 84 RMS(Cart)=  0.00114815 RMS(Int)=  0.00054668
 Iteration 85 RMS(Cart)=  0.00114815 RMS(Int)=  0.00054668
 Iteration 86 RMS(Cart)=  0.00114815 RMS(Int)=  0.00054668
 Iteration 87 RMS(Cart)=  0.00114815 RMS(Int)=  0.00054668
 Iteration 88 RMS(Cart)=  0.00114815 RMS(Int)=  0.00054668
 Iteration 89 RMS(Cart)=  0.00114815 RMS(Int)=  0.00054668
 Iteration 90 RMS(Cart)=  0.00114815 RMS(Int)=  0.00054668
 Iteration 91 RMS(Cart)=  0.00114815 RMS(Int)=  0.00054668
 Iteration 92 RMS(Cart)=  0.00114815 RMS(Int)=  0.00054668
 Iteration 93 RMS(Cart)=  0.00114815 RMS(Int)=  0.00054668
 Iteration 94 RMS(Cart)=  0.00114815 RMS(Int)=  0.00054668
 Iteration 95 RMS(Cart)=  0.00114815 RMS(Int)=  0.00054668
 Iteration 96 RMS(Cart)=  0.00114815 RMS(Int)=  0.00054668
 Iteration 97 RMS(Cart)=  0.00114815 RMS(Int)=  0.00054668
 Iteration 98 RMS(Cart)=  0.00114815 RMS(Int)=  0.00054668
 Iteration 99 RMS(Cart)=  0.00114815 RMS(Int)=  0.00054668
 Iteration100 RMS(Cart)=  0.00114815 RMS(Int)=  0.00054668
 New curvilinear step not converged.
 ITry= 5 IFail=1 DXMaxC= 7.28D-03 DCOld= 1.00D+10 DXMaxT= 1.15D+00 DXLimC= 3.00D+00 Rises=F
 Iteration  1 RMS(Cart)=  0.00629327 RMS(Int)=  0.00054693
 Iteration  2 RMS(Cart)=  0.00114839 RMS(Int)=  0.00054668
 Iteration  3 RMS(Cart)=  0.00114816 RMS(Int)=  0.00054668
 Iteration  4 RMS(Cart)=  0.00114815 RMS(Int)=  0.00054668
 Iteration  5 RMS(Cart)=  0.00114815 RMS(Int)=  0.00054668
 Iteration  6 RMS(Cart)=  0.00114815 RMS(Int)=  0.00054668
 Iteration  7 RMS(Cart)=  0.00114815 RMS(Int)=  0.00054668
 Iteration  8 RMS(Cart)=  0.00114815 RMS(Int)=  0.00054668
 Iteration  9 RMS(Cart)=  0.00114815 RMS(Int)=  0.00054668
 Iteration 10 RMS(Cart)=  0.00114815 RMS(Int)=  0.00054668
 Iteration 11 RMS(Cart)=  0.00114815 RMS(Int)=  0.00054668
 Iteration 12 RMS(Cart)=  0.00114815 RMS(Int)=  0.00054668
 Iteration 13 RMS(Cart)=  0.00114815 RMS(Int)=  0.00054668
 Iteration 14 RMS(Cart)=  0.00114815 RMS(Int)=  0.00054668
 Iteration 15 RMS(Cart)=  0.00114815 RMS(Int)=  0.00054668
 Iteration 16 RMS(Cart)=  0.00114815 RMS(Int)=  0.00054668
 Iteration 17 RMS(Cart)=  0.00114815 RMS(Int)=  0.00054668
 Iteration 18 RMS(Cart)=  0.00114815 RMS(Int)=  0.00054668
 Iteration 19 RMS(Cart)=  0.00114815 RMS(Int)=  0.00054668
 Iteration 20 RMS(Cart)=  0.00114815 RMS(Int)=  0.00054668
 Iteration 21 RMS(Cart)=  0.00114815 RMS(Int)=  0.00054668
 Iteration 22 RMS(Cart)=  0.00114815 RMS(Int)=  0.00054668
 Iteration 23 RMS(Cart)=  0.00114815 RMS(Int)=  0.00054668
 Iteration 24 RMS(Cart)=  0.00114815 RMS(Int)=  0.00054668
 Iteration 25 RMS(Cart)=  0.00114815 RMS(Int)=  0.00054668
 Iteration 26 RMS(Cart)=  0.00114815 RMS(Int)=  0.00054668
 Iteration 27 RMS(Cart)=  0.00114815 RMS(Int)=  0.00054668
 Iteration 28 RMS(Cart)=  0.00114815 RMS(Int)=  0.00054668
 Iteration 29 RMS(Cart)=  0.00114815 RMS(Int)=  0.00054668
 Iteration 30 RMS(Cart)=  0.00114815 RMS(Int)=  0.00054668
 Iteration 31 RMS(Cart)=  0.00114815 RMS(Int)=  0.00054668
 Iteration 32 RMS(Cart)=  0.00114815 RMS(Int)=  0.00054668
 Iteration 33 RMS(Cart)=  0.00114815 RMS(Int)=  0.00054668
 Iteration 34 RMS(Cart)=  0.00114815 RMS(Int)=  0.00054668
 Iteration 35 RMS(Cart)=  0.00114815 RMS(Int)=  0.00054668
 Iteration 36 RMS(Cart)=  0.00114815 RMS(Int)=  0.00054668
 Iteration 37 RMS(Cart)=  0.00114815 RMS(Int)=  0.00054668
 Iteration 38 RMS(Cart)=  0.00114815 RMS(Int)=  0.00054668
 Iteration 39 RMS(Cart)=  0.00114815 RMS(Int)=  0.00054668
 Iteration 40 RMS(Cart)=  0.00114815 RMS(Int)=  0.00054668
 Iteration 41 RMS(Cart)=  0.00114815 RMS(Int)=  0.00054668
 Iteration 42 RMS(Cart)=  0.00114815 RMS(Int)=  0.00054668
 Iteration 43 RMS(Cart)=  0.00114815 RMS(Int)=  0.00054668
 Iteration 44 RMS(Cart)=  0.00114815 RMS(Int)=  0.00054668
 Iteration 45 RMS(Cart)=  0.00114815 RMS(Int)=  0.00054668
 Iteration 46 RMS(Cart)=  0.00114815 RMS(Int)=  0.00054668
 Iteration 47 RMS(Cart)=  0.00114815 RMS(Int)=  0.00054668
 Iteration 48 RMS(Cart)=  0.00114815 RMS(Int)=  0.00054668
 Iteration 49 RMS(Cart)=  0.00114815 RMS(Int)=  0.00054668
 Iteration 50 RMS(Cart)=  0.00114815 RMS(Int)=  0.00054668
 Iteration 51 RMS(Cart)=  0.00114815 RMS(Int)=  0.00054668
 Iteration 52 RMS(Cart)=  0.00114815 RMS(Int)=  0.00054668
 Iteration 53 RMS(Cart)=  0.00114815 RMS(Int)=  0.00054668
 Iteration 54 RMS(Cart)=  0.00114815 RMS(Int)=  0.00054668
 Iteration 55 RMS(Cart)=  0.00114815 RMS(Int)=  0.00054668
 Iteration 56 RMS(Cart)=  0.00114815 RMS(Int)=  0.00054668
 Iteration 57 RMS(Cart)=  0.00114815 RMS(Int)=  0.00054668
 Iteration 58 RMS(Cart)=  0.00114815 RMS(Int)=  0.00054668
 Iteration 59 RMS(Cart)=  0.00114815 RMS(Int)=  0.00054668
 Iteration 60 RMS(Cart)=  0.00114815 RMS(Int)=  0.00054668
 Iteration 61 RMS(Cart)=  0.00114815 RMS(Int)=  0.00054668
 Iteration 62 RMS(Cart)=  0.00114815 RMS(Int)=  0.00054668
 Iteration 63 RMS(Cart)=  0.00114815 RMS(Int)=  0.00054668
 Iteration 64 RMS(Cart)=  0.00114815 RMS(Int)=  0.00054668
 Iteration 65 RMS(Cart)=  0.00114815 RMS(Int)=  0.00054668
 Iteration 66 RMS(Cart)=  0.00114815 RMS(Int)=  0.00054668
 Iteration 67 RMS(Cart)=  0.00114815 RMS(Int)=  0.00054668
 Iteration 68 RMS(Cart)=  0.00114815 RMS(Int)=  0.00054668
 Iteration 69 RMS(Cart)=  0.00114815 RMS(Int)=  0.00054668
 Iteration 70 RMS(Cart)=  0.00114815 RMS(Int)=  0.00054668
 Iteration 71 RMS(Cart)=  0.00114815 RMS(Int)=  0.00054668
 Iteration 72 RMS(Cart)=  0.00114815 RMS(Int)=  0.00054668
 Iteration 73 RMS(Cart)=  0.00114815 RMS(Int)=  0.00054668
 Iteration 74 RMS(Cart)=  0.00114815 RMS(Int)=  0.00054668
 Iteration 75 RMS(Cart)=  0.00114815 RMS(Int)=  0.00054668
 Iteration 76 RMS(Cart)=  0.00114815 RMS(Int)=  0.00054668
 Iteration 77 RMS(Cart)=  0.00114815 RMS(Int)=  0.00054668
 Iteration 78 RMS(Cart)=  0.00114815 RMS(Int)=  0.00054668
 Iteration 79 RMS(Cart)=  0.00114815 RMS(Int)=  0.00054668
 Iteration 80 RMS(Cart)=  0.00114815 RMS(Int)=  0.00054668
 Iteration 81 RMS(Cart)=  0.00114815 RMS(Int)=  0.00054668
 Iteration 82 RMS(Cart)=  0.00114815 RMS(Int)=  0.00054668
 Iteration 83 RMS(Cart)=  0.00114815 RMS(Int)=  0.00054668
 Iteration 84 RMS(Cart)=  0.00114815 RMS(Int)=  0.00054668
 Iteration 85 RMS(Cart)=  0.00114815 RMS(Int)=  0.00054668
 Iteration 86 RMS(Cart)=  0.00114815 RMS(Int)=  0.00054668
 Iteration 87 RMS(Cart)=  0.00114815 RMS(Int)=  0.00054668
 Iteration 88 RMS(Cart)=  0.00114815 RMS(Int)=  0.00054668
 Iteration 89 RMS(Cart)=  0.00114815 RMS(Int)=  0.00054668
 Iteration 90 RMS(Cart)=  0.00114815 RMS(Int)=  0.00054668
 Iteration 91 RMS(Cart)=  0.00114815 RMS(Int)=  0.00054668
 Iteration 92 RMS(Cart)=  0.00114815 RMS(Int)=  0.00054668
 Iteration 93 RMS(Cart)=  0.00114815 RMS(Int)=  0.00054668
 Iteration 94 RMS(Cart)=  0.00114815 RMS(Int)=  0.00054668
 Iteration 95 RMS(Cart)=  0.00114815 RMS(Int)=  0.00054668
 Iteration 96 RMS(Cart)=  0.00114815 RMS(Int)=  0.00054668
 Iteration 97 RMS(Cart)=  0.00114815 RMS(Int)=  0.00054668
 Iteration 98 RMS(Cart)=  0.00114815 RMS(Int)=  0.00054668
 Iteration 99 RMS(Cart)=  0.00114815 RMS(Int)=  0.00054668
 Iteration100 RMS(Cart)=  0.00114815 RMS(Int)=  0.00054668
 New curvilinear step not converged.
 ITry= 6 IFail=1 DXMaxC= 7.28D-03 DCOld= 1.00D+10 DXMaxT= 1.15D+00 DXLimC= 3.00D+00 Rises=F
 Iteration  1 RMS(Cart)=  0.00629327 RMS(Int)=  0.00054693
 Iteration  2 RMS(Cart)=  0.00114839 RMS(Int)=  0.00054668
 Iteration  3 RMS(Cart)=  0.00114816 RMS(Int)=  0.00054668
 Iteration  4 RMS(Cart)=  0.00114815 RMS(Int)=  0.00054668
 Iteration  5 RMS(Cart)=  0.00114815 RMS(Int)=  0.00054668
 Iteration  6 RMS(Cart)=  0.00114815 RMS(Int)=  0.00054668
 Iteration  7 RMS(Cart)=  0.00114815 RMS(Int)=  0.00054668
 Iteration  8 RMS(Cart)=  0.00114815 RMS(Int)=  0.00054668
 Iteration  9 RMS(Cart)=  0.00114815 RMS(Int)=  0.00054668
 Iteration 10 RMS(Cart)=  0.00114815 RMS(Int)=  0.00054668
 Iteration 11 RMS(Cart)=  0.00114815 RMS(Int)=  0.00054668
 Iteration 12 RMS(Cart)=  0.00114815 RMS(Int)=  0.00054668
 Iteration 13 RMS(Cart)=  0.00114815 RMS(Int)=  0.00054668
 Iteration 14 RMS(Cart)=  0.00114815 RMS(Int)=  0.00054668
 Iteration 15 RMS(Cart)=  0.00114815 RMS(Int)=  0.00054668
 Iteration 16 RMS(Cart)=  0.00114815 RMS(Int)=  0.00054668
 Iteration 17 RMS(Cart)=  0.00114815 RMS(Int)=  0.00054668
 Iteration 18 RMS(Cart)=  0.00114815 RMS(Int)=  0.00054668
 Iteration 19 RMS(Cart)=  0.00114815 RMS(Int)=  0.00054668
 Iteration 20 RMS(Cart)=  0.00114815 RMS(Int)=  0.00054668
 Iteration 21 RMS(Cart)=  0.00114815 RMS(Int)=  0.00054668
 Iteration 22 RMS(Cart)=  0.00114815 RMS(Int)=  0.00054668
 Iteration 23 RMS(Cart)=  0.00114815 RMS(Int)=  0.00054668
 Iteration 24 RMS(Cart)=  0.00114815 RMS(Int)=  0.00054668
 Iteration 25 RMS(Cart)=  0.00114815 RMS(Int)=  0.00054668
 Iteration 26 RMS(Cart)=  0.00114815 RMS(Int)=  0.00054668
 Iteration 27 RMS(Cart)=  0.00114815 RMS(Int)=  0.00054668
 Iteration 28 RMS(Cart)=  0.00114815 RMS(Int)=  0.00054668
 Iteration 29 RMS(Cart)=  0.00114815 RMS(Int)=  0.00054668
 Iteration 30 RMS(Cart)=  0.00114815 RMS(Int)=  0.00054668
 Iteration 31 RMS(Cart)=  0.00114815 RMS(Int)=  0.00054668
 Iteration 32 RMS(Cart)=  0.00114815 RMS(Int)=  0.00054668
 Iteration 33 RMS(Cart)=  0.00114815 RMS(Int)=  0.00054668
 Iteration 34 RMS(Cart)=  0.00114815 RMS(Int)=  0.00054668
 Iteration 35 RMS(Cart)=  0.00114815 RMS(Int)=  0.00054668
 Iteration 36 RMS(Cart)=  0.00114815 RMS(Int)=  0.00054668
 Iteration 37 RMS(Cart)=  0.00114815 RMS(Int)=  0.00054668
 Iteration 38 RMS(Cart)=  0.00114815 RMS(Int)=  0.00054668
 Iteration 39 RMS(Cart)=  0.00114815 RMS(Int)=  0.00054668
 Iteration 40 RMS(Cart)=  0.00114815 RMS(Int)=  0.00054668
 Iteration 41 RMS(Cart)=  0.00114815 RMS(Int)=  0.00054668
 Iteration 42 RMS(Cart)=  0.00114815 RMS(Int)=  0.00054668
 Iteration 43 RMS(Cart)=  0.00114815 RMS(Int)=  0.00054668
 Iteration 44 RMS(Cart)=  0.00114815 RMS(Int)=  0.00054668
 Iteration 45 RMS(Cart)=  0.00114815 RMS(Int)=  0.00054668
 Iteration 46 RMS(Cart)=  0.00114815 RMS(Int)=  0.00054668
 Iteration 47 RMS(Cart)=  0.00114815 RMS(Int)=  0.00054668
 Iteration 48 RMS(Cart)=  0.00114815 RMS(Int)=  0.00054668
 Iteration 49 RMS(Cart)=  0.00114815 RMS(Int)=  0.00054668
 Iteration 50 RMS(Cart)=  0.00114815 RMS(Int)=  0.00054668
 Iteration 51 RMS(Cart)=  0.00114815 RMS(Int)=  0.00054668
 Iteration 52 RMS(Cart)=  0.00114815 RMS(Int)=  0.00054668
 Iteration 53 RMS(Cart)=  0.00114815 RMS(Int)=  0.00054668
 Iteration 54 RMS(Cart)=  0.00114815 RMS(Int)=  0.00054668
 Iteration 55 RMS(Cart)=  0.00114815 RMS(Int)=  0.00054668
 Iteration 56 RMS(Cart)=  0.00114815 RMS(Int)=  0.00054668
 Iteration 57 RMS(Cart)=  0.00114815 RMS(Int)=  0.00054668
 Iteration 58 RMS(Cart)=  0.00114815 RMS(Int)=  0.00054668
 Iteration 59 RMS(Cart)=  0.00114815 RMS(Int)=  0.00054668
 Iteration 60 RMS(Cart)=  0.00114815 RMS(Int)=  0.00054668
 Iteration 61 RMS(Cart)=  0.00114815 RMS(Int)=  0.00054668
 Iteration 62 RMS(Cart)=  0.00114815 RMS(Int)=  0.00054668
 Iteration 63 RMS(Cart)=  0.00114815 RMS(Int)=  0.00054668
 Iteration 64 RMS(Cart)=  0.00114815 RMS(Int)=  0.00054668
 Iteration 65 RMS(Cart)=  0.00114815 RMS(Int)=  0.00054668
 Iteration 66 RMS(Cart)=  0.00114815 RMS(Int)=  0.00054668
 Iteration 67 RMS(Cart)=  0.00114815 RMS(Int)=  0.00054668
 Iteration 68 RMS(Cart)=  0.00114815 RMS(Int)=  0.00054668
 Iteration 69 RMS(Cart)=  0.00114815 RMS(Int)=  0.00054668
 Iteration 70 RMS(Cart)=  0.00114815 RMS(Int)=  0.00054668
 Iteration 71 RMS(Cart)=  0.00114815 RMS(Int)=  0.00054668
 Iteration 72 RMS(Cart)=  0.00114815 RMS(Int)=  0.00054668
 Iteration 73 RMS(Cart)=  0.00114815 RMS(Int)=  0.00054668
 Iteration 74 RMS(Cart)=  0.00114815 RMS(Int)=  0.00054668
 Iteration 75 RMS(Cart)=  0.00114815 RMS(Int)=  0.00054668
 Iteration 76 RMS(Cart)=  0.00114815 RMS(Int)=  0.00054668
 Iteration 77 RMS(Cart)=  0.00114815 RMS(Int)=  0.00054668
 Iteration 78 RMS(Cart)=  0.00114815 RMS(Int)=  0.00054668
 Iteration 79 RMS(Cart)=  0.00114815 RMS(Int)=  0.00054668
 Iteration 80 RMS(Cart)=  0.00114815 RMS(Int)=  0.00054668
 Iteration 81 RMS(Cart)=  0.00114815 RMS(Int)=  0.00054668
 Iteration 82 RMS(Cart)=  0.00114815 RMS(Int)=  0.00054668
 Iteration 83 RMS(Cart)=  0.00114815 RMS(Int)=  0.00054668
 Iteration 84 RMS(Cart)=  0.00114815 RMS(Int)=  0.00054668
 Iteration 85 RMS(Cart)=  0.00114815 RMS(Int)=  0.00054668
 Iteration 86 RMS(Cart)=  0.00114815 RMS(Int)=  0.00054668
 Iteration 87 RMS(Cart)=  0.00114815 RMS(Int)=  0.00054668
 Iteration 88 RMS(Cart)=  0.00114815 RMS(Int)=  0.00054668
 Iteration 89 RMS(Cart)=  0.00114815 RMS(Int)=  0.00054668
 Iteration 90 RMS(Cart)=  0.00114815 RMS(Int)=  0.00054668
 Iteration 91 RMS(Cart)=  0.00114815 RMS(Int)=  0.00054668
 Iteration 92 RMS(Cart)=  0.00114815 RMS(Int)=  0.00054668
 Iteration 93 RMS(Cart)=  0.00114815 RMS(Int)=  0.00054668
 Iteration 94 RMS(Cart)=  0.00114815 RMS(Int)=  0.00054668
 Iteration 95 RMS(Cart)=  0.00114815 RMS(Int)=  0.00054668
 Iteration 96 RMS(Cart)=  0.00114815 RMS(Int)=  0.00054668
 Iteration 97 RMS(Cart)=  0.00114815 RMS(Int)=  0.00054668
 Iteration 98 RMS(Cart)=  0.00114815 RMS(Int)=  0.00054668
 Iteration 99 RMS(Cart)=  0.00114815 RMS(Int)=  0.00054668
 Iteration100 RMS(Cart)=  0.00114815 RMS(Int)=  0.00054668
 New curvilinear step not converged.
 ITry= 7 IFail=1 DXMaxC= 7.28D-03 DCOld= 1.00D+10 DXMaxT= 1.15D+00 DXLimC= 3.00D+00 Rises=F
 Iteration  1 RMS(Cart)=  0.00629327 RMS(Int)=  0.00054693
 Iteration  2 RMS(Cart)=  0.00114839 RMS(Int)=  0.00054668
 Iteration  3 RMS(Cart)=  0.00114816 RMS(Int)=  0.00054668
 Iteration  4 RMS(Cart)=  0.00114815 RMS(Int)=  0.00054668
 Iteration  5 RMS(Cart)=  0.00114815 RMS(Int)=  0.00054668
 Iteration  6 RMS(Cart)=  0.00114815 RMS(Int)=  0.00054668
 Iteration  7 RMS(Cart)=  0.00114815 RMS(Int)=  0.00054668
 Iteration  8 RMS(Cart)=  0.00114815 RMS(Int)=  0.00054668
 Iteration  9 RMS(Cart)=  0.00114815 RMS(Int)=  0.00054668
 Iteration 10 RMS(Cart)=  0.00114815 RMS(Int)=  0.00054668
 Iteration 11 RMS(Cart)=  0.00114815 RMS(Int)=  0.00054668
 Iteration 12 RMS(Cart)=  0.00114815 RMS(Int)=  0.00054668
 Iteration 13 RMS(Cart)=  0.00114815 RMS(Int)=  0.00054668
 Iteration 14 RMS(Cart)=  0.00114815 RMS(Int)=  0.00054668
 Iteration 15 RMS(Cart)=  0.00114815 RMS(Int)=  0.00054668
 Iteration 16 RMS(Cart)=  0.00114815 RMS(Int)=  0.00054668
 Iteration 17 RMS(Cart)=  0.00114815 RMS(Int)=  0.00054668
 Iteration 18 RMS(Cart)=  0.00114815 RMS(Int)=  0.00054668
 Iteration 19 RMS(Cart)=  0.00114815 RMS(Int)=  0.00054668
 Iteration 20 RMS(Cart)=  0.00114815 RMS(Int)=  0.00054668
 Iteration 21 RMS(Cart)=  0.00114815 RMS(Int)=  0.00054668
 Iteration 22 RMS(Cart)=  0.00114815 RMS(Int)=  0.00054668
 Iteration 23 RMS(Cart)=  0.00114815 RMS(Int)=  0.00054668
 Iteration 24 RMS(Cart)=  0.00114815 RMS(Int)=  0.00054668
 Iteration 25 RMS(Cart)=  0.00114815 RMS(Int)=  0.00054668
 Iteration 26 RMS(Cart)=  0.00114815 RMS(Int)=  0.00054668
 Iteration 27 RMS(Cart)=  0.00114815 RMS(Int)=  0.00054668
 Iteration 28 RMS(Cart)=  0.00114815 RMS(Int)=  0.00054668
 Iteration 29 RMS(Cart)=  0.00114815 RMS(Int)=  0.00054668
 Iteration 30 RMS(Cart)=  0.00114815 RMS(Int)=  0.00054668
 Iteration 31 RMS(Cart)=  0.00114815 RMS(Int)=  0.00054668
 Iteration 32 RMS(Cart)=  0.00114815 RMS(Int)=  0.00054668
 Iteration 33 RMS(Cart)=  0.00114815 RMS(Int)=  0.00054668
 Iteration 34 RMS(Cart)=  0.00114815 RMS(Int)=  0.00054668
 Iteration 35 RMS(Cart)=  0.00114815 RMS(Int)=  0.00054668
 Iteration 36 RMS(Cart)=  0.00114815 RMS(Int)=  0.00054668
 Iteration 37 RMS(Cart)=  0.00114815 RMS(Int)=  0.00054668
 Iteration 38 RMS(Cart)=  0.00114815 RMS(Int)=  0.00054668
 Iteration 39 RMS(Cart)=  0.00114815 RMS(Int)=  0.00054668
 Iteration 40 RMS(Cart)=  0.00114815 RMS(Int)=  0.00054668
 Iteration 41 RMS(Cart)=  0.00114815 RMS(Int)=  0.00054668
 Iteration 42 RMS(Cart)=  0.00114815 RMS(Int)=  0.00054668
 Iteration 43 RMS(Cart)=  0.00114815 RMS(Int)=  0.00054668
 Iteration 44 RMS(Cart)=  0.00114815 RMS(Int)=  0.00054668
 Iteration 45 RMS(Cart)=  0.00114815 RMS(Int)=  0.00054668
 Iteration 46 RMS(Cart)=  0.00114815 RMS(Int)=  0.00054668
 Iteration 47 RMS(Cart)=  0.00114815 RMS(Int)=  0.00054668
 Iteration 48 RMS(Cart)=  0.00114815 RMS(Int)=  0.00054668
 Iteration 49 RMS(Cart)=  0.00114815 RMS(Int)=  0.00054668
 Iteration 50 RMS(Cart)=  0.00114815 RMS(Int)=  0.00054668
 Iteration 51 RMS(Cart)=  0.00114815 RMS(Int)=  0.00054668
 Iteration 52 RMS(Cart)=  0.00114815 RMS(Int)=  0.00054668
 Iteration 53 RMS(Cart)=  0.00114815 RMS(Int)=  0.00054668
 Iteration 54 RMS(Cart)=  0.00114815 RMS(Int)=  0.00054668
 Iteration 55 RMS(Cart)=  0.00114815 RMS(Int)=  0.00054668
 Iteration 56 RMS(Cart)=  0.00114815 RMS(Int)=  0.00054668
 Iteration 57 RMS(Cart)=  0.00114815 RMS(Int)=  0.00054668
 Iteration 58 RMS(Cart)=  0.00114815 RMS(Int)=  0.00054668
 Iteration 59 RMS(Cart)=  0.00114815 RMS(Int)=  0.00054668
 Iteration 60 RMS(Cart)=  0.00114815 RMS(Int)=  0.00054668
 Iteration 61 RMS(Cart)=  0.00114815 RMS(Int)=  0.00054668
 Iteration 62 RMS(Cart)=  0.00114815 RMS(Int)=  0.00054668
 Iteration 63 RMS(Cart)=  0.00114815 RMS(Int)=  0.00054668
 Iteration 64 RMS(Cart)=  0.00114815 RMS(Int)=  0.00054668
 Iteration 65 RMS(Cart)=  0.00114815 RMS(Int)=  0.00054668
 Iteration 66 RMS(Cart)=  0.00114815 RMS(Int)=  0.00054668
 Iteration 67 RMS(Cart)=  0.00114815 RMS(Int)=  0.00054668
 Iteration 68 RMS(Cart)=  0.00114815 RMS(Int)=  0.00054668
 Iteration 69 RMS(Cart)=  0.00114815 RMS(Int)=  0.00054668
 Iteration 70 RMS(Cart)=  0.00114815 RMS(Int)=  0.00054668
 Iteration 71 RMS(Cart)=  0.00114815 RMS(Int)=  0.00054668
 Iteration 72 RMS(Cart)=  0.00114815 RMS(Int)=  0.00054668
 Iteration 73 RMS(Cart)=  0.00114815 RMS(Int)=  0.00054668
 Iteration 74 RMS(Cart)=  0.00114815 RMS(Int)=  0.00054668
 Iteration 75 RMS(Cart)=  0.00114815 RMS(Int)=  0.00054668
 Iteration 76 RMS(Cart)=  0.00114815 RMS(Int)=  0.00054668
 Iteration 77 RMS(Cart)=  0.00114815 RMS(Int)=  0.00054668
 Iteration 78 RMS(Cart)=  0.00114815 RMS(Int)=  0.00054668
 Iteration 79 RMS(Cart)=  0.00114815 RMS(Int)=  0.00054668
 Iteration 80 RMS(Cart)=  0.00114815 RMS(Int)=  0.00054668
 Iteration 81 RMS(Cart)=  0.00114815 RMS(Int)=  0.00054668
 Iteration 82 RMS(Cart)=  0.00114815 RMS(Int)=  0.00054668
 Iteration 83 RMS(Cart)=  0.00114815 RMS(Int)=  0.00054668
 Iteration 84 RMS(Cart)=  0.00114815 RMS(Int)=  0.00054668
 Iteration 85 RMS(Cart)=  0.00114815 RMS(Int)=  0.00054668
 Iteration 86 RMS(Cart)=  0.00114815 RMS(Int)=  0.00054668
 Iteration 87 RMS(Cart)=  0.00114815 RMS(Int)=  0.00054668
 Iteration 88 RMS(Cart)=  0.00114815 RMS(Int)=  0.00054668
 Iteration 89 RMS(Cart)=  0.00114815 RMS(Int)=  0.00054668
 Iteration 90 RMS(Cart)=  0.00114815 RMS(Int)=  0.00054668
 Iteration 91 RMS(Cart)=  0.00114815 RMS(Int)=  0.00054668
 Iteration 92 RMS(Cart)=  0.00114815 RMS(Int)=  0.00054668
 Iteration 93 RMS(Cart)=  0.00114815 RMS(Int)=  0.00054668
 Iteration 94 RMS(Cart)=  0.00114815 RMS(Int)=  0.00054668
 Iteration 95 RMS(Cart)=  0.00114815 RMS(Int)=  0.00054668
 Iteration 96 RMS(Cart)=  0.00114815 RMS(Int)=  0.00054668
 Iteration 97 RMS(Cart)=  0.00114815 RMS(Int)=  0.00054668
 Iteration 98 RMS(Cart)=  0.00114815 RMS(Int)=  0.00054668
 Iteration 99 RMS(Cart)=  0.00114815 RMS(Int)=  0.00054668
 Iteration100 RMS(Cart)=  0.00114815 RMS(Int)=  0.00054668
 New curvilinear step not converged.
 ITry= 8 IFail=1 DXMaxC= 7.28D-03 DCOld= 1.00D+10 DXMaxT= 1.15D+00 DXLimC= 3.00D+00 Rises=F
 Iteration  1 RMS(Cart)=  0.00629327 RMS(Int)=  0.00054693
 Iteration  2 RMS(Cart)=  0.00114839 RMS(Int)=  0.00054668
 Iteration  3 RMS(Cart)=  0.00114816 RMS(Int)=  0.00054668
 Iteration  4 RMS(Cart)=  0.00114815 RMS(Int)=  0.00054668
 Iteration  5 RMS(Cart)=  0.00114815 RMS(Int)=  0.00054668
 Iteration  6 RMS(Cart)=  0.00114815 RMS(Int)=  0.00054668
 Iteration  7 RMS(Cart)=  0.00114815 RMS(Int)=  0.00054668
 Iteration  8 RMS(Cart)=  0.00114815 RMS(Int)=  0.00054668
 Iteration  9 RMS(Cart)=  0.00114815 RMS(Int)=  0.00054668
 Iteration 10 RMS(Cart)=  0.00114815 RMS(Int)=  0.00054668
 Iteration 11 RMS(Cart)=  0.00114815 RMS(Int)=  0.00054668
 Iteration 12 RMS(Cart)=  0.00114815 RMS(Int)=  0.00054668
 Iteration 13 RMS(Cart)=  0.00114815 RMS(Int)=  0.00054668
 Iteration 14 RMS(Cart)=  0.00114815 RMS(Int)=  0.00054668
 Iteration 15 RMS(Cart)=  0.00114815 RMS(Int)=  0.00054668
 Iteration 16 RMS(Cart)=  0.00114815 RMS(Int)=  0.00054668
 Iteration 17 RMS(Cart)=  0.00114815 RMS(Int)=  0.00054668
 Iteration 18 RMS(Cart)=  0.00114815 RMS(Int)=  0.00054668
 Iteration 19 RMS(Cart)=  0.00114815 RMS(Int)=  0.00054668
 Iteration 20 RMS(Cart)=  0.00114815 RMS(Int)=  0.00054668
 Iteration 21 RMS(Cart)=  0.00114815 RMS(Int)=  0.00054668
 Iteration 22 RMS(Cart)=  0.00114815 RMS(Int)=  0.00054668
 Iteration 23 RMS(Cart)=  0.00114815 RMS(Int)=  0.00054668
 Iteration 24 RMS(Cart)=  0.00114815 RMS(Int)=  0.00054668
 Iteration 25 RMS(Cart)=  0.00114815 RMS(Int)=  0.00054668
 Iteration 26 RMS(Cart)=  0.00114815 RMS(Int)=  0.00054668
 Iteration 27 RMS(Cart)=  0.00114815 RMS(Int)=  0.00054668
 Iteration 28 RMS(Cart)=  0.00114815 RMS(Int)=  0.00054668
 Iteration 29 RMS(Cart)=  0.00114815 RMS(Int)=  0.00054668
 Iteration 30 RMS(Cart)=  0.00114815 RMS(Int)=  0.00054668
 Iteration 31 RMS(Cart)=  0.00114815 RMS(Int)=  0.00054668
 Iteration 32 RMS(Cart)=  0.00114815 RMS(Int)=  0.00054668
 Iteration 33 RMS(Cart)=  0.00114815 RMS(Int)=  0.00054668
 Iteration 34 RMS(Cart)=  0.00114815 RMS(Int)=  0.00054668
 Iteration 35 RMS(Cart)=  0.00114815 RMS(Int)=  0.00054668
 Iteration 36 RMS(Cart)=  0.00114815 RMS(Int)=  0.00054668
 Iteration 37 RMS(Cart)=  0.00114815 RMS(Int)=  0.00054668
 Iteration 38 RMS(Cart)=  0.00114815 RMS(Int)=  0.00054668
 Iteration 39 RMS(Cart)=  0.00114815 RMS(Int)=  0.00054668
 Iteration 40 RMS(Cart)=  0.00114815 RMS(Int)=  0.00054668
 Iteration 41 RMS(Cart)=  0.00114815 RMS(Int)=  0.00054668
 Iteration 42 RMS(Cart)=  0.00114815 RMS(Int)=  0.00054668
 Iteration 43 RMS(Cart)=  0.00114815 RMS(Int)=  0.00054668
 Iteration 44 RMS(Cart)=  0.00114815 RMS(Int)=  0.00054668
 Iteration 45 RMS(Cart)=  0.00114815 RMS(Int)=  0.00054668
 Iteration 46 RMS(Cart)=  0.00114815 RMS(Int)=  0.00054668
 Iteration 47 RMS(Cart)=  0.00114815 RMS(Int)=  0.00054668
 Iteration 48 RMS(Cart)=  0.00114815 RMS(Int)=  0.00054668
 Iteration 49 RMS(Cart)=  0.00114815 RMS(Int)=  0.00054668
 Iteration 50 RMS(Cart)=  0.00114815 RMS(Int)=  0.00054668
 Iteration 51 RMS(Cart)=  0.00114815 RMS(Int)=  0.00054668
 Iteration 52 RMS(Cart)=  0.00114815 RMS(Int)=  0.00054668
 Iteration 53 RMS(Cart)=  0.00114815 RMS(Int)=  0.00054668
 Iteration 54 RMS(Cart)=  0.00114815 RMS(Int)=  0.00054668
 Iteration 55 RMS(Cart)=  0.00114815 RMS(Int)=  0.00054668
 Iteration 56 RMS(Cart)=  0.00114815 RMS(Int)=  0.00054668
 Iteration 57 RMS(Cart)=  0.00114815 RMS(Int)=  0.00054668
 Iteration 58 RMS(Cart)=  0.00114815 RMS(Int)=  0.00054668
 Iteration 59 RMS(Cart)=  0.00114815 RMS(Int)=  0.00054668
 Iteration 60 RMS(Cart)=  0.00114815 RMS(Int)=  0.00054668
 Iteration 61 RMS(Cart)=  0.00114815 RMS(Int)=  0.00054668
 Iteration 62 RMS(Cart)=  0.00114815 RMS(Int)=  0.00054668
 Iteration 63 RMS(Cart)=  0.00114815 RMS(Int)=  0.00054668
 Iteration 64 RMS(Cart)=  0.00114815 RMS(Int)=  0.00054668
 Iteration 65 RMS(Cart)=  0.00114815 RMS(Int)=  0.00054668
 Iteration 66 RMS(Cart)=  0.00114815 RMS(Int)=  0.00054668
 Iteration 67 RMS(Cart)=  0.00114815 RMS(Int)=  0.00054668
 Iteration 68 RMS(Cart)=  0.00114815 RMS(Int)=  0.00054668
 Iteration 69 RMS(Cart)=  0.00114815 RMS(Int)=  0.00054668
 Iteration 70 RMS(Cart)=  0.00114815 RMS(Int)=  0.00054668
 Iteration 71 RMS(Cart)=  0.00114815 RMS(Int)=  0.00054668
 Iteration 72 RMS(Cart)=  0.00114815 RMS(Int)=  0.00054668
 Iteration 73 RMS(Cart)=  0.00114815 RMS(Int)=  0.00054668
 Iteration 74 RMS(Cart)=  0.00114815 RMS(Int)=  0.00054668
 Iteration 75 RMS(Cart)=  0.00114815 RMS(Int)=  0.00054668
 Iteration 76 RMS(Cart)=  0.00114815 RMS(Int)=  0.00054668
 Iteration 77 RMS(Cart)=  0.00114815 RMS(Int)=  0.00054668
 Iteration 78 RMS(Cart)=  0.00114815 RMS(Int)=  0.00054668
 Iteration 79 RMS(Cart)=  0.00114815 RMS(Int)=  0.00054668
 Iteration 80 RMS(Cart)=  0.00114815 RMS(Int)=  0.00054668
 Iteration 81 RMS(Cart)=  0.00114815 RMS(Int)=  0.00054668
 Iteration 82 RMS(Cart)=  0.00114815 RMS(Int)=  0.00054668
 Iteration 83 RMS(Cart)=  0.00114815 RMS(Int)=  0.00054668
 Iteration 84 RMS(Cart)=  0.00114815 RMS(Int)=  0.00054668
 Iteration 85 RMS(Cart)=  0.00114815 RMS(Int)=  0.00054668
 Iteration 86 RMS(Cart)=  0.00114815 RMS(Int)=  0.00054668
 Iteration 87 RMS(Cart)=  0.00114815 RMS(Int)=  0.00054668
 Iteration 88 RMS(Cart)=  0.00114815 RMS(Int)=  0.00054668
 Iteration 89 RMS(Cart)=  0.00114815 RMS(Int)=  0.00054668
 Iteration 90 RMS(Cart)=  0.00114815 RMS(Int)=  0.00054668
 Iteration 91 RMS(Cart)=  0.00114815 RMS(Int)=  0.00054668
 Iteration 92 RMS(Cart)=  0.00114815 RMS(Int)=  0.00054668
 Iteration 93 RMS(Cart)=  0.00114815 RMS(Int)=  0.00054668
 Iteration 94 RMS(Cart)=  0.00114815 RMS(Int)=  0.00054668
 Iteration 95 RMS(Cart)=  0.00114815 RMS(Int)=  0.00054668
 Iteration 96 RMS(Cart)=  0.00114815 RMS(Int)=  0.00054668
 Iteration 97 RMS(Cart)=  0.00114815 RMS(Int)=  0.00054668
 Iteration 98 RMS(Cart)=  0.00114815 RMS(Int)=  0.00054668
 Iteration 99 RMS(Cart)=  0.00114815 RMS(Int)=  0.00054668
 Iteration100 RMS(Cart)=  0.00114815 RMS(Int)=  0.00054668
 New curvilinear step not converged.
 ITry= 9 IFail=1 DXMaxC= 7.28D-03 DCOld= 1.00D+10 DXMaxT= 1.15D+00 DXLimC= 3.00D+00 Rises=F
 Iteration  1 RMS(Cart)=  0.00629327 RMS(Int)=  0.00054693
 Iteration  2 RMS(Cart)=  0.00114839 RMS(Int)=  0.00054668
 Iteration  3 RMS(Cart)=  0.00114816 RMS(Int)=  0.00054668
 Iteration  4 RMS(Cart)=  0.00114815 RMS(Int)=  0.00054668
 Iteration  5 RMS(Cart)=  0.00114815 RMS(Int)=  0.00054668
 Iteration  6 RMS(Cart)=  0.00114815 RMS(Int)=  0.00054668
 Iteration  7 RMS(Cart)=  0.00114815 RMS(Int)=  0.00054668
 Iteration  8 RMS(Cart)=  0.00114815 RMS(Int)=  0.00054668
 Iteration  9 RMS(Cart)=  0.00114815 RMS(Int)=  0.00054668
 Iteration 10 RMS(Cart)=  0.00114815 RMS(Int)=  0.00054668
 Iteration 11 RMS(Cart)=  0.00114815 RMS(Int)=  0.00054668
 Iteration 12 RMS(Cart)=  0.00114815 RMS(Int)=  0.00054668
 Iteration 13 RMS(Cart)=  0.00114815 RMS(Int)=  0.00054668
 Iteration 14 RMS(Cart)=  0.00114815 RMS(Int)=  0.00054668
 Iteration 15 RMS(Cart)=  0.00114815 RMS(Int)=  0.00054668
 Iteration 16 RMS(Cart)=  0.00114815 RMS(Int)=  0.00054668
 Iteration 17 RMS(Cart)=  0.00114815 RMS(Int)=  0.00054668
 Iteration 18 RMS(Cart)=  0.00114815 RMS(Int)=  0.00054668
 Iteration 19 RMS(Cart)=  0.00114815 RMS(Int)=  0.00054668
 Iteration 20 RMS(Cart)=  0.00114815 RMS(Int)=  0.00054668
 Iteration 21 RMS(Cart)=  0.00114815 RMS(Int)=  0.00054668
 Iteration 22 RMS(Cart)=  0.00114815 RMS(Int)=  0.00054668
 Iteration 23 RMS(Cart)=  0.00114815 RMS(Int)=  0.00054668
 Iteration 24 RMS(Cart)=  0.00114815 RMS(Int)=  0.00054668
 Iteration 25 RMS(Cart)=  0.00114815 RMS(Int)=  0.00054668
 Iteration 26 RMS(Cart)=  0.00114815 RMS(Int)=  0.00054668
 Iteration 27 RMS(Cart)=  0.00114815 RMS(Int)=  0.00054668
 Iteration 28 RMS(Cart)=  0.00114815 RMS(Int)=  0.00054668
 Iteration 29 RMS(Cart)=  0.00114815 RMS(Int)=  0.00054668
 Iteration 30 RMS(Cart)=  0.00114815 RMS(Int)=  0.00054668
 Iteration 31 RMS(Cart)=  0.00114815 RMS(Int)=  0.00054668
 Iteration 32 RMS(Cart)=  0.00114815 RMS(Int)=  0.00054668
 Iteration 33 RMS(Cart)=  0.00114815 RMS(Int)=  0.00054668
 Iteration 34 RMS(Cart)=  0.00114815 RMS(Int)=  0.00054668
 Iteration 35 RMS(Cart)=  0.00114815 RMS(Int)=  0.00054668
 Iteration 36 RMS(Cart)=  0.00114815 RMS(Int)=  0.00054668
 Iteration 37 RMS(Cart)=  0.00114815 RMS(Int)=  0.00054668
 Iteration 38 RMS(Cart)=  0.00114815 RMS(Int)=  0.00054668
 Iteration 39 RMS(Cart)=  0.00114815 RMS(Int)=  0.00054668
 Iteration 40 RMS(Cart)=  0.00114815 RMS(Int)=  0.00054668
 Iteration 41 RMS(Cart)=  0.00114815 RMS(Int)=  0.00054668
 Iteration 42 RMS(Cart)=  0.00114815 RMS(Int)=  0.00054668
 Iteration 43 RMS(Cart)=  0.00114815 RMS(Int)=  0.00054668
 Iteration 44 RMS(Cart)=  0.00114815 RMS(Int)=  0.00054668
 Iteration 45 RMS(Cart)=  0.00114815 RMS(Int)=  0.00054668
 Iteration 46 RMS(Cart)=  0.00114815 RMS(Int)=  0.00054668
 Iteration 47 RMS(Cart)=  0.00114815 RMS(Int)=  0.00054668
 Iteration 48 RMS(Cart)=  0.00114815 RMS(Int)=  0.00054668
 Iteration 49 RMS(Cart)=  0.00114815 RMS(Int)=  0.00054668
 Iteration 50 RMS(Cart)=  0.00114815 RMS(Int)=  0.00054668
 Iteration 51 RMS(Cart)=  0.00114815 RMS(Int)=  0.00054668
 Iteration 52 RMS(Cart)=  0.00114815 RMS(Int)=  0.00054668
 Iteration 53 RMS(Cart)=  0.00114815 RMS(Int)=  0.00054668
 Iteration 54 RMS(Cart)=  0.00114815 RMS(Int)=  0.00054668
 Iteration 55 RMS(Cart)=  0.00114815 RMS(Int)=  0.00054668
 Iteration 56 RMS(Cart)=  0.00114815 RMS(Int)=  0.00054668
 Iteration 57 RMS(Cart)=  0.00114815 RMS(Int)=  0.00054668
 Iteration 58 RMS(Cart)=  0.00114815 RMS(Int)=  0.00054668
 Iteration 59 RMS(Cart)=  0.00114815 RMS(Int)=  0.00054668
 Iteration 60 RMS(Cart)=  0.00114815 RMS(Int)=  0.00054668
 Iteration 61 RMS(Cart)=  0.00114815 RMS(Int)=  0.00054668
 Iteration 62 RMS(Cart)=  0.00114815 RMS(Int)=  0.00054668
 Iteration 63 RMS(Cart)=  0.00114815 RMS(Int)=  0.00054668
 Iteration 64 RMS(Cart)=  0.00114815 RMS(Int)=  0.00054668
 Iteration 65 RMS(Cart)=  0.00114815 RMS(Int)=  0.00054668
 Iteration 66 RMS(Cart)=  0.00114815 RMS(Int)=  0.00054668
 Iteration 67 RMS(Cart)=  0.00114815 RMS(Int)=  0.00054668
 Iteration 68 RMS(Cart)=  0.00114815 RMS(Int)=  0.00054668
 Iteration 69 RMS(Cart)=  0.00114815 RMS(Int)=  0.00054668
 Iteration 70 RMS(Cart)=  0.00114815 RMS(Int)=  0.00054668
 Iteration 71 RMS(Cart)=  0.00114815 RMS(Int)=  0.00054668
 Iteration 72 RMS(Cart)=  0.00114815 RMS(Int)=  0.00054668
 Iteration 73 RMS(Cart)=  0.00114815 RMS(Int)=  0.00054668
 Iteration 74 RMS(Cart)=  0.00114815 RMS(Int)=  0.00054668
 Iteration 75 RMS(Cart)=  0.00114815 RMS(Int)=  0.00054668
 Iteration 76 RMS(Cart)=  0.00114815 RMS(Int)=  0.00054668
 Iteration 77 RMS(Cart)=  0.00114815 RMS(Int)=  0.00054668
 Iteration 78 RMS(Cart)=  0.00114815 RMS(Int)=  0.00054668
 Iteration 79 RMS(Cart)=  0.00114815 RMS(Int)=  0.00054668
 Iteration 80 RMS(Cart)=  0.00114815 RMS(Int)=  0.00054668
 Iteration 81 RMS(Cart)=  0.00114815 RMS(Int)=  0.00054668
 Iteration 82 RMS(Cart)=  0.00114815 RMS(Int)=  0.00054668
 Iteration 83 RMS(Cart)=  0.00114815 RMS(Int)=  0.00054668
 Iteration 84 RMS(Cart)=  0.00114815 RMS(Int)=  0.00054668
 Iteration 85 RMS(Cart)=  0.00114815 RMS(Int)=  0.00054668
 Iteration 86 RMS(Cart)=  0.00114815 RMS(Int)=  0.00054668
 Iteration 87 RMS(Cart)=  0.00114815 RMS(Int)=  0.00054668
 Iteration 88 RMS(Cart)=  0.00114815 RMS(Int)=  0.00054668
 Iteration 89 RMS(Cart)=  0.00114815 RMS(Int)=  0.00054668
 Iteration 90 RMS(Cart)=  0.00114815 RMS(Int)=  0.00054668
 Iteration 91 RMS(Cart)=  0.00114815 RMS(Int)=  0.00054668
 Iteration 92 RMS(Cart)=  0.00114815 RMS(Int)=  0.00054668
 Iteration 93 RMS(Cart)=  0.00114815 RMS(Int)=  0.00054668
 Iteration 94 RMS(Cart)=  0.00114815 RMS(Int)=  0.00054668
 Iteration 95 RMS(Cart)=  0.00114815 RMS(Int)=  0.00054668
 Iteration 96 RMS(Cart)=  0.00114815 RMS(Int)=  0.00054668
 Iteration 97 RMS(Cart)=  0.00114815 RMS(Int)=  0.00054668
 Iteration 98 RMS(Cart)=  0.00114815 RMS(Int)=  0.00054668
 Iteration 99 RMS(Cart)=  0.00114815 RMS(Int)=  0.00054668
 Iteration100 RMS(Cart)=  0.00114815 RMS(Int)=  0.00054668
 New curvilinear step not converged.
 ITry=10 IFail=1 DXMaxC= 7.28D-03 DCOld= 1.00D+10 DXMaxT= 1.15D+00 DXLimC= 3.00D+00 Rises=F
 RedQX1 iteration     1 Try  1 RMS(Cart)=  0.00125865 RMS(Int)=  0.00239840 XScale=  5.00014076
 RedQX1 iteration     1 Try  2 RMS(Cart)=  0.00125865 RMS(Int)=  0.00179885 XScale=  2.50013051
 RedQX1 iteration     1 Try  3 RMS(Cart)=  0.00125866 RMS(Int)=  0.00119933 XScale=  1.66678170
 RedQX1 iteration     1 Try  4 RMS(Cart)=  0.00125866 RMS(Int)=  0.00059981 XScale=  1.25009235
 RedQX1 iteration     1 Try  5 RMS(Cart)=  0.00125869 RMS(Int)=  0.00054673 XScale=  1.22292714
 RedQX1 iteration     1 Try  6 RMS(Cart)=  0.00114825 RMS(Int)=  0.00109345 XScale=  1.57346908
 RedQX1 iteration     2 Try  1 RMS(Cart)=  0.00045930 RMS(Int)=  0.00131214 XScale=  1.77720730
 RedQX1 iteration     2 Try  2 RMS(Cart)=  0.00068896 RMS(Int)=  0.00164019 XScale=  2.20535117
 RedQX1 iteration     2 Try  3 RMS(Cart)=  0.00114827 RMS(Int)=  0.00218693 XScale=  3.68070869
 RedQX1 iteration     2 Try  4 RMS(Cart)=  0.00229656 RMS(Int)=  0.00328045 XScale= 10.13255368
 RedQX1 iteration     2 Try  5 RMS(Cart)=  0.00688971 RMS(Int)=  0.00656118 XScale=  0.84099576
 RedQX1 iteration     3 Try  1 RMS(Cart)=  0.00137794 RMS(Int)=  0.00393657 XScale=  3.17815927
 RedQX1 iteration     3 Try  2 RMS(Cart)=  0.00206692 RMS(Int)=  0.00492077 XScale=  1.55701927
 RedQX1 iteration     3 Try  3 RMS(Cart)=  0.00344488 RMS(Int)=  0.00656116 XScale=  0.84098401
 RedQX1 iteration     4 Try  1 RMS(Cart)=  0.00206693 RMS(Int)=  0.00590499 XScale=  1.03059789
 RedQX1 iteration     4 Try  2 RMS(Cart)=  0.00310040 RMS(Int)=  0.00738137 XScale=  0.68371785
 RedQX1 iteration     5 Try  1 RMS(Cart)=  0.00248032 RMS(Int)=  0.00708609 XScale=  0.73307009
 RedQX1 iteration     6 Try  1 RMS(Cart)=  0.00049606 RMS(Int)=  0.00614121 XScale=  0.95322889
 RedQX1 iteration     7 Try  1 RMS(Cart)=  0.00009921 RMS(Int)=  0.00595224 XScale=  1.01413580
 RedQX1 iteration     7 Try  2 RMS(Cart)=  0.00010081 RMS(Int)=  0.00600024 XScale=  0.99793807
 RedQX1 iteration     8 Try  1 RMS(Cart)=  0.00010001 RMS(Int)=  0.00599986 XScale=  0.99806560
 RedQX1 iteration     9 Try  1 RMS(Cart)=  0.00002000 RMS(Int)=  0.00596176 XScale=  1.01088051
 RedQX1 iteration     9 Try  2 RMS(Cart)=  0.00002007 RMS(Int)=  0.00597131 XScale=  1.00763571
 RedQX1 iteration     9 Try  3 RMS(Cart)=  0.00002013 RMS(Int)=  0.00598090 XScale=  1.00440134
 RedQX1 iteration     9 Try  4 RMS(Cart)=  0.00002019 RMS(Int)=  0.00599052 XScale=  1.00117737
 RedQX1 iteration     9 Try  5 RMS(Cart)=  0.00002026 RMS(Int)=  0.00600016 XScale=  0.99796373
 RedQX1 iteration    10 Try  1 RMS(Cart)=  0.00002013 RMS(Int)=  0.00600010 XScale=  0.99798423
 RedQX1 iteration    11 Try  1 RMS(Cart)=  0.00000403 RMS(Int)=  0.00599243 XScale=  1.00053711
 RedQX1 iteration    11 Try  2 RMS(Cart)=  0.00000403 RMS(Int)=  0.00599435 XScale=  0.99989726
 RedQX1 iteration    11 Try  3 RMS(Cart)=  0.00000403 RMS(Int)=  0.00599627 XScale=  0.99925781
 RedQX1 iteration    11 Try  4 RMS(Cart)=  0.00000403 RMS(Int)=  0.00599819 XScale=  0.99861878
 RedQX1 iteration    12 Try  1 RMS(Cart)=  0.00000403 RMS(Int)=  0.00599819 XScale=  0.99861939
 RedQX1 iteration    13 Try  1 RMS(Cart)=  0.00000081 RMS(Int)=  0.00599666 XScale=  0.99913007
 RedQX1 iteration    13 Try  2 RMS(Cart)=  0.00000081 RMS(Int)=  0.00599704 XScale=  0.99900233
 RedQX1 iteration    13 Try  3 RMS(Cart)=  0.00000081 RMS(Int)=  0.00599742 XScale=  0.99887462
 RedQX1 iteration    14 Try  1 RMS(Cart)=  0.00000081 RMS(Int)=  0.00599742 XScale=  0.99887463
 RedQX1 iteration    15 Try  1 RMS(Cart)=  0.00000016 RMS(Int)=  0.00599712 XScale=  0.99897679
 RedQX1 iteration    16 Try  1 RMS(Cart)=  0.00000003 RMS(Int)=  0.00599705 XScale=  0.99899722
 RedQX1 iteration    17 Try  1 RMS(Cart)=  0.00000001 RMS(Int)=  0.00599704 XScale=  0.99900131
 ClnCor:  largest displacement from symmetrization is 9.59D-14 for atom     1.
 B after Tr=     0.000000   39.684249   38.806782
         Rot=   -0.000000    1.000000   -0.000000    0.000000 Ang= 180.00 deg.
 Variable       Old X    -DE/DX   Delta X   Delta X   Delta X     New X
                                 (Linear)    (Quad)   (Total)
    R1        5.14463  -0.00001  -0.00013   0.00000  -0.00005   5.14458
    R2        5.14463  -0.00001  -0.00013  -0.00000  -0.00005   5.14458
    A1        3.13688   0.00000   0.00519   0.00000  -0.00520   3.13168
         Item               Value     Threshold  Converged?
 Maximum Force            0.000006     0.000450     YES
 RMS     Force            0.000005     0.000300     YES
 Maximum Displacement     0.008912     0.001800     NO 
 RMS     Displacement     0.006303     0.001200     NO 
 Predicted change in Energy=-3.749494D-08
 GradGradGradGradGradGradGradGradGradGradGradGradGradGradGradGradGradGrad

                          Input orientation:                          
 ---------------------------------------------------------------------
 Center     Atomic      Atomic             Coordinates (Angstroms)
 Number     Number       Type             X           Y           Z
 ---------------------------------------------------------------------
      1         16           0       10.500000   10.500000   10.276828
      2         19           0        7.777639   10.500000   10.263334
      3         19           0       13.222361   10.500000   10.263334
 ---------------------------------------------------------------------
                    Distance matrix (angstroms):
                    1          2          3
     1  S    0.000000
     2  K    2.722394   0.000000
     3  K    2.722394   5.444722   0.000000
 Stoichiometry    K2S
 Framework group  C2V[C2(S),SGV(K2)]
 Deg. of freedom     2
 Full point group                 C2V     NOp   4
 Largest Abelian subgroup         C2V     NOp   4
 Largest concise Abelian subgroup C2      NOp   2
                         Standard orientation:                         
 ---------------------------------------------------------------------
 Center     Atomic      Atomic             Coordinates (Angstroms)
 Number     Number       Type             X           Y           Z
 ---------------------------------------------------------------------
      1         16           0       -0.000000    0.000000    0.009496
      2         19           0        0.000000    2.722361   -0.003998
      3         19           0       -0.000000   -2.722361   -0.003998
 ---------------------------------------------------------------------
 Rotational constants (GHZ):      122429.7609622           0.8750553           0.8750491
 Standard basis: def2QZVPP (5D, 7F)
 There are    96 symmetry adapted cartesian basis functions of A1  symmetry.
 There are    35 symmetry adapted cartesian basis functions of A2  symmetry.
 There are    45 symmetry adapted cartesian basis functions of B1  symmetry.
 There are    76 symmetry adapted cartesian basis functions of B2  symmetry.
 There are    77 symmetry adapted basis functions of A1  symmetry.
 There are    31 symmetry adapted basis functions of A2  symmetry.
 There are    39 symmetry adapted basis functions of B1  symmetry.
 There are    63 symmetry adapted basis functions of B2  symmetry.
   210 basis functions,   385 primitive gaussians,   252 cartesian basis functions
    27 alpha electrons       27 beta electrons
       nuclear repulsion energy       153.2685377470 Hartrees.
 NAtoms=    3 NActive=    3 NUniq=    2 SFac= 2.25D+00 NAtFMM=   60 NAOKFM=F Big=F
 Integral buffers will be    131072 words long.
 Raffenetti 2 integral format.
 Two-electron integral symmetry is turned on.
 One-electron integrals computed using PRISM.
   4 Symmetry operations used in ECPInt.
 ECPInt:  NShTT=    2485 NPrTT=   10021 LenC2=    2319 LenP2D=    7244.
 LDataN:  DoStor=T MaxTD1= 8 Len=  415
 NBasis=   210 RedAO= T EigKep=  7.54D-04  NBF=    77    31    39    63
 NBsUse=   210 1.00D-06 EigRej= -1.00D+00 NBFU=    77    31    39    63
 Initial guess from the checkpoint file:  "/data/hutter/SMG16/TPSS/Gau-56371.chk"
 B after Tr=    -0.000000   -0.000000    0.000000
         Rot=    1.000000    0.000000    0.000000    0.000000 Ang=   0.00 deg.
 Initial guess orbital symmetries:
       Occupied  (B2) (A1) (A1) (B2) (A1) (A1) (B1) (B2) (A2) (A1)
                 (B2) (A1) (B2) (A1) (B1) (A1) (B2) (A1) (B1) (B2)
                 (A2) (A1) (B2) (A1) (B2) (A1) (B1)
       Virtual   (A1) (B2) (A1) (B1) (A2) (B2) (A1) (B2) (A1) (B2)
                 (B1) (A1) (A2) (B2) (A1) (A1) (B1) (B2) (A2) (B2)
                 (A2) (B2) (A1) (B1) (A1) (B2) (A1) (B2) (A2) (B2)
                 (A1) (B1) (A1) (B1) (B1) (A1) (A2) (B2) (A2) (B2)
                 (A1) (A1) (B1) (A1) (B2) (A1) (B1) (B2) (A2) (B2)
                 (A2) (A1) (B1) (B2) (A2) (B2) (A1) (B1) (A1) (A1)
                 (B1) (B2) (A1) (A2) (B2) (B2) (A1) (A1) (B1) (B2)
                 (A2) (B2) (A1) (A1) (B1) (B2) (A2) (B1) (A1) (A2)
                 (B2) (B2) (A1) (A1) (A1) (B1) (B1) (A1) (B1) (A1)
                 (B2) (A2) (B2) (A2) (B2) (A1) (B1) (B2) (A1) (B2)
                 (A1) (B1) (A1) (A2) (B2) (B1) (A1) (A2) (B2) (A2)
                 (B2) (A1) (B1) (A1) (B2) (A1) (B1) (A1) (B1) (A1)
                 (A2) (B2) (A2) (B2) (B1) (A1) (B2) (A2) (B2) (A1)
                 (B2) (A2) (A1) (B1) (B1) (A1) (A2) (B2) (A1) (B1)
                 (B2) (A2) (A1) (B1) (A1) (B2) (B1) (A1) (B2) (A1)
                 (B2) (A1) (B1) (A1) (A2) (B2) (B1) (A1) (A2) (B2)
                 (A2) (B2) (A1) (B1) (A1) (B2) (A1) (B1) (A2) (B2)
                 (A1) (A1) (B2) (A1) (B1) (A1) (B2) (A1) (B2) (A1)
                 (A1) (B2) (A1)
 Keep J ints in memory in symmetry-blocked form, NReq=307684869.
 Requested convergence on RMS density matrix=1.00D-08 within 128 cycles.
 Requested convergence on MAX density matrix=1.00D-06.
 Requested convergence on             energy=1.00D-06.
 No special actions if energy rises.
 SCF Done:  E(RTPSS-TPSS) =  -1598.20844447     A.U. after    7 cycles
            NFock=  7  Conv=0.68D-08     -V/T= 2.0018
   4 Symmetry operations used in ECPInt.
 ECPInt:  NShTT=    2485 NPrTT=   10021 LenC2=    2319 LenP2D=    7244.
 LDataN:  DoStor=T MaxTD1= 9 Len=  602
 Calling FoFJK, ICntrl=      2527 FMM=F ISym2X=1 I1Cent= 0 IOpClX= 0 NMat=1 NMatS=1 NMatT=0.
 ***** Axes restored to original set *****
 -------------------------------------------------------------------
 Center     Atomic                   Forces (Hartrees/Bohr)
 Number     Number              X              Y              Z
 -------------------------------------------------------------------
      1       16          -0.000000000   -0.000000000   -0.000003943
      2       19           0.000002425    0.000000000    0.000001971
      3       19          -0.000002425   -0.000000000    0.000001971
 -------------------------------------------------------------------
 Cartesian Forces:  Max     0.000003943 RMS     0.000001974

 GradGradGradGradGradGradGradGradGradGradGradGradGradGradGradGradGradGrad
 Berny optimization.
 Using GEDIIS/GDIIS optimizer.
 FormGI is forming the generalized inverse of G from B-inverse, IUseBI=4.
 Internal  Forces:  Max     0.000010080 RMS     0.000006150
 Search for a local minimum.
 Step number  11 out of a maximum of   20
 All quantities printed in internal units (Hartrees-Bohrs-Radians)
 Mixed Optimization -- En-DIIS/RFO-DIIS
 Swapping is turned off.
 Update second derivatives using D2CorX and points    8    9   10   11
 DE=  3.83D-08 DEPred=-3.75D-08 R=-1.02D+00
 Trust test=-1.02D+00 RLast= 5.20D-03 DXMaxT set to 5.75D-01
 The second derivative matrix:
                          R1        R2        A1
           R1           0.04627
           R2           0.00760   0.04627
           A1           0.00004   0.00004   0.00102
 ITU= -1  0  1  1
     Eigenvalues ---    0.00102   0.03867   0.05387
 En-DIIS/RFO-DIIS/Sim-DIIS IScMMF=       -3 using points:    11   10    9    8
 RFO step:  Lambda=-1.00349029D-07.
 DIIS inversion failure, remove point   4.
 DIIS inversion failure, remove point   3.
 RFO-DIIS uses    2 points instead of    4
 DidBck=T Rises=F RFO-DIIS coefs:   -0.90991    1.90991    0.00000    0.00000
 Iteration  1 RMS(Cart)=  0.01204065 RMS(Int)=  0.00005513
 Iteration  2 RMS(Cart)=  0.00006532 RMS(Int)=  0.00001895
 Iteration  3 RMS(Cart)=  0.00003981 RMS(Int)=  0.00001895
 Iteration  4 RMS(Cart)=  0.00003981 RMS(Int)=  0.00001895
 Iteration  5 RMS(Cart)=  0.00003981 RMS(Int)=  0.00001895
 Iteration  6 RMS(Cart)=  0.00003981 RMS(Int)=  0.00001895
 Iteration  7 RMS(Cart)=  0.00003981 RMS(Int)=  0.00001895
 Iteration  8 RMS(Cart)=  0.00003981 RMS(Int)=  0.00001895
 Iteration  9 RMS(Cart)=  0.00003981 RMS(Int)=  0.00001895
 Iteration 10 RMS(Cart)=  0.00003981 RMS(Int)=  0.00001895
 Iteration 11 RMS(Cart)=  0.00003981 RMS(Int)=  0.00001895
 Iteration 12 RMS(Cart)=  0.00003981 RMS(Int)=  0.00001895
 Iteration 13 RMS(Cart)=  0.00003981 RMS(Int)=  0.00001895
 Iteration 14 RMS(Cart)=  0.00003981 RMS(Int)=  0.00001895
 Iteration 15 RMS(Cart)=  0.00003981 RMS(Int)=  0.00001895
 Iteration 16 RMS(Cart)=  0.00003981 RMS(Int)=  0.00001895
 Iteration 17 RMS(Cart)=  0.00003981 RMS(Int)=  0.00001895
 Iteration 18 RMS(Cart)=  0.00003981 RMS(Int)=  0.00001895
 Iteration 19 RMS(Cart)=  0.00003981 RMS(Int)=  0.00001895
 Iteration 20 RMS(Cart)=  0.00003981 RMS(Int)=  0.00001895
 Iteration 21 RMS(Cart)=  0.00003981 RMS(Int)=  0.00001895
 Iteration 22 RMS(Cart)=  0.00003981 RMS(Int)=  0.00001895
 Iteration 23 RMS(Cart)=  0.00003981 RMS(Int)=  0.00001895
 Iteration 24 RMS(Cart)=  0.00003981 RMS(Int)=  0.00001895
 Iteration 25 RMS(Cart)=  0.00003981 RMS(Int)=  0.00001895
 Iteration 26 RMS(Cart)=  0.00003981 RMS(Int)=  0.00001895
 Iteration 27 RMS(Cart)=  0.00003981 RMS(Int)=  0.00001895
 Iteration 28 RMS(Cart)=  0.00003981 RMS(Int)=  0.00001895
 Iteration 29 RMS(Cart)=  0.00003981 RMS(Int)=  0.00001895
 Iteration 30 RMS(Cart)=  0.00003981 RMS(Int)=  0.00001895
 Iteration 31 RMS(Cart)=  0.00003981 RMS(Int)=  0.00001895
 Iteration 32 RMS(Cart)=  0.00003981 RMS(Int)=  0.00001895
 Iteration 33 RMS(Cart)=  0.00003981 RMS(Int)=  0.00001895
 Iteration 34 RMS(Cart)=  0.00003981 RMS(Int)=  0.00001895
 Iteration 35 RMS(Cart)=  0.00003981 RMS(Int)=  0.00001895
 Iteration 36 RMS(Cart)=  0.00003981 RMS(Int)=  0.00001895
 Iteration 37 RMS(Cart)=  0.00003981 RMS(Int)=  0.00001895
 Iteration 38 RMS(Cart)=  0.00003981 RMS(Int)=  0.00001895
 Iteration 39 RMS(Cart)=  0.00003981 RMS(Int)=  0.00001895
 Iteration 40 RMS(Cart)=  0.00003981 RMS(Int)=  0.00001895
 Iteration 41 RMS(Cart)=  0.00003981 RMS(Int)=  0.00001895
 Iteration 42 RMS(Cart)=  0.00003981 RMS(Int)=  0.00001895
 Iteration 43 RMS(Cart)=  0.00003981 RMS(Int)=  0.00001895
 Iteration 44 RMS(Cart)=  0.00003981 RMS(Int)=  0.00001895
 Iteration 45 RMS(Cart)=  0.00003981 RMS(Int)=  0.00001895
 Iteration 46 RMS(Cart)=  0.00003981 RMS(Int)=  0.00001895
 Iteration 47 RMS(Cart)=  0.00003981 RMS(Int)=  0.00001895
 Iteration 48 RMS(Cart)=  0.00003981 RMS(Int)=  0.00001895
 Iteration 49 RMS(Cart)=  0.00003981 RMS(Int)=  0.00001895
 Iteration 50 RMS(Cart)=  0.00003981 RMS(Int)=  0.00001895
 Iteration 51 RMS(Cart)=  0.00003981 RMS(Int)=  0.00001895
 Iteration 52 RMS(Cart)=  0.00003981 RMS(Int)=  0.00001895
 Iteration 53 RMS(Cart)=  0.00003981 RMS(Int)=  0.00001895
 Iteration 54 RMS(Cart)=  0.00003981 RMS(Int)=  0.00001895
 Iteration 55 RMS(Cart)=  0.00003981 RMS(Int)=  0.00001895
 Iteration 56 RMS(Cart)=  0.00003981 RMS(Int)=  0.00001895
 Iteration 57 RMS(Cart)=  0.00003981 RMS(Int)=  0.00001895
 Iteration 58 RMS(Cart)=  0.00003981 RMS(Int)=  0.00001895
 Iteration 59 RMS(Cart)=  0.00003981 RMS(Int)=  0.00001895
 Iteration 60 RMS(Cart)=  0.00003981 RMS(Int)=  0.00001895
 Iteration 61 RMS(Cart)=  0.00003981 RMS(Int)=  0.00001895
 Iteration 62 RMS(Cart)=  0.00003981 RMS(Int)=  0.00001895
 Iteration 63 RMS(Cart)=  0.00003981 RMS(Int)=  0.00001895
 Iteration 64 RMS(Cart)=  0.00003981 RMS(Int)=  0.00001895
 Iteration 65 RMS(Cart)=  0.00003981 RMS(Int)=  0.00001895
 Iteration 66 RMS(Cart)=  0.00003981 RMS(Int)=  0.00001895
 Iteration 67 RMS(Cart)=  0.00003981 RMS(Int)=  0.00001895
 Iteration 68 RMS(Cart)=  0.00003981 RMS(Int)=  0.00001895
 Iteration 69 RMS(Cart)=  0.00003981 RMS(Int)=  0.00001895
 Iteration 70 RMS(Cart)=  0.00003981 RMS(Int)=  0.00001895
 Iteration 71 RMS(Cart)=  0.00003981 RMS(Int)=  0.00001895
 Iteration 72 RMS(Cart)=  0.00003981 RMS(Int)=  0.00001895
 Iteration 73 RMS(Cart)=  0.00003981 RMS(Int)=  0.00001895
 Iteration 74 RMS(Cart)=  0.00003981 RMS(Int)=  0.00001895
 Iteration 75 RMS(Cart)=  0.00003981 RMS(Int)=  0.00001895
 Iteration 76 RMS(Cart)=  0.00003981 RMS(Int)=  0.00001895
 Iteration 77 RMS(Cart)=  0.00003981 RMS(Int)=  0.00001895
 Iteration 78 RMS(Cart)=  0.00003981 RMS(Int)=  0.00001895
 Iteration 79 RMS(Cart)=  0.00003981 RMS(Int)=  0.00001895
 Iteration 80 RMS(Cart)=  0.00003981 RMS(Int)=  0.00001895
 Iteration 81 RMS(Cart)=  0.00003981 RMS(Int)=  0.00001895
 Iteration 82 RMS(Cart)=  0.00003981 RMS(Int)=  0.00001895
 Iteration 83 RMS(Cart)=  0.00003981 RMS(Int)=  0.00001895
 Iteration 84 RMS(Cart)=  0.00003981 RMS(Int)=  0.00001895
 Iteration 85 RMS(Cart)=  0.00003981 RMS(Int)=  0.00001895
 Iteration 86 RMS(Cart)=  0.00003981 RMS(Int)=  0.00001895
 Iteration 87 RMS(Cart)=  0.00003981 RMS(Int)=  0.00001895
 Iteration 88 RMS(Cart)=  0.00003981 RMS(Int)=  0.00001895
 Iteration 89 RMS(Cart)=  0.00003981 RMS(Int)=  0.00001895
 Iteration 90 RMS(Cart)=  0.00003981 RMS(Int)=  0.00001895
 Iteration 91 RMS(Cart)=  0.00003981 RMS(Int)=  0.00001895
 Iteration 92 RMS(Cart)=  0.00003981 RMS(Int)=  0.00001895
 Iteration 93 RMS(Cart)=  0.00003981 RMS(Int)=  0.00001895
 Iteration 94 RMS(Cart)=  0.00003981 RMS(Int)=  0.00001895
 Iteration 95 RMS(Cart)=  0.00003981 RMS(Int)=  0.00001895
 Iteration 96 RMS(Cart)=  0.00003981 RMS(Int)=  0.00001895
 Iteration 97 RMS(Cart)=  0.00003981 RMS(Int)=  0.00001895
 Iteration 98 RMS(Cart)=  0.00003981 RMS(Int)=  0.00001895
 Iteration 99 RMS(Cart)=  0.00003981 RMS(Int)=  0.00001895
 Iteration100 RMS(Cart)=  0.00003981 RMS(Int)=  0.00001895
 New curvilinear step not converged.
 ITry= 1 IFail=1 DXMaxC= 1.70D-02 DCOld= 1.00D+10 DXMaxT= 5.75D-01 DXLimC= 3.00D+00 Rises=F
 Iteration  1 RMS(Cart)=  0.01204028 RMS(Int)=  0.00005500
 Iteration  2 RMS(Cart)=  0.00006481 RMS(Int)=  0.00001857
 Iteration  3 RMS(Cart)=  0.00003901 RMS(Int)=  0.00001857
 Iteration  4 RMS(Cart)=  0.00003901 RMS(Int)=  0.00001857
 Iteration  5 RMS(Cart)=  0.00003901 RMS(Int)=  0.00001857
 Iteration  6 RMS(Cart)=  0.00003901 RMS(Int)=  0.00001857
 Iteration  7 RMS(Cart)=  0.00003901 RMS(Int)=  0.00001857
 Iteration  8 RMS(Cart)=  0.00003901 RMS(Int)=  0.00001857
 Iteration  9 RMS(Cart)=  0.00003901 RMS(Int)=  0.00001857
 Iteration 10 RMS(Cart)=  0.00003901 RMS(Int)=  0.00001857
 Iteration 11 RMS(Cart)=  0.00003901 RMS(Int)=  0.00001857
 Iteration 12 RMS(Cart)=  0.00003901 RMS(Int)=  0.00001857
 Iteration 13 RMS(Cart)=  0.00003901 RMS(Int)=  0.00001858
 Iteration 14 RMS(Cart)=  0.00003901 RMS(Int)=  0.00001857
 Iteration 15 RMS(Cart)=  0.00003901 RMS(Int)=  0.00001858
 Iteration 16 RMS(Cart)=  0.00003901 RMS(Int)=  0.00001857
 Iteration 17 RMS(Cart)=  0.00003901 RMS(Int)=  0.00001857
 Iteration 18 RMS(Cart)=  0.00003901 RMS(Int)=  0.00001857
 Iteration 19 RMS(Cart)=  0.00003901 RMS(Int)=  0.00001857
 Iteration 20 RMS(Cart)=  0.00003901 RMS(Int)=  0.00001857
 Iteration 21 RMS(Cart)=  0.00003901 RMS(Int)=  0.00001857
 Iteration 22 RMS(Cart)=  0.00003901 RMS(Int)=  0.00001857
 Iteration 23 RMS(Cart)=  0.00003901 RMS(Int)=  0.00001857
 Iteration 24 RMS(Cart)=  0.00003901 RMS(Int)=  0.00001857
 Iteration 25 RMS(Cart)=  0.00003901 RMS(Int)=  0.00001858
 Iteration 26 RMS(Cart)=  0.00003901 RMS(Int)=  0.00001858
 Iteration 27 RMS(Cart)=  0.00003901 RMS(Int)=  0.00001857
 Iteration 28 RMS(Cart)=  0.00003901 RMS(Int)=  0.00001857
 Iteration 29 RMS(Cart)=  0.00003901 RMS(Int)=  0.00001857
 Iteration 30 RMS(Cart)=  0.00003901 RMS(Int)=  0.00001857
 Iteration 31 RMS(Cart)=  0.00003901 RMS(Int)=  0.00001857
 Iteration 32 RMS(Cart)=  0.00003901 RMS(Int)=  0.00001857
 Iteration 33 RMS(Cart)=  0.00003901 RMS(Int)=  0.00001857
 Iteration 34 RMS(Cart)=  0.00003901 RMS(Int)=  0.00001857
 Iteration 35 RMS(Cart)=  0.00003901 RMS(Int)=  0.00001857
 Iteration 36 RMS(Cart)=  0.00003901 RMS(Int)=  0.00001857
 Iteration 37 RMS(Cart)=  0.00003901 RMS(Int)=  0.00001857
 Iteration 38 RMS(Cart)=  0.00003901 RMS(Int)=  0.00001858
 Iteration 39 RMS(Cart)=  0.00003901 RMS(Int)=  0.00001857
 Iteration 40 RMS(Cart)=  0.00003901 RMS(Int)=  0.00001857
 Iteration 41 RMS(Cart)=  0.00003901 RMS(Int)=  0.00001857
 Iteration 42 RMS(Cart)=  0.00003901 RMS(Int)=  0.00001857
 Iteration 43 RMS(Cart)=  0.00003901 RMS(Int)=  0.00001857
 Iteration 44 RMS(Cart)=  0.00003901 RMS(Int)=  0.00001857
 Iteration 45 RMS(Cart)=  0.00003901 RMS(Int)=  0.00001857
 Iteration 46 RMS(Cart)=  0.00003901 RMS(Int)=  0.00001857
 Iteration 47 RMS(Cart)=  0.00003901 RMS(Int)=  0.00001858
 Iteration 48 RMS(Cart)=  0.00003901 RMS(Int)=  0.00001857
 Iteration 49 RMS(Cart)=  0.00003901 RMS(Int)=  0.00001857
 Iteration 50 RMS(Cart)=  0.00003901 RMS(Int)=  0.00001857
 Iteration 51 RMS(Cart)=  0.00003901 RMS(Int)=  0.00001857
 Iteration 52 RMS(Cart)=  0.00003901 RMS(Int)=  0.00001857
 Iteration 53 RMS(Cart)=  0.00003901 RMS(Int)=  0.00001857
 Iteration 54 RMS(Cart)=  0.00003901 RMS(Int)=  0.00001857
 Iteration 55 RMS(Cart)=  0.00003901 RMS(Int)=  0.00001857
 Iteration 56 RMS(Cart)=  0.00003901 RMS(Int)=  0.00001857
 Iteration 57 RMS(Cart)=  0.00003901 RMS(Int)=  0.00001858
 Iteration 58 RMS(Cart)=  0.00003901 RMS(Int)=  0.00001857
 Iteration 59 RMS(Cart)=  0.00003901 RMS(Int)=  0.00001857
 Iteration 60 RMS(Cart)=  0.00003901 RMS(Int)=  0.00001857
 Iteration 61 RMS(Cart)=  0.00003901 RMS(Int)=  0.00001857
 Iteration 62 RMS(Cart)=  0.00003901 RMS(Int)=  0.00001857
 Iteration 63 RMS(Cart)=  0.00003901 RMS(Int)=  0.00001857
 Iteration 64 RMS(Cart)=  0.00003901 RMS(Int)=  0.00001857
 Iteration 65 RMS(Cart)=  0.00003901 RMS(Int)=  0.00001857
 Iteration 66 RMS(Cart)=  0.00003901 RMS(Int)=  0.00001857
 Iteration 67 RMS(Cart)=  0.00003901 RMS(Int)=  0.00001857
 Iteration 68 RMS(Cart)=  0.00003901 RMS(Int)=  0.00001857
 Iteration 69 RMS(Cart)=  0.00003901 RMS(Int)=  0.00001857
 Iteration 70 RMS(Cart)=  0.00003901 RMS(Int)=  0.00001857
 Iteration 71 RMS(Cart)=  0.00003901 RMS(Int)=  0.00001857
 Iteration 72 RMS(Cart)=  0.00003901 RMS(Int)=  0.00001857
 Iteration 73 RMS(Cart)=  0.00003901 RMS(Int)=  0.00001857
 Iteration 74 RMS(Cart)=  0.00003901 RMS(Int)=  0.00001857
 Iteration 75 RMS(Cart)=  0.00003901 RMS(Int)=  0.00001857
 Iteration 76 RMS(Cart)=  0.00003901 RMS(Int)=  0.00001857
 Iteration 77 RMS(Cart)=  0.00003901 RMS(Int)=  0.00001857
 Iteration 78 RMS(Cart)=  0.00003901 RMS(Int)=  0.00001857
 Iteration 79 RMS(Cart)=  0.00003901 RMS(Int)=  0.00001857
 Iteration 80 RMS(Cart)=  0.00003901 RMS(Int)=  0.00001857
 Iteration 81 RMS(Cart)=  0.00003901 RMS(Int)=  0.00001857
 Iteration 82 RMS(Cart)=  0.00003901 RMS(Int)=  0.00001857
 Iteration 83 RMS(Cart)=  0.00003901 RMS(Int)=  0.00001857
 Iteration 84 RMS(Cart)=  0.00003901 RMS(Int)=  0.00001857
 Iteration 85 RMS(Cart)=  0.00003901 RMS(Int)=  0.00001857
 Iteration 86 RMS(Cart)=  0.00003901 RMS(Int)=  0.00001857
 Iteration 87 RMS(Cart)=  0.00003901 RMS(Int)=  0.00001857
 Iteration 88 RMS(Cart)=  0.00003901 RMS(Int)=  0.00001858
 Iteration 89 RMS(Cart)=  0.00003901 RMS(Int)=  0.00001857
 Iteration 90 RMS(Cart)=  0.00003901 RMS(Int)=  0.00001857
 Iteration 91 RMS(Cart)=  0.00003901 RMS(Int)=  0.00001857
 Iteration 92 RMS(Cart)=  0.00003901 RMS(Int)=  0.00001858
 Iteration 93 RMS(Cart)=  0.00003901 RMS(Int)=  0.00001858
 Iteration 94 RMS(Cart)=  0.00003901 RMS(Int)=  0.00001857
 Iteration 95 RMS(Cart)=  0.00003901 RMS(Int)=  0.00001857
 Iteration 96 RMS(Cart)=  0.00003901 RMS(Int)=  0.00001857
 Iteration 97 RMS(Cart)=  0.00003901 RMS(Int)=  0.00001857
 Iteration 98 RMS(Cart)=  0.00003901 RMS(Int)=  0.00001857
 Iteration 99 RMS(Cart)=  0.00003901 RMS(Int)=  0.00001858
 Iteration100 RMS(Cart)=  0.00003901 RMS(Int)=  0.00001857
 New curvilinear step not converged.
 ITry= 2 IFail=1 DXMaxC= 1.70D-02 DCOld= 1.00D+10 DXMaxT= 5.75D-01 DXLimC= 3.00D+00 Rises=F
 Iteration  1 RMS(Cart)=  0.01203993 RMS(Int)=  0.00005486
 Iteration  2 RMS(Cart)=  0.00006430 RMS(Int)=  0.00001819
 Iteration  3 RMS(Cart)=  0.00003821 RMS(Int)=  0.00001820
 Iteration  4 RMS(Cart)=  0.00003822 RMS(Int)=  0.00001820
 Iteration  5 RMS(Cart)=  0.00003822 RMS(Int)=  0.00001820
 Iteration  6 RMS(Cart)=  0.00003822 RMS(Int)=  0.00001820
 Iteration  7 RMS(Cart)=  0.00003822 RMS(Int)=  0.00001820
 Iteration  8 RMS(Cart)=  0.00003822 RMS(Int)=  0.00001820
 Iteration  9 RMS(Cart)=  0.00003822 RMS(Int)=  0.00001820
 Iteration 10 RMS(Cart)=  0.00003822 RMS(Int)=  0.00001820
 Iteration 11 RMS(Cart)=  0.00003822 RMS(Int)=  0.00001820
 Iteration 12 RMS(Cart)=  0.00003822 RMS(Int)=  0.00001820
 Iteration 13 RMS(Cart)=  0.00003822 RMS(Int)=  0.00001820
 Iteration 14 RMS(Cart)=  0.00003822 RMS(Int)=  0.00001820
 Iteration 15 RMS(Cart)=  0.00003822 RMS(Int)=  0.00001820
 Iteration 16 RMS(Cart)=  0.00003822 RMS(Int)=  0.00001820
 Iteration 17 RMS(Cart)=  0.00003822 RMS(Int)=  0.00001820
 Iteration 18 RMS(Cart)=  0.00003822 RMS(Int)=  0.00001820
 Iteration 19 RMS(Cart)=  0.00003822 RMS(Int)=  0.00001820
 Iteration 20 RMS(Cart)=  0.00003822 RMS(Int)=  0.00001820
 Iteration 21 RMS(Cart)=  0.00003822 RMS(Int)=  0.00001820
 Iteration 22 RMS(Cart)=  0.00003822 RMS(Int)=  0.00001820
 Iteration 23 RMS(Cart)=  0.00003822 RMS(Int)=  0.00001820
 Iteration 24 RMS(Cart)=  0.00003822 RMS(Int)=  0.00001820
 Iteration 25 RMS(Cart)=  0.00003822 RMS(Int)=  0.00001820
 Iteration 26 RMS(Cart)=  0.00003822 RMS(Int)=  0.00001820
 Iteration 27 RMS(Cart)=  0.00003822 RMS(Int)=  0.00001820
 Iteration 28 RMS(Cart)=  0.00003822 RMS(Int)=  0.00001820
 Iteration 29 RMS(Cart)=  0.00003822 RMS(Int)=  0.00001820
 Iteration 30 RMS(Cart)=  0.00003822 RMS(Int)=  0.00001820
 Iteration 31 RMS(Cart)=  0.00003822 RMS(Int)=  0.00001820
 Iteration 32 RMS(Cart)=  0.00003822 RMS(Int)=  0.00001820
 Iteration 33 RMS(Cart)=  0.00003822 RMS(Int)=  0.00001820
 Iteration 34 RMS(Cart)=  0.00003822 RMS(Int)=  0.00001820
 Iteration 35 RMS(Cart)=  0.00003822 RMS(Int)=  0.00001820
 Iteration 36 RMS(Cart)=  0.00003822 RMS(Int)=  0.00001820
 Iteration 37 RMS(Cart)=  0.00003822 RMS(Int)=  0.00001820
 Iteration 38 RMS(Cart)=  0.00003822 RMS(Int)=  0.00001820
 Iteration 39 RMS(Cart)=  0.00003822 RMS(Int)=  0.00001820
 Iteration 40 RMS(Cart)=  0.00003822 RMS(Int)=  0.00001820
 Iteration 41 RMS(Cart)=  0.00003822 RMS(Int)=  0.00001820
 Iteration 42 RMS(Cart)=  0.00003822 RMS(Int)=  0.00001820
 Iteration 43 RMS(Cart)=  0.00003822 RMS(Int)=  0.00001820
 Iteration 44 RMS(Cart)=  0.00003822 RMS(Int)=  0.00001820
 Iteration 45 RMS(Cart)=  0.00003822 RMS(Int)=  0.00001820
 Iteration 46 RMS(Cart)=  0.00003822 RMS(Int)=  0.00001820
 Iteration 47 RMS(Cart)=  0.00003822 RMS(Int)=  0.00001820
 Iteration 48 RMS(Cart)=  0.00003822 RMS(Int)=  0.00001820
 Iteration 49 RMS(Cart)=  0.00003822 RMS(Int)=  0.00001820
 Iteration 50 RMS(Cart)=  0.00003822 RMS(Int)=  0.00001820
 Iteration 51 RMS(Cart)=  0.00003822 RMS(Int)=  0.00001820
 Iteration 52 RMS(Cart)=  0.00003822 RMS(Int)=  0.00001820
 Iteration 53 RMS(Cart)=  0.00003822 RMS(Int)=  0.00001820
 Iteration 54 RMS(Cart)=  0.00003822 RMS(Int)=  0.00001820
 Iteration 55 RMS(Cart)=  0.00003822 RMS(Int)=  0.00001820
 Iteration 56 RMS(Cart)=  0.00003822 RMS(Int)=  0.00001820
 Iteration 57 RMS(Cart)=  0.00003822 RMS(Int)=  0.00001820
 Iteration 58 RMS(Cart)=  0.00003822 RMS(Int)=  0.00001820
 Iteration 59 RMS(Cart)=  0.00003822 RMS(Int)=  0.00001820
 Iteration 60 RMS(Cart)=  0.00003822 RMS(Int)=  0.00001820
 Iteration 61 RMS(Cart)=  0.00003822 RMS(Int)=  0.00001820
 Iteration 62 RMS(Cart)=  0.00003822 RMS(Int)=  0.00001820
 Iteration 63 RMS(Cart)=  0.00003822 RMS(Int)=  0.00001820
 Iteration 64 RMS(Cart)=  0.00003822 RMS(Int)=  0.00001820
 Iteration 65 RMS(Cart)=  0.00003822 RMS(Int)=  0.00001820
 Iteration 66 RMS(Cart)=  0.00003822 RMS(Int)=  0.00001820
 Iteration 67 RMS(Cart)=  0.00003822 RMS(Int)=  0.00001820
 Iteration 68 RMS(Cart)=  0.00003822 RMS(Int)=  0.00001820
 Iteration 69 RMS(Cart)=  0.00003822 RMS(Int)=  0.00001820
 Iteration 70 RMS(Cart)=  0.00003822 RMS(Int)=  0.00001820
 Iteration 71 RMS(Cart)=  0.00003822 RMS(Int)=  0.00001820
 Iteration 72 RMS(Cart)=  0.00003822 RMS(Int)=  0.00001820
 Iteration 73 RMS(Cart)=  0.00003822 RMS(Int)=  0.00001820
 Iteration 74 RMS(Cart)=  0.00003822 RMS(Int)=  0.00001820
 Iteration 75 RMS(Cart)=  0.00003822 RMS(Int)=  0.00001820
 Iteration 76 RMS(Cart)=  0.00003822 RMS(Int)=  0.00001820
 Iteration 77 RMS(Cart)=  0.00003822 RMS(Int)=  0.00001820
 Iteration 78 RMS(Cart)=  0.00003822 RMS(Int)=  0.00001820
 Iteration 79 RMS(Cart)=  0.00003822 RMS(Int)=  0.00001820
 Iteration 80 RMS(Cart)=  0.00003822 RMS(Int)=  0.00001820
 Iteration 81 RMS(Cart)=  0.00003822 RMS(Int)=  0.00001820
 Iteration 82 RMS(Cart)=  0.00003822 RMS(Int)=  0.00001820
 Iteration 83 RMS(Cart)=  0.00003822 RMS(Int)=  0.00001820
 Iteration 84 RMS(Cart)=  0.00003822 RMS(Int)=  0.00001820
 Iteration 85 RMS(Cart)=  0.00003822 RMS(Int)=  0.00001820
 Iteration 86 RMS(Cart)=  0.00003822 RMS(Int)=  0.00001820
 Iteration 87 RMS(Cart)=  0.00003822 RMS(Int)=  0.00001820
 Iteration 88 RMS(Cart)=  0.00003822 RMS(Int)=  0.00001820
 Iteration 89 RMS(Cart)=  0.00003822 RMS(Int)=  0.00001820
 Iteration 90 RMS(Cart)=  0.00003822 RMS(Int)=  0.00001820
 Iteration 91 RMS(Cart)=  0.00003822 RMS(Int)=  0.00001820
 Iteration 92 RMS(Cart)=  0.00003822 RMS(Int)=  0.00001820
 Iteration 93 RMS(Cart)=  0.00003822 RMS(Int)=  0.00001820
 Iteration 94 RMS(Cart)=  0.00003822 RMS(Int)=  0.00001820
 Iteration 95 RMS(Cart)=  0.00003822 RMS(Int)=  0.00001820
 Iteration 96 RMS(Cart)=  0.00003822 RMS(Int)=  0.00001820
 Iteration 97 RMS(Cart)=  0.00003822 RMS(Int)=  0.00001820
 Iteration 98 RMS(Cart)=  0.00003822 RMS(Int)=  0.00001820
 Iteration 99 RMS(Cart)=  0.00003822 RMS(Int)=  0.00001820
 Iteration100 RMS(Cart)=  0.00003822 RMS(Int)=  0.00001820
 New curvilinear step not converged.
 ITry= 3 IFail=1 DXMaxC= 1.70D-02 DCOld= 1.00D+10 DXMaxT= 5.75D-01 DXLimC= 3.00D+00 Rises=F
 Iteration  1 RMS(Cart)=  0.01203960 RMS(Int)=  0.00005473
 Iteration  2 RMS(Cart)=  0.00006380 RMS(Int)=  0.00001781
 Iteration  3 RMS(Cart)=  0.00003741 RMS(Int)=  0.00001782
 Iteration  4 RMS(Cart)=  0.00003742 RMS(Int)=  0.00001782
 Iteration  5 RMS(Cart)=  0.00003742 RMS(Int)=  0.00001782
 Iteration  6 RMS(Cart)=  0.00003742 RMS(Int)=  0.00001782
 Iteration  7 RMS(Cart)=  0.00003742 RMS(Int)=  0.00001782
 Iteration  8 RMS(Cart)=  0.00003742 RMS(Int)=  0.00001782
 Iteration  9 RMS(Cart)=  0.00003742 RMS(Int)=  0.00001782
 Iteration 10 RMS(Cart)=  0.00003742 RMS(Int)=  0.00001782
 Iteration 11 RMS(Cart)=  0.00003742 RMS(Int)=  0.00001782
 Iteration 12 RMS(Cart)=  0.00003742 RMS(Int)=  0.00001782
 Iteration 13 RMS(Cart)=  0.00003742 RMS(Int)=  0.00001782
 Iteration 14 RMS(Cart)=  0.00003742 RMS(Int)=  0.00001782
 Iteration 15 RMS(Cart)=  0.00003742 RMS(Int)=  0.00001782
 Iteration 16 RMS(Cart)=  0.00003742 RMS(Int)=  0.00001782
 Iteration 17 RMS(Cart)=  0.00003742 RMS(Int)=  0.00001782
 Iteration 18 RMS(Cart)=  0.00003742 RMS(Int)=  0.00001782
 Iteration 19 RMS(Cart)=  0.00003742 RMS(Int)=  0.00001782
 Iteration 20 RMS(Cart)=  0.00003742 RMS(Int)=  0.00001782
 Iteration 21 RMS(Cart)=  0.00003742 RMS(Int)=  0.00001782
 Iteration 22 RMS(Cart)=  0.00003742 RMS(Int)=  0.00001782
 Iteration 23 RMS(Cart)=  0.00003742 RMS(Int)=  0.00001782
 Iteration 24 RMS(Cart)=  0.00003742 RMS(Int)=  0.00001782
 Iteration 25 RMS(Cart)=  0.00003742 RMS(Int)=  0.00001782
 Iteration 26 RMS(Cart)=  0.00003742 RMS(Int)=  0.00001782
 Iteration 27 RMS(Cart)=  0.00003742 RMS(Int)=  0.00001782
 Iteration 28 RMS(Cart)=  0.00003742 RMS(Int)=  0.00001782
 Iteration 29 RMS(Cart)=  0.00003742 RMS(Int)=  0.00001782
 Iteration 30 RMS(Cart)=  0.00003742 RMS(Int)=  0.00001782
 Iteration 31 RMS(Cart)=  0.00003742 RMS(Int)=  0.00001782
 Iteration 32 RMS(Cart)=  0.00003742 RMS(Int)=  0.00001782
 Iteration 33 RMS(Cart)=  0.00003742 RMS(Int)=  0.00001782
 Iteration 34 RMS(Cart)=  0.00003742 RMS(Int)=  0.00001782
 Iteration 35 RMS(Cart)=  0.00003742 RMS(Int)=  0.00001782
 Iteration 36 RMS(Cart)=  0.00003742 RMS(Int)=  0.00001782
 Iteration 37 RMS(Cart)=  0.00003742 RMS(Int)=  0.00001782
 Iteration 38 RMS(Cart)=  0.00003742 RMS(Int)=  0.00001782
 Iteration 39 RMS(Cart)=  0.00003742 RMS(Int)=  0.00001782
 Iteration 40 RMS(Cart)=  0.00003742 RMS(Int)=  0.00001782
 Iteration 41 RMS(Cart)=  0.00003742 RMS(Int)=  0.00001782
 Iteration 42 RMS(Cart)=  0.00003742 RMS(Int)=  0.00001782
 Iteration 43 RMS(Cart)=  0.00003742 RMS(Int)=  0.00001782
 Iteration 44 RMS(Cart)=  0.00003742 RMS(Int)=  0.00001782
 Iteration 45 RMS(Cart)=  0.00003742 RMS(Int)=  0.00001782
 Iteration 46 RMS(Cart)=  0.00003742 RMS(Int)=  0.00001782
 Iteration 47 RMS(Cart)=  0.00003742 RMS(Int)=  0.00001782
 Iteration 48 RMS(Cart)=  0.00003742 RMS(Int)=  0.00001782
 Iteration 49 RMS(Cart)=  0.00003742 RMS(Int)=  0.00001782
 Iteration 50 RMS(Cart)=  0.00003742 RMS(Int)=  0.00001782
 Iteration 51 RMS(Cart)=  0.00003742 RMS(Int)=  0.00001782
 Iteration 52 RMS(Cart)=  0.00003742 RMS(Int)=  0.00001782
 Iteration 53 RMS(Cart)=  0.00003742 RMS(Int)=  0.00001782
 Iteration 54 RMS(Cart)=  0.00003742 RMS(Int)=  0.00001782
 Iteration 55 RMS(Cart)=  0.00003742 RMS(Int)=  0.00001782
 Iteration 56 RMS(Cart)=  0.00003742 RMS(Int)=  0.00001782
 Iteration 57 RMS(Cart)=  0.00003742 RMS(Int)=  0.00001782
 Iteration 58 RMS(Cart)=  0.00003742 RMS(Int)=  0.00001782
 Iteration 59 RMS(Cart)=  0.00003742 RMS(Int)=  0.00001782
 Iteration 60 RMS(Cart)=  0.00003742 RMS(Int)=  0.00001782
 Iteration 61 RMS(Cart)=  0.00003742 RMS(Int)=  0.00001782
 Iteration 62 RMS(Cart)=  0.00003742 RMS(Int)=  0.00001782
 Iteration 63 RMS(Cart)=  0.00003742 RMS(Int)=  0.00001782
 Iteration 64 RMS(Cart)=  0.00003742 RMS(Int)=  0.00001782
 Iteration 65 RMS(Cart)=  0.00003742 RMS(Int)=  0.00001782
 Iteration 66 RMS(Cart)=  0.00003742 RMS(Int)=  0.00001782
 Iteration 67 RMS(Cart)=  0.00003742 RMS(Int)=  0.00001782
 Iteration 68 RMS(Cart)=  0.00003742 RMS(Int)=  0.00001782
 Iteration 69 RMS(Cart)=  0.00003742 RMS(Int)=  0.00001782
 Iteration 70 RMS(Cart)=  0.00003742 RMS(Int)=  0.00001782
 Iteration 71 RMS(Cart)=  0.00003742 RMS(Int)=  0.00001782
 Iteration 72 RMS(Cart)=  0.00003742 RMS(Int)=  0.00001782
 Iteration 73 RMS(Cart)=  0.00003742 RMS(Int)=  0.00001782
 Iteration 74 RMS(Cart)=  0.00003742 RMS(Int)=  0.00001782
 Iteration 75 RMS(Cart)=  0.00003742 RMS(Int)=  0.00001782
 Iteration 76 RMS(Cart)=  0.00003742 RMS(Int)=  0.00001782
 Iteration 77 RMS(Cart)=  0.00003742 RMS(Int)=  0.00001782
 Iteration 78 RMS(Cart)=  0.00003742 RMS(Int)=  0.00001782
 Iteration 79 RMS(Cart)=  0.00003742 RMS(Int)=  0.00001782
 Iteration 80 RMS(Cart)=  0.00003742 RMS(Int)=  0.00001782
 Iteration 81 RMS(Cart)=  0.00003742 RMS(Int)=  0.00001782
 Iteration 82 RMS(Cart)=  0.00003742 RMS(Int)=  0.00001782
 Iteration 83 RMS(Cart)=  0.00003742 RMS(Int)=  0.00001782
 Iteration 84 RMS(Cart)=  0.00003742 RMS(Int)=  0.00001782
 Iteration 85 RMS(Cart)=  0.00003742 RMS(Int)=  0.00001782
 Iteration 86 RMS(Cart)=  0.00003742 RMS(Int)=  0.00001782
 Iteration 87 RMS(Cart)=  0.00003742 RMS(Int)=  0.00001782
 Iteration 88 RMS(Cart)=  0.00003742 RMS(Int)=  0.00001782
 Iteration 89 RMS(Cart)=  0.00003742 RMS(Int)=  0.00001782
 Iteration 90 RMS(Cart)=  0.00003742 RMS(Int)=  0.00001782
 Iteration 91 RMS(Cart)=  0.00003742 RMS(Int)=  0.00001782
 Iteration 92 RMS(Cart)=  0.00003742 RMS(Int)=  0.00001782
 Iteration 93 RMS(Cart)=  0.00003742 RMS(Int)=  0.00001782
 Iteration 94 RMS(Cart)=  0.00003742 RMS(Int)=  0.00001782
 Iteration 95 RMS(Cart)=  0.00003742 RMS(Int)=  0.00001782
 Iteration 96 RMS(Cart)=  0.00003742 RMS(Int)=  0.00001782
 Iteration 97 RMS(Cart)=  0.00003742 RMS(Int)=  0.00001782
 Iteration 98 RMS(Cart)=  0.00003742 RMS(Int)=  0.00001782
 Iteration 99 RMS(Cart)=  0.00003742 RMS(Int)=  0.00001782
 Iteration100 RMS(Cart)=  0.00003742 RMS(Int)=  0.00001782
 New curvilinear step not converged.
 ITry= 4 IFail=1 DXMaxC= 1.70D-02 DCOld= 1.00D+10 DXMaxT= 5.75D-01 DXLimC= 3.00D+00 Rises=F
 Iteration  1 RMS(Cart)=  0.01203927 RMS(Int)=  0.00005460
 Iteration  2 RMS(Cart)=  0.00006331 RMS(Int)=  0.00001743
 Iteration  3 RMS(Cart)=  0.00003661 RMS(Int)=  0.00001744
 Iteration  4 RMS(Cart)=  0.00003662 RMS(Int)=  0.00001744
 Iteration  5 RMS(Cart)=  0.00003662 RMS(Int)=  0.00001744
 Iteration  6 RMS(Cart)=  0.00003662 RMS(Int)=  0.00001744
 Iteration  7 RMS(Cart)=  0.00003662 RMS(Int)=  0.00001744
 Iteration  8 RMS(Cart)=  0.00003662 RMS(Int)=  0.00001744
 Iteration  9 RMS(Cart)=  0.00003662 RMS(Int)=  0.00001744
 Iteration 10 RMS(Cart)=  0.00003662 RMS(Int)=  0.00001744
 Iteration 11 RMS(Cart)=  0.00003662 RMS(Int)=  0.00001744
 Iteration 12 RMS(Cart)=  0.00003662 RMS(Int)=  0.00001744
 Iteration 13 RMS(Cart)=  0.00003662 RMS(Int)=  0.00001744
 Iteration 14 RMS(Cart)=  0.00003662 RMS(Int)=  0.00001744
 Iteration 15 RMS(Cart)=  0.00003662 RMS(Int)=  0.00001744
 Iteration 16 RMS(Cart)=  0.00003662 RMS(Int)=  0.00001744
 Iteration 17 RMS(Cart)=  0.00003662 RMS(Int)=  0.00001744
 Iteration 18 RMS(Cart)=  0.00003662 RMS(Int)=  0.00001744
 Iteration 19 RMS(Cart)=  0.00003662 RMS(Int)=  0.00001744
 Iteration 20 RMS(Cart)=  0.00003662 RMS(Int)=  0.00001744
 Iteration 21 RMS(Cart)=  0.00003662 RMS(Int)=  0.00001744
 Iteration 22 RMS(Cart)=  0.00003662 RMS(Int)=  0.00001744
 Iteration 23 RMS(Cart)=  0.00003662 RMS(Int)=  0.00001744
 Iteration 24 RMS(Cart)=  0.00003662 RMS(Int)=  0.00001744
 Iteration 25 RMS(Cart)=  0.00003662 RMS(Int)=  0.00001744
 Iteration 26 RMS(Cart)=  0.00003662 RMS(Int)=  0.00001744
 Iteration 27 RMS(Cart)=  0.00003662 RMS(Int)=  0.00001744
 Iteration 28 RMS(Cart)=  0.00003662 RMS(Int)=  0.00001744
 Iteration 29 RMS(Cart)=  0.00003662 RMS(Int)=  0.00001744
 Iteration 30 RMS(Cart)=  0.00003662 RMS(Int)=  0.00001744
 Iteration 31 RMS(Cart)=  0.00003662 RMS(Int)=  0.00001744
 Iteration 32 RMS(Cart)=  0.00003662 RMS(Int)=  0.00001744
 Iteration 33 RMS(Cart)=  0.00003662 RMS(Int)=  0.00001744
 Iteration 34 RMS(Cart)=  0.00003662 RMS(Int)=  0.00001744
 Iteration 35 RMS(Cart)=  0.00003662 RMS(Int)=  0.00001744
 Iteration 36 RMS(Cart)=  0.00003662 RMS(Int)=  0.00001744
 Iteration 37 RMS(Cart)=  0.00003662 RMS(Int)=  0.00001744
 Iteration 38 RMS(Cart)=  0.00003662 RMS(Int)=  0.00001744
 Iteration 39 RMS(Cart)=  0.00003662 RMS(Int)=  0.00001744
 Iteration 40 RMS(Cart)=  0.00003662 RMS(Int)=  0.00001744
 Iteration 41 RMS(Cart)=  0.00003662 RMS(Int)=  0.00001744
 Iteration 42 RMS(Cart)=  0.00003662 RMS(Int)=  0.00001744
 Iteration 43 RMS(Cart)=  0.00003662 RMS(Int)=  0.00001744
 Iteration 44 RMS(Cart)=  0.00003662 RMS(Int)=  0.00001744
 Iteration 45 RMS(Cart)=  0.00003662 RMS(Int)=  0.00001744
 Iteration 46 RMS(Cart)=  0.00003662 RMS(Int)=  0.00001744
 Iteration 47 RMS(Cart)=  0.00003662 RMS(Int)=  0.00001744
 Iteration 48 RMS(Cart)=  0.00003662 RMS(Int)=  0.00001744
 Iteration 49 RMS(Cart)=  0.00003662 RMS(Int)=  0.00001744
 Iteration 50 RMS(Cart)=  0.00003662 RMS(Int)=  0.00001744
 Iteration 51 RMS(Cart)=  0.00003662 RMS(Int)=  0.00001744
 Iteration 52 RMS(Cart)=  0.00003662 RMS(Int)=  0.00001744
 Iteration 53 RMS(Cart)=  0.00003662 RMS(Int)=  0.00001744
 Iteration 54 RMS(Cart)=  0.00003662 RMS(Int)=  0.00001744
 Iteration 55 RMS(Cart)=  0.00003662 RMS(Int)=  0.00001744
 Iteration 56 RMS(Cart)=  0.00003662 RMS(Int)=  0.00001744
 Iteration 57 RMS(Cart)=  0.00003662 RMS(Int)=  0.00001744
 Iteration 58 RMS(Cart)=  0.00003662 RMS(Int)=  0.00001744
 Iteration 59 RMS(Cart)=  0.00003662 RMS(Int)=  0.00001744
 Iteration 60 RMS(Cart)=  0.00003662 RMS(Int)=  0.00001744
 Iteration 61 RMS(Cart)=  0.00003662 RMS(Int)=  0.00001744
 Iteration 62 RMS(Cart)=  0.00003662 RMS(Int)=  0.00001744
 Iteration 63 RMS(Cart)=  0.00003662 RMS(Int)=  0.00001744
 Iteration 64 RMS(Cart)=  0.00003662 RMS(Int)=  0.00001744
 Iteration 65 RMS(Cart)=  0.00003662 RMS(Int)=  0.00001744
 Iteration 66 RMS(Cart)=  0.00003662 RMS(Int)=  0.00001744
 Iteration 67 RMS(Cart)=  0.00003662 RMS(Int)=  0.00001744
 Iteration 68 RMS(Cart)=  0.00003662 RMS(Int)=  0.00001744
 Iteration 69 RMS(Cart)=  0.00003662 RMS(Int)=  0.00001744
 Iteration 70 RMS(Cart)=  0.00003662 RMS(Int)=  0.00001744
 Iteration 71 RMS(Cart)=  0.00003662 RMS(Int)=  0.00001744
 Iteration 72 RMS(Cart)=  0.00003662 RMS(Int)=  0.00001744
 Iteration 73 RMS(Cart)=  0.00003662 RMS(Int)=  0.00001744
 Iteration 74 RMS(Cart)=  0.00003662 RMS(Int)=  0.00001744
 Iteration 75 RMS(Cart)=  0.00003662 RMS(Int)=  0.00001744
 Iteration 76 RMS(Cart)=  0.00003662 RMS(Int)=  0.00001744
 Iteration 77 RMS(Cart)=  0.00003662 RMS(Int)=  0.00001744
 Iteration 78 RMS(Cart)=  0.00003662 RMS(Int)=  0.00001744
 Iteration 79 RMS(Cart)=  0.00003662 RMS(Int)=  0.00001744
 Iteration 80 RMS(Cart)=  0.00003662 RMS(Int)=  0.00001744
 Iteration 81 RMS(Cart)=  0.00003662 RMS(Int)=  0.00001744
 Iteration 82 RMS(Cart)=  0.00003662 RMS(Int)=  0.00001744
 Iteration 83 RMS(Cart)=  0.00003662 RMS(Int)=  0.00001744
 Iteration 84 RMS(Cart)=  0.00003662 RMS(Int)=  0.00001744
 Iteration 85 RMS(Cart)=  0.00003662 RMS(Int)=  0.00001744
 Iteration 86 RMS(Cart)=  0.00003662 RMS(Int)=  0.00001744
 Iteration 87 RMS(Cart)=  0.00003662 RMS(Int)=  0.00001744
 Iteration 88 RMS(Cart)=  0.00003662 RMS(Int)=  0.00001744
 Iteration 89 RMS(Cart)=  0.00003662 RMS(Int)=  0.00001744
 Iteration 90 RMS(Cart)=  0.00003662 RMS(Int)=  0.00001744
 Iteration 91 RMS(Cart)=  0.00003662 RMS(Int)=  0.00001744
 Iteration 92 RMS(Cart)=  0.00003662 RMS(Int)=  0.00001744
 Iteration 93 RMS(Cart)=  0.00003662 RMS(Int)=  0.00001744
 Iteration 94 RMS(Cart)=  0.00003662 RMS(Int)=  0.00001744
 Iteration 95 RMS(Cart)=  0.00003662 RMS(Int)=  0.00001744
 Iteration 96 RMS(Cart)=  0.00003662 RMS(Int)=  0.00001744
 Iteration 97 RMS(Cart)=  0.00003662 RMS(Int)=  0.00001744
 Iteration 98 RMS(Cart)=  0.00003662 RMS(Int)=  0.00001744
 Iteration 99 RMS(Cart)=  0.00003662 RMS(Int)=  0.00001744
 Iteration100 RMS(Cart)=  0.00003662 RMS(Int)=  0.00001744
 New curvilinear step not converged.
 ITry= 5 IFail=1 DXMaxC= 1.70D-02 DCOld= 1.00D+10 DXMaxT= 5.75D-01 DXLimC= 3.00D+00 Rises=F
 Iteration  1 RMS(Cart)=  0.01203897 RMS(Int)=  0.00005447
 Iteration  2 RMS(Cart)=  0.00006282 RMS(Int)=  0.00001705
 Iteration  3 RMS(Cart)=  0.00003581 RMS(Int)=  0.00001706
 Iteration  4 RMS(Cart)=  0.00003583 RMS(Int)=  0.00001706
 Iteration  5 RMS(Cart)=  0.00003583 RMS(Int)=  0.00001706
 Iteration  6 RMS(Cart)=  0.00003583 RMS(Int)=  0.00001706
 Iteration  7 RMS(Cart)=  0.00003583 RMS(Int)=  0.00001706
 Iteration  8 RMS(Cart)=  0.00003583 RMS(Int)=  0.00001706
 Iteration  9 RMS(Cart)=  0.00003583 RMS(Int)=  0.00001706
 Iteration 10 RMS(Cart)=  0.00003583 RMS(Int)=  0.00001706
 Iteration 11 RMS(Cart)=  0.00003583 RMS(Int)=  0.00001706
 Iteration 12 RMS(Cart)=  0.00003583 RMS(Int)=  0.00001706
 Iteration 13 RMS(Cart)=  0.00003583 RMS(Int)=  0.00001706
 Iteration 14 RMS(Cart)=  0.00003583 RMS(Int)=  0.00001706
 Iteration 15 RMS(Cart)=  0.00003583 RMS(Int)=  0.00001706
 Iteration 16 RMS(Cart)=  0.00003583 RMS(Int)=  0.00001706
 Iteration 17 RMS(Cart)=  0.00003583 RMS(Int)=  0.00001706
 Iteration 18 RMS(Cart)=  0.00003583 RMS(Int)=  0.00001706
 Iteration 19 RMS(Cart)=  0.00003583 RMS(Int)=  0.00001706
 Iteration 20 RMS(Cart)=  0.00003583 RMS(Int)=  0.00001706
 Iteration 21 RMS(Cart)=  0.00003583 RMS(Int)=  0.00001706
 Iteration 22 RMS(Cart)=  0.00003583 RMS(Int)=  0.00001706
 Iteration 23 RMS(Cart)=  0.00003583 RMS(Int)=  0.00001706
 Iteration 24 RMS(Cart)=  0.00003583 RMS(Int)=  0.00001706
 Iteration 25 RMS(Cart)=  0.00003583 RMS(Int)=  0.00001706
 Iteration 26 RMS(Cart)=  0.00003583 RMS(Int)=  0.00001706
 Iteration 27 RMS(Cart)=  0.00003583 RMS(Int)=  0.00001706
 Iteration 28 RMS(Cart)=  0.00003583 RMS(Int)=  0.00001706
 Iteration 29 RMS(Cart)=  0.00003583 RMS(Int)=  0.00001706
 Iteration 30 RMS(Cart)=  0.00003583 RMS(Int)=  0.00001706
 Iteration 31 RMS(Cart)=  0.00003583 RMS(Int)=  0.00001706
 Iteration 32 RMS(Cart)=  0.00003583 RMS(Int)=  0.00001706
 Iteration 33 RMS(Cart)=  0.00003583 RMS(Int)=  0.00001706
 Iteration 34 RMS(Cart)=  0.00003583 RMS(Int)=  0.00001706
 Iteration 35 RMS(Cart)=  0.00003583 RMS(Int)=  0.00001706
 Iteration 36 RMS(Cart)=  0.00003583 RMS(Int)=  0.00001706
 Iteration 37 RMS(Cart)=  0.00003583 RMS(Int)=  0.00001706
 Iteration 38 RMS(Cart)=  0.00003583 RMS(Int)=  0.00001706
 Iteration 39 RMS(Cart)=  0.00003583 RMS(Int)=  0.00001706
 Iteration 40 RMS(Cart)=  0.00003583 RMS(Int)=  0.00001706
 Iteration 41 RMS(Cart)=  0.00003583 RMS(Int)=  0.00001706
 Iteration 42 RMS(Cart)=  0.00003583 RMS(Int)=  0.00001706
 Iteration 43 RMS(Cart)=  0.00003583 RMS(Int)=  0.00001706
 Iteration 44 RMS(Cart)=  0.00003583 RMS(Int)=  0.00001706
 Iteration 45 RMS(Cart)=  0.00003583 RMS(Int)=  0.00001706
 Iteration 46 RMS(Cart)=  0.00003583 RMS(Int)=  0.00001706
 Iteration 47 RMS(Cart)=  0.00003583 RMS(Int)=  0.00001706
 Iteration 48 RMS(Cart)=  0.00003583 RMS(Int)=  0.00001706
 Iteration 49 RMS(Cart)=  0.00003583 RMS(Int)=  0.00001706
 Iteration 50 RMS(Cart)=  0.00003583 RMS(Int)=  0.00001706
 Iteration 51 RMS(Cart)=  0.00003583 RMS(Int)=  0.00001706
 Iteration 52 RMS(Cart)=  0.00003583 RMS(Int)=  0.00001706
 Iteration 53 RMS(Cart)=  0.00003583 RMS(Int)=  0.00001706
 Iteration 54 RMS(Cart)=  0.00003583 RMS(Int)=  0.00001706
 Iteration 55 RMS(Cart)=  0.00003583 RMS(Int)=  0.00001706
 Iteration 56 RMS(Cart)=  0.00003583 RMS(Int)=  0.00001706
 Iteration 57 RMS(Cart)=  0.00003583 RMS(Int)=  0.00001706
 Iteration 58 RMS(Cart)=  0.00003583 RMS(Int)=  0.00001706
 Iteration 59 RMS(Cart)=  0.00003583 RMS(Int)=  0.00001706
 Iteration 60 RMS(Cart)=  0.00003583 RMS(Int)=  0.00001706
 Iteration 61 RMS(Cart)=  0.00003583 RMS(Int)=  0.00001706
 Iteration 62 RMS(Cart)=  0.00003583 RMS(Int)=  0.00001706
 Iteration 63 RMS(Cart)=  0.00003583 RMS(Int)=  0.00001706
 Iteration 64 RMS(Cart)=  0.00003583 RMS(Int)=  0.00001706
 Iteration 65 RMS(Cart)=  0.00003583 RMS(Int)=  0.00001706
 Iteration 66 RMS(Cart)=  0.00003583 RMS(Int)=  0.00001706
 Iteration 67 RMS(Cart)=  0.00003583 RMS(Int)=  0.00001706
 Iteration 68 RMS(Cart)=  0.00003583 RMS(Int)=  0.00001706
 Iteration 69 RMS(Cart)=  0.00003583 RMS(Int)=  0.00001706
 Iteration 70 RMS(Cart)=  0.00003583 RMS(Int)=  0.00001706
 Iteration 71 RMS(Cart)=  0.00003583 RMS(Int)=  0.00001706
 Iteration 72 RMS(Cart)=  0.00003583 RMS(Int)=  0.00001706
 Iteration 73 RMS(Cart)=  0.00003583 RMS(Int)=  0.00001706
 Iteration 74 RMS(Cart)=  0.00003583 RMS(Int)=  0.00001706
 Iteration 75 RMS(Cart)=  0.00003583 RMS(Int)=  0.00001706
 Iteration 76 RMS(Cart)=  0.00003583 RMS(Int)=  0.00001706
 Iteration 77 RMS(Cart)=  0.00003583 RMS(Int)=  0.00001706
 Iteration 78 RMS(Cart)=  0.00003583 RMS(Int)=  0.00001706
 Iteration 79 RMS(Cart)=  0.00003583 RMS(Int)=  0.00001706
 Iteration 80 RMS(Cart)=  0.00003583 RMS(Int)=  0.00001706
 Iteration 81 RMS(Cart)=  0.00003583 RMS(Int)=  0.00001706
 Iteration 82 RMS(Cart)=  0.00003583 RMS(Int)=  0.00001706
 Iteration 83 RMS(Cart)=  0.00003583 RMS(Int)=  0.00001706
 Iteration 84 RMS(Cart)=  0.00003583 RMS(Int)=  0.00001706
 Iteration 85 RMS(Cart)=  0.00003583 RMS(Int)=  0.00001706
 Iteration 86 RMS(Cart)=  0.00003583 RMS(Int)=  0.00001706
 Iteration 87 RMS(Cart)=  0.00003583 RMS(Int)=  0.00001706
 Iteration 88 RMS(Cart)=  0.00003583 RMS(Int)=  0.00001706
 Iteration 89 RMS(Cart)=  0.00003583 RMS(Int)=  0.00001706
 Iteration 90 RMS(Cart)=  0.00003583 RMS(Int)=  0.00001706
 Iteration 91 RMS(Cart)=  0.00003583 RMS(Int)=  0.00001706
 Iteration 92 RMS(Cart)=  0.00003583 RMS(Int)=  0.00001706
 Iteration 93 RMS(Cart)=  0.00003583 RMS(Int)=  0.00001706
 Iteration 94 RMS(Cart)=  0.00003583 RMS(Int)=  0.00001706
 Iteration 95 RMS(Cart)=  0.00003583 RMS(Int)=  0.00001706
 Iteration 96 RMS(Cart)=  0.00003583 RMS(Int)=  0.00001706
 Iteration 97 RMS(Cart)=  0.00003583 RMS(Int)=  0.00001706
 Iteration 98 RMS(Cart)=  0.00003583 RMS(Int)=  0.00001706
 Iteration 99 RMS(Cart)=  0.00003583 RMS(Int)=  0.00001706
 Iteration100 RMS(Cart)=  0.00003583 RMS(Int)=  0.00001706
 New curvilinear step not converged.
 ITry= 6 IFail=1 DXMaxC= 1.70D-02 DCOld= 1.00D+10 DXMaxT= 5.75D-01 DXLimC= 3.00D+00 Rises=F
 Iteration  1 RMS(Cart)=  0.01203867 RMS(Int)=  0.00005434
 Iteration  2 RMS(Cart)=  0.00006235 RMS(Int)=  0.00001667
 Iteration  3 RMS(Cart)=  0.00003501 RMS(Int)=  0.00001668
 Iteration  4 RMS(Cart)=  0.00003503 RMS(Int)=  0.00001668
 Iteration  5 RMS(Cart)=  0.00003503 RMS(Int)=  0.00001668
 Iteration  6 RMS(Cart)=  0.00003503 RMS(Int)=  0.00001668
 Iteration  7 RMS(Cart)=  0.00003503 RMS(Int)=  0.00001668
 Iteration  8 RMS(Cart)=  0.00003503 RMS(Int)=  0.00001668
 Iteration  9 RMS(Cart)=  0.00003503 RMS(Int)=  0.00001668
 Iteration 10 RMS(Cart)=  0.00003503 RMS(Int)=  0.00001668
 Iteration 11 RMS(Cart)=  0.00003503 RMS(Int)=  0.00001668
 Iteration 12 RMS(Cart)=  0.00003503 RMS(Int)=  0.00001668
 Iteration 13 RMS(Cart)=  0.00003503 RMS(Int)=  0.00001668
 Iteration 14 RMS(Cart)=  0.00003503 RMS(Int)=  0.00001668
 Iteration 15 RMS(Cart)=  0.00003503 RMS(Int)=  0.00001668
 Iteration 16 RMS(Cart)=  0.00003503 RMS(Int)=  0.00001668
 Iteration 17 RMS(Cart)=  0.00003503 RMS(Int)=  0.00001668
 Iteration 18 RMS(Cart)=  0.00003503 RMS(Int)=  0.00001668
 Iteration 19 RMS(Cart)=  0.00003503 RMS(Int)=  0.00001668
 Iteration 20 RMS(Cart)=  0.00003503 RMS(Int)=  0.00001668
 Iteration 21 RMS(Cart)=  0.00003503 RMS(Int)=  0.00001668
 Iteration 22 RMS(Cart)=  0.00003503 RMS(Int)=  0.00001668
 Iteration 23 RMS(Cart)=  0.00003503 RMS(Int)=  0.00001668
 Iteration 24 RMS(Cart)=  0.00003503 RMS(Int)=  0.00001668
 Iteration 25 RMS(Cart)=  0.00003503 RMS(Int)=  0.00001668
 Iteration 26 RMS(Cart)=  0.00003503 RMS(Int)=  0.00001668
 Iteration 27 RMS(Cart)=  0.00003503 RMS(Int)=  0.00001668
 Iteration 28 RMS(Cart)=  0.00003503 RMS(Int)=  0.00001668
 Iteration 29 RMS(Cart)=  0.00003503 RMS(Int)=  0.00001668
 Iteration 30 RMS(Cart)=  0.00003503 RMS(Int)=  0.00001668
 Iteration 31 RMS(Cart)=  0.00003503 RMS(Int)=  0.00001668
 Iteration 32 RMS(Cart)=  0.00003503 RMS(Int)=  0.00001668
 Iteration 33 RMS(Cart)=  0.00003503 RMS(Int)=  0.00001668
 Iteration 34 RMS(Cart)=  0.00003503 RMS(Int)=  0.00001668
 Iteration 35 RMS(Cart)=  0.00003503 RMS(Int)=  0.00001668
 Iteration 36 RMS(Cart)=  0.00003503 RMS(Int)=  0.00001668
 Iteration 37 RMS(Cart)=  0.00003503 RMS(Int)=  0.00001668
 Iteration 38 RMS(Cart)=  0.00003503 RMS(Int)=  0.00001668
 Iteration 39 RMS(Cart)=  0.00003503 RMS(Int)=  0.00001668
 Iteration 40 RMS(Cart)=  0.00003503 RMS(Int)=  0.00001668
 Iteration 41 RMS(Cart)=  0.00003503 RMS(Int)=  0.00001668
 Iteration 42 RMS(Cart)=  0.00003503 RMS(Int)=  0.00001668
 Iteration 43 RMS(Cart)=  0.00003503 RMS(Int)=  0.00001668
 Iteration 44 RMS(Cart)=  0.00003503 RMS(Int)=  0.00001668
 Iteration 45 RMS(Cart)=  0.00003503 RMS(Int)=  0.00001668
 Iteration 46 RMS(Cart)=  0.00003503 RMS(Int)=  0.00001668
 Iteration 47 RMS(Cart)=  0.00003503 RMS(Int)=  0.00001668
 Iteration 48 RMS(Cart)=  0.00003503 RMS(Int)=  0.00001668
 Iteration 49 RMS(Cart)=  0.00003503 RMS(Int)=  0.00001668
 Iteration 50 RMS(Cart)=  0.00003503 RMS(Int)=  0.00001668
 Iteration 51 RMS(Cart)=  0.00003503 RMS(Int)=  0.00001668
 Iteration 52 RMS(Cart)=  0.00003503 RMS(Int)=  0.00001668
 Iteration 53 RMS(Cart)=  0.00003503 RMS(Int)=  0.00001668
 Iteration 54 RMS(Cart)=  0.00003503 RMS(Int)=  0.00001668
 Iteration 55 RMS(Cart)=  0.00003503 RMS(Int)=  0.00001668
 Iteration 56 RMS(Cart)=  0.00003503 RMS(Int)=  0.00001668
 Iteration 57 RMS(Cart)=  0.00003503 RMS(Int)=  0.00001668
 Iteration 58 RMS(Cart)=  0.00003503 RMS(Int)=  0.00001668
 Iteration 59 RMS(Cart)=  0.00003503 RMS(Int)=  0.00001668
 Iteration 60 RMS(Cart)=  0.00003503 RMS(Int)=  0.00001668
 Iteration 61 RMS(Cart)=  0.00003503 RMS(Int)=  0.00001668
 Iteration 62 RMS(Cart)=  0.00003503 RMS(Int)=  0.00001668
 Iteration 63 RMS(Cart)=  0.00003503 RMS(Int)=  0.00001668
 Iteration 64 RMS(Cart)=  0.00003503 RMS(Int)=  0.00001668
 Iteration 65 RMS(Cart)=  0.00003503 RMS(Int)=  0.00001668
 Iteration 66 RMS(Cart)=  0.00003503 RMS(Int)=  0.00001668
 Iteration 67 RMS(Cart)=  0.00003503 RMS(Int)=  0.00001668
 Iteration 68 RMS(Cart)=  0.00003503 RMS(Int)=  0.00001668
 Iteration 69 RMS(Cart)=  0.00003503 RMS(Int)=  0.00001668
 Iteration 70 RMS(Cart)=  0.00003503 RMS(Int)=  0.00001668
 Iteration 71 RMS(Cart)=  0.00003503 RMS(Int)=  0.00001668
 Iteration 72 RMS(Cart)=  0.00003503 RMS(Int)=  0.00001668
 Iteration 73 RMS(Cart)=  0.00003503 RMS(Int)=  0.00001668
 Iteration 74 RMS(Cart)=  0.00003503 RMS(Int)=  0.00001668
 Iteration 75 RMS(Cart)=  0.00003503 RMS(Int)=  0.00001668
 Iteration 76 RMS(Cart)=  0.00003503 RMS(Int)=  0.00001668
 Iteration 77 RMS(Cart)=  0.00003503 RMS(Int)=  0.00001668
 Iteration 78 RMS(Cart)=  0.00003503 RMS(Int)=  0.00001668
 Iteration 79 RMS(Cart)=  0.00003503 RMS(Int)=  0.00001668
 Iteration 80 RMS(Cart)=  0.00003503 RMS(Int)=  0.00001668
 Iteration 81 RMS(Cart)=  0.00003503 RMS(Int)=  0.00001668
 Iteration 82 RMS(Cart)=  0.00003503 RMS(Int)=  0.00001668
 Iteration 83 RMS(Cart)=  0.00003503 RMS(Int)=  0.00001668
 Iteration 84 RMS(Cart)=  0.00003503 RMS(Int)=  0.00001668
 Iteration 85 RMS(Cart)=  0.00003503 RMS(Int)=  0.00001668
 Iteration 86 RMS(Cart)=  0.00003503 RMS(Int)=  0.00001668
 Iteration 87 RMS(Cart)=  0.00003503 RMS(Int)=  0.00001668
 Iteration 88 RMS(Cart)=  0.00003503 RMS(Int)=  0.00001668
 Iteration 89 RMS(Cart)=  0.00003503 RMS(Int)=  0.00001668
 Iteration 90 RMS(Cart)=  0.00003503 RMS(Int)=  0.00001668
 Iteration 91 RMS(Cart)=  0.00003503 RMS(Int)=  0.00001668
 Iteration 92 RMS(Cart)=  0.00003503 RMS(Int)=  0.00001668
 Iteration 93 RMS(Cart)=  0.00003503 RMS(Int)=  0.00001668
 Iteration 94 RMS(Cart)=  0.00003503 RMS(Int)=  0.00001668
 Iteration 95 RMS(Cart)=  0.00003503 RMS(Int)=  0.00001668
 Iteration 96 RMS(Cart)=  0.00003503 RMS(Int)=  0.00001668
 Iteration 97 RMS(Cart)=  0.00003503 RMS(Int)=  0.00001668
 Iteration 98 RMS(Cart)=  0.00003503 RMS(Int)=  0.00001668
 Iteration 99 RMS(Cart)=  0.00003503 RMS(Int)=  0.00001668
 Iteration100 RMS(Cart)=  0.00003503 RMS(Int)=  0.00001668
 New curvilinear step not converged.
 ITry= 7 IFail=1 DXMaxC= 1.70D-02 DCOld= 1.00D+10 DXMaxT= 5.75D-01 DXLimC= 3.00D+00 Rises=F
 Iteration  1 RMS(Cart)=  0.01203839 RMS(Int)=  0.00005422
 Iteration  2 RMS(Cart)=  0.00006188 RMS(Int)=  0.00001629
 Iteration  3 RMS(Cart)=  0.00003421 RMS(Int)=  0.00001630
 Iteration  4 RMS(Cart)=  0.00003424 RMS(Int)=  0.00001630
 Iteration  5 RMS(Cart)=  0.00003424 RMS(Int)=  0.00001630
 Iteration  6 RMS(Cart)=  0.00003424 RMS(Int)=  0.00001630
 Iteration  7 RMS(Cart)=  0.00003424 RMS(Int)=  0.00001630
 Iteration  8 RMS(Cart)=  0.00003424 RMS(Int)=  0.00001630
 Iteration  9 RMS(Cart)=  0.00003424 RMS(Int)=  0.00001630
 Iteration 10 RMS(Cart)=  0.00003424 RMS(Int)=  0.00001630
 Iteration 11 RMS(Cart)=  0.00003424 RMS(Int)=  0.00001630
 Iteration 12 RMS(Cart)=  0.00003424 RMS(Int)=  0.00001630
 Iteration 13 RMS(Cart)=  0.00003424 RMS(Int)=  0.00001630
 Iteration 14 RMS(Cart)=  0.00003424 RMS(Int)=  0.00001630
 Iteration 15 RMS(Cart)=  0.00003424 RMS(Int)=  0.00001630
 Iteration 16 RMS(Cart)=  0.00003424 RMS(Int)=  0.00001630
 Iteration 17 RMS(Cart)=  0.00003424 RMS(Int)=  0.00001630
 Iteration 18 RMS(Cart)=  0.00003424 RMS(Int)=  0.00001630
 Iteration 19 RMS(Cart)=  0.00003424 RMS(Int)=  0.00001630
 Iteration 20 RMS(Cart)=  0.00003424 RMS(Int)=  0.00001630
 Iteration 21 RMS(Cart)=  0.00003424 RMS(Int)=  0.00001630
 Iteration 22 RMS(Cart)=  0.00003424 RMS(Int)=  0.00001630
 Iteration 23 RMS(Cart)=  0.00003424 RMS(Int)=  0.00001630
 Iteration 24 RMS(Cart)=  0.00003424 RMS(Int)=  0.00001630
 Iteration 25 RMS(Cart)=  0.00003424 RMS(Int)=  0.00001630
 Iteration 26 RMS(Cart)=  0.00003424 RMS(Int)=  0.00001630
 Iteration 27 RMS(Cart)=  0.00003424 RMS(Int)=  0.00001630
 Iteration 28 RMS(Cart)=  0.00003424 RMS(Int)=  0.00001630
 Iteration 29 RMS(Cart)=  0.00003424 RMS(Int)=  0.00001630
 Iteration 30 RMS(Cart)=  0.00003424 RMS(Int)=  0.00001630
 Iteration 31 RMS(Cart)=  0.00003424 RMS(Int)=  0.00001630
 Iteration 32 RMS(Cart)=  0.00003424 RMS(Int)=  0.00001630
 Iteration 33 RMS(Cart)=  0.00003424 RMS(Int)=  0.00001630
 Iteration 34 RMS(Cart)=  0.00003424 RMS(Int)=  0.00001630
 Iteration 35 RMS(Cart)=  0.00003424 RMS(Int)=  0.00001630
 Iteration 36 RMS(Cart)=  0.00003424 RMS(Int)=  0.00001630
 Iteration 37 RMS(Cart)=  0.00003424 RMS(Int)=  0.00001630
 Iteration 38 RMS(Cart)=  0.00003424 RMS(Int)=  0.00001630
 Iteration 39 RMS(Cart)=  0.00003424 RMS(Int)=  0.00001630
 Iteration 40 RMS(Cart)=  0.00003424 RMS(Int)=  0.00001630
 Iteration 41 RMS(Cart)=  0.00003424 RMS(Int)=  0.00001630
 Iteration 42 RMS(Cart)=  0.00003424 RMS(Int)=  0.00001630
 Iteration 43 RMS(Cart)=  0.00003424 RMS(Int)=  0.00001630
 Iteration 44 RMS(Cart)=  0.00003424 RMS(Int)=  0.00001630
 Iteration 45 RMS(Cart)=  0.00003424 RMS(Int)=  0.00001630
 Iteration 46 RMS(Cart)=  0.00003424 RMS(Int)=  0.00001630
 Iteration 47 RMS(Cart)=  0.00003424 RMS(Int)=  0.00001630
 Iteration 48 RMS(Cart)=  0.00003424 RMS(Int)=  0.00001630
 Iteration 49 RMS(Cart)=  0.00003424 RMS(Int)=  0.00001630
 Iteration 50 RMS(Cart)=  0.00003424 RMS(Int)=  0.00001630
 Iteration 51 RMS(Cart)=  0.00003424 RMS(Int)=  0.00001630
 Iteration 52 RMS(Cart)=  0.00003424 RMS(Int)=  0.00001630
 Iteration 53 RMS(Cart)=  0.00003424 RMS(Int)=  0.00001630
 Iteration 54 RMS(Cart)=  0.00003424 RMS(Int)=  0.00001630
 Iteration 55 RMS(Cart)=  0.00003424 RMS(Int)=  0.00001630
 Iteration 56 RMS(Cart)=  0.00003424 RMS(Int)=  0.00001630
 Iteration 57 RMS(Cart)=  0.00003424 RMS(Int)=  0.00001630
 Iteration 58 RMS(Cart)=  0.00003424 RMS(Int)=  0.00001630
 Iteration 59 RMS(Cart)=  0.00003424 RMS(Int)=  0.00001630
 Iteration 60 RMS(Cart)=  0.00003424 RMS(Int)=  0.00001630
 Iteration 61 RMS(Cart)=  0.00003424 RMS(Int)=  0.00001630
 Iteration 62 RMS(Cart)=  0.00003424 RMS(Int)=  0.00001630
 Iteration 63 RMS(Cart)=  0.00003424 RMS(Int)=  0.00001630
 Iteration 64 RMS(Cart)=  0.00003424 RMS(Int)=  0.00001630
 Iteration 65 RMS(Cart)=  0.00003424 RMS(Int)=  0.00001630
 Iteration 66 RMS(Cart)=  0.00003424 RMS(Int)=  0.00001630
 Iteration 67 RMS(Cart)=  0.00003424 RMS(Int)=  0.00001630
 Iteration 68 RMS(Cart)=  0.00003424 RMS(Int)=  0.00001630
 Iteration 69 RMS(Cart)=  0.00003424 RMS(Int)=  0.00001630
 Iteration 70 RMS(Cart)=  0.00003424 RMS(Int)=  0.00001630
 Iteration 71 RMS(Cart)=  0.00003424 RMS(Int)=  0.00001630
 Iteration 72 RMS(Cart)=  0.00003424 RMS(Int)=  0.00001630
 Iteration 73 RMS(Cart)=  0.00003424 RMS(Int)=  0.00001630
 Iteration 74 RMS(Cart)=  0.00003424 RMS(Int)=  0.00001630
 Iteration 75 RMS(Cart)=  0.00003424 RMS(Int)=  0.00001630
 Iteration 76 RMS(Cart)=  0.00003424 RMS(Int)=  0.00001630
 Iteration 77 RMS(Cart)=  0.00003424 RMS(Int)=  0.00001630
 Iteration 78 RMS(Cart)=  0.00003424 RMS(Int)=  0.00001630
 Iteration 79 RMS(Cart)=  0.00003424 RMS(Int)=  0.00001630
 Iteration 80 RMS(Cart)=  0.00003424 RMS(Int)=  0.00001630
 Iteration 81 RMS(Cart)=  0.00003424 RMS(Int)=  0.00001630
 Iteration 82 RMS(Cart)=  0.00003424 RMS(Int)=  0.00001630
 Iteration 83 RMS(Cart)=  0.00003424 RMS(Int)=  0.00001630
 Iteration 84 RMS(Cart)=  0.00003424 RMS(Int)=  0.00001630
 Iteration 85 RMS(Cart)=  0.00003424 RMS(Int)=  0.00001630
 Iteration 86 RMS(Cart)=  0.00003424 RMS(Int)=  0.00001630
 Iteration 87 RMS(Cart)=  0.00003424 RMS(Int)=  0.00001630
 Iteration 88 RMS(Cart)=  0.00003424 RMS(Int)=  0.00001630
 Iteration 89 RMS(Cart)=  0.00003424 RMS(Int)=  0.00001630
 Iteration 90 RMS(Cart)=  0.00003424 RMS(Int)=  0.00001630
 Iteration 91 RMS(Cart)=  0.00003424 RMS(Int)=  0.00001630
 Iteration 92 RMS(Cart)=  0.00003424 RMS(Int)=  0.00001630
 Iteration 93 RMS(Cart)=  0.00003424 RMS(Int)=  0.00001630
 Iteration 94 RMS(Cart)=  0.00003424 RMS(Int)=  0.00001630
 Iteration 95 RMS(Cart)=  0.00003424 RMS(Int)=  0.00001630
 Iteration 96 RMS(Cart)=  0.00003424 RMS(Int)=  0.00001630
 Iteration 97 RMS(Cart)=  0.00003424 RMS(Int)=  0.00001630
 Iteration 98 RMS(Cart)=  0.00003424 RMS(Int)=  0.00001630
 Iteration 99 RMS(Cart)=  0.00003424 RMS(Int)=  0.00001630
 Iteration100 RMS(Cart)=  0.00003424 RMS(Int)=  0.00001630
 New curvilinear step not converged.
 ITry= 8 IFail=1 DXMaxC= 1.70D-02 DCOld= 1.00D+10 DXMaxT= 5.75D-01 DXLimC= 3.00D+00 Rises=F
 Iteration  1 RMS(Cart)=  0.01203812 RMS(Int)=  0.00005410
 Iteration  2 RMS(Cart)=  0.00006142 RMS(Int)=  0.00001591
 Iteration  3 RMS(Cart)=  0.00003342 RMS(Int)=  0.00001592
 Iteration  4 RMS(Cart)=  0.00003344 RMS(Int)=  0.00001592
 Iteration  5 RMS(Cart)=  0.00003344 RMS(Int)=  0.00001592
 Iteration  6 RMS(Cart)=  0.00003344 RMS(Int)=  0.00001592
 Iteration  7 RMS(Cart)=  0.00003344 RMS(Int)=  0.00001592
 Iteration  8 RMS(Cart)=  0.00003344 RMS(Int)=  0.00001592
 Iteration  9 RMS(Cart)=  0.00003344 RMS(Int)=  0.00001592
 Iteration 10 RMS(Cart)=  0.00003344 RMS(Int)=  0.00001592
 Iteration 11 RMS(Cart)=  0.00003344 RMS(Int)=  0.00001592
 Iteration 12 RMS(Cart)=  0.00003344 RMS(Int)=  0.00001592
 Iteration 13 RMS(Cart)=  0.00003344 RMS(Int)=  0.00001592
 Iteration 14 RMS(Cart)=  0.00003344 RMS(Int)=  0.00001592
 Iteration 15 RMS(Cart)=  0.00003344 RMS(Int)=  0.00001592
 Iteration 16 RMS(Cart)=  0.00003344 RMS(Int)=  0.00001592
 Iteration 17 RMS(Cart)=  0.00003344 RMS(Int)=  0.00001592
 Iteration 18 RMS(Cart)=  0.00003344 RMS(Int)=  0.00001592
 Iteration 19 RMS(Cart)=  0.00003344 RMS(Int)=  0.00001592
 Iteration 20 RMS(Cart)=  0.00003344 RMS(Int)=  0.00001592
 Iteration 21 RMS(Cart)=  0.00003344 RMS(Int)=  0.00001592
 Iteration 22 RMS(Cart)=  0.00003344 RMS(Int)=  0.00001592
 Iteration 23 RMS(Cart)=  0.00003344 RMS(Int)=  0.00001592
 Iteration 24 RMS(Cart)=  0.00003344 RMS(Int)=  0.00001592
 Iteration 25 RMS(Cart)=  0.00003344 RMS(Int)=  0.00001592
 Iteration 26 RMS(Cart)=  0.00003344 RMS(Int)=  0.00001592
 Iteration 27 RMS(Cart)=  0.00003344 RMS(Int)=  0.00001592
 Iteration 28 RMS(Cart)=  0.00003344 RMS(Int)=  0.00001592
 Iteration 29 RMS(Cart)=  0.00003344 RMS(Int)=  0.00001592
 Iteration 30 RMS(Cart)=  0.00003344 RMS(Int)=  0.00001592
 Iteration 31 RMS(Cart)=  0.00003344 RMS(Int)=  0.00001592
 Iteration 32 RMS(Cart)=  0.00003344 RMS(Int)=  0.00001592
 Iteration 33 RMS(Cart)=  0.00003344 RMS(Int)=  0.00001592
 Iteration 34 RMS(Cart)=  0.00003344 RMS(Int)=  0.00001592
 Iteration 35 RMS(Cart)=  0.00003344 RMS(Int)=  0.00001592
 Iteration 36 RMS(Cart)=  0.00003344 RMS(Int)=  0.00001592
 Iteration 37 RMS(Cart)=  0.00003344 RMS(Int)=  0.00001592
 Iteration 38 RMS(Cart)=  0.00003344 RMS(Int)=  0.00001592
 Iteration 39 RMS(Cart)=  0.00003344 RMS(Int)=  0.00001592
 Iteration 40 RMS(Cart)=  0.00003344 RMS(Int)=  0.00001592
 Iteration 41 RMS(Cart)=  0.00003344 RMS(Int)=  0.00001592
 Iteration 42 RMS(Cart)=  0.00003344 RMS(Int)=  0.00001592
 Iteration 43 RMS(Cart)=  0.00003344 RMS(Int)=  0.00001592
 Iteration 44 RMS(Cart)=  0.00003344 RMS(Int)=  0.00001592
 Iteration 45 RMS(Cart)=  0.00003344 RMS(Int)=  0.00001592
 Iteration 46 RMS(Cart)=  0.00003344 RMS(Int)=  0.00001592
 Iteration 47 RMS(Cart)=  0.00003344 RMS(Int)=  0.00001592
 Iteration 48 RMS(Cart)=  0.00003344 RMS(Int)=  0.00001592
 Iteration 49 RMS(Cart)=  0.00003344 RMS(Int)=  0.00001592
 Iteration 50 RMS(Cart)=  0.00003344 RMS(Int)=  0.00001592
 Iteration 51 RMS(Cart)=  0.00003344 RMS(Int)=  0.00001592
 Iteration 52 RMS(Cart)=  0.00003344 RMS(Int)=  0.00001592
 Iteration 53 RMS(Cart)=  0.00003344 RMS(Int)=  0.00001592
 Iteration 54 RMS(Cart)=  0.00003344 RMS(Int)=  0.00001592
 Iteration 55 RMS(Cart)=  0.00003344 RMS(Int)=  0.00001592
 Iteration 56 RMS(Cart)=  0.00003344 RMS(Int)=  0.00001592
 Iteration 57 RMS(Cart)=  0.00003344 RMS(Int)=  0.00001592
 Iteration 58 RMS(Cart)=  0.00003344 RMS(Int)=  0.00001592
 Iteration 59 RMS(Cart)=  0.00003344 RMS(Int)=  0.00001592
 Iteration 60 RMS(Cart)=  0.00003344 RMS(Int)=  0.00001592
 Iteration 61 RMS(Cart)=  0.00003344 RMS(Int)=  0.00001592
 Iteration 62 RMS(Cart)=  0.00003344 RMS(Int)=  0.00001592
 Iteration 63 RMS(Cart)=  0.00003344 RMS(Int)=  0.00001592
 Iteration 64 RMS(Cart)=  0.00003344 RMS(Int)=  0.00001592
 Iteration 65 RMS(Cart)=  0.00003344 RMS(Int)=  0.00001592
 Iteration 66 RMS(Cart)=  0.00003344 RMS(Int)=  0.00001592
 Iteration 67 RMS(Cart)=  0.00003344 RMS(Int)=  0.00001592
 Iteration 68 RMS(Cart)=  0.00003344 RMS(Int)=  0.00001592
 Iteration 69 RMS(Cart)=  0.00003344 RMS(Int)=  0.00001592
 Iteration 70 RMS(Cart)=  0.00003344 RMS(Int)=  0.00001592
 Iteration 71 RMS(Cart)=  0.00003344 RMS(Int)=  0.00001592
 Iteration 72 RMS(Cart)=  0.00003344 RMS(Int)=  0.00001592
 Iteration 73 RMS(Cart)=  0.00003344 RMS(Int)=  0.00001592
 Iteration 74 RMS(Cart)=  0.00003344 RMS(Int)=  0.00001592
 Iteration 75 RMS(Cart)=  0.00003344 RMS(Int)=  0.00001592
 Iteration 76 RMS(Cart)=  0.00003344 RMS(Int)=  0.00001592
 Iteration 77 RMS(Cart)=  0.00003344 RMS(Int)=  0.00001592
 Iteration 78 RMS(Cart)=  0.00003344 RMS(Int)=  0.00001592
 Iteration 79 RMS(Cart)=  0.00003344 RMS(Int)=  0.00001592
 Iteration 80 RMS(Cart)=  0.00003344 RMS(Int)=  0.00001592
 Iteration 81 RMS(Cart)=  0.00003344 RMS(Int)=  0.00001592
 Iteration 82 RMS(Cart)=  0.00003344 RMS(Int)=  0.00001592
 Iteration 83 RMS(Cart)=  0.00003344 RMS(Int)=  0.00001592
 Iteration 84 RMS(Cart)=  0.00003344 RMS(Int)=  0.00001592
 Iteration 85 RMS(Cart)=  0.00003344 RMS(Int)=  0.00001592
 Iteration 86 RMS(Cart)=  0.00003344 RMS(Int)=  0.00001592
 Iteration 87 RMS(Cart)=  0.00003344 RMS(Int)=  0.00001592
 Iteration 88 RMS(Cart)=  0.00003344 RMS(Int)=  0.00001592
 Iteration 89 RMS(Cart)=  0.00003344 RMS(Int)=  0.00001592
 Iteration 90 RMS(Cart)=  0.00003344 RMS(Int)=  0.00001592
 Iteration 91 RMS(Cart)=  0.00003344 RMS(Int)=  0.00001592
 Iteration 92 RMS(Cart)=  0.00003344 RMS(Int)=  0.00001592
 Iteration 93 RMS(Cart)=  0.00003344 RMS(Int)=  0.00001592
 Iteration 94 RMS(Cart)=  0.00003344 RMS(Int)=  0.00001592
 Iteration 95 RMS(Cart)=  0.00003344 RMS(Int)=  0.00001592
 Iteration 96 RMS(Cart)=  0.00003344 RMS(Int)=  0.00001592
 Iteration 97 RMS(Cart)=  0.00003344 RMS(Int)=  0.00001592
 Iteration 98 RMS(Cart)=  0.00003344 RMS(Int)=  0.00001592
 Iteration 99 RMS(Cart)=  0.00003344 RMS(Int)=  0.00001592
 Iteration100 RMS(Cart)=  0.00003344 RMS(Int)=  0.00001592
 New curvilinear step not converged.
 ITry= 9 IFail=1 DXMaxC= 1.70D-02 DCOld= 1.00D+10 DXMaxT= 5.75D-01 DXLimC= 3.00D+00 Rises=F
 Iteration  1 RMS(Cart)=  0.01203786 RMS(Int)=  0.00005398
 Iteration  2 RMS(Cart)=  0.00006096 RMS(Int)=  0.00001553
 Iteration  3 RMS(Cart)=  0.00003262 RMS(Int)=  0.00001554
 Iteration  4 RMS(Cart)=  0.00003264 RMS(Int)=  0.00001554
 Iteration  5 RMS(Cart)=  0.00003264 RMS(Int)=  0.00001554
 Iteration  6 RMS(Cart)=  0.00003264 RMS(Int)=  0.00001554
 Iteration  7 RMS(Cart)=  0.00003264 RMS(Int)=  0.00001554
 Iteration  8 RMS(Cart)=  0.00003264 RMS(Int)=  0.00001554
 Iteration  9 RMS(Cart)=  0.00003264 RMS(Int)=  0.00001554
 Iteration 10 RMS(Cart)=  0.00003264 RMS(Int)=  0.00001554
 Iteration 11 RMS(Cart)=  0.00003264 RMS(Int)=  0.00001554
 Iteration 12 RMS(Cart)=  0.00003264 RMS(Int)=  0.00001554
 Iteration 13 RMS(Cart)=  0.00003264 RMS(Int)=  0.00001554
 Iteration 14 RMS(Cart)=  0.00003264 RMS(Int)=  0.00001554
 Iteration 15 RMS(Cart)=  0.00003264 RMS(Int)=  0.00001554
 Iteration 16 RMS(Cart)=  0.00003264 RMS(Int)=  0.00001554
 Iteration 17 RMS(Cart)=  0.00003264 RMS(Int)=  0.00001554
 Iteration 18 RMS(Cart)=  0.00003264 RMS(Int)=  0.00001554
 Iteration 19 RMS(Cart)=  0.00003264 RMS(Int)=  0.00001554
 Iteration 20 RMS(Cart)=  0.00003264 RMS(Int)=  0.00001554
 Iteration 21 RMS(Cart)=  0.00003264 RMS(Int)=  0.00001554
 Iteration 22 RMS(Cart)=  0.00003264 RMS(Int)=  0.00001554
 Iteration 23 RMS(Cart)=  0.00003264 RMS(Int)=  0.00001554
 Iteration 24 RMS(Cart)=  0.00003264 RMS(Int)=  0.00001554
 Iteration 25 RMS(Cart)=  0.00003264 RMS(Int)=  0.00001554
 Iteration 26 RMS(Cart)=  0.00003264 RMS(Int)=  0.00001554
 Iteration 27 RMS(Cart)=  0.00003264 RMS(Int)=  0.00001554
 Iteration 28 RMS(Cart)=  0.00003264 RMS(Int)=  0.00001554
 Iteration 29 RMS(Cart)=  0.00003264 RMS(Int)=  0.00001554
 Iteration 30 RMS(Cart)=  0.00003264 RMS(Int)=  0.00001554
 Iteration 31 RMS(Cart)=  0.00003264 RMS(Int)=  0.00001554
 Iteration 32 RMS(Cart)=  0.00003264 RMS(Int)=  0.00001554
 Iteration 33 RMS(Cart)=  0.00003264 RMS(Int)=  0.00001554
 Iteration 34 RMS(Cart)=  0.00003264 RMS(Int)=  0.00001554
 Iteration 35 RMS(Cart)=  0.00003264 RMS(Int)=  0.00001554
 Iteration 36 RMS(Cart)=  0.00003264 RMS(Int)=  0.00001554
 Iteration 37 RMS(Cart)=  0.00003264 RMS(Int)=  0.00001554
 Iteration 38 RMS(Cart)=  0.00003264 RMS(Int)=  0.00001554
 Iteration 39 RMS(Cart)=  0.00003264 RMS(Int)=  0.00001554
 Iteration 40 RMS(Cart)=  0.00003264 RMS(Int)=  0.00001554
 Iteration 41 RMS(Cart)=  0.00003264 RMS(Int)=  0.00001554
 Iteration 42 RMS(Cart)=  0.00003264 RMS(Int)=  0.00001554
 Iteration 43 RMS(Cart)=  0.00003264 RMS(Int)=  0.00001554
 Iteration 44 RMS(Cart)=  0.00003264 RMS(Int)=  0.00001554
 Iteration 45 RMS(Cart)=  0.00003264 RMS(Int)=  0.00001554
 Iteration 46 RMS(Cart)=  0.00003264 RMS(Int)=  0.00001554
 Iteration 47 RMS(Cart)=  0.00003264 RMS(Int)=  0.00001554
 Iteration 48 RMS(Cart)=  0.00003264 RMS(Int)=  0.00001554
 Iteration 49 RMS(Cart)=  0.00003264 RMS(Int)=  0.00001554
 Iteration 50 RMS(Cart)=  0.00003264 RMS(Int)=  0.00001554
 Iteration 51 RMS(Cart)=  0.00003264 RMS(Int)=  0.00001554
 Iteration 52 RMS(Cart)=  0.00003264 RMS(Int)=  0.00001554
 Iteration 53 RMS(Cart)=  0.00003264 RMS(Int)=  0.00001554
 Iteration 54 RMS(Cart)=  0.00003264 RMS(Int)=  0.00001554
 Iteration 55 RMS(Cart)=  0.00003264 RMS(Int)=  0.00001554
 Iteration 56 RMS(Cart)=  0.00003264 RMS(Int)=  0.00001554
 Iteration 57 RMS(Cart)=  0.00003264 RMS(Int)=  0.00001554
 Iteration 58 RMS(Cart)=  0.00003264 RMS(Int)=  0.00001554
 Iteration 59 RMS(Cart)=  0.00003264 RMS(Int)=  0.00001554
 Iteration 60 RMS(Cart)=  0.00003264 RMS(Int)=  0.00001554
 Iteration 61 RMS(Cart)=  0.00003264 RMS(Int)=  0.00001554
 Iteration 62 RMS(Cart)=  0.00003264 RMS(Int)=  0.00001554
 Iteration 63 RMS(Cart)=  0.00003264 RMS(Int)=  0.00001554
 Iteration 64 RMS(Cart)=  0.00003264 RMS(Int)=  0.00001554
 Iteration 65 RMS(Cart)=  0.00003264 RMS(Int)=  0.00001554
 Iteration 66 RMS(Cart)=  0.00003264 RMS(Int)=  0.00001554
 Iteration 67 RMS(Cart)=  0.00003264 RMS(Int)=  0.00001554
 Iteration 68 RMS(Cart)=  0.00003264 RMS(Int)=  0.00001554
 Iteration 69 RMS(Cart)=  0.00003264 RMS(Int)=  0.00001554
 Iteration 70 RMS(Cart)=  0.00003264 RMS(Int)=  0.00001554
 Iteration 71 RMS(Cart)=  0.00003264 RMS(Int)=  0.00001554
 Iteration 72 RMS(Cart)=  0.00003264 RMS(Int)=  0.00001554
 Iteration 73 RMS(Cart)=  0.00003264 RMS(Int)=  0.00001554
 Iteration 74 RMS(Cart)=  0.00003264 RMS(Int)=  0.00001554
 Iteration 75 RMS(Cart)=  0.00003264 RMS(Int)=  0.00001554
 Iteration 76 RMS(Cart)=  0.00003264 RMS(Int)=  0.00001554
 Iteration 77 RMS(Cart)=  0.00003264 RMS(Int)=  0.00001554
 Iteration 78 RMS(Cart)=  0.00003264 RMS(Int)=  0.00001554
 Iteration 79 RMS(Cart)=  0.00003264 RMS(Int)=  0.00001554
 Iteration 80 RMS(Cart)=  0.00003264 RMS(Int)=  0.00001554
 Iteration 81 RMS(Cart)=  0.00003264 RMS(Int)=  0.00001554
 Iteration 82 RMS(Cart)=  0.00003264 RMS(Int)=  0.00001554
 Iteration 83 RMS(Cart)=  0.00003264 RMS(Int)=  0.00001554
 Iteration 84 RMS(Cart)=  0.00003264 RMS(Int)=  0.00001554
 Iteration 85 RMS(Cart)=  0.00003264 RMS(Int)=  0.00001554
 Iteration 86 RMS(Cart)=  0.00003264 RMS(Int)=  0.00001554
 Iteration 87 RMS(Cart)=  0.00003264 RMS(Int)=  0.00001554
 Iteration 88 RMS(Cart)=  0.00003264 RMS(Int)=  0.00001554
 Iteration 89 RMS(Cart)=  0.00003264 RMS(Int)=  0.00001554
 Iteration 90 RMS(Cart)=  0.00003264 RMS(Int)=  0.00001554
 Iteration 91 RMS(Cart)=  0.00003264 RMS(Int)=  0.00001554
 Iteration 92 RMS(Cart)=  0.00003264 RMS(Int)=  0.00001554
 Iteration 93 RMS(Cart)=  0.00003264 RMS(Int)=  0.00001554
 Iteration 94 RMS(Cart)=  0.00003264 RMS(Int)=  0.00001554
 Iteration 95 RMS(Cart)=  0.00003264 RMS(Int)=  0.00001554
 Iteration 96 RMS(Cart)=  0.00003264 RMS(Int)=  0.00001554
 Iteration 97 RMS(Cart)=  0.00003264 RMS(Int)=  0.00001554
 Iteration 98 RMS(Cart)=  0.00003264 RMS(Int)=  0.00001554
 Iteration 99 RMS(Cart)=  0.00003264 RMS(Int)=  0.00001554
 Iteration100 RMS(Cart)=  0.00003264 RMS(Int)=  0.00001554
 New curvilinear step not converged.
 ITry=10 IFail=1 DXMaxC= 1.70D-02 DCOld= 1.00D+10 DXMaxT= 5.75D-01 DXLimC= 3.00D+00 Rises=F
 RedQX1 iteration     1 Try  1 RMS(Cart)=  0.00240813 RMS(Int)=  0.00458643 XScale=  5.00005112
 RedQX1 iteration     1 Try  2 RMS(Cart)=  0.00240813 RMS(Int)=  0.00343987 XScale=  2.50004257
 RedQX1 iteration     1 Try  3 RMS(Cart)=  0.00240812 RMS(Int)=  0.00229337 XScale=  1.66670093
 RedQX1 iteration     1 Try  4 RMS(Cart)=  0.00240811 RMS(Int)=  0.00114697 XScale=  1.25002616
 RedQX1 iteration     1 Try  5 RMS(Cart)=  0.00240815 RMS(Int)=  0.00002660 XScale=  1.00334187
 RedQX1 iteration     1 Try  6 RMS(Cart)=  0.00004392 RMS(Int)=  0.00003800 XScale=  1.00667215
 RedQX1 iteration     2 Try  1 RMS(Cart)=  0.00001596 RMS(Int)=  0.00004560 XScale=  1.00801729
 RedQX1 iteration     2 Try  2 RMS(Cart)=  0.00002394 RMS(Int)=  0.00005700 XScale=  1.01004176
 RedQX1 iteration     2 Try  3 RMS(Cart)=  0.00003990 RMS(Int)=  0.00007600 XScale=  1.01343402
 RedQX1 iteration     2 Try  4 RMS(Cart)=  0.00007980 RMS(Int)=  0.00011400 XScale=  1.02028738
 RedQX1 iteration     2 Try  5 RMS(Cart)=  0.00023941 RMS(Int)=  0.00022799 XScale=  1.04141521
 RedQX1 iteration     2 Try  6 RMS(Cart)=  0.00047883 RMS(Int)=  0.00045599 XScale=  1.08640967
 RedQX1 iteration     3 Try  1 RMS(Cart)=  0.00019153 RMS(Int)=  0.00054719 XScale=  1.10551534
 RedQX1 iteration     3 Try  2 RMS(Cart)=  0.00028730 RMS(Int)=  0.00068398 XScale=  1.13546806
 RedQX1 iteration     3 Try  3 RMS(Cart)=  0.00047883 RMS(Int)=  0.00091198 XScale=  1.18916686
 RedQX1 iteration     3 Try  4 RMS(Cart)=  0.00095766 RMS(Int)=  0.00136799 XScale=  1.31339410
 RedQX1 iteration     3 Try  5 RMS(Cart)=  0.00287300 RMS(Int)=  0.00273603 XScale=  1.91288750
 RedQX1 iteration     3 Try  6 RMS(Cart)=  0.00574600 RMS(Int)=  0.00547227 XScale= 21.67328892
 RedQX1 iteration     4 Try  1 RMS(Cart)=  0.00229839 RMS(Int)=  0.00656680 XScale=  6.86101740
 RedQX1 iteration     4 Try  2 RMS(Cart)=  0.00344758 RMS(Int)=  0.00820869 XScale=  2.31474314
 RedQX1 iteration     4 Try  3 RMS(Cart)=  0.00574594 RMS(Int)=  0.01094540 XScale=  1.09964983
 RedQX1 iteration     4 Try  4 RMS(Cart)=  0.01149177 RMS(Int)=  0.01641999 XScale=  0.53636217
 RedQX1 iteration     5 Try  1 RMS(Cart)=  0.00459671 RMS(Int)=  0.01313497 XScale=  0.77439408
 RedQX1 iteration     6 Try  1 RMS(Cart)=  0.00091934 RMS(Int)=  0.01138329 XScale=  1.01444130
 RedQX1 iteration     6 Try  2 RMS(Cart)=  0.00099595 RMS(Int)=  0.01185768 XScale=  0.93587751
 RedQX1 iteration     7 Try  1 RMS(Cart)=  0.00095611 RMS(Int)=  0.01183870 XScale=  0.93878576
 RedQX1 iteration     8 Try  1 RMS(Cart)=  0.00019122 RMS(Int)=  0.01147437 XScale=  0.99835043
 RedQX1 iteration     9 Try  1 RMS(Cart)=  0.00003824 RMS(Int)=  0.01140151 XScale=  1.01118177
 RedQX1 iteration     9 Try  2 RMS(Cart)=  0.00003837 RMS(Int)=  0.01141978 XScale=  1.00793278
 RedQX1 iteration     9 Try  3 RMS(Cart)=  0.00003849 RMS(Int)=  0.01143811 XScale=  1.00469426
 RedQX1 iteration     9 Try  4 RMS(Cart)=  0.00003861 RMS(Int)=  0.01145651 XScale=  1.00146617
 RedQX1 iteration     9 Try  5 RMS(Cart)=  0.00003874 RMS(Int)=  0.01147496 XScale=  0.99824846
 RedQX1 iteration    10 Try  1 RMS(Cart)=  0.00003849 RMS(Int)=  0.01147484 XScale=  0.99826899
 RedQX1 iteration    11 Try  1 RMS(Cart)=  0.00000770 RMS(Int)=  0.01146017 XScale=  1.00082510
 RedQX1 iteration    11 Try  2 RMS(Cart)=  0.00000770 RMS(Int)=  0.01146384 XScale=  1.00018443
 RedQX1 iteration    11 Try  3 RMS(Cart)=  0.00000771 RMS(Int)=  0.01146751 XScale=  0.99954418
 RedQX1 iteration    11 Try  4 RMS(Cart)=  0.00000771 RMS(Int)=  0.01147119 XScale=  0.99890434
 RedQX1 iteration    12 Try  1 RMS(Cart)=  0.00000771 RMS(Int)=  0.01147118 XScale=  0.99890495
 RedQX1 iteration    13 Try  1 RMS(Cart)=  0.00000154 RMS(Int)=  0.01146825 XScale=  0.99941627
 RedQX1 iteration    13 Try  2 RMS(Cart)=  0.00000154 RMS(Int)=  0.01146898 XScale=  0.99928837
 RedQX1 iteration    13 Try  3 RMS(Cart)=  0.00000154 RMS(Int)=  0.01146972 XScale=  0.99916050
 RedQX1 iteration    13 Try  4 RMS(Cart)=  0.00000154 RMS(Int)=  0.01147045 XScale=  0.99903263
 RedQX1 iteration    13 Try  5 RMS(Cart)=  0.00000154 RMS(Int)=  0.01147118 XScale=  0.99890479
 RedQX1 iteration    14 Try  1 RMS(Cart)=  0.00000154 RMS(Int)=  0.01147118 XScale=  0.99890482
 RedQX1 iteration    15 Try  1 RMS(Cart)=  0.00000031 RMS(Int)=  0.01147060 XScale=  0.99900707
 RedQX1 iteration    15 Try  2 RMS(Cart)=  0.00000031 RMS(Int)=  0.01147074 XScale=  0.99898150
 RedQX1 iteration    16 Try  1 RMS(Cart)=  0.00000031 RMS(Int)=  0.01147074 XScale=  0.99898150
 RedQX1 iteration    17 Try  1 RMS(Cart)=  0.00000006 RMS(Int)=  0.01147063 XScale=  0.99900196
 ClnCor:  largest displacement from symmetrization is 3.41D-13 for atom     1.
 B after Tr=     0.000000   39.684249   38.806782
         Rot=    0.000000    1.000000   -0.000000    0.000000 Ang= 180.00 deg.
 Variable       Old X    -DE/DX   Delta X   Delta X   Delta X     New X
                                 (Linear)    (Quad)   (Total)
    R1        5.14458  -0.00000   0.00010  -0.00016   0.00025   5.14483
    R2        5.14458  -0.00000   0.00010  -0.00016   0.00025   5.14483
    A1        3.13168   0.00001   0.00993   0.00000  -0.00993   3.12175
         Item               Value     Threshold  Converged?
 Maximum Force            0.000010     0.000450     YES
 RMS     Force            0.000006     0.000300     YES
 Maximum Displacement     0.017036     0.001800     NO 
 RMS     Displacement     0.012046     0.001200     NO 
 Predicted change in Energy=-1.546418D-07
 GradGradGradGradGradGradGradGradGradGradGradGradGradGradGradGradGradGrad

                          Input orientation:                          
 ---------------------------------------------------------------------
 Center     Atomic      Atomic             Coordinates (Angstroms)
 Number     Number       Type             X           Y           Z
 ---------------------------------------------------------------------
      1         16           0       10.500000   10.500000   10.285843
      2         19           0        7.777607   10.500000   10.258827
      3         19           0       13.222393   10.500000   10.258827
 ---------------------------------------------------------------------
                    Distance matrix (angstroms):
                    1          2          3
     1  S    0.000000
     2  K    2.722527   0.000000
     3  K    2.722527   5.444786   0.000000
 Stoichiometry    K2S
 Framework group  C2V[C2(S),SGV(K2)]
 Deg. of freedom     2
 Full point group                 C2V     NOp   4
 Largest Abelian subgroup         C2V     NOp   4
 Largest concise Abelian subgroup C2      NOp   2
                         Standard orientation:                         
 ---------------------------------------------------------------------
 Center     Atomic      Atomic             Coordinates (Angstroms)
 Number     Number       Type             X           Y           Z
 ---------------------------------------------------------------------
      1         16           0        0.000000    0.000000    0.019011
      2         19           0       -0.000000    2.722393   -0.008005
      3         19           0       -0.000000   -2.722393   -0.008005
 ---------------------------------------------------------------------
 Rotational constants (GHZ):       30542.6768828           0.8750347           0.8750096
 Standard basis: def2QZVPP (5D, 7F)
 There are    96 symmetry adapted cartesian basis functions of A1  symmetry.
 There are    35 symmetry adapted cartesian basis functions of A2  symmetry.
 There are    45 symmetry adapted cartesian basis functions of B1  symmetry.
 There are    76 symmetry adapted cartesian basis functions of B2  symmetry.
 There are    77 symmetry adapted basis functions of A1  symmetry.
 There are    31 symmetry adapted basis functions of A2  symmetry.
 There are    39 symmetry adapted basis functions of B1  symmetry.
 There are    63 symmetry adapted basis functions of B2  symmetry.
   210 basis functions,   385 primitive gaussians,   252 cartesian basis functions
    27 alpha electrons       27 beta electrons
       nuclear repulsion energy       153.2623629937 Hartrees.
 NAtoms=    3 NActive=    3 NUniq=    2 SFac= 2.25D+00 NAtFMM=   60 NAOKFM=F Big=F
 Integral buffers will be    131072 words long.
 Raffenetti 2 integral format.
 Two-electron integral symmetry is turned on.
 One-electron integrals computed using PRISM.
   4 Symmetry operations used in ECPInt.
 ECPInt:  NShTT=    2485 NPrTT=   10021 LenC2=    2319 LenP2D=    7244.
 LDataN:  DoStor=T MaxTD1= 8 Len=  415
 NBasis=   210 RedAO= T EigKep=  7.54D-04  NBF=    77    31    39    63
 NBsUse=   210 1.00D-06 EigRej= -1.00D+00 NBFU=    77    31    39    63
 Initial guess from the checkpoint file:  "/data/hutter/SMG16/TPSS/Gau-56371.chk"
 B after Tr=     0.000000    0.000000   -0.000000
         Rot=    1.000000   -0.000000    0.000000    0.000000 Ang=   0.00 deg.
 Initial guess orbital symmetries:
       Occupied  (B2) (A1) (A1) (B2) (A1) (A1) (B1) (B2) (A2) (A1)
                 (B2) (A1) (B2) (A1) (B1) (A1) (B2) (A1) (B1) (B2)
                 (A2) (A1) (B2) (A1) (B2) (A1) (B1)
       Virtual   (A1) (B2) (A1) (B1) (A2) (B2) (A1) (B2) (A1) (B2)
                 (B1) (A1) (A2) (B2) (A1) (A1) (B1) (B2) (A2) (B2)
                 (A2) (B2) (A1) (B1) (A1) (B2) (A1) (B2) (A2) (B2)
                 (A1) (B1) (A1) (B1) (B1) (A1) (A2) (B2) (A2) (B2)
                 (A1) (A1) (B1) (A1) (B2) (A1) (B1) (B2) (A2) (B2)
                 (A2) (A1) (B1) (B2) (A2) (B2) (A1) (B1) (A1) (A1)
                 (B1) (B2) (A1) (A2) (B2) (B2) (A1) (A1) (B1) (B2)
                 (A2) (B2) (A1) (A1) (B1) (B2) (A2) (B1) (A1) (A2)
                 (B2) (B2) (A1) (A1) (A1) (B1) (B1) (A1) (B1) (A1)
                 (B2) (A2) (B2) (A2) (B2) (A1) (B1) (B2) (A1) (B2)
                 (A1) (B1) (A1) (A2) (B2) (B1) (A1) (A2) (B2) (A2)
                 (B2) (A1) (B1) (A1) (B2) (A1) (B1) (A1) (B1) (A1)
                 (A2) (B2) (A2) (B2) (B1) (A1) (B2) (A2) (B2) (A1)
                 (B2) (A2) (A1) (B1) (B1) (A1) (A2) (B2) (A1) (B1)
                 (B2) (A2) (A1) (B1) (A1) (B2) (B1) (A1) (B2) (A1)
                 (B2) (A1) (B1) (A1) (A2) (B2) (B1) (A1) (A2) (B2)
                 (A2) (B2) (A1) (B1) (A1) (B2) (A1) (B1) (A2) (B2)
                 (A1) (A1) (B2) (A1) (B1) (A1) (B2) (A1) (B2) (A1)
                 (A1) (B2) (A1)
 Keep J ints in memory in symmetry-blocked form, NReq=307684869.
 Requested convergence on RMS density matrix=1.00D-08 within 128 cycles.
 Requested convergence on MAX density matrix=1.00D-06.
 Requested convergence on             energy=1.00D-06.
 No special actions if energy rises.
 SCF Done:  E(RTPSS-TPSS) =  -1598.20844432     A.U. after    7 cycles
            NFock=  7  Conv=0.92D-08     -V/T= 2.0018
   4 Symmetry operations used in ECPInt.
 ECPInt:  NShTT=    2485 NPrTT=   10021 LenC2=    2319 LenP2D=    7244.
 LDataN:  DoStor=T MaxTD1= 9 Len=  602
 Calling FoFJK, ICntrl=      2527 FMM=F ISym2X=1 I1Cent= 0 IOpClX= 0 NMat=1 NMatS=1 NMatT=0.
 ***** Axes restored to original set *****
 -------------------------------------------------------------------
 Center     Atomic                   Forces (Hartrees/Bohr)
 Number     Number              X              Y              Z
 -------------------------------------------------------------------
      1       16           0.000000000   -0.000000000   -0.000008091
      2       19           0.000015056   -0.000000000    0.000004045
      3       19          -0.000015056    0.000000000    0.000004045
 -------------------------------------------------------------------
 Cartesian Forces:  Max     0.000015056 RMS     0.000007829

 GradGradGradGradGradGradGradGradGradGradGradGradGradGradGradGradGradGrad
 Berny optimization.
 Using GEDIIS/GDIIS optimizer.
 FormGI is forming the generalized inverse of G from B-inverse, IUseBI=4.
 Internal  Forces:  Max     0.000020043 RMS     0.000016906
 Search for a local minimum.
 Step number  12 out of a maximum of   20
 All quantities printed in internal units (Hartrees-Bohrs-Radians)
 Mixed Optimization -- En-DIIS/RFO-DIIS
 Swapping is turned off.
 Update second derivatives using D2CorX and points    9   10   11   12
 DE=  1.54D-07 DEPred=-1.55D-07 R=-9.97D-01
 Trust test=-9.97D-01 RLast= 9.94D-03 DXMaxT set to 2.87D-01
 The second derivative matrix:
                          R1        R2        A1
           R1           0.04616
           R2           0.00750   0.04616
           A1           0.00008   0.00008   0.00101
 ITU= -1 -1  0  1
     Eigenvalues ---    0.00101   0.03867   0.05366
 En-DIIS/RFO-DIIS/Sim-DIIS IScMMF=       -3 using points:    12   11   10    9
 RFO step:  Lambda=-4.09310183D-07.
 DIIS inversion failure, remove point   4.
 DIIS inversion failure, remove point   3.
 RFO-DIIS uses    2 points instead of    4
 DidBck=T Rises=F RFO-DIIS coefs:   -1.00775    2.00775    0.00000    0.00000
 Iteration  1 RMS(Cart)=  0.02419760 RMS(Int)=  0.00024303
 Iteration  2 RMS(Cart)=  0.00033380 RMS(Int)=  0.00012359
 Iteration  3 RMS(Cart)=  0.00025957 RMS(Int)=  0.00012358
 Iteration  4 RMS(Cart)=  0.00025956 RMS(Int)=  0.00012358
 Iteration  5 RMS(Cart)=  0.00025956 RMS(Int)=  0.00012358
 Iteration  6 RMS(Cart)=  0.00025956 RMS(Int)=  0.00012358
 Iteration  7 RMS(Cart)=  0.00025956 RMS(Int)=  0.00012358
 Iteration  8 RMS(Cart)=  0.00025956 RMS(Int)=  0.00012358
 Iteration  9 RMS(Cart)=  0.00025956 RMS(Int)=  0.00012358
 Iteration 10 RMS(Cart)=  0.00025956 RMS(Int)=  0.00012358
 Iteration 11 RMS(Cart)=  0.00025956 RMS(Int)=  0.00012358
 Iteration 12 RMS(Cart)=  0.00025956 RMS(Int)=  0.00012358
 Iteration 13 RMS(Cart)=  0.00025956 RMS(Int)=  0.00012358
 Iteration 14 RMS(Cart)=  0.00025956 RMS(Int)=  0.00012358
 Iteration 15 RMS(Cart)=  0.00025956 RMS(Int)=  0.00012358
 Iteration 16 RMS(Cart)=  0.00025956 RMS(Int)=  0.00012358
 Iteration 17 RMS(Cart)=  0.00025956 RMS(Int)=  0.00012358
 Iteration 18 RMS(Cart)=  0.00025956 RMS(Int)=  0.00012358
 Iteration 19 RMS(Cart)=  0.00025956 RMS(Int)=  0.00012358
 Iteration 20 RMS(Cart)=  0.00025956 RMS(Int)=  0.00012358
 Iteration 21 RMS(Cart)=  0.00025956 RMS(Int)=  0.00012358
 Iteration 22 RMS(Cart)=  0.00025956 RMS(Int)=  0.00012358
 Iteration 23 RMS(Cart)=  0.00025956 RMS(Int)=  0.00012358
 Iteration 24 RMS(Cart)=  0.00025956 RMS(Int)=  0.00012358
 Iteration 25 RMS(Cart)=  0.00025956 RMS(Int)=  0.00012358
 Iteration 26 RMS(Cart)=  0.00025956 RMS(Int)=  0.00012358
 Iteration 27 RMS(Cart)=  0.00025956 RMS(Int)=  0.00012358
 Iteration 28 RMS(Cart)=  0.00025956 RMS(Int)=  0.00012358
 Iteration 29 RMS(Cart)=  0.00025956 RMS(Int)=  0.00012358
 Iteration 30 RMS(Cart)=  0.00025956 RMS(Int)=  0.00012358
 Iteration 31 RMS(Cart)=  0.00025956 RMS(Int)=  0.00012358
 Iteration 32 RMS(Cart)=  0.00025956 RMS(Int)=  0.00012358
 Iteration 33 RMS(Cart)=  0.00025956 RMS(Int)=  0.00012358
 Iteration 34 RMS(Cart)=  0.00025956 RMS(Int)=  0.00012358
 Iteration 35 RMS(Cart)=  0.00025956 RMS(Int)=  0.00012358
 Iteration 36 RMS(Cart)=  0.00025956 RMS(Int)=  0.00012358
 Iteration 37 RMS(Cart)=  0.00025956 RMS(Int)=  0.00012358
 Iteration 38 RMS(Cart)=  0.00025956 RMS(Int)=  0.00012358
 Iteration 39 RMS(Cart)=  0.00025956 RMS(Int)=  0.00012358
 Iteration 40 RMS(Cart)=  0.00025956 RMS(Int)=  0.00012358
 Iteration 41 RMS(Cart)=  0.00025956 RMS(Int)=  0.00012358
 Iteration 42 RMS(Cart)=  0.00025956 RMS(Int)=  0.00012358
 Iteration 43 RMS(Cart)=  0.00025956 RMS(Int)=  0.00012358
 Iteration 44 RMS(Cart)=  0.00025956 RMS(Int)=  0.00012358
 Iteration 45 RMS(Cart)=  0.00025956 RMS(Int)=  0.00012358
 Iteration 46 RMS(Cart)=  0.00025956 RMS(Int)=  0.00012358
 Iteration 47 RMS(Cart)=  0.00025956 RMS(Int)=  0.00012358
 Iteration 48 RMS(Cart)=  0.00025956 RMS(Int)=  0.00012358
 Iteration 49 RMS(Cart)=  0.00025956 RMS(Int)=  0.00012358
 Iteration 50 RMS(Cart)=  0.00025956 RMS(Int)=  0.00012358
 Iteration 51 RMS(Cart)=  0.00025956 RMS(Int)=  0.00012358
 Iteration 52 RMS(Cart)=  0.00025956 RMS(Int)=  0.00012358
 Iteration 53 RMS(Cart)=  0.00025956 RMS(Int)=  0.00012358
 Iteration 54 RMS(Cart)=  0.00025956 RMS(Int)=  0.00012358
 Iteration 55 RMS(Cart)=  0.00025956 RMS(Int)=  0.00012358
 Iteration 56 RMS(Cart)=  0.00025956 RMS(Int)=  0.00012358
 Iteration 57 RMS(Cart)=  0.00025956 RMS(Int)=  0.00012358
 Iteration 58 RMS(Cart)=  0.00025956 RMS(Int)=  0.00012358
 Iteration 59 RMS(Cart)=  0.00025956 RMS(Int)=  0.00012358
 Iteration 60 RMS(Cart)=  0.00025956 RMS(Int)=  0.00012358
 Iteration 61 RMS(Cart)=  0.00025956 RMS(Int)=  0.00012358
 Iteration 62 RMS(Cart)=  0.00025956 RMS(Int)=  0.00012358
 Iteration 63 RMS(Cart)=  0.00025956 RMS(Int)=  0.00012358
 Iteration 64 RMS(Cart)=  0.00025956 RMS(Int)=  0.00012358
 Iteration 65 RMS(Cart)=  0.00025956 RMS(Int)=  0.00012358
 Iteration 66 RMS(Cart)=  0.00025956 RMS(Int)=  0.00012358
 Iteration 67 RMS(Cart)=  0.00025956 RMS(Int)=  0.00012358
 Iteration 68 RMS(Cart)=  0.00025956 RMS(Int)=  0.00012358
 Iteration 69 RMS(Cart)=  0.00025956 RMS(Int)=  0.00012358
 Iteration 70 RMS(Cart)=  0.00025956 RMS(Int)=  0.00012358
 Iteration 71 RMS(Cart)=  0.00025956 RMS(Int)=  0.00012358
 Iteration 72 RMS(Cart)=  0.00025956 RMS(Int)=  0.00012358
 Iteration 73 RMS(Cart)=  0.00025956 RMS(Int)=  0.00012358
 Iteration 74 RMS(Cart)=  0.00025956 RMS(Int)=  0.00012358
 Iteration 75 RMS(Cart)=  0.00025956 RMS(Int)=  0.00012358
 Iteration 76 RMS(Cart)=  0.00025956 RMS(Int)=  0.00012358
 Iteration 77 RMS(Cart)=  0.00025956 RMS(Int)=  0.00012358
 Iteration 78 RMS(Cart)=  0.00025956 RMS(Int)=  0.00012358
 Iteration 79 RMS(Cart)=  0.00025956 RMS(Int)=  0.00012358
 Iteration 80 RMS(Cart)=  0.00025956 RMS(Int)=  0.00012358
 Iteration 81 RMS(Cart)=  0.00025956 RMS(Int)=  0.00012358
 Iteration 82 RMS(Cart)=  0.00025956 RMS(Int)=  0.00012358
 Iteration 83 RMS(Cart)=  0.00025956 RMS(Int)=  0.00012358
 Iteration 84 RMS(Cart)=  0.00025956 RMS(Int)=  0.00012358
 Iteration 85 RMS(Cart)=  0.00025956 RMS(Int)=  0.00012358
 Iteration 86 RMS(Cart)=  0.00025956 RMS(Int)=  0.00012358
 Iteration 87 RMS(Cart)=  0.00025956 RMS(Int)=  0.00012358
 Iteration 88 RMS(Cart)=  0.00025956 RMS(Int)=  0.00012358
 Iteration 89 RMS(Cart)=  0.00025956 RMS(Int)=  0.00012358
 Iteration 90 RMS(Cart)=  0.00025956 RMS(Int)=  0.00012358
 Iteration 91 RMS(Cart)=  0.00025956 RMS(Int)=  0.00012358
 Iteration 92 RMS(Cart)=  0.00025956 RMS(Int)=  0.00012358
 Iteration 93 RMS(Cart)=  0.00025956 RMS(Int)=  0.00012358
 Iteration 94 RMS(Cart)=  0.00025956 RMS(Int)=  0.00012358
 Iteration 95 RMS(Cart)=  0.00025956 RMS(Int)=  0.00012358
 Iteration 96 RMS(Cart)=  0.00025956 RMS(Int)=  0.00012358
 Iteration 97 RMS(Cart)=  0.00025956 RMS(Int)=  0.00012358
 Iteration 98 RMS(Cart)=  0.00025956 RMS(Int)=  0.00012358
 Iteration 99 RMS(Cart)=  0.00025956 RMS(Int)=  0.00012358
 Iteration100 RMS(Cart)=  0.00025956 RMS(Int)=  0.00012358
 New curvilinear step not converged.
 ITry= 1 IFail=1 DXMaxC= 3.39D-02 DCOld= 1.00D+10 DXMaxT= 2.87D-01 DXLimC= 3.00D+00 Rises=F
 Iteration  1 RMS(Cart)=  0.02419641 RMS(Int)=  0.00024246
 Iteration  2 RMS(Cart)=  0.00033202 RMS(Int)=  0.00012247
 Iteration  3 RMS(Cart)=  0.00025721 RMS(Int)=  0.00012246
 Iteration  4 RMS(Cart)=  0.00025720 RMS(Int)=  0.00012246
 Iteration  5 RMS(Cart)=  0.00025720 RMS(Int)=  0.00012246
 Iteration  6 RMS(Cart)=  0.00025720 RMS(Int)=  0.00012246
 Iteration  7 RMS(Cart)=  0.00025720 RMS(Int)=  0.00012246
 Iteration  8 RMS(Cart)=  0.00025720 RMS(Int)=  0.00012246
 Iteration  9 RMS(Cart)=  0.00025720 RMS(Int)=  0.00012246
 Iteration 10 RMS(Cart)=  0.00025720 RMS(Int)=  0.00012246
 Iteration 11 RMS(Cart)=  0.00025720 RMS(Int)=  0.00012246
 Iteration 12 RMS(Cart)=  0.00025720 RMS(Int)=  0.00012246
 Iteration 13 RMS(Cart)=  0.00025720 RMS(Int)=  0.00012246
 Iteration 14 RMS(Cart)=  0.00025720 RMS(Int)=  0.00012246
 Iteration 15 RMS(Cart)=  0.00025720 RMS(Int)=  0.00012246
 Iteration 16 RMS(Cart)=  0.00025720 RMS(Int)=  0.00012246
 Iteration 17 RMS(Cart)=  0.00025720 RMS(Int)=  0.00012246
 Iteration 18 RMS(Cart)=  0.00025720 RMS(Int)=  0.00012246
 Iteration 19 RMS(Cart)=  0.00025720 RMS(Int)=  0.00012246
 Iteration 20 RMS(Cart)=  0.00025720 RMS(Int)=  0.00012246
 Iteration 21 RMS(Cart)=  0.00025720 RMS(Int)=  0.00012246
 Iteration 22 RMS(Cart)=  0.00025720 RMS(Int)=  0.00012246
 Iteration 23 RMS(Cart)=  0.00025720 RMS(Int)=  0.00012246
 Iteration 24 RMS(Cart)=  0.00025720 RMS(Int)=  0.00012246
 Iteration 25 RMS(Cart)=  0.00025720 RMS(Int)=  0.00012246
 Iteration 26 RMS(Cart)=  0.00025720 RMS(Int)=  0.00012246
 Iteration 27 RMS(Cart)=  0.00025720 RMS(Int)=  0.00012246
 Iteration 28 RMS(Cart)=  0.00025720 RMS(Int)=  0.00012246
 Iteration 29 RMS(Cart)=  0.00025720 RMS(Int)=  0.00012246
 Iteration 30 RMS(Cart)=  0.00025720 RMS(Int)=  0.00012246
 Iteration 31 RMS(Cart)=  0.00025720 RMS(Int)=  0.00012246
 Iteration 32 RMS(Cart)=  0.00025720 RMS(Int)=  0.00012246
 Iteration 33 RMS(Cart)=  0.00025720 RMS(Int)=  0.00012246
 Iteration 34 RMS(Cart)=  0.00025720 RMS(Int)=  0.00012246
 Iteration 35 RMS(Cart)=  0.00025720 RMS(Int)=  0.00012246
 Iteration 36 RMS(Cart)=  0.00025720 RMS(Int)=  0.00012246
 Iteration 37 RMS(Cart)=  0.00025720 RMS(Int)=  0.00012246
 Iteration 38 RMS(Cart)=  0.00025720 RMS(Int)=  0.00012246
 Iteration 39 RMS(Cart)=  0.00025720 RMS(Int)=  0.00012246
 Iteration 40 RMS(Cart)=  0.00025720 RMS(Int)=  0.00012246
 Iteration 41 RMS(Cart)=  0.00025720 RMS(Int)=  0.00012246
 Iteration 42 RMS(Cart)=  0.00025720 RMS(Int)=  0.00012246
 Iteration 43 RMS(Cart)=  0.00025720 RMS(Int)=  0.00012246
 Iteration 44 RMS(Cart)=  0.00025720 RMS(Int)=  0.00012246
 Iteration 45 RMS(Cart)=  0.00025720 RMS(Int)=  0.00012246
 Iteration 46 RMS(Cart)=  0.00025720 RMS(Int)=  0.00012246
 Iteration 47 RMS(Cart)=  0.00025720 RMS(Int)=  0.00012246
 Iteration 48 RMS(Cart)=  0.00025720 RMS(Int)=  0.00012246
 Iteration 49 RMS(Cart)=  0.00025720 RMS(Int)=  0.00012246
 Iteration 50 RMS(Cart)=  0.00025720 RMS(Int)=  0.00012246
 Iteration 51 RMS(Cart)=  0.00025720 RMS(Int)=  0.00012246
 Iteration 52 RMS(Cart)=  0.00025720 RMS(Int)=  0.00012246
 Iteration 53 RMS(Cart)=  0.00025720 RMS(Int)=  0.00012246
 Iteration 54 RMS(Cart)=  0.00025720 RMS(Int)=  0.00012246
 Iteration 55 RMS(Cart)=  0.00025720 RMS(Int)=  0.00012246
 Iteration 56 RMS(Cart)=  0.00025720 RMS(Int)=  0.00012246
 Iteration 57 RMS(Cart)=  0.00025720 RMS(Int)=  0.00012246
 Iteration 58 RMS(Cart)=  0.00025720 RMS(Int)=  0.00012246
 Iteration 59 RMS(Cart)=  0.00025720 RMS(Int)=  0.00012246
 Iteration 60 RMS(Cart)=  0.00025720 RMS(Int)=  0.00012246
 Iteration 61 RMS(Cart)=  0.00025720 RMS(Int)=  0.00012246
 Iteration 62 RMS(Cart)=  0.00025720 RMS(Int)=  0.00012246
 Iteration 63 RMS(Cart)=  0.00025720 RMS(Int)=  0.00012246
 Iteration 64 RMS(Cart)=  0.00025720 RMS(Int)=  0.00012246
 Iteration 65 RMS(Cart)=  0.00025720 RMS(Int)=  0.00012246
 Iteration 66 RMS(Cart)=  0.00025720 RMS(Int)=  0.00012246
 Iteration 67 RMS(Cart)=  0.00025720 RMS(Int)=  0.00012246
 Iteration 68 RMS(Cart)=  0.00025720 RMS(Int)=  0.00012246
 Iteration 69 RMS(Cart)=  0.00025720 RMS(Int)=  0.00012246
 Iteration 70 RMS(Cart)=  0.00025720 RMS(Int)=  0.00012246
 Iteration 71 RMS(Cart)=  0.00025720 RMS(Int)=  0.00012246
 Iteration 72 RMS(Cart)=  0.00025720 RMS(Int)=  0.00012246
 Iteration 73 RMS(Cart)=  0.00025720 RMS(Int)=  0.00012246
 Iteration 74 RMS(Cart)=  0.00025720 RMS(Int)=  0.00012246
 Iteration 75 RMS(Cart)=  0.00025720 RMS(Int)=  0.00012246
 Iteration 76 RMS(Cart)=  0.00025720 RMS(Int)=  0.00012246
 Iteration 77 RMS(Cart)=  0.00025720 RMS(Int)=  0.00012246
 Iteration 78 RMS(Cart)=  0.00025720 RMS(Int)=  0.00012246
 Iteration 79 RMS(Cart)=  0.00025720 RMS(Int)=  0.00012246
 Iteration 80 RMS(Cart)=  0.00025720 RMS(Int)=  0.00012246
 Iteration 81 RMS(Cart)=  0.00025720 RMS(Int)=  0.00012246
 Iteration 82 RMS(Cart)=  0.00025720 RMS(Int)=  0.00012246
 Iteration 83 RMS(Cart)=  0.00025720 RMS(Int)=  0.00012246
 Iteration 84 RMS(Cart)=  0.00025720 RMS(Int)=  0.00012246
 Iteration 85 RMS(Cart)=  0.00025720 RMS(Int)=  0.00012246
 Iteration 86 RMS(Cart)=  0.00025720 RMS(Int)=  0.00012246
 Iteration 87 RMS(Cart)=  0.00025720 RMS(Int)=  0.00012246
 Iteration 88 RMS(Cart)=  0.00025720 RMS(Int)=  0.00012246
 Iteration 89 RMS(Cart)=  0.00025720 RMS(Int)=  0.00012246
 Iteration 90 RMS(Cart)=  0.00025720 RMS(Int)=  0.00012246
 Iteration 91 RMS(Cart)=  0.00025720 RMS(Int)=  0.00012246
 Iteration 92 RMS(Cart)=  0.00025720 RMS(Int)=  0.00012246
 Iteration 93 RMS(Cart)=  0.00025720 RMS(Int)=  0.00012246
 Iteration 94 RMS(Cart)=  0.00025720 RMS(Int)=  0.00012246
 Iteration 95 RMS(Cart)=  0.00025720 RMS(Int)=  0.00012246
 Iteration 96 RMS(Cart)=  0.00025720 RMS(Int)=  0.00012246
 Iteration 97 RMS(Cart)=  0.00025720 RMS(Int)=  0.00012246
 Iteration 98 RMS(Cart)=  0.00025720 RMS(Int)=  0.00012246
 Iteration 99 RMS(Cart)=  0.00025720 RMS(Int)=  0.00012246
 Iteration100 RMS(Cart)=  0.00025720 RMS(Int)=  0.00012246
 New curvilinear step not converged.
 ITry= 2 IFail=1 DXMaxC= 3.39D-02 DCOld= 1.00D+10 DXMaxT= 2.87D-01 DXLimC= 3.00D+00 Rises=F
 Iteration  1 RMS(Cart)=  0.02419523 RMS(Int)=  0.00024190
 Iteration  2 RMS(Cart)=  0.00033025 RMS(Int)=  0.00012135
 Iteration  3 RMS(Cart)=  0.00025485 RMS(Int)=  0.00012134
 Iteration  4 RMS(Cart)=  0.00025484 RMS(Int)=  0.00012134
 Iteration  5 RMS(Cart)=  0.00025484 RMS(Int)=  0.00012134
 Iteration  6 RMS(Cart)=  0.00025484 RMS(Int)=  0.00012134
 Iteration  7 RMS(Cart)=  0.00025484 RMS(Int)=  0.00012134
 Iteration  8 RMS(Cart)=  0.00025484 RMS(Int)=  0.00012134
 Iteration  9 RMS(Cart)=  0.00025484 RMS(Int)=  0.00012134
 Iteration 10 RMS(Cart)=  0.00025484 RMS(Int)=  0.00012134
 Iteration 11 RMS(Cart)=  0.00025484 RMS(Int)=  0.00012134
 Iteration 12 RMS(Cart)=  0.00025484 RMS(Int)=  0.00012134
 Iteration 13 RMS(Cart)=  0.00025484 RMS(Int)=  0.00012134
 Iteration 14 RMS(Cart)=  0.00025484 RMS(Int)=  0.00012134
 Iteration 15 RMS(Cart)=  0.00025484 RMS(Int)=  0.00012134
 Iteration 16 RMS(Cart)=  0.00025484 RMS(Int)=  0.00012134
 Iteration 17 RMS(Cart)=  0.00025484 RMS(Int)=  0.00012134
 Iteration 18 RMS(Cart)=  0.00025484 RMS(Int)=  0.00012134
 Iteration 19 RMS(Cart)=  0.00025484 RMS(Int)=  0.00012134
 Iteration 20 RMS(Cart)=  0.00025484 RMS(Int)=  0.00012134
 Iteration 21 RMS(Cart)=  0.00025484 RMS(Int)=  0.00012134
 Iteration 22 RMS(Cart)=  0.00025484 RMS(Int)=  0.00012134
 Iteration 23 RMS(Cart)=  0.00025484 RMS(Int)=  0.00012134
 Iteration 24 RMS(Cart)=  0.00025484 RMS(Int)=  0.00012134
 Iteration 25 RMS(Cart)=  0.00025484 RMS(Int)=  0.00012134
 Iteration 26 RMS(Cart)=  0.00025484 RMS(Int)=  0.00012134
 Iteration 27 RMS(Cart)=  0.00025484 RMS(Int)=  0.00012134
 Iteration 28 RMS(Cart)=  0.00025484 RMS(Int)=  0.00012134
 Iteration 29 RMS(Cart)=  0.00025484 RMS(Int)=  0.00012134
 Iteration 30 RMS(Cart)=  0.00025484 RMS(Int)=  0.00012134
 Iteration 31 RMS(Cart)=  0.00025484 RMS(Int)=  0.00012134
 Iteration 32 RMS(Cart)=  0.00025484 RMS(Int)=  0.00012134
 Iteration 33 RMS(Cart)=  0.00025484 RMS(Int)=  0.00012134
 Iteration 34 RMS(Cart)=  0.00025484 RMS(Int)=  0.00012134
 Iteration 35 RMS(Cart)=  0.00025484 RMS(Int)=  0.00012134
 Iteration 36 RMS(Cart)=  0.00025484 RMS(Int)=  0.00012134
 Iteration 37 RMS(Cart)=  0.00025484 RMS(Int)=  0.00012134
 Iteration 38 RMS(Cart)=  0.00025484 RMS(Int)=  0.00012134
 Iteration 39 RMS(Cart)=  0.00025484 RMS(Int)=  0.00012134
 Iteration 40 RMS(Cart)=  0.00025484 RMS(Int)=  0.00012134
 Iteration 41 RMS(Cart)=  0.00025484 RMS(Int)=  0.00012134
 Iteration 42 RMS(Cart)=  0.00025484 RMS(Int)=  0.00012134
 Iteration 43 RMS(Cart)=  0.00025484 RMS(Int)=  0.00012134
 Iteration 44 RMS(Cart)=  0.00025484 RMS(Int)=  0.00012134
 Iteration 45 RMS(Cart)=  0.00025484 RMS(Int)=  0.00012134
 Iteration 46 RMS(Cart)=  0.00025484 RMS(Int)=  0.00012134
 Iteration 47 RMS(Cart)=  0.00025484 RMS(Int)=  0.00012134
 Iteration 48 RMS(Cart)=  0.00025484 RMS(Int)=  0.00012134
 Iteration 49 RMS(Cart)=  0.00025484 RMS(Int)=  0.00012134
 Iteration 50 RMS(Cart)=  0.00025484 RMS(Int)=  0.00012134
 Iteration 51 RMS(Cart)=  0.00025484 RMS(Int)=  0.00012134
 Iteration 52 RMS(Cart)=  0.00025484 RMS(Int)=  0.00012134
 Iteration 53 RMS(Cart)=  0.00025484 RMS(Int)=  0.00012134
 Iteration 54 RMS(Cart)=  0.00025484 RMS(Int)=  0.00012134
 Iteration 55 RMS(Cart)=  0.00025484 RMS(Int)=  0.00012134
 Iteration 56 RMS(Cart)=  0.00025484 RMS(Int)=  0.00012134
 Iteration 57 RMS(Cart)=  0.00025484 RMS(Int)=  0.00012134
 Iteration 58 RMS(Cart)=  0.00025484 RMS(Int)=  0.00012134
 Iteration 59 RMS(Cart)=  0.00025484 RMS(Int)=  0.00012134
 Iteration 60 RMS(Cart)=  0.00025484 RMS(Int)=  0.00012134
 Iteration 61 RMS(Cart)=  0.00025484 RMS(Int)=  0.00012134
 Iteration 62 RMS(Cart)=  0.00025484 RMS(Int)=  0.00012134
 Iteration 63 RMS(Cart)=  0.00025484 RMS(Int)=  0.00012134
 Iteration 64 RMS(Cart)=  0.00025484 RMS(Int)=  0.00012134
 Iteration 65 RMS(Cart)=  0.00025484 RMS(Int)=  0.00012134
 Iteration 66 RMS(Cart)=  0.00025484 RMS(Int)=  0.00012134
 Iteration 67 RMS(Cart)=  0.00025484 RMS(Int)=  0.00012134
 Iteration 68 RMS(Cart)=  0.00025484 RMS(Int)=  0.00012134
 Iteration 69 RMS(Cart)=  0.00025484 RMS(Int)=  0.00012134
 Iteration 70 RMS(Cart)=  0.00025484 RMS(Int)=  0.00012134
 Iteration 71 RMS(Cart)=  0.00025484 RMS(Int)=  0.00012134
 Iteration 72 RMS(Cart)=  0.00025484 RMS(Int)=  0.00012134
 Iteration 73 RMS(Cart)=  0.00025484 RMS(Int)=  0.00012134
 Iteration 74 RMS(Cart)=  0.00025484 RMS(Int)=  0.00012134
 Iteration 75 RMS(Cart)=  0.00025484 RMS(Int)=  0.00012134
 Iteration 76 RMS(Cart)=  0.00025484 RMS(Int)=  0.00012134
 Iteration 77 RMS(Cart)=  0.00025484 RMS(Int)=  0.00012134
 Iteration 78 RMS(Cart)=  0.00025484 RMS(Int)=  0.00012134
 Iteration 79 RMS(Cart)=  0.00025484 RMS(Int)=  0.00012134
 Iteration 80 RMS(Cart)=  0.00025484 RMS(Int)=  0.00012134
 Iteration 81 RMS(Cart)=  0.00025484 RMS(Int)=  0.00012134
 Iteration 82 RMS(Cart)=  0.00025484 RMS(Int)=  0.00012134
 Iteration 83 RMS(Cart)=  0.00025484 RMS(Int)=  0.00012134
 Iteration 84 RMS(Cart)=  0.00025484 RMS(Int)=  0.00012134
 Iteration 85 RMS(Cart)=  0.00025484 RMS(Int)=  0.00012134
 Iteration 86 RMS(Cart)=  0.00025484 RMS(Int)=  0.00012134
 Iteration 87 RMS(Cart)=  0.00025484 RMS(Int)=  0.00012134
 Iteration 88 RMS(Cart)=  0.00025484 RMS(Int)=  0.00012134
 Iteration 89 RMS(Cart)=  0.00025484 RMS(Int)=  0.00012134
 Iteration 90 RMS(Cart)=  0.00025484 RMS(Int)=  0.00012134
 Iteration 91 RMS(Cart)=  0.00025484 RMS(Int)=  0.00012134
 Iteration 92 RMS(Cart)=  0.00025484 RMS(Int)=  0.00012134
 Iteration 93 RMS(Cart)=  0.00025484 RMS(Int)=  0.00012134
 Iteration 94 RMS(Cart)=  0.00025484 RMS(Int)=  0.00012134
 Iteration 95 RMS(Cart)=  0.00025484 RMS(Int)=  0.00012134
 Iteration 96 RMS(Cart)=  0.00025484 RMS(Int)=  0.00012134
 Iteration 97 RMS(Cart)=  0.00025484 RMS(Int)=  0.00012134
 Iteration 98 RMS(Cart)=  0.00025484 RMS(Int)=  0.00012134
 Iteration 99 RMS(Cart)=  0.00025484 RMS(Int)=  0.00012134
 Iteration100 RMS(Cart)=  0.00025484 RMS(Int)=  0.00012134
 New curvilinear step not converged.
 ITry= 3 IFail=1 DXMaxC= 3.39D-02 DCOld= 1.00D+10 DXMaxT= 2.87D-01 DXLimC= 3.00D+00 Rises=F
 Iteration  1 RMS(Cart)=  0.02419406 RMS(Int)=  0.00024134
 Iteration  2 RMS(Cart)=  0.00032849 RMS(Int)=  0.00012022
 Iteration  3 RMS(Cart)=  0.00025249 RMS(Int)=  0.00012022
 Iteration  4 RMS(Cart)=  0.00025248 RMS(Int)=  0.00012022
 Iteration  5 RMS(Cart)=  0.00025248 RMS(Int)=  0.00012022
 Iteration  6 RMS(Cart)=  0.00025248 RMS(Int)=  0.00012022
 Iteration  7 RMS(Cart)=  0.00025248 RMS(Int)=  0.00012022
 Iteration  8 RMS(Cart)=  0.00025248 RMS(Int)=  0.00012022
 Iteration  9 RMS(Cart)=  0.00025248 RMS(Int)=  0.00012022
 Iteration 10 RMS(Cart)=  0.00025248 RMS(Int)=  0.00012022
 Iteration 11 RMS(Cart)=  0.00025248 RMS(Int)=  0.00012022
 Iteration 12 RMS(Cart)=  0.00025248 RMS(Int)=  0.00012022
 Iteration 13 RMS(Cart)=  0.00025248 RMS(Int)=  0.00012022
 Iteration 14 RMS(Cart)=  0.00025248 RMS(Int)=  0.00012022
 Iteration 15 RMS(Cart)=  0.00025248 RMS(Int)=  0.00012022
 Iteration 16 RMS(Cart)=  0.00025248 RMS(Int)=  0.00012022
 Iteration 17 RMS(Cart)=  0.00025248 RMS(Int)=  0.00012022
 Iteration 18 RMS(Cart)=  0.00025248 RMS(Int)=  0.00012022
 Iteration 19 RMS(Cart)=  0.00025248 RMS(Int)=  0.00012022
 Iteration 20 RMS(Cart)=  0.00025248 RMS(Int)=  0.00012022
 Iteration 21 RMS(Cart)=  0.00025248 RMS(Int)=  0.00012022
 Iteration 22 RMS(Cart)=  0.00025248 RMS(Int)=  0.00012022
 Iteration 23 RMS(Cart)=  0.00025248 RMS(Int)=  0.00012022
 Iteration 24 RMS(Cart)=  0.00025248 RMS(Int)=  0.00012022
 Iteration 25 RMS(Cart)=  0.00025248 RMS(Int)=  0.00012022
 Iteration 26 RMS(Cart)=  0.00025248 RMS(Int)=  0.00012022
 Iteration 27 RMS(Cart)=  0.00025248 RMS(Int)=  0.00012022
 Iteration 28 RMS(Cart)=  0.00025248 RMS(Int)=  0.00012022
 Iteration 29 RMS(Cart)=  0.00025248 RMS(Int)=  0.00012022
 Iteration 30 RMS(Cart)=  0.00025248 RMS(Int)=  0.00012022
 Iteration 31 RMS(Cart)=  0.00025248 RMS(Int)=  0.00012022
 Iteration 32 RMS(Cart)=  0.00025248 RMS(Int)=  0.00012022
 Iteration 33 RMS(Cart)=  0.00025248 RMS(Int)=  0.00012022
 Iteration 34 RMS(Cart)=  0.00025248 RMS(Int)=  0.00012022
 Iteration 35 RMS(Cart)=  0.00025248 RMS(Int)=  0.00012022
 Iteration 36 RMS(Cart)=  0.00025248 RMS(Int)=  0.00012022
 Iteration 37 RMS(Cart)=  0.00025248 RMS(Int)=  0.00012022
 Iteration 38 RMS(Cart)=  0.00025248 RMS(Int)=  0.00012022
 Iteration 39 RMS(Cart)=  0.00025248 RMS(Int)=  0.00012022
 Iteration 40 RMS(Cart)=  0.00025248 RMS(Int)=  0.00012022
 Iteration 41 RMS(Cart)=  0.00025248 RMS(Int)=  0.00012022
 Iteration 42 RMS(Cart)=  0.00025248 RMS(Int)=  0.00012022
 Iteration 43 RMS(Cart)=  0.00025248 RMS(Int)=  0.00012022
 Iteration 44 RMS(Cart)=  0.00025248 RMS(Int)=  0.00012022
 Iteration 45 RMS(Cart)=  0.00025248 RMS(Int)=  0.00012022
 Iteration 46 RMS(Cart)=  0.00025248 RMS(Int)=  0.00012022
 Iteration 47 RMS(Cart)=  0.00025248 RMS(Int)=  0.00012022
 Iteration 48 RMS(Cart)=  0.00025248 RMS(Int)=  0.00012022
 Iteration 49 RMS(Cart)=  0.00025248 RMS(Int)=  0.00012022
 Iteration 50 RMS(Cart)=  0.00025248 RMS(Int)=  0.00012022
 Iteration 51 RMS(Cart)=  0.00025248 RMS(Int)=  0.00012022
 Iteration 52 RMS(Cart)=  0.00025248 RMS(Int)=  0.00012022
 Iteration 53 RMS(Cart)=  0.00025248 RMS(Int)=  0.00012022
 Iteration 54 RMS(Cart)=  0.00025248 RMS(Int)=  0.00012022
 Iteration 55 RMS(Cart)=  0.00025248 RMS(Int)=  0.00012022
 Iteration 56 RMS(Cart)=  0.00025248 RMS(Int)=  0.00012022
 Iteration 57 RMS(Cart)=  0.00025248 RMS(Int)=  0.00012022
 Iteration 58 RMS(Cart)=  0.00025248 RMS(Int)=  0.00012022
 Iteration 59 RMS(Cart)=  0.00025248 RMS(Int)=  0.00012022
 Iteration 60 RMS(Cart)=  0.00025248 RMS(Int)=  0.00012022
 Iteration 61 RMS(Cart)=  0.00025248 RMS(Int)=  0.00012022
 Iteration 62 RMS(Cart)=  0.00025248 RMS(Int)=  0.00012022
 Iteration 63 RMS(Cart)=  0.00025248 RMS(Int)=  0.00012022
 Iteration 64 RMS(Cart)=  0.00025248 RMS(Int)=  0.00012022
 Iteration 65 RMS(Cart)=  0.00025248 RMS(Int)=  0.00012022
 Iteration 66 RMS(Cart)=  0.00025248 RMS(Int)=  0.00012022
 Iteration 67 RMS(Cart)=  0.00025248 RMS(Int)=  0.00012022
 Iteration 68 RMS(Cart)=  0.00025248 RMS(Int)=  0.00012022
 Iteration 69 RMS(Cart)=  0.00025248 RMS(Int)=  0.00012022
 Iteration 70 RMS(Cart)=  0.00025248 RMS(Int)=  0.00012022
 Iteration 71 RMS(Cart)=  0.00025248 RMS(Int)=  0.00012022
 Iteration 72 RMS(Cart)=  0.00025248 RMS(Int)=  0.00012022
 Iteration 73 RMS(Cart)=  0.00025248 RMS(Int)=  0.00012022
 Iteration 74 RMS(Cart)=  0.00025248 RMS(Int)=  0.00012022
 Iteration 75 RMS(Cart)=  0.00025248 RMS(Int)=  0.00012022
 Iteration 76 RMS(Cart)=  0.00025248 RMS(Int)=  0.00012022
 Iteration 77 RMS(Cart)=  0.00025248 RMS(Int)=  0.00012022
 Iteration 78 RMS(Cart)=  0.00025248 RMS(Int)=  0.00012022
 Iteration 79 RMS(Cart)=  0.00025248 RMS(Int)=  0.00012022
 Iteration 80 RMS(Cart)=  0.00025248 RMS(Int)=  0.00012022
 Iteration 81 RMS(Cart)=  0.00025248 RMS(Int)=  0.00012022
 Iteration 82 RMS(Cart)=  0.00025248 RMS(Int)=  0.00012022
 Iteration 83 RMS(Cart)=  0.00025248 RMS(Int)=  0.00012022
 Iteration 84 RMS(Cart)=  0.00025248 RMS(Int)=  0.00012022
 Iteration 85 RMS(Cart)=  0.00025248 RMS(Int)=  0.00012022
 Iteration 86 RMS(Cart)=  0.00025248 RMS(Int)=  0.00012022
 Iteration 87 RMS(Cart)=  0.00025248 RMS(Int)=  0.00012022
 Iteration 88 RMS(Cart)=  0.00025248 RMS(Int)=  0.00012022
 Iteration 89 RMS(Cart)=  0.00025248 RMS(Int)=  0.00012022
 Iteration 90 RMS(Cart)=  0.00025248 RMS(Int)=  0.00012022
 Iteration 91 RMS(Cart)=  0.00025248 RMS(Int)=  0.00012022
 Iteration 92 RMS(Cart)=  0.00025248 RMS(Int)=  0.00012022
 Iteration 93 RMS(Cart)=  0.00025248 RMS(Int)=  0.00012022
 Iteration 94 RMS(Cart)=  0.00025248 RMS(Int)=  0.00012022
 Iteration 95 RMS(Cart)=  0.00025248 RMS(Int)=  0.00012022
 Iteration 96 RMS(Cart)=  0.00025248 RMS(Int)=  0.00012022
 Iteration 97 RMS(Cart)=  0.00025248 RMS(Int)=  0.00012022
 Iteration 98 RMS(Cart)=  0.00025248 RMS(Int)=  0.00012022
 Iteration 99 RMS(Cart)=  0.00025248 RMS(Int)=  0.00012022
 Iteration100 RMS(Cart)=  0.00025248 RMS(Int)=  0.00012022
 New curvilinear step not converged.
 ITry= 4 IFail=1 DXMaxC= 3.39D-02 DCOld= 1.00D+10 DXMaxT= 2.87D-01 DXLimC= 3.00D+00 Rises=F
 Iteration  1 RMS(Cart)=  0.02419291 RMS(Int)=  0.00024079
 Iteration  2 RMS(Cart)=  0.00032673 RMS(Int)=  0.00011910
 Iteration  3 RMS(Cart)=  0.00025014 RMS(Int)=  0.00011909
 Iteration  4 RMS(Cart)=  0.00025012 RMS(Int)=  0.00011909
 Iteration  5 RMS(Cart)=  0.00025012 RMS(Int)=  0.00011909
 Iteration  6 RMS(Cart)=  0.00025012 RMS(Int)=  0.00011909
 Iteration  7 RMS(Cart)=  0.00025012 RMS(Int)=  0.00011909
 Iteration  8 RMS(Cart)=  0.00025012 RMS(Int)=  0.00011909
 Iteration  9 RMS(Cart)=  0.00025012 RMS(Int)=  0.00011909
 Iteration 10 RMS(Cart)=  0.00025012 RMS(Int)=  0.00011909
 Iteration 11 RMS(Cart)=  0.00025012 RMS(Int)=  0.00011909
 Iteration 12 RMS(Cart)=  0.00025012 RMS(Int)=  0.00011909
 Iteration 13 RMS(Cart)=  0.00025012 RMS(Int)=  0.00011909
 Iteration 14 RMS(Cart)=  0.00025012 RMS(Int)=  0.00011909
 Iteration 15 RMS(Cart)=  0.00025012 RMS(Int)=  0.00011909
 Iteration 16 RMS(Cart)=  0.00025012 RMS(Int)=  0.00011909
 Iteration 17 RMS(Cart)=  0.00025012 RMS(Int)=  0.00011909
 Iteration 18 RMS(Cart)=  0.00025012 RMS(Int)=  0.00011909
 Iteration 19 RMS(Cart)=  0.00025012 RMS(Int)=  0.00011909
 Iteration 20 RMS(Cart)=  0.00025012 RMS(Int)=  0.00011909
 Iteration 21 RMS(Cart)=  0.00025012 RMS(Int)=  0.00011909
 Iteration 22 RMS(Cart)=  0.00025012 RMS(Int)=  0.00011909
 Iteration 23 RMS(Cart)=  0.00025012 RMS(Int)=  0.00011909
 Iteration 24 RMS(Cart)=  0.00025012 RMS(Int)=  0.00011909
 Iteration 25 RMS(Cart)=  0.00025012 RMS(Int)=  0.00011909
 Iteration 26 RMS(Cart)=  0.00025012 RMS(Int)=  0.00011909
 Iteration 27 RMS(Cart)=  0.00025012 RMS(Int)=  0.00011909
 Iteration 28 RMS(Cart)=  0.00025012 RMS(Int)=  0.00011909
 Iteration 29 RMS(Cart)=  0.00025012 RMS(Int)=  0.00011909
 Iteration 30 RMS(Cart)=  0.00025012 RMS(Int)=  0.00011909
 Iteration 31 RMS(Cart)=  0.00025012 RMS(Int)=  0.00011909
 Iteration 32 RMS(Cart)=  0.00025012 RMS(Int)=  0.00011909
 Iteration 33 RMS(Cart)=  0.00025012 RMS(Int)=  0.00011909
 Iteration 34 RMS(Cart)=  0.00025012 RMS(Int)=  0.00011909
 Iteration 35 RMS(Cart)=  0.00025012 RMS(Int)=  0.00011909
 Iteration 36 RMS(Cart)=  0.00025012 RMS(Int)=  0.00011909
 Iteration 37 RMS(Cart)=  0.00025012 RMS(Int)=  0.00011909
 Iteration 38 RMS(Cart)=  0.00025012 RMS(Int)=  0.00011909
 Iteration 39 RMS(Cart)=  0.00025012 RMS(Int)=  0.00011909
 Iteration 40 RMS(Cart)=  0.00025012 RMS(Int)=  0.00011909
 Iteration 41 RMS(Cart)=  0.00025012 RMS(Int)=  0.00011909
 Iteration 42 RMS(Cart)=  0.00025012 RMS(Int)=  0.00011909
 Iteration 43 RMS(Cart)=  0.00025012 RMS(Int)=  0.00011909
 Iteration 44 RMS(Cart)=  0.00025012 RMS(Int)=  0.00011909
 Iteration 45 RMS(Cart)=  0.00025012 RMS(Int)=  0.00011909
 Iteration 46 RMS(Cart)=  0.00025012 RMS(Int)=  0.00011909
 Iteration 47 RMS(Cart)=  0.00025012 RMS(Int)=  0.00011909
 Iteration 48 RMS(Cart)=  0.00025012 RMS(Int)=  0.00011909
 Iteration 49 RMS(Cart)=  0.00025012 RMS(Int)=  0.00011909
 Iteration 50 RMS(Cart)=  0.00025012 RMS(Int)=  0.00011909
 Iteration 51 RMS(Cart)=  0.00025012 RMS(Int)=  0.00011909
 Iteration 52 RMS(Cart)=  0.00025012 RMS(Int)=  0.00011909
 Iteration 53 RMS(Cart)=  0.00025012 RMS(Int)=  0.00011909
 Iteration 54 RMS(Cart)=  0.00025012 RMS(Int)=  0.00011909
 Iteration 55 RMS(Cart)=  0.00025012 RMS(Int)=  0.00011909
 Iteration 56 RMS(Cart)=  0.00025012 RMS(Int)=  0.00011909
 Iteration 57 RMS(Cart)=  0.00025012 RMS(Int)=  0.00011909
 Iteration 58 RMS(Cart)=  0.00025012 RMS(Int)=  0.00011909
 Iteration 59 RMS(Cart)=  0.00025012 RMS(Int)=  0.00011909
 Iteration 60 RMS(Cart)=  0.00025012 RMS(Int)=  0.00011909
 Iteration 61 RMS(Cart)=  0.00025012 RMS(Int)=  0.00011909
 Iteration 62 RMS(Cart)=  0.00025012 RMS(Int)=  0.00011909
 Iteration 63 RMS(Cart)=  0.00025012 RMS(Int)=  0.00011909
 Iteration 64 RMS(Cart)=  0.00025012 RMS(Int)=  0.00011909
 Iteration 65 RMS(Cart)=  0.00025012 RMS(Int)=  0.00011909
 Iteration 66 RMS(Cart)=  0.00025012 RMS(Int)=  0.00011909
 Iteration 67 RMS(Cart)=  0.00025012 RMS(Int)=  0.00011909
 Iteration 68 RMS(Cart)=  0.00025012 RMS(Int)=  0.00011909
 Iteration 69 RMS(Cart)=  0.00025012 RMS(Int)=  0.00011909
 Iteration 70 RMS(Cart)=  0.00025012 RMS(Int)=  0.00011909
 Iteration 71 RMS(Cart)=  0.00025012 RMS(Int)=  0.00011909
 Iteration 72 RMS(Cart)=  0.00025012 RMS(Int)=  0.00011909
 Iteration 73 RMS(Cart)=  0.00025012 RMS(Int)=  0.00011909
 Iteration 74 RMS(Cart)=  0.00025012 RMS(Int)=  0.00011909
 Iteration 75 RMS(Cart)=  0.00025012 RMS(Int)=  0.00011909
 Iteration 76 RMS(Cart)=  0.00025012 RMS(Int)=  0.00011909
 Iteration 77 RMS(Cart)=  0.00025012 RMS(Int)=  0.00011909
 Iteration 78 RMS(Cart)=  0.00025012 RMS(Int)=  0.00011909
 Iteration 79 RMS(Cart)=  0.00025012 RMS(Int)=  0.00011909
 Iteration 80 RMS(Cart)=  0.00025012 RMS(Int)=  0.00011909
 Iteration 81 RMS(Cart)=  0.00025012 RMS(Int)=  0.00011909
 Iteration 82 RMS(Cart)=  0.00025012 RMS(Int)=  0.00011909
 Iteration 83 RMS(Cart)=  0.00025012 RMS(Int)=  0.00011909
 Iteration 84 RMS(Cart)=  0.00025012 RMS(Int)=  0.00011909
 Iteration 85 RMS(Cart)=  0.00025012 RMS(Int)=  0.00011909
 Iteration 86 RMS(Cart)=  0.00025012 RMS(Int)=  0.00011909
 Iteration 87 RMS(Cart)=  0.00025012 RMS(Int)=  0.00011909
 Iteration 88 RMS(Cart)=  0.00025012 RMS(Int)=  0.00011909
 Iteration 89 RMS(Cart)=  0.00025012 RMS(Int)=  0.00011909
 Iteration 90 RMS(Cart)=  0.00025012 RMS(Int)=  0.00011909
 Iteration 91 RMS(Cart)=  0.00025012 RMS(Int)=  0.00011909
 Iteration 92 RMS(Cart)=  0.00025012 RMS(Int)=  0.00011909
 Iteration 93 RMS(Cart)=  0.00025012 RMS(Int)=  0.00011909
 Iteration 94 RMS(Cart)=  0.00025012 RMS(Int)=  0.00011909
 Iteration 95 RMS(Cart)=  0.00025012 RMS(Int)=  0.00011909
 Iteration 96 RMS(Cart)=  0.00025012 RMS(Int)=  0.00011909
 Iteration 97 RMS(Cart)=  0.00025012 RMS(Int)=  0.00011909
 Iteration 98 RMS(Cart)=  0.00025012 RMS(Int)=  0.00011909
 Iteration 99 RMS(Cart)=  0.00025012 RMS(Int)=  0.00011909
 Iteration100 RMS(Cart)=  0.00025012 RMS(Int)=  0.00011909
 New curvilinear step not converged.
 ITry= 5 IFail=1 DXMaxC= 3.39D-02 DCOld= 1.00D+10 DXMaxT= 2.87D-01 DXLimC= 3.00D+00 Rises=F
 Iteration  1 RMS(Cart)=  0.02419176 RMS(Int)=  0.00024024
 Iteration  2 RMS(Cart)=  0.00032498 RMS(Int)=  0.00011798
 Iteration  3 RMS(Cart)=  0.00024778 RMS(Int)=  0.00011797
 Iteration  4 RMS(Cart)=  0.00024777 RMS(Int)=  0.00011797
 Iteration  5 RMS(Cart)=  0.00024777 RMS(Int)=  0.00011797
 Iteration  6 RMS(Cart)=  0.00024777 RMS(Int)=  0.00011797
 Iteration  7 RMS(Cart)=  0.00024777 RMS(Int)=  0.00011797
 Iteration  8 RMS(Cart)=  0.00024777 RMS(Int)=  0.00011797
 Iteration  9 RMS(Cart)=  0.00024777 RMS(Int)=  0.00011797
 Iteration 10 RMS(Cart)=  0.00024777 RMS(Int)=  0.00011797
 Iteration 11 RMS(Cart)=  0.00024777 RMS(Int)=  0.00011797
 Iteration 12 RMS(Cart)=  0.00024777 RMS(Int)=  0.00011797
 Iteration 13 RMS(Cart)=  0.00024777 RMS(Int)=  0.00011797
 Iteration 14 RMS(Cart)=  0.00024777 RMS(Int)=  0.00011797
 Iteration 15 RMS(Cart)=  0.00024777 RMS(Int)=  0.00011797
 Iteration 16 RMS(Cart)=  0.00024777 RMS(Int)=  0.00011797
 Iteration 17 RMS(Cart)=  0.00024777 RMS(Int)=  0.00011797
 Iteration 18 RMS(Cart)=  0.00024777 RMS(Int)=  0.00011797
 Iteration 19 RMS(Cart)=  0.00024777 RMS(Int)=  0.00011797
 Iteration 20 RMS(Cart)=  0.00024777 RMS(Int)=  0.00011797
 Iteration 21 RMS(Cart)=  0.00024777 RMS(Int)=  0.00011797
 Iteration 22 RMS(Cart)=  0.00024777 RMS(Int)=  0.00011797
 Iteration 23 RMS(Cart)=  0.00024777 RMS(Int)=  0.00011797
 Iteration 24 RMS(Cart)=  0.00024777 RMS(Int)=  0.00011797
 Iteration 25 RMS(Cart)=  0.00024777 RMS(Int)=  0.00011797
 Iteration 26 RMS(Cart)=  0.00024777 RMS(Int)=  0.00011797
 Iteration 27 RMS(Cart)=  0.00024777 RMS(Int)=  0.00011797
 Iteration 28 RMS(Cart)=  0.00024777 RMS(Int)=  0.00011797
 Iteration 29 RMS(Cart)=  0.00024777 RMS(Int)=  0.00011797
 Iteration 30 RMS(Cart)=  0.00024777 RMS(Int)=  0.00011797
 Iteration 31 RMS(Cart)=  0.00024777 RMS(Int)=  0.00011797
 Iteration 32 RMS(Cart)=  0.00024777 RMS(Int)=  0.00011797
 Iteration 33 RMS(Cart)=  0.00024777 RMS(Int)=  0.00011797
 Iteration 34 RMS(Cart)=  0.00024777 RMS(Int)=  0.00011797
 Iteration 35 RMS(Cart)=  0.00024777 RMS(Int)=  0.00011797
 Iteration 36 RMS(Cart)=  0.00024777 RMS(Int)=  0.00011797
 Iteration 37 RMS(Cart)=  0.00024777 RMS(Int)=  0.00011797
 Iteration 38 RMS(Cart)=  0.00024777 RMS(Int)=  0.00011797
 Iteration 39 RMS(Cart)=  0.00024777 RMS(Int)=  0.00011797
 Iteration 40 RMS(Cart)=  0.00024777 RMS(Int)=  0.00011797
 Iteration 41 RMS(Cart)=  0.00024777 RMS(Int)=  0.00011797
 Iteration 42 RMS(Cart)=  0.00024777 RMS(Int)=  0.00011797
 Iteration 43 RMS(Cart)=  0.00024777 RMS(Int)=  0.00011797
 Iteration 44 RMS(Cart)=  0.00024777 RMS(Int)=  0.00011797
 Iteration 45 RMS(Cart)=  0.00024777 RMS(Int)=  0.00011797
 Iteration 46 RMS(Cart)=  0.00024777 RMS(Int)=  0.00011797
 Iteration 47 RMS(Cart)=  0.00024777 RMS(Int)=  0.00011797
 Iteration 48 RMS(Cart)=  0.00024777 RMS(Int)=  0.00011797
 Iteration 49 RMS(Cart)=  0.00024777 RMS(Int)=  0.00011797
 Iteration 50 RMS(Cart)=  0.00024777 RMS(Int)=  0.00011797
 Iteration 51 RMS(Cart)=  0.00024777 RMS(Int)=  0.00011797
 Iteration 52 RMS(Cart)=  0.00024777 RMS(Int)=  0.00011797
 Iteration 53 RMS(Cart)=  0.00024777 RMS(Int)=  0.00011797
 Iteration 54 RMS(Cart)=  0.00024777 RMS(Int)=  0.00011797
 Iteration 55 RMS(Cart)=  0.00024777 RMS(Int)=  0.00011797
 Iteration 56 RMS(Cart)=  0.00024777 RMS(Int)=  0.00011797
 Iteration 57 RMS(Cart)=  0.00024777 RMS(Int)=  0.00011797
 Iteration 58 RMS(Cart)=  0.00024777 RMS(Int)=  0.00011797
 Iteration 59 RMS(Cart)=  0.00024777 RMS(Int)=  0.00011797
 Iteration 60 RMS(Cart)=  0.00024777 RMS(Int)=  0.00011797
 Iteration 61 RMS(Cart)=  0.00024777 RMS(Int)=  0.00011797
 Iteration 62 RMS(Cart)=  0.00024777 RMS(Int)=  0.00011797
 Iteration 63 RMS(Cart)=  0.00024777 RMS(Int)=  0.00011797
 Iteration 64 RMS(Cart)=  0.00024777 RMS(Int)=  0.00011797
 Iteration 65 RMS(Cart)=  0.00024777 RMS(Int)=  0.00011797
 Iteration 66 RMS(Cart)=  0.00024777 RMS(Int)=  0.00011797
 Iteration 67 RMS(Cart)=  0.00024777 RMS(Int)=  0.00011797
 Iteration 68 RMS(Cart)=  0.00024777 RMS(Int)=  0.00011797
 Iteration 69 RMS(Cart)=  0.00024777 RMS(Int)=  0.00011797
 Iteration 70 RMS(Cart)=  0.00024777 RMS(Int)=  0.00011797
 Iteration 71 RMS(Cart)=  0.00024777 RMS(Int)=  0.00011797
 Iteration 72 RMS(Cart)=  0.00024777 RMS(Int)=  0.00011797
 Iteration 73 RMS(Cart)=  0.00024777 RMS(Int)=  0.00011797
 Iteration 74 RMS(Cart)=  0.00024777 RMS(Int)=  0.00011797
 Iteration 75 RMS(Cart)=  0.00024777 RMS(Int)=  0.00011797
 Iteration 76 RMS(Cart)=  0.00024777 RMS(Int)=  0.00011797
 Iteration 77 RMS(Cart)=  0.00024777 RMS(Int)=  0.00011797
 Iteration 78 RMS(Cart)=  0.00024777 RMS(Int)=  0.00011797
 Iteration 79 RMS(Cart)=  0.00024777 RMS(Int)=  0.00011797
 Iteration 80 RMS(Cart)=  0.00024777 RMS(Int)=  0.00011797
 Iteration 81 RMS(Cart)=  0.00024777 RMS(Int)=  0.00011797
 Iteration 82 RMS(Cart)=  0.00024777 RMS(Int)=  0.00011797
 Iteration 83 RMS(Cart)=  0.00024777 RMS(Int)=  0.00011797
 Iteration 84 RMS(Cart)=  0.00024777 RMS(Int)=  0.00011797
 Iteration 85 RMS(Cart)=  0.00024777 RMS(Int)=  0.00011797
 Iteration 86 RMS(Cart)=  0.00024777 RMS(Int)=  0.00011797
 Iteration 87 RMS(Cart)=  0.00024777 RMS(Int)=  0.00011797
 Iteration 88 RMS(Cart)=  0.00024777 RMS(Int)=  0.00011797
 Iteration 89 RMS(Cart)=  0.00024777 RMS(Int)=  0.00011797
 Iteration 90 RMS(Cart)=  0.00024777 RMS(Int)=  0.00011797
 Iteration 91 RMS(Cart)=  0.00024777 RMS(Int)=  0.00011797
 Iteration 92 RMS(Cart)=  0.00024777 RMS(Int)=  0.00011797
 Iteration 93 RMS(Cart)=  0.00024777 RMS(Int)=  0.00011797
 Iteration 94 RMS(Cart)=  0.00024777 RMS(Int)=  0.00011797
 Iteration 95 RMS(Cart)=  0.00024777 RMS(Int)=  0.00011797
 Iteration 96 RMS(Cart)=  0.00024777 RMS(Int)=  0.00011797
 Iteration 97 RMS(Cart)=  0.00024777 RMS(Int)=  0.00011797
 Iteration 98 RMS(Cart)=  0.00024777 RMS(Int)=  0.00011797
 Iteration 99 RMS(Cart)=  0.00024777 RMS(Int)=  0.00011797
 Iteration100 RMS(Cart)=  0.00024777 RMS(Int)=  0.00011797
 New curvilinear step not converged.
 ITry= 6 IFail=1 DXMaxC= 3.39D-02 DCOld= 1.00D+10 DXMaxT= 2.87D-01 DXLimC= 3.00D+00 Rises=F
 Iteration  1 RMS(Cart)=  0.02419062 RMS(Int)=  0.00023969
 Iteration  2 RMS(Cart)=  0.00032323 RMS(Int)=  0.00011686
 Iteration  3 RMS(Cart)=  0.00024542 RMS(Int)=  0.00011685
 Iteration  4 RMS(Cart)=  0.00024541 RMS(Int)=  0.00011685
 Iteration  5 RMS(Cart)=  0.00024541 RMS(Int)=  0.00011685
 Iteration  6 RMS(Cart)=  0.00024541 RMS(Int)=  0.00011685
 Iteration  7 RMS(Cart)=  0.00024541 RMS(Int)=  0.00011685
 Iteration  8 RMS(Cart)=  0.00024541 RMS(Int)=  0.00011685
 Iteration  9 RMS(Cart)=  0.00024541 RMS(Int)=  0.00011685
 Iteration 10 RMS(Cart)=  0.00024541 RMS(Int)=  0.00011685
 Iteration 11 RMS(Cart)=  0.00024541 RMS(Int)=  0.00011685
 Iteration 12 RMS(Cart)=  0.00024541 RMS(Int)=  0.00011685
 Iteration 13 RMS(Cart)=  0.00024541 RMS(Int)=  0.00011685
 Iteration 14 RMS(Cart)=  0.00024541 RMS(Int)=  0.00011685
 Iteration 15 RMS(Cart)=  0.00024541 RMS(Int)=  0.00011685
 Iteration 16 RMS(Cart)=  0.00024541 RMS(Int)=  0.00011685
 Iteration 17 RMS(Cart)=  0.00024541 RMS(Int)=  0.00011685
 Iteration 18 RMS(Cart)=  0.00024541 RMS(Int)=  0.00011685
 Iteration 19 RMS(Cart)=  0.00024541 RMS(Int)=  0.00011685
 Iteration 20 RMS(Cart)=  0.00024541 RMS(Int)=  0.00011685
 Iteration 21 RMS(Cart)=  0.00024541 RMS(Int)=  0.00011685
 Iteration 22 RMS(Cart)=  0.00024541 RMS(Int)=  0.00011685
 Iteration 23 RMS(Cart)=  0.00024541 RMS(Int)=  0.00011685
 Iteration 24 RMS(Cart)=  0.00024541 RMS(Int)=  0.00011685
 Iteration 25 RMS(Cart)=  0.00024541 RMS(Int)=  0.00011685
 Iteration 26 RMS(Cart)=  0.00024541 RMS(Int)=  0.00011685
 Iteration 27 RMS(Cart)=  0.00024541 RMS(Int)=  0.00011685
 Iteration 28 RMS(Cart)=  0.00024541 RMS(Int)=  0.00011685
 Iteration 29 RMS(Cart)=  0.00024541 RMS(Int)=  0.00011685
 Iteration 30 RMS(Cart)=  0.00024541 RMS(Int)=  0.00011685
 Iteration 31 RMS(Cart)=  0.00024541 RMS(Int)=  0.00011685
 Iteration 32 RMS(Cart)=  0.00024541 RMS(Int)=  0.00011685
 Iteration 33 RMS(Cart)=  0.00024541 RMS(Int)=  0.00011685
 Iteration 34 RMS(Cart)=  0.00024541 RMS(Int)=  0.00011685
 Iteration 35 RMS(Cart)=  0.00024541 RMS(Int)=  0.00011685
 Iteration 36 RMS(Cart)=  0.00024541 RMS(Int)=  0.00011685
 Iteration 37 RMS(Cart)=  0.00024541 RMS(Int)=  0.00011685
 Iteration 38 RMS(Cart)=  0.00024541 RMS(Int)=  0.00011685
 Iteration 39 RMS(Cart)=  0.00024541 RMS(Int)=  0.00011685
 Iteration 40 RMS(Cart)=  0.00024541 RMS(Int)=  0.00011685
 Iteration 41 RMS(Cart)=  0.00024541 RMS(Int)=  0.00011685
 Iteration 42 RMS(Cart)=  0.00024541 RMS(Int)=  0.00011685
 Iteration 43 RMS(Cart)=  0.00024541 RMS(Int)=  0.00011685
 Iteration 44 RMS(Cart)=  0.00024541 RMS(Int)=  0.00011685
 Iteration 45 RMS(Cart)=  0.00024541 RMS(Int)=  0.00011685
 Iteration 46 RMS(Cart)=  0.00024541 RMS(Int)=  0.00011685
 Iteration 47 RMS(Cart)=  0.00024541 RMS(Int)=  0.00011685
 Iteration 48 RMS(Cart)=  0.00024541 RMS(Int)=  0.00011685
 Iteration 49 RMS(Cart)=  0.00024541 RMS(Int)=  0.00011685
 Iteration 50 RMS(Cart)=  0.00024541 RMS(Int)=  0.00011685
 Iteration 51 RMS(Cart)=  0.00024541 RMS(Int)=  0.00011685
 Iteration 52 RMS(Cart)=  0.00024541 RMS(Int)=  0.00011685
 Iteration 53 RMS(Cart)=  0.00024541 RMS(Int)=  0.00011685
 Iteration 54 RMS(Cart)=  0.00024541 RMS(Int)=  0.00011685
 Iteration 55 RMS(Cart)=  0.00024541 RMS(Int)=  0.00011685
 Iteration 56 RMS(Cart)=  0.00024541 RMS(Int)=  0.00011685
 Iteration 57 RMS(Cart)=  0.00024541 RMS(Int)=  0.00011685
 Iteration 58 RMS(Cart)=  0.00024541 RMS(Int)=  0.00011685
 Iteration 59 RMS(Cart)=  0.00024541 RMS(Int)=  0.00011685
 Iteration 60 RMS(Cart)=  0.00024541 RMS(Int)=  0.00011685
 Iteration 61 RMS(Cart)=  0.00024541 RMS(Int)=  0.00011685
 Iteration 62 RMS(Cart)=  0.00024541 RMS(Int)=  0.00011685
 Iteration 63 RMS(Cart)=  0.00024541 RMS(Int)=  0.00011685
 Iteration 64 RMS(Cart)=  0.00024541 RMS(Int)=  0.00011685
 Iteration 65 RMS(Cart)=  0.00024541 RMS(Int)=  0.00011685
 Iteration 66 RMS(Cart)=  0.00024541 RMS(Int)=  0.00011685
 Iteration 67 RMS(Cart)=  0.00024541 RMS(Int)=  0.00011685
 Iteration 68 RMS(Cart)=  0.00024541 RMS(Int)=  0.00011685
 Iteration 69 RMS(Cart)=  0.00024541 RMS(Int)=  0.00011685
 Iteration 70 RMS(Cart)=  0.00024541 RMS(Int)=  0.00011685
 Iteration 71 RMS(Cart)=  0.00024541 RMS(Int)=  0.00011685
 Iteration 72 RMS(Cart)=  0.00024541 RMS(Int)=  0.00011685
 Iteration 73 RMS(Cart)=  0.00024541 RMS(Int)=  0.00011685
 Iteration 74 RMS(Cart)=  0.00024541 RMS(Int)=  0.00011685
 Iteration 75 RMS(Cart)=  0.00024541 RMS(Int)=  0.00011685
 Iteration 76 RMS(Cart)=  0.00024541 RMS(Int)=  0.00011685
 Iteration 77 RMS(Cart)=  0.00024541 RMS(Int)=  0.00011685
 Iteration 78 RMS(Cart)=  0.00024541 RMS(Int)=  0.00011685
 Iteration 79 RMS(Cart)=  0.00024541 RMS(Int)=  0.00011685
 Iteration 80 RMS(Cart)=  0.00024541 RMS(Int)=  0.00011685
 Iteration 81 RMS(Cart)=  0.00024541 RMS(Int)=  0.00011685
 Iteration 82 RMS(Cart)=  0.00024541 RMS(Int)=  0.00011685
 Iteration 83 RMS(Cart)=  0.00024541 RMS(Int)=  0.00011685
 Iteration 84 RMS(Cart)=  0.00024541 RMS(Int)=  0.00011685
 Iteration 85 RMS(Cart)=  0.00024541 RMS(Int)=  0.00011685
 Iteration 86 RMS(Cart)=  0.00024541 RMS(Int)=  0.00011685
 Iteration 87 RMS(Cart)=  0.00024541 RMS(Int)=  0.00011685
 Iteration 88 RMS(Cart)=  0.00024541 RMS(Int)=  0.00011685
 Iteration 89 RMS(Cart)=  0.00024541 RMS(Int)=  0.00011685
 Iteration 90 RMS(Cart)=  0.00024541 RMS(Int)=  0.00011685
 Iteration 91 RMS(Cart)=  0.00024541 RMS(Int)=  0.00011685
 Iteration 92 RMS(Cart)=  0.00024541 RMS(Int)=  0.00011685
 Iteration 93 RMS(Cart)=  0.00024541 RMS(Int)=  0.00011685
 Iteration 94 RMS(Cart)=  0.00024541 RMS(Int)=  0.00011685
 Iteration 95 RMS(Cart)=  0.00024541 RMS(Int)=  0.00011685
 Iteration 96 RMS(Cart)=  0.00024541 RMS(Int)=  0.00011685
 Iteration 97 RMS(Cart)=  0.00024541 RMS(Int)=  0.00011685
 Iteration 98 RMS(Cart)=  0.00024541 RMS(Int)=  0.00011685
 Iteration 99 RMS(Cart)=  0.00024541 RMS(Int)=  0.00011685
 Iteration100 RMS(Cart)=  0.00024541 RMS(Int)=  0.00011685
 New curvilinear step not converged.
 ITry= 7 IFail=1 DXMaxC= 3.39D-02 DCOld= 1.00D+10 DXMaxT= 2.87D-01 DXLimC= 3.00D+00 Rises=F
 Iteration  1 RMS(Cart)=  0.02418949 RMS(Int)=  0.00023914
 Iteration  2 RMS(Cart)=  0.00032149 RMS(Int)=  0.00011573
 Iteration  3 RMS(Cart)=  0.00024306 RMS(Int)=  0.00011573
 Iteration  4 RMS(Cart)=  0.00024305 RMS(Int)=  0.00011573
 Iteration  5 RMS(Cart)=  0.00024305 RMS(Int)=  0.00011573
 Iteration  6 RMS(Cart)=  0.00024305 RMS(Int)=  0.00011573
 Iteration  7 RMS(Cart)=  0.00024305 RMS(Int)=  0.00011573
 Iteration  8 RMS(Cart)=  0.00024305 RMS(Int)=  0.00011573
 Iteration  9 RMS(Cart)=  0.00024305 RMS(Int)=  0.00011573
 Iteration 10 RMS(Cart)=  0.00024305 RMS(Int)=  0.00011573
 Iteration 11 RMS(Cart)=  0.00024305 RMS(Int)=  0.00011573
 Iteration 12 RMS(Cart)=  0.00024305 RMS(Int)=  0.00011573
 Iteration 13 RMS(Cart)=  0.00024305 RMS(Int)=  0.00011573
 Iteration 14 RMS(Cart)=  0.00024305 RMS(Int)=  0.00011573
 Iteration 15 RMS(Cart)=  0.00024305 RMS(Int)=  0.00011573
 Iteration 16 RMS(Cart)=  0.00024305 RMS(Int)=  0.00011573
 Iteration 17 RMS(Cart)=  0.00024305 RMS(Int)=  0.00011573
 Iteration 18 RMS(Cart)=  0.00024305 RMS(Int)=  0.00011573
 Iteration 19 RMS(Cart)=  0.00024305 RMS(Int)=  0.00011573
 Iteration 20 RMS(Cart)=  0.00024305 RMS(Int)=  0.00011573
 Iteration 21 RMS(Cart)=  0.00024305 RMS(Int)=  0.00011573
 Iteration 22 RMS(Cart)=  0.00024305 RMS(Int)=  0.00011573
 Iteration 23 RMS(Cart)=  0.00024305 RMS(Int)=  0.00011573
 Iteration 24 RMS(Cart)=  0.00024305 RMS(Int)=  0.00011573
 Iteration 25 RMS(Cart)=  0.00024305 RMS(Int)=  0.00011573
 Iteration 26 RMS(Cart)=  0.00024305 RMS(Int)=  0.00011573
 Iteration 27 RMS(Cart)=  0.00024305 RMS(Int)=  0.00011573
 Iteration 28 RMS(Cart)=  0.00024305 RMS(Int)=  0.00011573
 Iteration 29 RMS(Cart)=  0.00024305 RMS(Int)=  0.00011573
 Iteration 30 RMS(Cart)=  0.00024305 RMS(Int)=  0.00011573
 Iteration 31 RMS(Cart)=  0.00024305 RMS(Int)=  0.00011573
 Iteration 32 RMS(Cart)=  0.00024305 RMS(Int)=  0.00011573
 Iteration 33 RMS(Cart)=  0.00024305 RMS(Int)=  0.00011573
 Iteration 34 RMS(Cart)=  0.00024305 RMS(Int)=  0.00011573
 Iteration 35 RMS(Cart)=  0.00024305 RMS(Int)=  0.00011573
 Iteration 36 RMS(Cart)=  0.00024305 RMS(Int)=  0.00011573
 Iteration 37 RMS(Cart)=  0.00024305 RMS(Int)=  0.00011573
 Iteration 38 RMS(Cart)=  0.00024305 RMS(Int)=  0.00011573
 Iteration 39 RMS(Cart)=  0.00024305 RMS(Int)=  0.00011573
 Iteration 40 RMS(Cart)=  0.00024305 RMS(Int)=  0.00011573
 Iteration 41 RMS(Cart)=  0.00024305 RMS(Int)=  0.00011573
 Iteration 42 RMS(Cart)=  0.00024305 RMS(Int)=  0.00011573
 Iteration 43 RMS(Cart)=  0.00024305 RMS(Int)=  0.00011573
 Iteration 44 RMS(Cart)=  0.00024305 RMS(Int)=  0.00011573
 Iteration 45 RMS(Cart)=  0.00024305 RMS(Int)=  0.00011573
 Iteration 46 RMS(Cart)=  0.00024305 RMS(Int)=  0.00011573
 Iteration 47 RMS(Cart)=  0.00024305 RMS(Int)=  0.00011573
 Iteration 48 RMS(Cart)=  0.00024305 RMS(Int)=  0.00011573
 Iteration 49 RMS(Cart)=  0.00024305 RMS(Int)=  0.00011573
 Iteration 50 RMS(Cart)=  0.00024305 RMS(Int)=  0.00011573
 Iteration 51 RMS(Cart)=  0.00024305 RMS(Int)=  0.00011573
 Iteration 52 RMS(Cart)=  0.00024305 RMS(Int)=  0.00011573
 Iteration 53 RMS(Cart)=  0.00024305 RMS(Int)=  0.00011573
 Iteration 54 RMS(Cart)=  0.00024305 RMS(Int)=  0.00011573
 Iteration 55 RMS(Cart)=  0.00024305 RMS(Int)=  0.00011573
 Iteration 56 RMS(Cart)=  0.00024305 RMS(Int)=  0.00011573
 Iteration 57 RMS(Cart)=  0.00024305 RMS(Int)=  0.00011573
 Iteration 58 RMS(Cart)=  0.00024305 RMS(Int)=  0.00011573
 Iteration 59 RMS(Cart)=  0.00024305 RMS(Int)=  0.00011573
 Iteration 60 RMS(Cart)=  0.00024305 RMS(Int)=  0.00011573
 Iteration 61 RMS(Cart)=  0.00024305 RMS(Int)=  0.00011573
 Iteration 62 RMS(Cart)=  0.00024305 RMS(Int)=  0.00011573
 Iteration 63 RMS(Cart)=  0.00024305 RMS(Int)=  0.00011573
 Iteration 64 RMS(Cart)=  0.00024305 RMS(Int)=  0.00011573
 Iteration 65 RMS(Cart)=  0.00024305 RMS(Int)=  0.00011573
 Iteration 66 RMS(Cart)=  0.00024305 RMS(Int)=  0.00011573
 Iteration 67 RMS(Cart)=  0.00024305 RMS(Int)=  0.00011573
 Iteration 68 RMS(Cart)=  0.00024305 RMS(Int)=  0.00011573
 Iteration 69 RMS(Cart)=  0.00024305 RMS(Int)=  0.00011573
 Iteration 70 RMS(Cart)=  0.00024305 RMS(Int)=  0.00011573
 Iteration 71 RMS(Cart)=  0.00024305 RMS(Int)=  0.00011573
 Iteration 72 RMS(Cart)=  0.00024305 RMS(Int)=  0.00011573
 Iteration 73 RMS(Cart)=  0.00024305 RMS(Int)=  0.00011573
 Iteration 74 RMS(Cart)=  0.00024305 RMS(Int)=  0.00011573
 Iteration 75 RMS(Cart)=  0.00024305 RMS(Int)=  0.00011573
 Iteration 76 RMS(Cart)=  0.00024305 RMS(Int)=  0.00011573
 Iteration 77 RMS(Cart)=  0.00024305 RMS(Int)=  0.00011573
 Iteration 78 RMS(Cart)=  0.00024305 RMS(Int)=  0.00011573
 Iteration 79 RMS(Cart)=  0.00024305 RMS(Int)=  0.00011573
 Iteration 80 RMS(Cart)=  0.00024305 RMS(Int)=  0.00011573
 Iteration 81 RMS(Cart)=  0.00024305 RMS(Int)=  0.00011573
 Iteration 82 RMS(Cart)=  0.00024305 RMS(Int)=  0.00011573
 Iteration 83 RMS(Cart)=  0.00024305 RMS(Int)=  0.00011573
 Iteration 84 RMS(Cart)=  0.00024305 RMS(Int)=  0.00011573
 Iteration 85 RMS(Cart)=  0.00024305 RMS(Int)=  0.00011573
 Iteration 86 RMS(Cart)=  0.00024305 RMS(Int)=  0.00011573
 Iteration 87 RMS(Cart)=  0.00024305 RMS(Int)=  0.00011573
 Iteration 88 RMS(Cart)=  0.00024305 RMS(Int)=  0.00011573
 Iteration 89 RMS(Cart)=  0.00024305 RMS(Int)=  0.00011573
 Iteration 90 RMS(Cart)=  0.00024305 RMS(Int)=  0.00011573
 Iteration 91 RMS(Cart)=  0.00024305 RMS(Int)=  0.00011573
 Iteration 92 RMS(Cart)=  0.00024305 RMS(Int)=  0.00011573
 Iteration 93 RMS(Cart)=  0.00024305 RMS(Int)=  0.00011573
 Iteration 94 RMS(Cart)=  0.00024305 RMS(Int)=  0.00011573
 Iteration 95 RMS(Cart)=  0.00024305 RMS(Int)=  0.00011573
 Iteration 96 RMS(Cart)=  0.00024305 RMS(Int)=  0.00011573
 Iteration 97 RMS(Cart)=  0.00024305 RMS(Int)=  0.00011573
 Iteration 98 RMS(Cart)=  0.00024305 RMS(Int)=  0.00011573
 Iteration 99 RMS(Cart)=  0.00024305 RMS(Int)=  0.00011573
 Iteration100 RMS(Cart)=  0.00024305 RMS(Int)=  0.00011573
 New curvilinear step not converged.
 ITry= 8 IFail=1 DXMaxC= 3.39D-02 DCOld= 1.00D+10 DXMaxT= 2.87D-01 DXLimC= 3.00D+00 Rises=F
 Iteration  1 RMS(Cart)=  0.02418838 RMS(Int)=  0.00023860
 Iteration  2 RMS(Cart)=  0.00031976 RMS(Int)=  0.00011461
 Iteration  3 RMS(Cart)=  0.00024070 RMS(Int)=  0.00011461
 Iteration  4 RMS(Cart)=  0.00024069 RMS(Int)=  0.00011461
 Iteration  5 RMS(Cart)=  0.00024069 RMS(Int)=  0.00011461
 Iteration  6 RMS(Cart)=  0.00024069 RMS(Int)=  0.00011461
 Iteration  7 RMS(Cart)=  0.00024069 RMS(Int)=  0.00011461
 Iteration  8 RMS(Cart)=  0.00024069 RMS(Int)=  0.00011461
 Iteration  9 RMS(Cart)=  0.00024069 RMS(Int)=  0.00011461
 Iteration 10 RMS(Cart)=  0.00024069 RMS(Int)=  0.00011461
 Iteration 11 RMS(Cart)=  0.00024069 RMS(Int)=  0.00011461
 Iteration 12 RMS(Cart)=  0.00024069 RMS(Int)=  0.00011461
 Iteration 13 RMS(Cart)=  0.00024069 RMS(Int)=  0.00011461
 Iteration 14 RMS(Cart)=  0.00024069 RMS(Int)=  0.00011461
 Iteration 15 RMS(Cart)=  0.00024069 RMS(Int)=  0.00011461
 Iteration 16 RMS(Cart)=  0.00024069 RMS(Int)=  0.00011461
 Iteration 17 RMS(Cart)=  0.00024069 RMS(Int)=  0.00011461
 Iteration 18 RMS(Cart)=  0.00024069 RMS(Int)=  0.00011461
 Iteration 19 RMS(Cart)=  0.00024069 RMS(Int)=  0.00011461
 Iteration 20 RMS(Cart)=  0.00024069 RMS(Int)=  0.00011461
 Iteration 21 RMS(Cart)=  0.00024069 RMS(Int)=  0.00011461
 Iteration 22 RMS(Cart)=  0.00024069 RMS(Int)=  0.00011461
 Iteration 23 RMS(Cart)=  0.00024069 RMS(Int)=  0.00011461
 Iteration 24 RMS(Cart)=  0.00024069 RMS(Int)=  0.00011461
 Iteration 25 RMS(Cart)=  0.00024069 RMS(Int)=  0.00011461
 Iteration 26 RMS(Cart)=  0.00024069 RMS(Int)=  0.00011461
 Iteration 27 RMS(Cart)=  0.00024069 RMS(Int)=  0.00011461
 Iteration 28 RMS(Cart)=  0.00024069 RMS(Int)=  0.00011461
 Iteration 29 RMS(Cart)=  0.00024069 RMS(Int)=  0.00011461
 Iteration 30 RMS(Cart)=  0.00024069 RMS(Int)=  0.00011461
 Iteration 31 RMS(Cart)=  0.00024069 RMS(Int)=  0.00011461
 Iteration 32 RMS(Cart)=  0.00024069 RMS(Int)=  0.00011461
 Iteration 33 RMS(Cart)=  0.00024069 RMS(Int)=  0.00011461
 Iteration 34 RMS(Cart)=  0.00024069 RMS(Int)=  0.00011461
 Iteration 35 RMS(Cart)=  0.00024069 RMS(Int)=  0.00011461
 Iteration 36 RMS(Cart)=  0.00024069 RMS(Int)=  0.00011461
 Iteration 37 RMS(Cart)=  0.00024069 RMS(Int)=  0.00011461
 Iteration 38 RMS(Cart)=  0.00024069 RMS(Int)=  0.00011461
 Iteration 39 RMS(Cart)=  0.00024069 RMS(Int)=  0.00011461
 Iteration 40 RMS(Cart)=  0.00024069 RMS(Int)=  0.00011461
 Iteration 41 RMS(Cart)=  0.00024069 RMS(Int)=  0.00011461
 Iteration 42 RMS(Cart)=  0.00024069 RMS(Int)=  0.00011461
 Iteration 43 RMS(Cart)=  0.00024069 RMS(Int)=  0.00011461
 Iteration 44 RMS(Cart)=  0.00024069 RMS(Int)=  0.00011461
 Iteration 45 RMS(Cart)=  0.00024069 RMS(Int)=  0.00011461
 Iteration 46 RMS(Cart)=  0.00024069 RMS(Int)=  0.00011461
 Iteration 47 RMS(Cart)=  0.00024069 RMS(Int)=  0.00011461
 Iteration 48 RMS(Cart)=  0.00024069 RMS(Int)=  0.00011461
 Iteration 49 RMS(Cart)=  0.00024069 RMS(Int)=  0.00011461
 Iteration 50 RMS(Cart)=  0.00024069 RMS(Int)=  0.00011461
 Iteration 51 RMS(Cart)=  0.00024069 RMS(Int)=  0.00011461
 Iteration 52 RMS(Cart)=  0.00024069 RMS(Int)=  0.00011461
 Iteration 53 RMS(Cart)=  0.00024069 RMS(Int)=  0.00011461
 Iteration 54 RMS(Cart)=  0.00024069 RMS(Int)=  0.00011461
 Iteration 55 RMS(Cart)=  0.00024069 RMS(Int)=  0.00011461
 Iteration 56 RMS(Cart)=  0.00024069 RMS(Int)=  0.00011461
 Iteration 57 RMS(Cart)=  0.00024069 RMS(Int)=  0.00011461
 Iteration 58 RMS(Cart)=  0.00024069 RMS(Int)=  0.00011461
 Iteration 59 RMS(Cart)=  0.00024069 RMS(Int)=  0.00011461
 Iteration 60 RMS(Cart)=  0.00024069 RMS(Int)=  0.00011461
 Iteration 61 RMS(Cart)=  0.00024069 RMS(Int)=  0.00011461
 Iteration 62 RMS(Cart)=  0.00024069 RMS(Int)=  0.00011461
 Iteration 63 RMS(Cart)=  0.00024069 RMS(Int)=  0.00011461
 Iteration 64 RMS(Cart)=  0.00024069 RMS(Int)=  0.00011461
 Iteration 65 RMS(Cart)=  0.00024069 RMS(Int)=  0.00011461
 Iteration 66 RMS(Cart)=  0.00024069 RMS(Int)=  0.00011461
 Iteration 67 RMS(Cart)=  0.00024069 RMS(Int)=  0.00011461
 Iteration 68 RMS(Cart)=  0.00024069 RMS(Int)=  0.00011461
 Iteration 69 RMS(Cart)=  0.00024069 RMS(Int)=  0.00011461
 Iteration 70 RMS(Cart)=  0.00024069 RMS(Int)=  0.00011461
 Iteration 71 RMS(Cart)=  0.00024069 RMS(Int)=  0.00011461
 Iteration 72 RMS(Cart)=  0.00024069 RMS(Int)=  0.00011461
 Iteration 73 RMS(Cart)=  0.00024069 RMS(Int)=  0.00011461
 Iteration 74 RMS(Cart)=  0.00024069 RMS(Int)=  0.00011461
 Iteration 75 RMS(Cart)=  0.00024069 RMS(Int)=  0.00011461
 Iteration 76 RMS(Cart)=  0.00024069 RMS(Int)=  0.00011461
 Iteration 77 RMS(Cart)=  0.00024069 RMS(Int)=  0.00011461
 Iteration 78 RMS(Cart)=  0.00024069 RMS(Int)=  0.00011461
 Iteration 79 RMS(Cart)=  0.00024069 RMS(Int)=  0.00011461
 Iteration 80 RMS(Cart)=  0.00024069 RMS(Int)=  0.00011461
 Iteration 81 RMS(Cart)=  0.00024069 RMS(Int)=  0.00011461
 Iteration 82 RMS(Cart)=  0.00024069 RMS(Int)=  0.00011461
 Iteration 83 RMS(Cart)=  0.00024069 RMS(Int)=  0.00011461
 Iteration 84 RMS(Cart)=  0.00024069 RMS(Int)=  0.00011461
 Iteration 85 RMS(Cart)=  0.00024069 RMS(Int)=  0.00011461
 Iteration 86 RMS(Cart)=  0.00024069 RMS(Int)=  0.00011461
 Iteration 87 RMS(Cart)=  0.00024069 RMS(Int)=  0.00011461
 Iteration 88 RMS(Cart)=  0.00024069 RMS(Int)=  0.00011461
 Iteration 89 RMS(Cart)=  0.00024069 RMS(Int)=  0.00011461
 Iteration 90 RMS(Cart)=  0.00024069 RMS(Int)=  0.00011461
 Iteration 91 RMS(Cart)=  0.00024069 RMS(Int)=  0.00011461
 Iteration 92 RMS(Cart)=  0.00024069 RMS(Int)=  0.00011461
 Iteration 93 RMS(Cart)=  0.00024069 RMS(Int)=  0.00011461
 Iteration 94 RMS(Cart)=  0.00024069 RMS(Int)=  0.00011461
 Iteration 95 RMS(Cart)=  0.00024069 RMS(Int)=  0.00011461
 Iteration 96 RMS(Cart)=  0.00024069 RMS(Int)=  0.00011461
 Iteration 97 RMS(Cart)=  0.00024069 RMS(Int)=  0.00011461
 Iteration 98 RMS(Cart)=  0.00024069 RMS(Int)=  0.00011461
 Iteration 99 RMS(Cart)=  0.00024069 RMS(Int)=  0.00011461
 Iteration100 RMS(Cart)=  0.00024069 RMS(Int)=  0.00011461
 New curvilinear step not converged.
 ITry= 9 IFail=1 DXMaxC= 3.39D-02 DCOld= 1.00D+10 DXMaxT= 2.87D-01 DXLimC= 3.00D+00 Rises=F
 Iteration  1 RMS(Cart)=  0.02418727 RMS(Int)=  0.00023807
 Iteration  2 RMS(Cart)=  0.00031803 RMS(Int)=  0.00011349
 Iteration  3 RMS(Cart)=  0.00023835 RMS(Int)=  0.00011348
 Iteration  4 RMS(Cart)=  0.00023833 RMS(Int)=  0.00011348
 Iteration  5 RMS(Cart)=  0.00023833 RMS(Int)=  0.00011348
 Iteration  6 RMS(Cart)=  0.00023833 RMS(Int)=  0.00011348
 Iteration  7 RMS(Cart)=  0.00023833 RMS(Int)=  0.00011348
 Iteration  8 RMS(Cart)=  0.00023833 RMS(Int)=  0.00011348
 Iteration  9 RMS(Cart)=  0.00023833 RMS(Int)=  0.00011348
 Iteration 10 RMS(Cart)=  0.00023833 RMS(Int)=  0.00011348
 Iteration 11 RMS(Cart)=  0.00023833 RMS(Int)=  0.00011348
 Iteration 12 RMS(Cart)=  0.00023833 RMS(Int)=  0.00011348
 Iteration 13 RMS(Cart)=  0.00023833 RMS(Int)=  0.00011348
 Iteration 14 RMS(Cart)=  0.00023833 RMS(Int)=  0.00011348
 Iteration 15 RMS(Cart)=  0.00023833 RMS(Int)=  0.00011348
 Iteration 16 RMS(Cart)=  0.00023833 RMS(Int)=  0.00011348
 Iteration 17 RMS(Cart)=  0.00023833 RMS(Int)=  0.00011348
 Iteration 18 RMS(Cart)=  0.00023833 RMS(Int)=  0.00011348
 Iteration 19 RMS(Cart)=  0.00023833 RMS(Int)=  0.00011348
 Iteration 20 RMS(Cart)=  0.00023833 RMS(Int)=  0.00011348
 Iteration 21 RMS(Cart)=  0.00023833 RMS(Int)=  0.00011348
 Iteration 22 RMS(Cart)=  0.00023833 RMS(Int)=  0.00011348
 Iteration 23 RMS(Cart)=  0.00023833 RMS(Int)=  0.00011348
 Iteration 24 RMS(Cart)=  0.00023833 RMS(Int)=  0.00011348
 Iteration 25 RMS(Cart)=  0.00023833 RMS(Int)=  0.00011348
 Iteration 26 RMS(Cart)=  0.00023833 RMS(Int)=  0.00011348
 Iteration 27 RMS(Cart)=  0.00023833 RMS(Int)=  0.00011348
 Iteration 28 RMS(Cart)=  0.00023833 RMS(Int)=  0.00011348
 Iteration 29 RMS(Cart)=  0.00023833 RMS(Int)=  0.00011348
 Iteration 30 RMS(Cart)=  0.00023833 RMS(Int)=  0.00011348
 Iteration 31 RMS(Cart)=  0.00023833 RMS(Int)=  0.00011348
 Iteration 32 RMS(Cart)=  0.00023833 RMS(Int)=  0.00011348
 Iteration 33 RMS(Cart)=  0.00023833 RMS(Int)=  0.00011348
 Iteration 34 RMS(Cart)=  0.00023833 RMS(Int)=  0.00011348
 Iteration 35 RMS(Cart)=  0.00023833 RMS(Int)=  0.00011348
 Iteration 36 RMS(Cart)=  0.00023833 RMS(Int)=  0.00011348
 Iteration 37 RMS(Cart)=  0.00023833 RMS(Int)=  0.00011348
 Iteration 38 RMS(Cart)=  0.00023833 RMS(Int)=  0.00011348
 Iteration 39 RMS(Cart)=  0.00023833 RMS(Int)=  0.00011348
 Iteration 40 RMS(Cart)=  0.00023833 RMS(Int)=  0.00011348
 Iteration 41 RMS(Cart)=  0.00023833 RMS(Int)=  0.00011348
 Iteration 42 RMS(Cart)=  0.00023833 RMS(Int)=  0.00011348
 Iteration 43 RMS(Cart)=  0.00023833 RMS(Int)=  0.00011348
 Iteration 44 RMS(Cart)=  0.00023833 RMS(Int)=  0.00011348
 Iteration 45 RMS(Cart)=  0.00023833 RMS(Int)=  0.00011348
 Iteration 46 RMS(Cart)=  0.00023833 RMS(Int)=  0.00011348
 Iteration 47 RMS(Cart)=  0.00023833 RMS(Int)=  0.00011348
 Iteration 48 RMS(Cart)=  0.00023833 RMS(Int)=  0.00011348
 Iteration 49 RMS(Cart)=  0.00023833 RMS(Int)=  0.00011348
 Iteration 50 RMS(Cart)=  0.00023833 RMS(Int)=  0.00011348
 Iteration 51 RMS(Cart)=  0.00023833 RMS(Int)=  0.00011348
 Iteration 52 RMS(Cart)=  0.00023833 RMS(Int)=  0.00011348
 Iteration 53 RMS(Cart)=  0.00023833 RMS(Int)=  0.00011348
 Iteration 54 RMS(Cart)=  0.00023833 RMS(Int)=  0.00011348
 Iteration 55 RMS(Cart)=  0.00023833 RMS(Int)=  0.00011348
 Iteration 56 RMS(Cart)=  0.00023833 RMS(Int)=  0.00011348
 Iteration 57 RMS(Cart)=  0.00023833 RMS(Int)=  0.00011348
 Iteration 58 RMS(Cart)=  0.00023833 RMS(Int)=  0.00011348
 Iteration 59 RMS(Cart)=  0.00023833 RMS(Int)=  0.00011348
 Iteration 60 RMS(Cart)=  0.00023833 RMS(Int)=  0.00011348
 Iteration 61 RMS(Cart)=  0.00023833 RMS(Int)=  0.00011348
 Iteration 62 RMS(Cart)=  0.00023833 RMS(Int)=  0.00011348
 Iteration 63 RMS(Cart)=  0.00023833 RMS(Int)=  0.00011348
 Iteration 64 RMS(Cart)=  0.00023833 RMS(Int)=  0.00011348
 Iteration 65 RMS(Cart)=  0.00023833 RMS(Int)=  0.00011348
 Iteration 66 RMS(Cart)=  0.00023833 RMS(Int)=  0.00011348
 Iteration 67 RMS(Cart)=  0.00023833 RMS(Int)=  0.00011348
 Iteration 68 RMS(Cart)=  0.00023833 RMS(Int)=  0.00011348
 Iteration 69 RMS(Cart)=  0.00023833 RMS(Int)=  0.00011348
 Iteration 70 RMS(Cart)=  0.00023833 RMS(Int)=  0.00011348
 Iteration 71 RMS(Cart)=  0.00023833 RMS(Int)=  0.00011348
 Iteration 72 RMS(Cart)=  0.00023833 RMS(Int)=  0.00011348
 Iteration 73 RMS(Cart)=  0.00023833 RMS(Int)=  0.00011348
 Iteration 74 RMS(Cart)=  0.00023833 RMS(Int)=  0.00011348
 Iteration 75 RMS(Cart)=  0.00023833 RMS(Int)=  0.00011348
 Iteration 76 RMS(Cart)=  0.00023833 RMS(Int)=  0.00011348
 Iteration 77 RMS(Cart)=  0.00023833 RMS(Int)=  0.00011348
 Iteration 78 RMS(Cart)=  0.00023833 RMS(Int)=  0.00011348
 Iteration 79 RMS(Cart)=  0.00023833 RMS(Int)=  0.00011348
 Iteration 80 RMS(Cart)=  0.00023833 RMS(Int)=  0.00011348
 Iteration 81 RMS(Cart)=  0.00023833 RMS(Int)=  0.00011348
 Iteration 82 RMS(Cart)=  0.00023833 RMS(Int)=  0.00011348
 Iteration 83 RMS(Cart)=  0.00023833 RMS(Int)=  0.00011348
 Iteration 84 RMS(Cart)=  0.00023833 RMS(Int)=  0.00011348
 Iteration 85 RMS(Cart)=  0.00023833 RMS(Int)=  0.00011348
 Iteration 86 RMS(Cart)=  0.00023833 RMS(Int)=  0.00011348
 Iteration 87 RMS(Cart)=  0.00023833 RMS(Int)=  0.00011348
 Iteration 88 RMS(Cart)=  0.00023833 RMS(Int)=  0.00011348
 Iteration 89 RMS(Cart)=  0.00023833 RMS(Int)=  0.00011348
 Iteration 90 RMS(Cart)=  0.00023833 RMS(Int)=  0.00011348
 Iteration 91 RMS(Cart)=  0.00023833 RMS(Int)=  0.00011348
 Iteration 92 RMS(Cart)=  0.00023833 RMS(Int)=  0.00011348
 Iteration 93 RMS(Cart)=  0.00023833 RMS(Int)=  0.00011348
 Iteration 94 RMS(Cart)=  0.00023833 RMS(Int)=  0.00011348
 Iteration 95 RMS(Cart)=  0.00023833 RMS(Int)=  0.00011348
 Iteration 96 RMS(Cart)=  0.00023833 RMS(Int)=  0.00011348
 Iteration 97 RMS(Cart)=  0.00023833 RMS(Int)=  0.00011348
 Iteration 98 RMS(Cart)=  0.00023833 RMS(Int)=  0.00011348
 Iteration 99 RMS(Cart)=  0.00023833 RMS(Int)=  0.00011348
 Iteration100 RMS(Cart)=  0.00023833 RMS(Int)=  0.00011348
 New curvilinear step not converged.
 ITry=10 IFail=1 DXMaxC= 3.39D-02 DCOld= 1.00D+10 DXMaxT= 2.87D-01 DXLimC= 3.00D+00 Rises=F
 RedQX1 iteration     1 Try  1 RMS(Cart)=  0.00483952 RMS(Int)=  0.00921861 XScale=  5.00031327
 RedQX1 iteration     1 Try  2 RMS(Cart)=  0.00483951 RMS(Int)=  0.00691452 XScale=  2.50027210
 RedQX1 iteration     1 Try  3 RMS(Cart)=  0.00483946 RMS(Int)=  0.00461088 XScale=  1.66689410
 RedQX1 iteration     1 Try  4 RMS(Cart)=  0.00483943 RMS(Int)=  0.00230811 XScale=  1.25017746
 RedQX1 iteration     1 Try  5 RMS(Cart)=  0.00483977 RMS(Int)=  0.00014498 XScale=  1.01099489
 RedQX1 iteration     1 Try  6 RMS(Cart)=  0.00027013 RMS(Int)=  0.00024809 XScale=  1.02200307
 RedQX1 iteration     2 Try  1 RMS(Cart)=  0.00010420 RMS(Int)=  0.00029771 XScale=  1.02652069
 RedQX1 iteration     2 Try  2 RMS(Cart)=  0.00015630 RMS(Int)=  0.00037214 XScale=  1.03337258
 RedQX1 iteration     2 Try  3 RMS(Cart)=  0.00026051 RMS(Int)=  0.00049619 XScale=  1.04499815
 RedQX1 iteration     2 Try  4 RMS(Cart)=  0.00052102 RMS(Int)=  0.00074431 XScale=  1.06905266
 RedQX1 iteration     2 Try  5 RMS(Cart)=  0.00156310 RMS(Int)=  0.00148868 XScale=  1.14835716
 RedQX1 iteration     2 Try  6 RMS(Cart)=  0.00312627 RMS(Int)=  0.00297753 XScale=  1.34843094
 RedQX1 iteration     3 Try  1 RMS(Cart)=  0.00125054 RMS(Int)=  0.00357310 XScale=  1.44944866
 RedQX1 iteration     3 Try  2 RMS(Cart)=  0.00187581 RMS(Int)=  0.00446649 XScale=  1.63295472
 RedQX1 iteration     3 Try  3 RMS(Cart)=  0.00312638 RMS(Int)=  0.00595558 XScale=  2.06969370
 RedQX1 iteration     3 Try  4 RMS(Cart)=  0.00625278 RMS(Int)=  0.00893414 XScale=  4.44972436
 RedQX1 iteration     3 Try  5 RMS(Cart)=  0.01875831 RMS(Int)=  0.01787389 XScale=  1.81308202
 RedQX1 iteration     3 Try  6 RMS(Cart)=  0.03751535 RMS(Int)=  0.03577691 XScale=  0.47486163
 RedQX1 iteration     4 Try  1 RMS(Cart)=  0.00750307 RMS(Int)=  0.02145081 XScale=  1.16009525
 RedQX1 iteration     4 Try  2 RMS(Cart)=  0.01125436 RMS(Int)=  0.02681839 XScale=  0.75304314
 RedQX1 iteration     5 Try  1 RMS(Cart)=  0.00900349 RMS(Int)=  0.02574456 XScale=  0.80989984
 RedQX1 iteration     6 Try  1 RMS(Cart)=  0.00180070 RMS(Int)=  0.02230937 XScale=  1.06778256
 RedQX1 iteration     6 Try  2 RMS(Cart)=  0.00195074 RMS(Int)=  0.02323955 XScale=  0.98303199
 RedQX1 iteration     7 Try  1 RMS(Cart)=  0.00187271 RMS(Int)=  0.02320234 XScale=  0.98616313
 RedQX1 iteration     8 Try  1 RMS(Cart)=  0.00037454 RMS(Int)=  0.02248796 XScale=  1.05039651
 RedQX1 iteration     8 Try  2 RMS(Cart)=  0.00038058 RMS(Int)=  0.02266942 XScale=  1.03330020
 RedQX1 iteration     8 Try  3 RMS(Cart)=  0.00038677 RMS(Int)=  0.02285385 XScale=  1.01648646
 RedQX1 iteration     8 Try  4 RMS(Cart)=  0.00039311 RMS(Int)=  0.02304130 XScale=  0.99994832
 RedQX1 iteration     8 Try  5 RMS(Cart)=  0.00039961 RMS(Int)=  0.02323184 XScale=  0.98367908
 RedQX1 iteration     9 Try  1 RMS(Cart)=  0.00038682 RMS(Int)=  0.02322575 XScale=  0.98419150
 RedQX1 iteration    10 Try  1 RMS(Cart)=  0.00007736 RMS(Int)=  0.02307819 XScale=  0.99675676
 RedQX1 iteration    11 Try  1 RMS(Cart)=  0.00001547 RMS(Int)=  0.02304867 XScale=  0.99930838
 RedQX1 iteration    11 Try  2 RMS(Cart)=  0.00001548 RMS(Int)=  0.02305606 XScale=  0.99866884
 RedQX1 iteration    12 Try  1 RMS(Cart)=  0.00001548 RMS(Int)=  0.02305605 XScale=  0.99866905
 RedQX1 iteration    13 Try  1 RMS(Cart)=  0.00000310 RMS(Int)=  0.02305015 XScale=  0.99918045
 RedQX1 iteration    13 Try  2 RMS(Cart)=  0.00000310 RMS(Int)=  0.02305163 XScale=  0.99905253
 RedQX1 iteration    13 Try  3 RMS(Cart)=  0.00000310 RMS(Int)=  0.02305310 XScale=  0.99892463
 RedQX1 iteration    14 Try  1 RMS(Cart)=  0.00000310 RMS(Int)=  0.02305310 XScale=  0.99892465
 RedQX1 iteration    15 Try  1 RMS(Cart)=  0.00000062 RMS(Int)=  0.02305192 XScale=  0.99902695
 RedQX1 iteration    15 Try  2 RMS(Cart)=  0.00000062 RMS(Int)=  0.02305222 XScale=  0.99900137
 RedQX1 iteration    15 Try  3 RMS(Cart)=  0.00000062 RMS(Int)=  0.02305251 XScale=  0.99897580
 RedQX1 iteration    16 Try  1 RMS(Cart)=  0.00000062 RMS(Int)=  0.02305251 XScale=  0.99897580
 RedQX1 iteration    17 Try  1 RMS(Cart)=  0.00000012 RMS(Int)=  0.02305227 XScale=  0.99899626
 RedQX1 iteration    18 Try  1 RMS(Cart)=  0.00000002 RMS(Int)=  0.02305223 XScale=  0.99900035
 ClnCor:  largest displacement from symmetrization is 4.51D-13 for atom     3.
 B after Tr=     0.000000   39.684249   38.806782
         Rot=    0.000000    1.000000   -0.000000    0.000000 Ang= 180.00 deg.
 Variable       Old X    -DE/DX   Delta X   Delta X   Delta X     New X
                                 (Linear)    (Quad)   (Total)
    R1        5.14483  -0.00002  -0.00050   0.00019   0.00092   5.14575
    R2        5.14483  -0.00002  -0.00050   0.00019   0.00092   5.14575
    A1        3.12175   0.00002   0.01994   0.00001  -0.01994   3.10181
         Item               Value     Threshold  Converged?
 Maximum Force            0.000020     0.000450     YES
 RMS     Force            0.000017     0.000300     YES
 Maximum Displacement     0.034197     0.001800     NO 
 RMS     Displacement     0.024181     0.001200     NO 
 Predicted change in Energy=-6.704021D-07
 GradGradGradGradGradGradGradGradGradGradGradGradGradGradGradGradGradGrad

                          Input orientation:                          
 ---------------------------------------------------------------------
 Center     Atomic      Atomic             Coordinates (Angstroms)
 Number     Number       Type             X           Y           Z
 ---------------------------------------------------------------------
      1         16           0       10.500000   10.500000   10.303939
      2         19           0        7.777523   10.500000   10.249779
      3         19           0       13.222477   10.500000   10.249779
 ---------------------------------------------------------------------
                    Distance matrix (angstroms):
                    1          2          3
     1  S    0.000000
     2  K    2.723016   0.000000
     3  K    2.723016   5.444955   0.000000
 Stoichiometry    K2S
 Framework group  C2V[C2(S),SGV(K2)]
 Deg. of freedom     2
 Full point group                 C2V     NOp   4
 Largest Abelian subgroup         C2V     NOp   4
 Largest concise Abelian subgroup C2      NOp   2
                         Standard orientation:                         
 ---------------------------------------------------------------------
 Center     Atomic      Atomic             Coordinates (Angstroms)
 Number     Number       Type             X           Y           Z
 ---------------------------------------------------------------------
      1         16           0       -0.000000    0.000000    0.038113
      2         19           0        0.000000    2.722477   -0.016048
      3         19           0       -0.000000   -2.722477   -0.016048
 ---------------------------------------------------------------------
 Rotational constants (GHZ):        7599.5356767           0.8749805           0.8748798
 Standard basis: def2QZVPP (5D, 7F)
 There are    96 symmetry adapted cartesian basis functions of A1  symmetry.
 There are    35 symmetry adapted cartesian basis functions of A2  symmetry.
 There are    45 symmetry adapted cartesian basis functions of B1  symmetry.
 There are    76 symmetry adapted cartesian basis functions of B2  symmetry.
 There are    77 symmetry adapted basis functions of A1  symmetry.
 There are    31 symmetry adapted basis functions of A2  symmetry.
 There are    39 symmetry adapted basis functions of B1  symmetry.
 There are    63 symmetry adapted basis functions of B2  symmetry.
   210 basis functions,   385 primitive gaussians,   252 cartesian basis functions
    27 alpha electrons       27 beta electrons
       nuclear repulsion energy       153.2400596123 Hartrees.
 NAtoms=    3 NActive=    3 NUniq=    2 SFac= 2.25D+00 NAtFMM=   60 NAOKFM=F Big=F
 Integral buffers will be    131072 words long.
 Raffenetti 2 integral format.
 Two-electron integral symmetry is turned on.
 One-electron integrals computed using PRISM.
   4 Symmetry operations used in ECPInt.
 ECPInt:  NShTT=    2485 NPrTT=   10021 LenC2=    2319 LenP2D=    7244.
 LDataN:  DoStor=T MaxTD1= 8 Len=  415
 NBasis=   210 RedAO= T EigKep=  7.55D-04  NBF=    77    31    39    63
 NBsUse=   210 1.00D-06 EigRej= -1.00D+00 NBFU=    77    31    39    63
 Initial guess from the checkpoint file:  "/data/hutter/SMG16/TPSS/Gau-56371.chk"
 B after Tr=     0.000000    0.000000   -0.000000
         Rot=    1.000000   -0.000000   -0.000000   -0.000000 Ang=   0.00 deg.
 Initial guess orbital symmetries:
       Occupied  (B2) (A1) (A1) (B2) (A1) (A1) (B1) (B2) (A2) (A1)
                 (B2) (A1) (B2) (A1) (B1) (A1) (B2) (A1) (B1) (B2)
                 (A2) (A1) (B2) (A1) (B2) (A1) (B1)
       Virtual   (A1) (B2) (A1) (B1) (A2) (B2) (A1) (B2) (A1) (B2)
                 (B1) (A1) (A2) (B2) (A1) (A1) (B1) (B2) (A2) (B2)
                 (A2) (B2) (A1) (B1) (A1) (B2) (A1) (B2) (A2) (B2)
                 (A1) (B1) (A1) (B1) (B1) (A1) (A2) (B2) (A2) (B2)
                 (A1) (A1) (B1) (A1) (B2) (A1) (B1) (B2) (A2) (B2)
                 (A2) (A1) (B1) (B2) (A2) (B2) (A1) (B1) (A1) (A1)
                 (B1) (B2) (A1) (A2) (B2) (B2) (A1) (A1) (B1) (B2)
                 (A2) (B2) (A1) (A1) (B1) (B2) (A2) (B1) (A1) (A2)
                 (B2) (B2) (A1) (A1) (B1) (A1) (B1) (A1) (B1) (A1)
                 (B2) (A2) (B2) (A2) (B2) (A1) (B1) (B2) (A1) (B2)
                 (A1) (B1) (A1) (A2) (B2) (B1) (A1) (A2) (B2) (A2)
                 (B2) (A1) (B1) (A1) (B2) (A1) (B1) (A1) (B1) (A1)
                 (A2) (B2) (A2) (B2) (B1) (A1) (B2) (A2) (B2) (A1)
                 (B2) (A2) (A1) (B1) (B1) (A1) (A2) (B2) (A1) (B1)
                 (B2) (A2) (A1) (B1) (A1) (B2) (B1) (A1) (B2) (A1)
                 (B2) (A1) (B1) (A1) (A2) (B2) (B1) (A1) (A2) (B2)
                 (A2) (B2) (A1) (B1) (A1) (B2) (A1) (B1) (A2) (B2)
                 (A1) (A1) (B2) (A1) (B1) (A1) (B2) (A1) (B2) (A1)
                 (A1) (B2) (A1)
 ExpMin= 1.53D-02 ExpMax= 2.02D+06 ExpMxC= 2.31D+03 IAcc=3 IRadAn=         5 AccDes= 0.00D+00
 Harris functional with IExCor= 1009 and IRadAn=       5 diagonalized for initial guess.
 HarFok:  IExCor= 1009 AccDes= 0.00D+00 IRadAn=         5 IDoV= 1 UseB2=F ITyADJ=14
 ICtDFT=  3500011 ScaDFX=  1.000000  1.000000  1.000000  1.000000
 FoFCou: FMM=F IPFlag=           0 FMFlag=      100000 FMFlg1=           0
         NFxFlg=           0 DoJE=T BraDBF=F KetDBF=T FulRan=T
         wScrn=  0.000000 ICntrl=       500 IOpCl=  0 I1Cent=   200000004 NGrid=           0
         NMat0=    1 NMatS0=      1 NMatT0=    0 NMatD0=    1 NMtDS0=    0 NMtDT0=    0
 Petite list used in FoFCou.
 Keep J ints in memory in symmetry-blocked form, NReq=307684869.
 Requested convergence on RMS density matrix=1.00D-08 within 128 cycles.
 Requested convergence on MAX density matrix=1.00D-06.
 Requested convergence on             energy=1.00D-06.
 No special actions if energy rises.
 SCF Done:  E(RTPSS-TPSS) =  -1598.20844366     A.U. after    8 cycles
            NFock=  8  Conv=0.62D-09     -V/T= 2.0018
   4 Symmetry operations used in ECPInt.
 ECPInt:  NShTT=    2485 NPrTT=   10021 LenC2=    2319 LenP2D=    7244.
 LDataN:  DoStor=T MaxTD1= 9 Len=  602
 Calling FoFJK, ICntrl=      2527 FMM=F ISym2X=1 I1Cent= 0 IOpClX= 0 NMat=1 NMatS=1 NMatT=0.
 ***** Axes restored to original set *****
 -------------------------------------------------------------------
 Center     Atomic                   Forces (Hartrees/Bohr)
 Number     Number              X              Y              Z
 -------------------------------------------------------------------
      1       16           0.000000000   -0.000000000   -0.000017676
      2       19           0.000061260    0.000000000    0.000008838
      3       19          -0.000061260    0.000000000    0.000008838
 -------------------------------------------------------------------
 Cartesian Forces:  Max     0.000061260 RMS     0.000029766

 GradGradGradGradGradGradGradGradGradGradGradGradGradGradGradGradGradGrad
 Berny optimization.
 Using GEDIIS/GDIIS optimizer.
 FormGI is forming the generalized inverse of G from B-inverse, IUseBI=4.
 Internal  Forces:  Max     0.000061424 RMS     0.000055022
 Search for a local minimum.
 Step number  13 out of a maximum of   20
 All quantities printed in internal units (Hartrees-Bohrs-Radians)
 Mixed Optimization -- En-DIIS/RFO-DIIS
 Swapping is turned off.
 Update second derivatives using D2CorX and points   10   11   12   13
 DE=  6.63D-07 DEPred=-6.70D-07 R=-9.90D-01
 Trust test=-9.90D-01 RLast= 2.00D-02 DXMaxT set to 1.44D-01
 The second derivative matrix:
                          R1        R2        A1
           R1           0.04602
           R2           0.00735   0.04602
           A1           0.00015   0.00015   0.00097
 ITU= -1 -1 -1  0
     Eigenvalues ---    0.00097   0.03867   0.05337
 En-DIIS/RFO-DIIS/Sim-DIIS IScMMF=       -3 using points:    13   12   11   10
 RFO step:  Lambda=-1.74672409D-06.
 DIIS inversion failure, remove point   4.
 DIIS inversion failure, remove point   3.
 RFO-DIIS uses    2 points instead of    4
 EnCoef did   100 forward-backward iterations
 EnCoef did   100 forward-backward iterations
 DidBck=T Rises=T En-DIIS coefs:    0.17857    0.00000    0.00000    0.82143
 Iteration  1 RMS(Cart)=  0.04865132 RMS(Int)=  0.00092550
 Iteration  2 RMS(Cart)=  0.00115893 RMS(Int)=  0.00037527
 Iteration  3 RMS(Cart)=  0.00078816 RMS(Int)=  0.00037520
 Iteration  4 RMS(Cart)=  0.00078800 RMS(Int)=  0.00037520
 Iteration  5 RMS(Cart)=  0.00078800 RMS(Int)=  0.00037520
 Iteration  6 RMS(Cart)=  0.00078800 RMS(Int)=  0.00037520
 Iteration  7 RMS(Cart)=  0.00078800 RMS(Int)=  0.00037520
 Iteration  8 RMS(Cart)=  0.00078800 RMS(Int)=  0.00037520
 Iteration  9 RMS(Cart)=  0.00078800 RMS(Int)=  0.00037520
 Iteration 10 RMS(Cart)=  0.00078800 RMS(Int)=  0.00037520
 Iteration 11 RMS(Cart)=  0.00078800 RMS(Int)=  0.00037520
 Iteration 12 RMS(Cart)=  0.00078800 RMS(Int)=  0.00037520
 Iteration 13 RMS(Cart)=  0.00078800 RMS(Int)=  0.00037520
 Iteration 14 RMS(Cart)=  0.00078800 RMS(Int)=  0.00037520
 Iteration 15 RMS(Cart)=  0.00078800 RMS(Int)=  0.00037520
 Iteration 16 RMS(Cart)=  0.00078800 RMS(Int)=  0.00037520
 Iteration 17 RMS(Cart)=  0.00078800 RMS(Int)=  0.00037520
 Iteration 18 RMS(Cart)=  0.00078800 RMS(Int)=  0.00037520
 Iteration 19 RMS(Cart)=  0.00078800 RMS(Int)=  0.00037520
 Iteration 20 RMS(Cart)=  0.00078800 RMS(Int)=  0.00037520
 Iteration 21 RMS(Cart)=  0.00078800 RMS(Int)=  0.00037520
 Iteration 22 RMS(Cart)=  0.00078800 RMS(Int)=  0.00037520
 Iteration 23 RMS(Cart)=  0.00078800 RMS(Int)=  0.00037520
 Iteration 24 RMS(Cart)=  0.00078800 RMS(Int)=  0.00037520
 Iteration 25 RMS(Cart)=  0.00078800 RMS(Int)=  0.00037520
 Iteration 26 RMS(Cart)=  0.00078800 RMS(Int)=  0.00037520
 Iteration 27 RMS(Cart)=  0.00078800 RMS(Int)=  0.00037520
 Iteration 28 RMS(Cart)=  0.00078800 RMS(Int)=  0.00037520
 Iteration 29 RMS(Cart)=  0.00078800 RMS(Int)=  0.00037520
 Iteration 30 RMS(Cart)=  0.00078800 RMS(Int)=  0.00037520
 Iteration 31 RMS(Cart)=  0.00078800 RMS(Int)=  0.00037520
 Iteration 32 RMS(Cart)=  0.00078800 RMS(Int)=  0.00037520
 Iteration 33 RMS(Cart)=  0.00078800 RMS(Int)=  0.00037520
 Iteration 34 RMS(Cart)=  0.00078800 RMS(Int)=  0.00037520
 Iteration 35 RMS(Cart)=  0.00078800 RMS(Int)=  0.00037520
 Iteration 36 RMS(Cart)=  0.00078800 RMS(Int)=  0.00037520
 Iteration 37 RMS(Cart)=  0.00078800 RMS(Int)=  0.00037520
 Iteration 38 RMS(Cart)=  0.00078800 RMS(Int)=  0.00037520
 Iteration 39 RMS(Cart)=  0.00078800 RMS(Int)=  0.00037520
 Iteration 40 RMS(Cart)=  0.00078800 RMS(Int)=  0.00037520
 Iteration 41 RMS(Cart)=  0.00078800 RMS(Int)=  0.00037520
 Iteration 42 RMS(Cart)=  0.00078800 RMS(Int)=  0.00037520
 Iteration 43 RMS(Cart)=  0.00078800 RMS(Int)=  0.00037520
 Iteration 44 RMS(Cart)=  0.00078800 RMS(Int)=  0.00037520
 Iteration 45 RMS(Cart)=  0.00078800 RMS(Int)=  0.00037520
 Iteration 46 RMS(Cart)=  0.00078800 RMS(Int)=  0.00037520
 Iteration 47 RMS(Cart)=  0.00078800 RMS(Int)=  0.00037520
 Iteration 48 RMS(Cart)=  0.00078800 RMS(Int)=  0.00037520
 Iteration 49 RMS(Cart)=  0.00078800 RMS(Int)=  0.00037520
 Iteration 50 RMS(Cart)=  0.00078800 RMS(Int)=  0.00037520
 Iteration 51 RMS(Cart)=  0.00078800 RMS(Int)=  0.00037520
 Iteration 52 RMS(Cart)=  0.00078800 RMS(Int)=  0.00037520
 Iteration 53 RMS(Cart)=  0.00078800 RMS(Int)=  0.00037520
 Iteration 54 RMS(Cart)=  0.00078800 RMS(Int)=  0.00037520
 Iteration 55 RMS(Cart)=  0.00078800 RMS(Int)=  0.00037520
 Iteration 56 RMS(Cart)=  0.00078800 RMS(Int)=  0.00037520
 Iteration 57 RMS(Cart)=  0.00078800 RMS(Int)=  0.00037520
 Iteration 58 RMS(Cart)=  0.00078800 RMS(Int)=  0.00037520
 Iteration 59 RMS(Cart)=  0.00078800 RMS(Int)=  0.00037520
 Iteration 60 RMS(Cart)=  0.00078800 RMS(Int)=  0.00037520
 Iteration 61 RMS(Cart)=  0.00078800 RMS(Int)=  0.00037520
 Iteration 62 RMS(Cart)=  0.00078800 RMS(Int)=  0.00037520
 Iteration 63 RMS(Cart)=  0.00078800 RMS(Int)=  0.00037520
 Iteration 64 RMS(Cart)=  0.00078800 RMS(Int)=  0.00037520
 Iteration 65 RMS(Cart)=  0.00078800 RMS(Int)=  0.00037520
 Iteration 66 RMS(Cart)=  0.00078800 RMS(Int)=  0.00037520
 Iteration 67 RMS(Cart)=  0.00078800 RMS(Int)=  0.00037520
 Iteration 68 RMS(Cart)=  0.00078800 RMS(Int)=  0.00037520
 Iteration 69 RMS(Cart)=  0.00078800 RMS(Int)=  0.00037520
 Iteration 70 RMS(Cart)=  0.00078800 RMS(Int)=  0.00037520
 Iteration 71 RMS(Cart)=  0.00078800 RMS(Int)=  0.00037520
 Iteration 72 RMS(Cart)=  0.00078800 RMS(Int)=  0.00037520
 Iteration 73 RMS(Cart)=  0.00078800 RMS(Int)=  0.00037520
 Iteration 74 RMS(Cart)=  0.00078800 RMS(Int)=  0.00037520
 Iteration 75 RMS(Cart)=  0.00078800 RMS(Int)=  0.00037520
 Iteration 76 RMS(Cart)=  0.00078800 RMS(Int)=  0.00037520
 Iteration 77 RMS(Cart)=  0.00078800 RMS(Int)=  0.00037520
 Iteration 78 RMS(Cart)=  0.00078800 RMS(Int)=  0.00037520
 Iteration 79 RMS(Cart)=  0.00078800 RMS(Int)=  0.00037520
 Iteration 80 RMS(Cart)=  0.00078800 RMS(Int)=  0.00037520
 Iteration 81 RMS(Cart)=  0.00078800 RMS(Int)=  0.00037520
 Iteration 82 RMS(Cart)=  0.00078800 RMS(Int)=  0.00037520
 Iteration 83 RMS(Cart)=  0.00078800 RMS(Int)=  0.00037520
 Iteration 84 RMS(Cart)=  0.00078800 RMS(Int)=  0.00037520
 Iteration 85 RMS(Cart)=  0.00078800 RMS(Int)=  0.00037520
 Iteration 86 RMS(Cart)=  0.00078800 RMS(Int)=  0.00037520
 Iteration 87 RMS(Cart)=  0.00078800 RMS(Int)=  0.00037520
 Iteration 88 RMS(Cart)=  0.00078800 RMS(Int)=  0.00037520
 Iteration 89 RMS(Cart)=  0.00078800 RMS(Int)=  0.00037520
 Iteration 90 RMS(Cart)=  0.00078800 RMS(Int)=  0.00037520
 Iteration 91 RMS(Cart)=  0.00078800 RMS(Int)=  0.00037520
 Iteration 92 RMS(Cart)=  0.00078800 RMS(Int)=  0.00037520
 Iteration 93 RMS(Cart)=  0.00078800 RMS(Int)=  0.00037520
 Iteration 94 RMS(Cart)=  0.00078800 RMS(Int)=  0.00037520
 Iteration 95 RMS(Cart)=  0.00078800 RMS(Int)=  0.00037520
 Iteration 96 RMS(Cart)=  0.00078800 RMS(Int)=  0.00037520
 Iteration 97 RMS(Cart)=  0.00078800 RMS(Int)=  0.00037520
 Iteration 98 RMS(Cart)=  0.00078800 RMS(Int)=  0.00037520
 Iteration 99 RMS(Cart)=  0.00078800 RMS(Int)=  0.00037520
 Iteration100 RMS(Cart)=  0.00078800 RMS(Int)=  0.00037520
 New curvilinear step not converged.
 ITry= 1 IFail=1 DXMaxC= 6.77D-02 DCOld= 1.00D+10 DXMaxT= 1.44D-01 DXLimC= 3.00D+00 Rises=F
 Iteration  1 RMS(Cart)=  0.04728028 RMS(Int)=  0.00079798
 Iteration  2 RMS(Cart)=  0.00079800 RMS(Int)=  0.00000000
 Iteration  3 RMS(Cart)=  0.00000000 RMS(Int)=  0.00000000
 ITry= 2 IFail=0 DXMaxC= 6.69D-02 DCOld= 1.00D+10 DXMaxT= 1.44D-01 DXLimC= 3.00D+00 Rises=F
 ClnCor:  largest displacement from symmetrization is 1.14D-13 for atom     3.
 Variable       Old X    -DE/DX   Delta X   Delta X   Delta X     New X
                                 (Linear)    (Quad)   (Total)
    R1        5.14575  -0.00006  -0.00092  -0.00032  -0.00121   5.14454
    R2        5.14575  -0.00006  -0.00092  -0.00032  -0.00121   5.14454
    A1        3.10181   0.00004   0.02880   0.01130   0.03898   3.14079
         Item               Value     Threshold  Converged?
 Maximum Force            0.000061     0.000450     YES
 RMS     Force            0.000055     0.000300     YES
 Maximum Displacement     0.066851     0.001800     NO 
 RMS     Displacement     0.047271     0.001200     NO 
 Predicted change in Energy=-8.720340D-07
 GradGradGradGradGradGradGradGradGradGradGradGradGradGradGradGradGradGrad

                          Input orientation:                          
 ---------------------------------------------------------------------
 Center     Atomic      Atomic             Coordinates (Angstroms)
 Number     Number       Type             X           Y           Z
 ---------------------------------------------------------------------
      1         16           0       10.500000   10.500000   10.268563
      2         19           0        7.777625   10.500000   10.267467
      3         19           0       13.222375   10.500000   10.267467
 ---------------------------------------------------------------------
                    Distance matrix (angstroms):
                    1          2          3
     1  S    0.000000
     2  K    2.722375   0.000000
     3  K    2.722375   5.444750   0.000000
 Stoichiometry    K2S
 Framework group  C2V[C2(S),SGV(K2)]
 Deg. of freedom     2
 Full point group                 C2V     NOp   4
 Largest Abelian subgroup         C2V     NOp   4
 Largest concise Abelian subgroup C2      NOp   2
                         Standard orientation:                         
 ---------------------------------------------------------------------
 Center     Atomic      Atomic             Coordinates (Angstroms)
 Number     Number       Type             X           Y           Z
 ---------------------------------------------------------------------
      1         16           0        0.000000    0.000000    0.000771
      2         19           0        0.000000    2.722375   -0.000325
      3         19           0       -0.000000   -2.722375   -0.000325
 ---------------------------------------------------------------------
 Rotational constants (GHZ):    18551140.3193487           0.8750463           0.8750463
 Standard basis: def2QZVPP (5D, 7F)
 There are    96 symmetry adapted cartesian basis functions of A1  symmetry.
 There are    35 symmetry adapted cartesian basis functions of A2  symmetry.
 There are    45 symmetry adapted cartesian basis functions of B1  symmetry.
 There are    76 symmetry adapted cartesian basis functions of B2  symmetry.
 There are    77 symmetry adapted basis functions of A1  symmetry.
 There are    31 symmetry adapted basis functions of A2  symmetry.
 There are    39 symmetry adapted basis functions of B1  symmetry.
 There are    63 symmetry adapted basis functions of B2  symmetry.
   210 basis functions,   385 primitive gaussians,   252 cartesian basis functions
    27 alpha electrons       27 beta electrons
       nuclear repulsion energy       153.2691900544 Hartrees.
 NAtoms=    3 NActive=    3 NUniq=    2 SFac= 2.25D+00 NAtFMM=   60 NAOKFM=F Big=F
 Integral buffers will be    131072 words long.
 Raffenetti 2 integral format.
 Two-electron integral symmetry is turned on.
 One-electron integrals computed using PRISM.
   4 Symmetry operations used in ECPInt.
 ECPInt:  NShTT=    2485 NPrTT=   10021 LenC2=    2319 LenP2D=    7244.
 LDataN:  DoStor=T MaxTD1= 8 Len=  415
 NBasis=   210 RedAO= T EigKep=  7.54D-04  NBF=    77    31    39    63
 NBsUse=   210 1.00D-06 EigRej= -1.00D+00 NBFU=    77    31    39    63
 Initial guess from the checkpoint file:  "/data/hutter/SMG16/TPSS/Gau-56371.chk"
 B after Tr=    -0.000000   -0.000000    0.000000
         Rot=    1.000000   -0.000000    0.000000    0.000000 Ang=   0.00 deg.
 Initial guess orbital symmetries:
       Occupied  (B2) (A1) (A1) (B2) (A1) (A1) (B1) (B2) (A2) (A1)
                 (B2) (A1) (B2) (A1) (B1) (A1) (B2) (A1) (B1) (B2)
                 (A2) (A1) (B2) (A1) (B2) (A1) (B1)
       Virtual   (A1) (B2) (A1) (B1) (A2) (B2) (A1) (B2) (A1) (B2)
                 (B1) (A1) (A2) (B2) (A1) (A1) (B1) (B2) (A2) (B2)
                 (A2) (B2) (A1) (B1) (A1) (B2) (A1) (B2) (A2) (B2)
                 (A1) (B1) (A1) (B1) (B1) (A1) (A2) (B2) (A2) (B2)
                 (A1) (A1) (B1) (A1) (B2) (A1) (B1) (B2) (A2) (B2)
                 (A2) (A1) (B1) (B2) (A2) (B2) (A1) (B1) (A1) (A1)
                 (B1) (B2) (A1) (A2) (B2) (B2) (A1) (A1) (B1) (B2)
                 (A2) (B2) (A1) (B1) (A1) (B2) (A2) (B1) (A1) (A2)
                 (B2) (B2) (A1) (A1) (B1) (A1) (B1) (A1) (B1) (A1)
                 (B2) (A2) (B2) (A2) (B2) (A1) (B1) (B2) (A1) (B2)
                 (A1) (B1) (A1) (A2) (B2) (B1) (A1) (A2) (B2) (A2)
                 (B2) (A1) (B1) (A1) (B2) (A1) (B1) (A1) (B1) (A1)
                 (A2) (B2) (A2) (B2) (B1) (A1) (B2) (A2) (B2) (A1)
                 (B2) (A2) (A1) (B1) (B1) (A1) (A2) (B2) (A1) (B1)
                 (B2) (A2) (A1) (B1) (A1) (B2) (B1) (A1) (B2) (A1)
                 (B2) (A1) (B1) (A1) (A2) (B2) (B1) (A1) (A2) (B2)
                 (A2) (B2) (A1) (B1) (A1) (B2) (A1) (B1) (A2) (B2)
                 (A1) (A1) (B2) (A1) (B1) (A1) (B2) (A1) (B2) (A1)
                 (A1) (B2) (A1)
 ExpMin= 1.53D-02 ExpMax= 2.02D+06 ExpMxC= 2.31D+03 IAcc=3 IRadAn=         5 AccDes= 0.00D+00
 Harris functional with IExCor= 1009 and IRadAn=       5 diagonalized for initial guess.
 HarFok:  IExCor= 1009 AccDes= 0.00D+00 IRadAn=         5 IDoV= 1 UseB2=F ITyADJ=14
 ICtDFT=  3500011 ScaDFX=  1.000000  1.000000  1.000000  1.000000
 FoFCou: FMM=F IPFlag=           0 FMFlag=      100000 FMFlg1=           0
         NFxFlg=           0 DoJE=T BraDBF=F KetDBF=T FulRan=T
         wScrn=  0.000000 ICntrl=       500 IOpCl=  0 I1Cent=   200000004 NGrid=           0
         NMat0=    1 NMatS0=      1 NMatT0=    0 NMatD0=    1 NMtDS0=    0 NMtDT0=    0
 Petite list used in FoFCou.
 Keep J ints in memory in symmetry-blocked form, NReq=307684869.
 Requested convergence on RMS density matrix=1.00D-08 within 128 cycles.
 Requested convergence on MAX density matrix=1.00D-06.
 Requested convergence on             energy=1.00D-06.
 No special actions if energy rises.
 SCF Done:  E(RTPSS-TPSS) =  -1598.20844452     A.U. after    8 cycles
            NFock=  8  Conv=0.17D-08     -V/T= 2.0018
   4 Symmetry operations used in ECPInt.
 ECPInt:  NShTT=    2485 NPrTT=   10021 LenC2=    2319 LenP2D=    7244.
 LDataN:  DoStor=T MaxTD1= 9 Len=  602
 Calling FoFJK, ICntrl=      2527 FMM=F ISym2X=1 I1Cent= 0 IOpClX= 0 NMat=1 NMatS=1 NMatT=0.
 ***** Axes restored to original set *****
 -------------------------------------------------------------------
 Center     Atomic                   Forces (Hartrees/Bohr)
 Number     Number              X              Y              Z
 -------------------------------------------------------------------
      1       16          -0.000000000   -0.000000000   -0.000000319
      2       19           0.000000759   -0.000000000    0.000000159
      3       19          -0.000000759    0.000000000    0.000000159
 -------------------------------------------------------------------
 Cartesian Forces:  Max     0.000000759 RMS     0.000000381

 GradGradGradGradGradGradGradGradGradGradGradGradGradGradGradGradGradGrad
 Berny optimization.
 Using GEDIIS/GDIIS optimizer.
 FormGI is forming the generalized inverse of G from B-inverse, IUseBI=4.
 Internal  Forces:  Max     0.000000818 RMS     0.000000780
 Search for a local minimum.
 Step number  14 out of a maximum of   20
 All quantities printed in internal units (Hartrees-Bohrs-Radians)
 Mixed Optimization -- En-DIIS/RFO-DIIS
 Swapping is turned off.
 Update second derivatives using D2CorX and points   11   12   13   14
 DE= -8.68D-07 DEPred=-8.72D-07 R= 9.95D-01
 Trust test= 9.95D-01 RLast= 3.90D-02 DXMaxT set to 1.44D-01
 The second derivative matrix:
                          R1        R2        A1
           R1           0.04593
           R2           0.00726   0.04593
           A1           0.00010   0.00010   0.00099
 ITU=  0 -1 -1 -1
     Eigenvalues ---    0.00099   0.03867   0.05319
 En-DIIS/RFO-DIIS/Sim-DIIS IScMMF=       -3 using points:    14   13   12   11
 RFO step:  Lambda=-2.47289711D-11.
 DIIS inversion failure, remove point   4.
 DIIS inversion failure, remove point   3.
 RFO-DIIS uses    2 points instead of    4
 DidBck=F Rises=F RFO-DIIS coefs:    1.02126   -0.02126    0.00000    0.00000
 Iteration  1 RMS(Cart)=  0.00100561 RMS(Int)=  0.00002763
 Iteration  2 RMS(Cart)=  0.00005802 RMS(Int)=  0.00002762
 Iteration  3 RMS(Cart)=  0.00005802 RMS(Int)=  0.00002762
 Iteration  4 RMS(Cart)=  0.00005802 RMS(Int)=  0.00002762
 Iteration  5 RMS(Cart)=  0.00005802 RMS(Int)=  0.00002762
 Iteration  6 RMS(Cart)=  0.00005802 RMS(Int)=  0.00002762
 Iteration  7 RMS(Cart)=  0.00005802 RMS(Int)=  0.00002762
 Iteration  8 RMS(Cart)=  0.00005802 RMS(Int)=  0.00002762
 Iteration  9 RMS(Cart)=  0.00005802 RMS(Int)=  0.00002762
 Iteration 10 RMS(Cart)=  0.00005802 RMS(Int)=  0.00002762
 Iteration 11 RMS(Cart)=  0.00005802 RMS(Int)=  0.00002762
 Iteration 12 RMS(Cart)=  0.00005802 RMS(Int)=  0.00002762
 Iteration 13 RMS(Cart)=  0.00005802 RMS(Int)=  0.00002762
 Iteration 14 RMS(Cart)=  0.00005802 RMS(Int)=  0.00002762
 Iteration 15 RMS(Cart)=  0.00005802 RMS(Int)=  0.00002762
 Iteration 16 RMS(Cart)=  0.00005802 RMS(Int)=  0.00002762
 Iteration 17 RMS(Cart)=  0.00005802 RMS(Int)=  0.00002762
 Iteration 18 RMS(Cart)=  0.00005802 RMS(Int)=  0.00002762
 Iteration 19 RMS(Cart)=  0.00005802 RMS(Int)=  0.00002762
 Iteration 20 RMS(Cart)=  0.00005802 RMS(Int)=  0.00002762
 Iteration 21 RMS(Cart)=  0.00005802 RMS(Int)=  0.00002762
 Iteration 22 RMS(Cart)=  0.00005802 RMS(Int)=  0.00002762
 Iteration 23 RMS(Cart)=  0.00005802 RMS(Int)=  0.00002762
 Iteration 24 RMS(Cart)=  0.00005802 RMS(Int)=  0.00002762
 Iteration 25 RMS(Cart)=  0.00005802 RMS(Int)=  0.00002762
 Iteration 26 RMS(Cart)=  0.00005802 RMS(Int)=  0.00002762
 Iteration 27 RMS(Cart)=  0.00005802 RMS(Int)=  0.00002762
 Iteration 28 RMS(Cart)=  0.00005802 RMS(Int)=  0.00002762
 Iteration 29 RMS(Cart)=  0.00005802 RMS(Int)=  0.00002762
 Iteration 30 RMS(Cart)=  0.00005802 RMS(Int)=  0.00002762
 Iteration 31 RMS(Cart)=  0.00005802 RMS(Int)=  0.00002762
 Iteration 32 RMS(Cart)=  0.00005802 RMS(Int)=  0.00002762
 Iteration 33 RMS(Cart)=  0.00005802 RMS(Int)=  0.00002762
 Iteration 34 RMS(Cart)=  0.00005802 RMS(Int)=  0.00002762
 Iteration 35 RMS(Cart)=  0.00005802 RMS(Int)=  0.00002762
 Iteration 36 RMS(Cart)=  0.00005802 RMS(Int)=  0.00002762
 Iteration 37 RMS(Cart)=  0.00005802 RMS(Int)=  0.00002762
 Iteration 38 RMS(Cart)=  0.00005802 RMS(Int)=  0.00002762
 Iteration 39 RMS(Cart)=  0.00005802 RMS(Int)=  0.00002762
 Iteration 40 RMS(Cart)=  0.00005802 RMS(Int)=  0.00002762
 Iteration 41 RMS(Cart)=  0.00005802 RMS(Int)=  0.00002762
 Iteration 42 RMS(Cart)=  0.00005802 RMS(Int)=  0.00002762
 Iteration 43 RMS(Cart)=  0.00005802 RMS(Int)=  0.00002762
 Iteration 44 RMS(Cart)=  0.00005802 RMS(Int)=  0.00002762
 Iteration 45 RMS(Cart)=  0.00005802 RMS(Int)=  0.00002762
 Iteration 46 RMS(Cart)=  0.00005802 RMS(Int)=  0.00002762
 Iteration 47 RMS(Cart)=  0.00005802 RMS(Int)=  0.00002762
 Iteration 48 RMS(Cart)=  0.00005802 RMS(Int)=  0.00002762
 Iteration 49 RMS(Cart)=  0.00005802 RMS(Int)=  0.00002762
 Iteration 50 RMS(Cart)=  0.00005802 RMS(Int)=  0.00002762
 Iteration 51 RMS(Cart)=  0.00005802 RMS(Int)=  0.00002762
 Iteration 52 RMS(Cart)=  0.00005802 RMS(Int)=  0.00002762
 Iteration 53 RMS(Cart)=  0.00005802 RMS(Int)=  0.00002762
 Iteration 54 RMS(Cart)=  0.00005802 RMS(Int)=  0.00002762
 Iteration 55 RMS(Cart)=  0.00005802 RMS(Int)=  0.00002762
 Iteration 56 RMS(Cart)=  0.00005802 RMS(Int)=  0.00002762
 Iteration 57 RMS(Cart)=  0.00005802 RMS(Int)=  0.00002762
 Iteration 58 RMS(Cart)=  0.00005802 RMS(Int)=  0.00002762
 Iteration 59 RMS(Cart)=  0.00005802 RMS(Int)=  0.00002762
 Iteration 60 RMS(Cart)=  0.00005802 RMS(Int)=  0.00002762
 Iteration 61 RMS(Cart)=  0.00005802 RMS(Int)=  0.00002762
 Iteration 62 RMS(Cart)=  0.00005802 RMS(Int)=  0.00002762
 Iteration 63 RMS(Cart)=  0.00005802 RMS(Int)=  0.00002762
 Iteration 64 RMS(Cart)=  0.00005802 RMS(Int)=  0.00002762
 Iteration 65 RMS(Cart)=  0.00005802 RMS(Int)=  0.00002762
 Iteration 66 RMS(Cart)=  0.00005802 RMS(Int)=  0.00002762
 Iteration 67 RMS(Cart)=  0.00005802 RMS(Int)=  0.00002762
 Iteration 68 RMS(Cart)=  0.00005802 RMS(Int)=  0.00002762
 Iteration 69 RMS(Cart)=  0.00005802 RMS(Int)=  0.00002762
 Iteration 70 RMS(Cart)=  0.00005802 RMS(Int)=  0.00002762
 Iteration 71 RMS(Cart)=  0.00005802 RMS(Int)=  0.00002762
 Iteration 72 RMS(Cart)=  0.00005802 RMS(Int)=  0.00002762
 Iteration 73 RMS(Cart)=  0.00005802 RMS(Int)=  0.00002762
 Iteration 74 RMS(Cart)=  0.00005802 RMS(Int)=  0.00002762
 Iteration 75 RMS(Cart)=  0.00005802 RMS(Int)=  0.00002762
 Iteration 76 RMS(Cart)=  0.00005802 RMS(Int)=  0.00002762
 Iteration 77 RMS(Cart)=  0.00005802 RMS(Int)=  0.00002762
 Iteration 78 RMS(Cart)=  0.00005802 RMS(Int)=  0.00002762
 Iteration 79 RMS(Cart)=  0.00005802 RMS(Int)=  0.00002762
 Iteration 80 RMS(Cart)=  0.00005802 RMS(Int)=  0.00002762
 Iteration 81 RMS(Cart)=  0.00005802 RMS(Int)=  0.00002762
 Iteration 82 RMS(Cart)=  0.00005802 RMS(Int)=  0.00002762
 Iteration 83 RMS(Cart)=  0.00005802 RMS(Int)=  0.00002762
 Iteration 84 RMS(Cart)=  0.00005802 RMS(Int)=  0.00002762
 Iteration 85 RMS(Cart)=  0.00005802 RMS(Int)=  0.00002762
 Iteration 86 RMS(Cart)=  0.00005802 RMS(Int)=  0.00002762
 Iteration 87 RMS(Cart)=  0.00005802 RMS(Int)=  0.00002762
 Iteration 88 RMS(Cart)=  0.00005802 RMS(Int)=  0.00002762
 Iteration 89 RMS(Cart)=  0.00005802 RMS(Int)=  0.00002762
 Iteration 90 RMS(Cart)=  0.00005802 RMS(Int)=  0.00002762
 Iteration 91 RMS(Cart)=  0.00005802 RMS(Int)=  0.00002762
 Iteration 92 RMS(Cart)=  0.00005802 RMS(Int)=  0.00002762
 Iteration 93 RMS(Cart)=  0.00005802 RMS(Int)=  0.00002762
 Iteration 94 RMS(Cart)=  0.00005802 RMS(Int)=  0.00002762
 Iteration 95 RMS(Cart)=  0.00005802 RMS(Int)=  0.00002762
 Iteration 96 RMS(Cart)=  0.00005802 RMS(Int)=  0.00002762
 Iteration 97 RMS(Cart)=  0.00005802 RMS(Int)=  0.00002762
 Iteration 98 RMS(Cart)=  0.00005802 RMS(Int)=  0.00002762
 Iteration 99 RMS(Cart)=  0.00005802 RMS(Int)=  0.00002762
 Iteration100 RMS(Cart)=  0.00005802 RMS(Int)=  0.00002762
 New curvilinear step not converged.
 ITry= 1 IFail=1 DXMaxC= 1.34D-03 DCOld= 1.00D+10 DXMaxT= 1.44D-01 DXLimC= 3.00D+00 Rises=F
 Iteration  1 RMS(Cart)=  0.00100554 RMS(Int)=  0.00002756
 Iteration  2 RMS(Cart)=  0.00005787 RMS(Int)=  0.00002755
 Iteration  3 RMS(Cart)=  0.00005786 RMS(Int)=  0.00002755
 Iteration  4 RMS(Cart)=  0.00005786 RMS(Int)=  0.00002755
 Iteration  5 RMS(Cart)=  0.00005786 RMS(Int)=  0.00002755
 Iteration  6 RMS(Cart)=  0.00005786 RMS(Int)=  0.00002755
 Iteration  7 RMS(Cart)=  0.00005786 RMS(Int)=  0.00002755
 Iteration  8 RMS(Cart)=  0.00005786 RMS(Int)=  0.00002755
 Iteration  9 RMS(Cart)=  0.00005786 RMS(Int)=  0.00002755
 Iteration 10 RMS(Cart)=  0.00005786 RMS(Int)=  0.00002755
 Iteration 11 RMS(Cart)=  0.00005786 RMS(Int)=  0.00002755
 Iteration 12 RMS(Cart)=  0.00005786 RMS(Int)=  0.00002755
 Iteration 13 RMS(Cart)=  0.00005786 RMS(Int)=  0.00002755
 Iteration 14 RMS(Cart)=  0.00005786 RMS(Int)=  0.00002755
 Iteration 15 RMS(Cart)=  0.00005786 RMS(Int)=  0.00002755
 Iteration 16 RMS(Cart)=  0.00005786 RMS(Int)=  0.00002755
 Iteration 17 RMS(Cart)=  0.00005786 RMS(Int)=  0.00002755
 Iteration 18 RMS(Cart)=  0.00005786 RMS(Int)=  0.00002755
 Iteration 19 RMS(Cart)=  0.00005786 RMS(Int)=  0.00002755
 Iteration 20 RMS(Cart)=  0.00005786 RMS(Int)=  0.00002755
 Iteration 21 RMS(Cart)=  0.00005786 RMS(Int)=  0.00002755
 Iteration 22 RMS(Cart)=  0.00005786 RMS(Int)=  0.00002755
 Iteration 23 RMS(Cart)=  0.00005786 RMS(Int)=  0.00002755
 Iteration 24 RMS(Cart)=  0.00005786 RMS(Int)=  0.00002755
 Iteration 25 RMS(Cart)=  0.00005786 RMS(Int)=  0.00002755
 Iteration 26 RMS(Cart)=  0.00005786 RMS(Int)=  0.00002755
 Iteration 27 RMS(Cart)=  0.00005786 RMS(Int)=  0.00002755
 Iteration 28 RMS(Cart)=  0.00005786 RMS(Int)=  0.00002755
 Iteration 29 RMS(Cart)=  0.00005786 RMS(Int)=  0.00002755
 Iteration 30 RMS(Cart)=  0.00005786 RMS(Int)=  0.00002755
 Iteration 31 RMS(Cart)=  0.00005786 RMS(Int)=  0.00002755
 Iteration 32 RMS(Cart)=  0.00005786 RMS(Int)=  0.00002755
 Iteration 33 RMS(Cart)=  0.00005786 RMS(Int)=  0.00002755
 Iteration 34 RMS(Cart)=  0.00005786 RMS(Int)=  0.00002755
 Iteration 35 RMS(Cart)=  0.00005786 RMS(Int)=  0.00002755
 Iteration 36 RMS(Cart)=  0.00005786 RMS(Int)=  0.00002755
 Iteration 37 RMS(Cart)=  0.00005786 RMS(Int)=  0.00002755
 Iteration 38 RMS(Cart)=  0.00005786 RMS(Int)=  0.00002755
 Iteration 39 RMS(Cart)=  0.00005786 RMS(Int)=  0.00002755
 Iteration 40 RMS(Cart)=  0.00005786 RMS(Int)=  0.00002755
 Iteration 41 RMS(Cart)=  0.00005786 RMS(Int)=  0.00002755
 Iteration 42 RMS(Cart)=  0.00005786 RMS(Int)=  0.00002755
 Iteration 43 RMS(Cart)=  0.00005786 RMS(Int)=  0.00002755
 Iteration 44 RMS(Cart)=  0.00005786 RMS(Int)=  0.00002755
 Iteration 45 RMS(Cart)=  0.00005786 RMS(Int)=  0.00002755
 Iteration 46 RMS(Cart)=  0.00005786 RMS(Int)=  0.00002755
 Iteration 47 RMS(Cart)=  0.00005786 RMS(Int)=  0.00002755
 Iteration 48 RMS(Cart)=  0.00005786 RMS(Int)=  0.00002755
 Iteration 49 RMS(Cart)=  0.00005786 RMS(Int)=  0.00002755
 Iteration 50 RMS(Cart)=  0.00005786 RMS(Int)=  0.00002755
 Iteration 51 RMS(Cart)=  0.00005786 RMS(Int)=  0.00002755
 Iteration 52 RMS(Cart)=  0.00005786 RMS(Int)=  0.00002755
 Iteration 53 RMS(Cart)=  0.00005786 RMS(Int)=  0.00002755
 Iteration 54 RMS(Cart)=  0.00005786 RMS(Int)=  0.00002755
 Iteration 55 RMS(Cart)=  0.00005786 RMS(Int)=  0.00002755
 Iteration 56 RMS(Cart)=  0.00005786 RMS(Int)=  0.00002755
 Iteration 57 RMS(Cart)=  0.00005786 RMS(Int)=  0.00002755
 Iteration 58 RMS(Cart)=  0.00005786 RMS(Int)=  0.00002755
 Iteration 59 RMS(Cart)=  0.00005786 RMS(Int)=  0.00002755
 Iteration 60 RMS(Cart)=  0.00005786 RMS(Int)=  0.00002755
 Iteration 61 RMS(Cart)=  0.00005786 RMS(Int)=  0.00002755
 Iteration 62 RMS(Cart)=  0.00005786 RMS(Int)=  0.00002755
 Iteration 63 RMS(Cart)=  0.00005786 RMS(Int)=  0.00002755
 Iteration 64 RMS(Cart)=  0.00005786 RMS(Int)=  0.00002755
 Iteration 65 RMS(Cart)=  0.00005786 RMS(Int)=  0.00002755
 Iteration 66 RMS(Cart)=  0.00005786 RMS(Int)=  0.00002755
 Iteration 67 RMS(Cart)=  0.00005786 RMS(Int)=  0.00002755
 Iteration 68 RMS(Cart)=  0.00005786 RMS(Int)=  0.00002755
 Iteration 69 RMS(Cart)=  0.00005786 RMS(Int)=  0.00002755
 Iteration 70 RMS(Cart)=  0.00005786 RMS(Int)=  0.00002755
 Iteration 71 RMS(Cart)=  0.00005786 RMS(Int)=  0.00002755
 Iteration 72 RMS(Cart)=  0.00005786 RMS(Int)=  0.00002755
 Iteration 73 RMS(Cart)=  0.00005786 RMS(Int)=  0.00002755
 Iteration 74 RMS(Cart)=  0.00005786 RMS(Int)=  0.00002755
 Iteration 75 RMS(Cart)=  0.00005786 RMS(Int)=  0.00002755
 Iteration 76 RMS(Cart)=  0.00005786 RMS(Int)=  0.00002755
 Iteration 77 RMS(Cart)=  0.00005786 RMS(Int)=  0.00002755
 Iteration 78 RMS(Cart)=  0.00005786 RMS(Int)=  0.00002755
 Iteration 79 RMS(Cart)=  0.00005786 RMS(Int)=  0.00002755
 Iteration 80 RMS(Cart)=  0.00005786 RMS(Int)=  0.00002755
 Iteration 81 RMS(Cart)=  0.00005786 RMS(Int)=  0.00002755
 Iteration 82 RMS(Cart)=  0.00005786 RMS(Int)=  0.00002755
 Iteration 83 RMS(Cart)=  0.00005786 RMS(Int)=  0.00002755
 Iteration 84 RMS(Cart)=  0.00005786 RMS(Int)=  0.00002755
 Iteration 85 RMS(Cart)=  0.00005786 RMS(Int)=  0.00002755
 Iteration 86 RMS(Cart)=  0.00005786 RMS(Int)=  0.00002755
 Iteration 87 RMS(Cart)=  0.00005786 RMS(Int)=  0.00002755
 Iteration 88 RMS(Cart)=  0.00005786 RMS(Int)=  0.00002755
 Iteration 89 RMS(Cart)=  0.00005786 RMS(Int)=  0.00002755
 Iteration 90 RMS(Cart)=  0.00005786 RMS(Int)=  0.00002755
 Iteration 91 RMS(Cart)=  0.00005786 RMS(Int)=  0.00002755
 Iteration 92 RMS(Cart)=  0.00005786 RMS(Int)=  0.00002755
 Iteration 93 RMS(Cart)=  0.00005786 RMS(Int)=  0.00002755
 Iteration 94 RMS(Cart)=  0.00005786 RMS(Int)=  0.00002755
 Iteration 95 RMS(Cart)=  0.00005786 RMS(Int)=  0.00002755
 Iteration 96 RMS(Cart)=  0.00005786 RMS(Int)=  0.00002755
 Iteration 97 RMS(Cart)=  0.00005786 RMS(Int)=  0.00002755
 Iteration 98 RMS(Cart)=  0.00005786 RMS(Int)=  0.00002755
 Iteration 99 RMS(Cart)=  0.00005786 RMS(Int)=  0.00002755
 Iteration100 RMS(Cart)=  0.00005786 RMS(Int)=  0.00002755
 New curvilinear step not converged.
 ITry= 2 IFail=1 DXMaxC= 1.34D-03 DCOld= 1.00D+10 DXMaxT= 1.44D-01 DXLimC= 3.00D+00 Rises=F
 Iteration  1 RMS(Cart)=  0.00100548 RMS(Int)=  0.00002748
 Iteration  2 RMS(Cart)=  0.00005772 RMS(Int)=  0.00002748
 Iteration  3 RMS(Cart)=  0.00005771 RMS(Int)=  0.00002748
 Iteration  4 RMS(Cart)=  0.00005771 RMS(Int)=  0.00002748
 Iteration  5 RMS(Cart)=  0.00005771 RMS(Int)=  0.00002748
 Iteration  6 RMS(Cart)=  0.00005771 RMS(Int)=  0.00002748
 Iteration  7 RMS(Cart)=  0.00005771 RMS(Int)=  0.00002748
 Iteration  8 RMS(Cart)=  0.00005771 RMS(Int)=  0.00002748
 Iteration  9 RMS(Cart)=  0.00005771 RMS(Int)=  0.00002748
 Iteration 10 RMS(Cart)=  0.00005771 RMS(Int)=  0.00002748
 Iteration 11 RMS(Cart)=  0.00005771 RMS(Int)=  0.00002748
 Iteration 12 RMS(Cart)=  0.00005771 RMS(Int)=  0.00002748
 Iteration 13 RMS(Cart)=  0.00005771 RMS(Int)=  0.00002748
 Iteration 14 RMS(Cart)=  0.00005771 RMS(Int)=  0.00002748
 Iteration 15 RMS(Cart)=  0.00005771 RMS(Int)=  0.00002748
 Iteration 16 RMS(Cart)=  0.00005771 RMS(Int)=  0.00002748
 Iteration 17 RMS(Cart)=  0.00005771 RMS(Int)=  0.00002748
 Iteration 18 RMS(Cart)=  0.00005771 RMS(Int)=  0.00002748
 Iteration 19 RMS(Cart)=  0.00005771 RMS(Int)=  0.00002748
 Iteration 20 RMS(Cart)=  0.00005771 RMS(Int)=  0.00002748
 Iteration 21 RMS(Cart)=  0.00005771 RMS(Int)=  0.00002748
 Iteration 22 RMS(Cart)=  0.00005771 RMS(Int)=  0.00002748
 Iteration 23 RMS(Cart)=  0.00005771 RMS(Int)=  0.00002748
 Iteration 24 RMS(Cart)=  0.00005771 RMS(Int)=  0.00002748
 Iteration 25 RMS(Cart)=  0.00005771 RMS(Int)=  0.00002748
 Iteration 26 RMS(Cart)=  0.00005771 RMS(Int)=  0.00002748
 Iteration 27 RMS(Cart)=  0.00005771 RMS(Int)=  0.00002748
 Iteration 28 RMS(Cart)=  0.00005771 RMS(Int)=  0.00002748
 Iteration 29 RMS(Cart)=  0.00005771 RMS(Int)=  0.00002748
 Iteration 30 RMS(Cart)=  0.00005771 RMS(Int)=  0.00002748
 Iteration 31 RMS(Cart)=  0.00005771 RMS(Int)=  0.00002748
 Iteration 32 RMS(Cart)=  0.00005771 RMS(Int)=  0.00002748
 Iteration 33 RMS(Cart)=  0.00005771 RMS(Int)=  0.00002748
 Iteration 34 RMS(Cart)=  0.00005771 RMS(Int)=  0.00002748
 Iteration 35 RMS(Cart)=  0.00005771 RMS(Int)=  0.00002748
 Iteration 36 RMS(Cart)=  0.00005771 RMS(Int)=  0.00002748
 Iteration 37 RMS(Cart)=  0.00005771 RMS(Int)=  0.00002748
 Iteration 38 RMS(Cart)=  0.00005771 RMS(Int)=  0.00002748
 Iteration 39 RMS(Cart)=  0.00005771 RMS(Int)=  0.00002748
 Iteration 40 RMS(Cart)=  0.00005771 RMS(Int)=  0.00002748
 Iteration 41 RMS(Cart)=  0.00005771 RMS(Int)=  0.00002748
 Iteration 42 RMS(Cart)=  0.00005771 RMS(Int)=  0.00002748
 Iteration 43 RMS(Cart)=  0.00005771 RMS(Int)=  0.00002748
 Iteration 44 RMS(Cart)=  0.00005771 RMS(Int)=  0.00002748
 Iteration 45 RMS(Cart)=  0.00005771 RMS(Int)=  0.00002748
 Iteration 46 RMS(Cart)=  0.00005771 RMS(Int)=  0.00002748
 Iteration 47 RMS(Cart)=  0.00005771 RMS(Int)=  0.00002748
 Iteration 48 RMS(Cart)=  0.00005771 RMS(Int)=  0.00002748
 Iteration 49 RMS(Cart)=  0.00005771 RMS(Int)=  0.00002748
 Iteration 50 RMS(Cart)=  0.00005771 RMS(Int)=  0.00002748
 Iteration 51 RMS(Cart)=  0.00005771 RMS(Int)=  0.00002748
 Iteration 52 RMS(Cart)=  0.00005771 RMS(Int)=  0.00002748
 Iteration 53 RMS(Cart)=  0.00005771 RMS(Int)=  0.00002748
 Iteration 54 RMS(Cart)=  0.00005771 RMS(Int)=  0.00002748
 Iteration 55 RMS(Cart)=  0.00005771 RMS(Int)=  0.00002748
 Iteration 56 RMS(Cart)=  0.00005771 RMS(Int)=  0.00002748
 Iteration 57 RMS(Cart)=  0.00005771 RMS(Int)=  0.00002748
 Iteration 58 RMS(Cart)=  0.00005771 RMS(Int)=  0.00002748
 Iteration 59 RMS(Cart)=  0.00005771 RMS(Int)=  0.00002748
 Iteration 60 RMS(Cart)=  0.00005771 RMS(Int)=  0.00002748
 Iteration 61 RMS(Cart)=  0.00005771 RMS(Int)=  0.00002748
 Iteration 62 RMS(Cart)=  0.00005771 RMS(Int)=  0.00002748
 Iteration 63 RMS(Cart)=  0.00005771 RMS(Int)=  0.00002748
 Iteration 64 RMS(Cart)=  0.00005771 RMS(Int)=  0.00002748
 Iteration 65 RMS(Cart)=  0.00005771 RMS(Int)=  0.00002748
 Iteration 66 RMS(Cart)=  0.00005771 RMS(Int)=  0.00002748
 Iteration 67 RMS(Cart)=  0.00005771 RMS(Int)=  0.00002748
 Iteration 68 RMS(Cart)=  0.00005771 RMS(Int)=  0.00002748
 Iteration 69 RMS(Cart)=  0.00005771 RMS(Int)=  0.00002748
 Iteration 70 RMS(Cart)=  0.00005771 RMS(Int)=  0.00002748
 Iteration 71 RMS(Cart)=  0.00005771 RMS(Int)=  0.00002748
 Iteration 72 RMS(Cart)=  0.00005771 RMS(Int)=  0.00002748
 Iteration 73 RMS(Cart)=  0.00005771 RMS(Int)=  0.00002748
 Iteration 74 RMS(Cart)=  0.00005771 RMS(Int)=  0.00002748
 Iteration 75 RMS(Cart)=  0.00005771 RMS(Int)=  0.00002748
 Iteration 76 RMS(Cart)=  0.00005771 RMS(Int)=  0.00002748
 Iteration 77 RMS(Cart)=  0.00005771 RMS(Int)=  0.00002748
 Iteration 78 RMS(Cart)=  0.00005771 RMS(Int)=  0.00002748
 Iteration 79 RMS(Cart)=  0.00005771 RMS(Int)=  0.00002748
 Iteration 80 RMS(Cart)=  0.00005771 RMS(Int)=  0.00002748
 Iteration 81 RMS(Cart)=  0.00005771 RMS(Int)=  0.00002748
 Iteration 82 RMS(Cart)=  0.00005771 RMS(Int)=  0.00002748
 Iteration 83 RMS(Cart)=  0.00005771 RMS(Int)=  0.00002748
 Iteration 84 RMS(Cart)=  0.00005771 RMS(Int)=  0.00002748
 Iteration 85 RMS(Cart)=  0.00005771 RMS(Int)=  0.00002748
 Iteration 86 RMS(Cart)=  0.00005771 RMS(Int)=  0.00002748
 Iteration 87 RMS(Cart)=  0.00005771 RMS(Int)=  0.00002748
 Iteration 88 RMS(Cart)=  0.00005771 RMS(Int)=  0.00002748
 Iteration 89 RMS(Cart)=  0.00005771 RMS(Int)=  0.00002748
 Iteration 90 RMS(Cart)=  0.00005771 RMS(Int)=  0.00002748
 Iteration 91 RMS(Cart)=  0.00005771 RMS(Int)=  0.00002748
 Iteration 92 RMS(Cart)=  0.00005771 RMS(Int)=  0.00002748
 Iteration 93 RMS(Cart)=  0.00005771 RMS(Int)=  0.00002748
 Iteration 94 RMS(Cart)=  0.00005771 RMS(Int)=  0.00002748
 Iteration 95 RMS(Cart)=  0.00005771 RMS(Int)=  0.00002748
 Iteration 96 RMS(Cart)=  0.00005771 RMS(Int)=  0.00002748
 Iteration 97 RMS(Cart)=  0.00005771 RMS(Int)=  0.00002748
 Iteration 98 RMS(Cart)=  0.00005771 RMS(Int)=  0.00002748
 Iteration 99 RMS(Cart)=  0.00005771 RMS(Int)=  0.00002748
 Iteration100 RMS(Cart)=  0.00005771 RMS(Int)=  0.00002748
 New curvilinear step not converged.
 ITry= 3 IFail=1 DXMaxC= 1.34D-03 DCOld= 1.00D+10 DXMaxT= 1.44D-01 DXLimC= 3.00D+00 Rises=F
 Iteration  1 RMS(Cart)=  0.00100542 RMS(Int)=  0.00002741
 Iteration  2 RMS(Cart)=  0.00005757 RMS(Int)=  0.00002741
 Iteration  3 RMS(Cart)=  0.00005756 RMS(Int)=  0.00002741
 Iteration  4 RMS(Cart)=  0.00005756 RMS(Int)=  0.00002741
 Iteration  5 RMS(Cart)=  0.00005756 RMS(Int)=  0.00002741
 Iteration  6 RMS(Cart)=  0.00005756 RMS(Int)=  0.00002741
 Iteration  7 RMS(Cart)=  0.00005756 RMS(Int)=  0.00002741
 Iteration  8 RMS(Cart)=  0.00005756 RMS(Int)=  0.00002741
 Iteration  9 RMS(Cart)=  0.00005756 RMS(Int)=  0.00002741
 Iteration 10 RMS(Cart)=  0.00005756 RMS(Int)=  0.00002741
 Iteration 11 RMS(Cart)=  0.00005756 RMS(Int)=  0.00002741
 Iteration 12 RMS(Cart)=  0.00005756 RMS(Int)=  0.00002741
 Iteration 13 RMS(Cart)=  0.00005756 RMS(Int)=  0.00002741
 Iteration 14 RMS(Cart)=  0.00005756 RMS(Int)=  0.00002741
 Iteration 15 RMS(Cart)=  0.00005756 RMS(Int)=  0.00002741
 Iteration 16 RMS(Cart)=  0.00005756 RMS(Int)=  0.00002741
 Iteration 17 RMS(Cart)=  0.00005756 RMS(Int)=  0.00002741
 Iteration 18 RMS(Cart)=  0.00005756 RMS(Int)=  0.00002741
 Iteration 19 RMS(Cart)=  0.00005756 RMS(Int)=  0.00002741
 Iteration 20 RMS(Cart)=  0.00005756 RMS(Int)=  0.00002741
 Iteration 21 RMS(Cart)=  0.00005756 RMS(Int)=  0.00002741
 Iteration 22 RMS(Cart)=  0.00005756 RMS(Int)=  0.00002741
 Iteration 23 RMS(Cart)=  0.00005756 RMS(Int)=  0.00002741
 Iteration 24 RMS(Cart)=  0.00005756 RMS(Int)=  0.00002741
 Iteration 25 RMS(Cart)=  0.00005756 RMS(Int)=  0.00002741
 Iteration 26 RMS(Cart)=  0.00005756 RMS(Int)=  0.00002741
 Iteration 27 RMS(Cart)=  0.00005756 RMS(Int)=  0.00002741
 Iteration 28 RMS(Cart)=  0.00005756 RMS(Int)=  0.00002741
 Iteration 29 RMS(Cart)=  0.00005756 RMS(Int)=  0.00002741
 Iteration 30 RMS(Cart)=  0.00005756 RMS(Int)=  0.00002741
 Iteration 31 RMS(Cart)=  0.00005756 RMS(Int)=  0.00002741
 Iteration 32 RMS(Cart)=  0.00005756 RMS(Int)=  0.00002741
 Iteration 33 RMS(Cart)=  0.00005756 RMS(Int)=  0.00002741
 Iteration 34 RMS(Cart)=  0.00005756 RMS(Int)=  0.00002741
 Iteration 35 RMS(Cart)=  0.00005756 RMS(Int)=  0.00002741
 Iteration 36 RMS(Cart)=  0.00005756 RMS(Int)=  0.00002741
 Iteration 37 RMS(Cart)=  0.00005756 RMS(Int)=  0.00002741
 Iteration 38 RMS(Cart)=  0.00005756 RMS(Int)=  0.00002741
 Iteration 39 RMS(Cart)=  0.00005756 RMS(Int)=  0.00002741
 Iteration 40 RMS(Cart)=  0.00005756 RMS(Int)=  0.00002741
 Iteration 41 RMS(Cart)=  0.00005756 RMS(Int)=  0.00002741
 Iteration 42 RMS(Cart)=  0.00005756 RMS(Int)=  0.00002741
 Iteration 43 RMS(Cart)=  0.00005756 RMS(Int)=  0.00002741
 Iteration 44 RMS(Cart)=  0.00005756 RMS(Int)=  0.00002741
 Iteration 45 RMS(Cart)=  0.00005756 RMS(Int)=  0.00002741
 Iteration 46 RMS(Cart)=  0.00005756 RMS(Int)=  0.00002741
 Iteration 47 RMS(Cart)=  0.00005756 RMS(Int)=  0.00002741
 Iteration 48 RMS(Cart)=  0.00005756 RMS(Int)=  0.00002741
 Iteration 49 RMS(Cart)=  0.00005756 RMS(Int)=  0.00002741
 Iteration 50 RMS(Cart)=  0.00005756 RMS(Int)=  0.00002741
 Iteration 51 RMS(Cart)=  0.00005756 RMS(Int)=  0.00002741
 Iteration 52 RMS(Cart)=  0.00005756 RMS(Int)=  0.00002741
 Iteration 53 RMS(Cart)=  0.00005756 RMS(Int)=  0.00002741
 Iteration 54 RMS(Cart)=  0.00005756 RMS(Int)=  0.00002741
 Iteration 55 RMS(Cart)=  0.00005756 RMS(Int)=  0.00002741
 Iteration 56 RMS(Cart)=  0.00005756 RMS(Int)=  0.00002741
 Iteration 57 RMS(Cart)=  0.00005756 RMS(Int)=  0.00002741
 Iteration 58 RMS(Cart)=  0.00005756 RMS(Int)=  0.00002741
 Iteration 59 RMS(Cart)=  0.00005756 RMS(Int)=  0.00002741
 Iteration 60 RMS(Cart)=  0.00005756 RMS(Int)=  0.00002741
 Iteration 61 RMS(Cart)=  0.00005756 RMS(Int)=  0.00002741
 Iteration 62 RMS(Cart)=  0.00005756 RMS(Int)=  0.00002741
 Iteration 63 RMS(Cart)=  0.00005756 RMS(Int)=  0.00002741
 Iteration 64 RMS(Cart)=  0.00005756 RMS(Int)=  0.00002741
 Iteration 65 RMS(Cart)=  0.00005756 RMS(Int)=  0.00002741
 Iteration 66 RMS(Cart)=  0.00005756 RMS(Int)=  0.00002741
 Iteration 67 RMS(Cart)=  0.00005756 RMS(Int)=  0.00002741
 Iteration 68 RMS(Cart)=  0.00005756 RMS(Int)=  0.00002741
 Iteration 69 RMS(Cart)=  0.00005756 RMS(Int)=  0.00002741
 Iteration 70 RMS(Cart)=  0.00005756 RMS(Int)=  0.00002741
 Iteration 71 RMS(Cart)=  0.00005756 RMS(Int)=  0.00002741
 Iteration 72 RMS(Cart)=  0.00005756 RMS(Int)=  0.00002741
 Iteration 73 RMS(Cart)=  0.00005756 RMS(Int)=  0.00002741
 Iteration 74 RMS(Cart)=  0.00005756 RMS(Int)=  0.00002741
 Iteration 75 RMS(Cart)=  0.00005756 RMS(Int)=  0.00002741
 Iteration 76 RMS(Cart)=  0.00005756 RMS(Int)=  0.00002741
 Iteration 77 RMS(Cart)=  0.00005756 RMS(Int)=  0.00002741
 Iteration 78 RMS(Cart)=  0.00005756 RMS(Int)=  0.00002741
 Iteration 79 RMS(Cart)=  0.00005756 RMS(Int)=  0.00002741
 Iteration 80 RMS(Cart)=  0.00005756 RMS(Int)=  0.00002741
 Iteration 81 RMS(Cart)=  0.00005756 RMS(Int)=  0.00002741
 Iteration 82 RMS(Cart)=  0.00005756 RMS(Int)=  0.00002741
 Iteration 83 RMS(Cart)=  0.00005756 RMS(Int)=  0.00002741
 Iteration 84 RMS(Cart)=  0.00005756 RMS(Int)=  0.00002741
 Iteration 85 RMS(Cart)=  0.00005756 RMS(Int)=  0.00002741
 Iteration 86 RMS(Cart)=  0.00005756 RMS(Int)=  0.00002741
 Iteration 87 RMS(Cart)=  0.00005756 RMS(Int)=  0.00002741
 Iteration 88 RMS(Cart)=  0.00005756 RMS(Int)=  0.00002741
 Iteration 89 RMS(Cart)=  0.00005756 RMS(Int)=  0.00002741
 Iteration 90 RMS(Cart)=  0.00005756 RMS(Int)=  0.00002741
 Iteration 91 RMS(Cart)=  0.00005756 RMS(Int)=  0.00002741
 Iteration 92 RMS(Cart)=  0.00005756 RMS(Int)=  0.00002741
 Iteration 93 RMS(Cart)=  0.00005756 RMS(Int)=  0.00002741
 Iteration 94 RMS(Cart)=  0.00005756 RMS(Int)=  0.00002741
 Iteration 95 RMS(Cart)=  0.00005756 RMS(Int)=  0.00002741
 Iteration 96 RMS(Cart)=  0.00005756 RMS(Int)=  0.00002741
 Iteration 97 RMS(Cart)=  0.00005756 RMS(Int)=  0.00002741
 Iteration 98 RMS(Cart)=  0.00005756 RMS(Int)=  0.00002741
 Iteration 99 RMS(Cart)=  0.00005756 RMS(Int)=  0.00002741
 Iteration100 RMS(Cart)=  0.00005756 RMS(Int)=  0.00002741
 New curvilinear step not converged.
 ITry= 4 IFail=1 DXMaxC= 1.34D-03 DCOld= 1.00D+10 DXMaxT= 1.44D-01 DXLimC= 3.00D+00 Rises=F
 Iteration  1 RMS(Cart)=  0.00100535 RMS(Int)=  0.00002734
 Iteration  2 RMS(Cart)=  0.00005742 RMS(Int)=  0.00002734
 Iteration  3 RMS(Cart)=  0.00005741 RMS(Int)=  0.00002734
 Iteration  4 RMS(Cart)=  0.00005741 RMS(Int)=  0.00002734
 Iteration  5 RMS(Cart)=  0.00005741 RMS(Int)=  0.00002734
 Iteration  6 RMS(Cart)=  0.00005741 RMS(Int)=  0.00002734
 Iteration  7 RMS(Cart)=  0.00005741 RMS(Int)=  0.00002734
 Iteration  8 RMS(Cart)=  0.00005741 RMS(Int)=  0.00002734
 Iteration  9 RMS(Cart)=  0.00005741 RMS(Int)=  0.00002734
 Iteration 10 RMS(Cart)=  0.00005741 RMS(Int)=  0.00002734
 Iteration 11 RMS(Cart)=  0.00005741 RMS(Int)=  0.00002734
 Iteration 12 RMS(Cart)=  0.00005741 RMS(Int)=  0.00002734
 Iteration 13 RMS(Cart)=  0.00005741 RMS(Int)=  0.00002734
 Iteration 14 RMS(Cart)=  0.00005741 RMS(Int)=  0.00002734
 Iteration 15 RMS(Cart)=  0.00005741 RMS(Int)=  0.00002734
 Iteration 16 RMS(Cart)=  0.00005741 RMS(Int)=  0.00002734
 Iteration 17 RMS(Cart)=  0.00005741 RMS(Int)=  0.00002734
 Iteration 18 RMS(Cart)=  0.00005741 RMS(Int)=  0.00002734
 Iteration 19 RMS(Cart)=  0.00005741 RMS(Int)=  0.00002734
 Iteration 20 RMS(Cart)=  0.00005741 RMS(Int)=  0.00002734
 Iteration 21 RMS(Cart)=  0.00005741 RMS(Int)=  0.00002734
 Iteration 22 RMS(Cart)=  0.00005741 RMS(Int)=  0.00002734
 Iteration 23 RMS(Cart)=  0.00005741 RMS(Int)=  0.00002734
 Iteration 24 RMS(Cart)=  0.00005741 RMS(Int)=  0.00002734
 Iteration 25 RMS(Cart)=  0.00005741 RMS(Int)=  0.00002734
 Iteration 26 RMS(Cart)=  0.00005741 RMS(Int)=  0.00002734
 Iteration 27 RMS(Cart)=  0.00005741 RMS(Int)=  0.00002734
 Iteration 28 RMS(Cart)=  0.00005741 RMS(Int)=  0.00002734
 Iteration 29 RMS(Cart)=  0.00005741 RMS(Int)=  0.00002734
 Iteration 30 RMS(Cart)=  0.00005741 RMS(Int)=  0.00002734
 Iteration 31 RMS(Cart)=  0.00005741 RMS(Int)=  0.00002734
 Iteration 32 RMS(Cart)=  0.00005741 RMS(Int)=  0.00002734
 Iteration 33 RMS(Cart)=  0.00005741 RMS(Int)=  0.00002734
 Iteration 34 RMS(Cart)=  0.00005741 RMS(Int)=  0.00002734
 Iteration 35 RMS(Cart)=  0.00005741 RMS(Int)=  0.00002734
 Iteration 36 RMS(Cart)=  0.00005741 RMS(Int)=  0.00002734
 Iteration 37 RMS(Cart)=  0.00005741 RMS(Int)=  0.00002734
 Iteration 38 RMS(Cart)=  0.00005741 RMS(Int)=  0.00002734
 Iteration 39 RMS(Cart)=  0.00005741 RMS(Int)=  0.00002734
 Iteration 40 RMS(Cart)=  0.00005741 RMS(Int)=  0.00002734
 Iteration 41 RMS(Cart)=  0.00005741 RMS(Int)=  0.00002734
 Iteration 42 RMS(Cart)=  0.00005741 RMS(Int)=  0.00002734
 Iteration 43 RMS(Cart)=  0.00005741 RMS(Int)=  0.00002734
 Iteration 44 RMS(Cart)=  0.00005741 RMS(Int)=  0.00002734
 Iteration 45 RMS(Cart)=  0.00005741 RMS(Int)=  0.00002734
 Iteration 46 RMS(Cart)=  0.00005741 RMS(Int)=  0.00002734
 Iteration 47 RMS(Cart)=  0.00005741 RMS(Int)=  0.00002734
 Iteration 48 RMS(Cart)=  0.00005741 RMS(Int)=  0.00002734
 Iteration 49 RMS(Cart)=  0.00005741 RMS(Int)=  0.00002734
 Iteration 50 RMS(Cart)=  0.00005741 RMS(Int)=  0.00002734
 Iteration 51 RMS(Cart)=  0.00005741 RMS(Int)=  0.00002734
 Iteration 52 RMS(Cart)=  0.00005741 RMS(Int)=  0.00002734
 Iteration 53 RMS(Cart)=  0.00005741 RMS(Int)=  0.00002734
 Iteration 54 RMS(Cart)=  0.00005741 RMS(Int)=  0.00002734
 Iteration 55 RMS(Cart)=  0.00005741 RMS(Int)=  0.00002734
 Iteration 56 RMS(Cart)=  0.00005741 RMS(Int)=  0.00002734
 Iteration 57 RMS(Cart)=  0.00005741 RMS(Int)=  0.00002734
 Iteration 58 RMS(Cart)=  0.00005741 RMS(Int)=  0.00002734
 Iteration 59 RMS(Cart)=  0.00005741 RMS(Int)=  0.00002734
 Iteration 60 RMS(Cart)=  0.00005741 RMS(Int)=  0.00002734
 Iteration 61 RMS(Cart)=  0.00005741 RMS(Int)=  0.00002734
 Iteration 62 RMS(Cart)=  0.00005741 RMS(Int)=  0.00002734
 Iteration 63 RMS(Cart)=  0.00005741 RMS(Int)=  0.00002734
 Iteration 64 RMS(Cart)=  0.00005741 RMS(Int)=  0.00002734
 Iteration 65 RMS(Cart)=  0.00005741 RMS(Int)=  0.00002734
 Iteration 66 RMS(Cart)=  0.00005741 RMS(Int)=  0.00002734
 Iteration 67 RMS(Cart)=  0.00005741 RMS(Int)=  0.00002734
 Iteration 68 RMS(Cart)=  0.00005741 RMS(Int)=  0.00002734
 Iteration 69 RMS(Cart)=  0.00005741 RMS(Int)=  0.00002734
 Iteration 70 RMS(Cart)=  0.00005741 RMS(Int)=  0.00002734
 Iteration 71 RMS(Cart)=  0.00005741 RMS(Int)=  0.00002734
 Iteration 72 RMS(Cart)=  0.00005741 RMS(Int)=  0.00002734
 Iteration 73 RMS(Cart)=  0.00005741 RMS(Int)=  0.00002734
 Iteration 74 RMS(Cart)=  0.00005741 RMS(Int)=  0.00002734
 Iteration 75 RMS(Cart)=  0.00005741 RMS(Int)=  0.00002734
 Iteration 76 RMS(Cart)=  0.00005741 RMS(Int)=  0.00002734
 Iteration 77 RMS(Cart)=  0.00005741 RMS(Int)=  0.00002734
 Iteration 78 RMS(Cart)=  0.00005741 RMS(Int)=  0.00002734
 Iteration 79 RMS(Cart)=  0.00005741 RMS(Int)=  0.00002734
 Iteration 80 RMS(Cart)=  0.00005741 RMS(Int)=  0.00002734
 Iteration 81 RMS(Cart)=  0.00005741 RMS(Int)=  0.00002734
 Iteration 82 RMS(Cart)=  0.00005741 RMS(Int)=  0.00002734
 Iteration 83 RMS(Cart)=  0.00005741 RMS(Int)=  0.00002734
 Iteration 84 RMS(Cart)=  0.00005741 RMS(Int)=  0.00002734
 Iteration 85 RMS(Cart)=  0.00005741 RMS(Int)=  0.00002734
 Iteration 86 RMS(Cart)=  0.00005741 RMS(Int)=  0.00002734
 Iteration 87 RMS(Cart)=  0.00005741 RMS(Int)=  0.00002734
 Iteration 88 RMS(Cart)=  0.00005741 RMS(Int)=  0.00002734
 Iteration 89 RMS(Cart)=  0.00005741 RMS(Int)=  0.00002734
 Iteration 90 RMS(Cart)=  0.00005741 RMS(Int)=  0.00002734
 Iteration 91 RMS(Cart)=  0.00005741 RMS(Int)=  0.00002734
 Iteration 92 RMS(Cart)=  0.00005741 RMS(Int)=  0.00002734
 Iteration 93 RMS(Cart)=  0.00005741 RMS(Int)=  0.00002734
 Iteration 94 RMS(Cart)=  0.00005741 RMS(Int)=  0.00002734
 Iteration 95 RMS(Cart)=  0.00005741 RMS(Int)=  0.00002734
 Iteration 96 RMS(Cart)=  0.00005741 RMS(Int)=  0.00002734
 Iteration 97 RMS(Cart)=  0.00005741 RMS(Int)=  0.00002734
 Iteration 98 RMS(Cart)=  0.00005741 RMS(Int)=  0.00002734
 Iteration 99 RMS(Cart)=  0.00005741 RMS(Int)=  0.00002734
 Iteration100 RMS(Cart)=  0.00005741 RMS(Int)=  0.00002734
 New curvilinear step not converged.
 ITry= 5 IFail=1 DXMaxC= 1.34D-03 DCOld= 1.00D+10 DXMaxT= 1.44D-01 DXLimC= 3.00D+00 Rises=F
 Iteration  1 RMS(Cart)=  0.00100529 RMS(Int)=  0.00002727
 Iteration  2 RMS(Cart)=  0.00005727 RMS(Int)=  0.00002727
 Iteration  3 RMS(Cart)=  0.00005726 RMS(Int)=  0.00002727
 Iteration  4 RMS(Cart)=  0.00005726 RMS(Int)=  0.00002727
 Iteration  5 RMS(Cart)=  0.00005726 RMS(Int)=  0.00002727
 Iteration  6 RMS(Cart)=  0.00005726 RMS(Int)=  0.00002727
 Iteration  7 RMS(Cart)=  0.00005726 RMS(Int)=  0.00002727
 Iteration  8 RMS(Cart)=  0.00005726 RMS(Int)=  0.00002727
 Iteration  9 RMS(Cart)=  0.00005726 RMS(Int)=  0.00002727
 Iteration 10 RMS(Cart)=  0.00005726 RMS(Int)=  0.00002727
 Iteration 11 RMS(Cart)=  0.00005726 RMS(Int)=  0.00002727
 Iteration 12 RMS(Cart)=  0.00005726 RMS(Int)=  0.00002727
 Iteration 13 RMS(Cart)=  0.00005726 RMS(Int)=  0.00002727
 Iteration 14 RMS(Cart)=  0.00005726 RMS(Int)=  0.00002727
 Iteration 15 RMS(Cart)=  0.00005726 RMS(Int)=  0.00002727
 Iteration 16 RMS(Cart)=  0.00005726 RMS(Int)=  0.00002727
 Iteration 17 RMS(Cart)=  0.00005726 RMS(Int)=  0.00002727
 Iteration 18 RMS(Cart)=  0.00005726 RMS(Int)=  0.00002727
 Iteration 19 RMS(Cart)=  0.00005726 RMS(Int)=  0.00002727
 Iteration 20 RMS(Cart)=  0.00005726 RMS(Int)=  0.00002727
 Iteration 21 RMS(Cart)=  0.00005726 RMS(Int)=  0.00002727
 Iteration 22 RMS(Cart)=  0.00005726 RMS(Int)=  0.00002727
 Iteration 23 RMS(Cart)=  0.00005726 RMS(Int)=  0.00002727
 Iteration 24 RMS(Cart)=  0.00005726 RMS(Int)=  0.00002727
 Iteration 25 RMS(Cart)=  0.00005726 RMS(Int)=  0.00002727
 Iteration 26 RMS(Cart)=  0.00005726 RMS(Int)=  0.00002727
 Iteration 27 RMS(Cart)=  0.00005726 RMS(Int)=  0.00002727
 Iteration 28 RMS(Cart)=  0.00005726 RMS(Int)=  0.00002727
 Iteration 29 RMS(Cart)=  0.00005726 RMS(Int)=  0.00002727
 Iteration 30 RMS(Cart)=  0.00005726 RMS(Int)=  0.00002727
 Iteration 31 RMS(Cart)=  0.00005726 RMS(Int)=  0.00002727
 Iteration 32 RMS(Cart)=  0.00005726 RMS(Int)=  0.00002727
 Iteration 33 RMS(Cart)=  0.00005726 RMS(Int)=  0.00002727
 Iteration 34 RMS(Cart)=  0.00005726 RMS(Int)=  0.00002727
 Iteration 35 RMS(Cart)=  0.00005726 RMS(Int)=  0.00002727
 Iteration 36 RMS(Cart)=  0.00005726 RMS(Int)=  0.00002727
 Iteration 37 RMS(Cart)=  0.00005726 RMS(Int)=  0.00002727
 Iteration 38 RMS(Cart)=  0.00005726 RMS(Int)=  0.00002727
 Iteration 39 RMS(Cart)=  0.00005726 RMS(Int)=  0.00002727
 Iteration 40 RMS(Cart)=  0.00005726 RMS(Int)=  0.00002727
 Iteration 41 RMS(Cart)=  0.00005726 RMS(Int)=  0.00002727
 Iteration 42 RMS(Cart)=  0.00005726 RMS(Int)=  0.00002727
 Iteration 43 RMS(Cart)=  0.00005726 RMS(Int)=  0.00002727
 Iteration 44 RMS(Cart)=  0.00005726 RMS(Int)=  0.00002727
 Iteration 45 RMS(Cart)=  0.00005726 RMS(Int)=  0.00002727
 Iteration 46 RMS(Cart)=  0.00005726 RMS(Int)=  0.00002727
 Iteration 47 RMS(Cart)=  0.00005726 RMS(Int)=  0.00002727
 Iteration 48 RMS(Cart)=  0.00005726 RMS(Int)=  0.00002727
 Iteration 49 RMS(Cart)=  0.00005726 RMS(Int)=  0.00002727
 Iteration 50 RMS(Cart)=  0.00005726 RMS(Int)=  0.00002727
 Iteration 51 RMS(Cart)=  0.00005726 RMS(Int)=  0.00002727
 Iteration 52 RMS(Cart)=  0.00005726 RMS(Int)=  0.00002727
 Iteration 53 RMS(Cart)=  0.00005726 RMS(Int)=  0.00002727
 Iteration 54 RMS(Cart)=  0.00005726 RMS(Int)=  0.00002727
 Iteration 55 RMS(Cart)=  0.00005726 RMS(Int)=  0.00002727
 Iteration 56 RMS(Cart)=  0.00005726 RMS(Int)=  0.00002727
 Iteration 57 RMS(Cart)=  0.00005726 RMS(Int)=  0.00002727
 Iteration 58 RMS(Cart)=  0.00005726 RMS(Int)=  0.00002727
 Iteration 59 RMS(Cart)=  0.00005726 RMS(Int)=  0.00002727
 Iteration 60 RMS(Cart)=  0.00005726 RMS(Int)=  0.00002727
 Iteration 61 RMS(Cart)=  0.00005726 RMS(Int)=  0.00002727
 Iteration 62 RMS(Cart)=  0.00005726 RMS(Int)=  0.00002727
 Iteration 63 RMS(Cart)=  0.00005726 RMS(Int)=  0.00002727
 Iteration 64 RMS(Cart)=  0.00005726 RMS(Int)=  0.00002727
 Iteration 65 RMS(Cart)=  0.00005726 RMS(Int)=  0.00002727
 Iteration 66 RMS(Cart)=  0.00005726 RMS(Int)=  0.00002727
 Iteration 67 RMS(Cart)=  0.00005726 RMS(Int)=  0.00002727
 Iteration 68 RMS(Cart)=  0.00005726 RMS(Int)=  0.00002727
 Iteration 69 RMS(Cart)=  0.00005726 RMS(Int)=  0.00002727
 Iteration 70 RMS(Cart)=  0.00005726 RMS(Int)=  0.00002727
 Iteration 71 RMS(Cart)=  0.00005726 RMS(Int)=  0.00002727
 Iteration 72 RMS(Cart)=  0.00005726 RMS(Int)=  0.00002727
 Iteration 73 RMS(Cart)=  0.00005726 RMS(Int)=  0.00002727
 Iteration 74 RMS(Cart)=  0.00005726 RMS(Int)=  0.00002727
 Iteration 75 RMS(Cart)=  0.00005726 RMS(Int)=  0.00002727
 Iteration 76 RMS(Cart)=  0.00005726 RMS(Int)=  0.00002727
 Iteration 77 RMS(Cart)=  0.00005726 RMS(Int)=  0.00002727
 Iteration 78 RMS(Cart)=  0.00005726 RMS(Int)=  0.00002727
 Iteration 79 RMS(Cart)=  0.00005726 RMS(Int)=  0.00002727
 Iteration 80 RMS(Cart)=  0.00005726 RMS(Int)=  0.00002727
 Iteration 81 RMS(Cart)=  0.00005726 RMS(Int)=  0.00002727
 Iteration 82 RMS(Cart)=  0.00005726 RMS(Int)=  0.00002727
 Iteration 83 RMS(Cart)=  0.00005726 RMS(Int)=  0.00002727
 Iteration 84 RMS(Cart)=  0.00005726 RMS(Int)=  0.00002727
 Iteration 85 RMS(Cart)=  0.00005726 RMS(Int)=  0.00002727
 Iteration 86 RMS(Cart)=  0.00005726 RMS(Int)=  0.00002727
 Iteration 87 RMS(Cart)=  0.00005726 RMS(Int)=  0.00002727
 Iteration 88 RMS(Cart)=  0.00005726 RMS(Int)=  0.00002727
 Iteration 89 RMS(Cart)=  0.00005726 RMS(Int)=  0.00002727
 Iteration 90 RMS(Cart)=  0.00005726 RMS(Int)=  0.00002727
 Iteration 91 RMS(Cart)=  0.00005726 RMS(Int)=  0.00002727
 Iteration 92 RMS(Cart)=  0.00005726 RMS(Int)=  0.00002727
 Iteration 93 RMS(Cart)=  0.00005726 RMS(Int)=  0.00002727
 Iteration 94 RMS(Cart)=  0.00005726 RMS(Int)=  0.00002727
 Iteration 95 RMS(Cart)=  0.00005726 RMS(Int)=  0.00002727
 Iteration 96 RMS(Cart)=  0.00005726 RMS(Int)=  0.00002727
 Iteration 97 RMS(Cart)=  0.00005726 RMS(Int)=  0.00002727
 Iteration 98 RMS(Cart)=  0.00005726 RMS(Int)=  0.00002727
 Iteration 99 RMS(Cart)=  0.00005726 RMS(Int)=  0.00002727
 Iteration100 RMS(Cart)=  0.00005726 RMS(Int)=  0.00002727
 New curvilinear step not converged.
 ITry= 6 IFail=1 DXMaxC= 1.34D-03 DCOld= 1.00D+10 DXMaxT= 1.44D-01 DXLimC= 3.00D+00 Rises=F
 Iteration  1 RMS(Cart)=  0.00100523 RMS(Int)=  0.00002720
 Iteration  2 RMS(Cart)=  0.00005712 RMS(Int)=  0.00002719
 Iteration  3 RMS(Cart)=  0.00005711 RMS(Int)=  0.00002719
 Iteration  4 RMS(Cart)=  0.00005711 RMS(Int)=  0.00002719
 Iteration  5 RMS(Cart)=  0.00005711 RMS(Int)=  0.00002719
 Iteration  6 RMS(Cart)=  0.00005711 RMS(Int)=  0.00002719
 Iteration  7 RMS(Cart)=  0.00005711 RMS(Int)=  0.00002719
 Iteration  8 RMS(Cart)=  0.00005711 RMS(Int)=  0.00002719
 Iteration  9 RMS(Cart)=  0.00005711 RMS(Int)=  0.00002719
 Iteration 10 RMS(Cart)=  0.00005711 RMS(Int)=  0.00002719
 Iteration 11 RMS(Cart)=  0.00005711 RMS(Int)=  0.00002719
 Iteration 12 RMS(Cart)=  0.00005711 RMS(Int)=  0.00002719
 Iteration 13 RMS(Cart)=  0.00005711 RMS(Int)=  0.00002719
 Iteration 14 RMS(Cart)=  0.00005711 RMS(Int)=  0.00002719
 Iteration 15 RMS(Cart)=  0.00005711 RMS(Int)=  0.00002719
 Iteration 16 RMS(Cart)=  0.00005711 RMS(Int)=  0.00002719
 Iteration 17 RMS(Cart)=  0.00005711 RMS(Int)=  0.00002719
 Iteration 18 RMS(Cart)=  0.00005711 RMS(Int)=  0.00002719
 Iteration 19 RMS(Cart)=  0.00005711 RMS(Int)=  0.00002719
 Iteration 20 RMS(Cart)=  0.00005711 RMS(Int)=  0.00002719
 Iteration 21 RMS(Cart)=  0.00005711 RMS(Int)=  0.00002719
 Iteration 22 RMS(Cart)=  0.00005711 RMS(Int)=  0.00002719
 Iteration 23 RMS(Cart)=  0.00005711 RMS(Int)=  0.00002719
 Iteration 24 RMS(Cart)=  0.00005711 RMS(Int)=  0.00002719
 Iteration 25 RMS(Cart)=  0.00005711 RMS(Int)=  0.00002719
 Iteration 26 RMS(Cart)=  0.00005711 RMS(Int)=  0.00002719
 Iteration 27 RMS(Cart)=  0.00005711 RMS(Int)=  0.00002719
 Iteration 28 RMS(Cart)=  0.00005711 RMS(Int)=  0.00002719
 Iteration 29 RMS(Cart)=  0.00005711 RMS(Int)=  0.00002719
 Iteration 30 RMS(Cart)=  0.00005711 RMS(Int)=  0.00002719
 Iteration 31 RMS(Cart)=  0.00005711 RMS(Int)=  0.00002719
 Iteration 32 RMS(Cart)=  0.00005711 RMS(Int)=  0.00002719
 Iteration 33 RMS(Cart)=  0.00005711 RMS(Int)=  0.00002719
 Iteration 34 RMS(Cart)=  0.00005711 RMS(Int)=  0.00002719
 Iteration 35 RMS(Cart)=  0.00005711 RMS(Int)=  0.00002719
 Iteration 36 RMS(Cart)=  0.00005711 RMS(Int)=  0.00002719
 Iteration 37 RMS(Cart)=  0.00005711 RMS(Int)=  0.00002719
 Iteration 38 RMS(Cart)=  0.00005711 RMS(Int)=  0.00002719
 Iteration 39 RMS(Cart)=  0.00005711 RMS(Int)=  0.00002719
 Iteration 40 RMS(Cart)=  0.00005711 RMS(Int)=  0.00002719
 Iteration 41 RMS(Cart)=  0.00005711 RMS(Int)=  0.00002719
 Iteration 42 RMS(Cart)=  0.00005711 RMS(Int)=  0.00002719
 Iteration 43 RMS(Cart)=  0.00005711 RMS(Int)=  0.00002719
 Iteration 44 RMS(Cart)=  0.00005711 RMS(Int)=  0.00002719
 Iteration 45 RMS(Cart)=  0.00005711 RMS(Int)=  0.00002719
 Iteration 46 RMS(Cart)=  0.00005711 RMS(Int)=  0.00002719
 Iteration 47 RMS(Cart)=  0.00005711 RMS(Int)=  0.00002719
 Iteration 48 RMS(Cart)=  0.00005711 RMS(Int)=  0.00002719
 Iteration 49 RMS(Cart)=  0.00005711 RMS(Int)=  0.00002719
 Iteration 50 RMS(Cart)=  0.00005711 RMS(Int)=  0.00002719
 Iteration 51 RMS(Cart)=  0.00005711 RMS(Int)=  0.00002719
 Iteration 52 RMS(Cart)=  0.00005711 RMS(Int)=  0.00002719
 Iteration 53 RMS(Cart)=  0.00005711 RMS(Int)=  0.00002719
 Iteration 54 RMS(Cart)=  0.00005711 RMS(Int)=  0.00002719
 Iteration 55 RMS(Cart)=  0.00005711 RMS(Int)=  0.00002719
 Iteration 56 RMS(Cart)=  0.00005711 RMS(Int)=  0.00002719
 Iteration 57 RMS(Cart)=  0.00005711 RMS(Int)=  0.00002719
 Iteration 58 RMS(Cart)=  0.00005711 RMS(Int)=  0.00002719
 Iteration 59 RMS(Cart)=  0.00005711 RMS(Int)=  0.00002719
 Iteration 60 RMS(Cart)=  0.00005711 RMS(Int)=  0.00002719
 Iteration 61 RMS(Cart)=  0.00005711 RMS(Int)=  0.00002719
 Iteration 62 RMS(Cart)=  0.00005711 RMS(Int)=  0.00002719
 Iteration 63 RMS(Cart)=  0.00005711 RMS(Int)=  0.00002719
 Iteration 64 RMS(Cart)=  0.00005711 RMS(Int)=  0.00002719
 Iteration 65 RMS(Cart)=  0.00005711 RMS(Int)=  0.00002719
 Iteration 66 RMS(Cart)=  0.00005711 RMS(Int)=  0.00002719
 Iteration 67 RMS(Cart)=  0.00005711 RMS(Int)=  0.00002719
 Iteration 68 RMS(Cart)=  0.00005711 RMS(Int)=  0.00002719
 Iteration 69 RMS(Cart)=  0.00005711 RMS(Int)=  0.00002719
 Iteration 70 RMS(Cart)=  0.00005711 RMS(Int)=  0.00002719
 Iteration 71 RMS(Cart)=  0.00005711 RMS(Int)=  0.00002719
 Iteration 72 RMS(Cart)=  0.00005711 RMS(Int)=  0.00002719
 Iteration 73 RMS(Cart)=  0.00005711 RMS(Int)=  0.00002719
 Iteration 74 RMS(Cart)=  0.00005711 RMS(Int)=  0.00002719
 Iteration 75 RMS(Cart)=  0.00005711 RMS(Int)=  0.00002719
 Iteration 76 RMS(Cart)=  0.00005711 RMS(Int)=  0.00002719
 Iteration 77 RMS(Cart)=  0.00005711 RMS(Int)=  0.00002719
 Iteration 78 RMS(Cart)=  0.00005711 RMS(Int)=  0.00002719
 Iteration 79 RMS(Cart)=  0.00005711 RMS(Int)=  0.00002719
 Iteration 80 RMS(Cart)=  0.00005711 RMS(Int)=  0.00002719
 Iteration 81 RMS(Cart)=  0.00005711 RMS(Int)=  0.00002719
 Iteration 82 RMS(Cart)=  0.00005711 RMS(Int)=  0.00002719
 Iteration 83 RMS(Cart)=  0.00005711 RMS(Int)=  0.00002719
 Iteration 84 RMS(Cart)=  0.00005711 RMS(Int)=  0.00002719
 Iteration 85 RMS(Cart)=  0.00005711 RMS(Int)=  0.00002719
 Iteration 86 RMS(Cart)=  0.00005711 RMS(Int)=  0.00002719
 Iteration 87 RMS(Cart)=  0.00005711 RMS(Int)=  0.00002719
 Iteration 88 RMS(Cart)=  0.00005711 RMS(Int)=  0.00002719
 Iteration 89 RMS(Cart)=  0.00005711 RMS(Int)=  0.00002719
 Iteration 90 RMS(Cart)=  0.00005711 RMS(Int)=  0.00002719
 Iteration 91 RMS(Cart)=  0.00005711 RMS(Int)=  0.00002719
 Iteration 92 RMS(Cart)=  0.00005711 RMS(Int)=  0.00002719
 Iteration 93 RMS(Cart)=  0.00005711 RMS(Int)=  0.00002719
 Iteration 94 RMS(Cart)=  0.00005711 RMS(Int)=  0.00002719
 Iteration 95 RMS(Cart)=  0.00005711 RMS(Int)=  0.00002719
 Iteration 96 RMS(Cart)=  0.00005711 RMS(Int)=  0.00002719
 Iteration 97 RMS(Cart)=  0.00005711 RMS(Int)=  0.00002719
 Iteration 98 RMS(Cart)=  0.00005711 RMS(Int)=  0.00002719
 Iteration 99 RMS(Cart)=  0.00005711 RMS(Int)=  0.00002719
 Iteration100 RMS(Cart)=  0.00005711 RMS(Int)=  0.00002719
 New curvilinear step not converged.
 ITry= 7 IFail=1 DXMaxC= 1.34D-03 DCOld= 1.00D+10 DXMaxT= 1.44D-01 DXLimC= 3.00D+00 Rises=F
 Iteration  1 RMS(Cart)=  0.00100517 RMS(Int)=  0.00002713
 Iteration  2 RMS(Cart)=  0.00005697 RMS(Int)=  0.00002712
 Iteration  3 RMS(Cart)=  0.00005696 RMS(Int)=  0.00002712
 Iteration  4 RMS(Cart)=  0.00005696 RMS(Int)=  0.00002712
 Iteration  5 RMS(Cart)=  0.00005696 RMS(Int)=  0.00002712
 Iteration  6 RMS(Cart)=  0.00005696 RMS(Int)=  0.00002712
 Iteration  7 RMS(Cart)=  0.00005696 RMS(Int)=  0.00002712
 Iteration  8 RMS(Cart)=  0.00005696 RMS(Int)=  0.00002712
 Iteration  9 RMS(Cart)=  0.00005696 RMS(Int)=  0.00002712
 Iteration 10 RMS(Cart)=  0.00005696 RMS(Int)=  0.00002712
 Iteration 11 RMS(Cart)=  0.00005696 RMS(Int)=  0.00002712
 Iteration 12 RMS(Cart)=  0.00005696 RMS(Int)=  0.00002712
 Iteration 13 RMS(Cart)=  0.00005696 RMS(Int)=  0.00002712
 Iteration 14 RMS(Cart)=  0.00005696 RMS(Int)=  0.00002712
 Iteration 15 RMS(Cart)=  0.00005696 RMS(Int)=  0.00002712
 Iteration 16 RMS(Cart)=  0.00005696 RMS(Int)=  0.00002712
 Iteration 17 RMS(Cart)=  0.00005696 RMS(Int)=  0.00002712
 Iteration 18 RMS(Cart)=  0.00005696 RMS(Int)=  0.00002712
 Iteration 19 RMS(Cart)=  0.00005696 RMS(Int)=  0.00002712
 Iteration 20 RMS(Cart)=  0.00005696 RMS(Int)=  0.00002712
 Iteration 21 RMS(Cart)=  0.00005696 RMS(Int)=  0.00002712
 Iteration 22 RMS(Cart)=  0.00005696 RMS(Int)=  0.00002712
 Iteration 23 RMS(Cart)=  0.00005696 RMS(Int)=  0.00002712
 Iteration 24 RMS(Cart)=  0.00005696 RMS(Int)=  0.00002712
 Iteration 25 RMS(Cart)=  0.00005696 RMS(Int)=  0.00002712
 Iteration 26 RMS(Cart)=  0.00005696 RMS(Int)=  0.00002712
 Iteration 27 RMS(Cart)=  0.00005696 RMS(Int)=  0.00002712
 Iteration 28 RMS(Cart)=  0.00005696 RMS(Int)=  0.00002712
 Iteration 29 RMS(Cart)=  0.00005696 RMS(Int)=  0.00002712
 Iteration 30 RMS(Cart)=  0.00005696 RMS(Int)=  0.00002712
 Iteration 31 RMS(Cart)=  0.00005696 RMS(Int)=  0.00002712
 Iteration 32 RMS(Cart)=  0.00005696 RMS(Int)=  0.00002712
 Iteration 33 RMS(Cart)=  0.00005696 RMS(Int)=  0.00002712
 Iteration 34 RMS(Cart)=  0.00005696 RMS(Int)=  0.00002712
 Iteration 35 RMS(Cart)=  0.00005696 RMS(Int)=  0.00002712
 Iteration 36 RMS(Cart)=  0.00005696 RMS(Int)=  0.00002712
 Iteration 37 RMS(Cart)=  0.00005696 RMS(Int)=  0.00002712
 Iteration 38 RMS(Cart)=  0.00005696 RMS(Int)=  0.00002712
 Iteration 39 RMS(Cart)=  0.00005696 RMS(Int)=  0.00002712
 Iteration 40 RMS(Cart)=  0.00005696 RMS(Int)=  0.00002712
 Iteration 41 RMS(Cart)=  0.00005696 RMS(Int)=  0.00002712
 Iteration 42 RMS(Cart)=  0.00005696 RMS(Int)=  0.00002712
 Iteration 43 RMS(Cart)=  0.00005696 RMS(Int)=  0.00002712
 Iteration 44 RMS(Cart)=  0.00005696 RMS(Int)=  0.00002712
 Iteration 45 RMS(Cart)=  0.00005696 RMS(Int)=  0.00002712
 Iteration 46 RMS(Cart)=  0.00005696 RMS(Int)=  0.00002712
 Iteration 47 RMS(Cart)=  0.00005696 RMS(Int)=  0.00002712
 Iteration 48 RMS(Cart)=  0.00005696 RMS(Int)=  0.00002712
 Iteration 49 RMS(Cart)=  0.00005696 RMS(Int)=  0.00002712
 Iteration 50 RMS(Cart)=  0.00005696 RMS(Int)=  0.00002712
 Iteration 51 RMS(Cart)=  0.00005696 RMS(Int)=  0.00002712
 Iteration 52 RMS(Cart)=  0.00005696 RMS(Int)=  0.00002712
 Iteration 53 RMS(Cart)=  0.00005696 RMS(Int)=  0.00002712
 Iteration 54 RMS(Cart)=  0.00005696 RMS(Int)=  0.00002712
 Iteration 55 RMS(Cart)=  0.00005696 RMS(Int)=  0.00002712
 Iteration 56 RMS(Cart)=  0.00005696 RMS(Int)=  0.00002712
 Iteration 57 RMS(Cart)=  0.00005696 RMS(Int)=  0.00002712
 Iteration 58 RMS(Cart)=  0.00005696 RMS(Int)=  0.00002712
 Iteration 59 RMS(Cart)=  0.00005696 RMS(Int)=  0.00002712
 Iteration 60 RMS(Cart)=  0.00005696 RMS(Int)=  0.00002712
 Iteration 61 RMS(Cart)=  0.00005696 RMS(Int)=  0.00002712
 Iteration 62 RMS(Cart)=  0.00005696 RMS(Int)=  0.00002712
 Iteration 63 RMS(Cart)=  0.00005696 RMS(Int)=  0.00002712
 Iteration 64 RMS(Cart)=  0.00005696 RMS(Int)=  0.00002712
 Iteration 65 RMS(Cart)=  0.00005696 RMS(Int)=  0.00002712
 Iteration 66 RMS(Cart)=  0.00005696 RMS(Int)=  0.00002712
 Iteration 67 RMS(Cart)=  0.00005696 RMS(Int)=  0.00002712
 Iteration 68 RMS(Cart)=  0.00005696 RMS(Int)=  0.00002712
 Iteration 69 RMS(Cart)=  0.00005696 RMS(Int)=  0.00002712
 Iteration 70 RMS(Cart)=  0.00005696 RMS(Int)=  0.00002712
 Iteration 71 RMS(Cart)=  0.00005696 RMS(Int)=  0.00002712
 Iteration 72 RMS(Cart)=  0.00005696 RMS(Int)=  0.00002712
 Iteration 73 RMS(Cart)=  0.00005696 RMS(Int)=  0.00002712
 Iteration 74 RMS(Cart)=  0.00005696 RMS(Int)=  0.00002712
 Iteration 75 RMS(Cart)=  0.00005696 RMS(Int)=  0.00002712
 Iteration 76 RMS(Cart)=  0.00005696 RMS(Int)=  0.00002712
 Iteration 77 RMS(Cart)=  0.00005696 RMS(Int)=  0.00002712
 Iteration 78 RMS(Cart)=  0.00005696 RMS(Int)=  0.00002712
 Iteration 79 RMS(Cart)=  0.00005696 RMS(Int)=  0.00002712
 Iteration 80 RMS(Cart)=  0.00005696 RMS(Int)=  0.00002712
 Iteration 81 RMS(Cart)=  0.00005696 RMS(Int)=  0.00002712
 Iteration 82 RMS(Cart)=  0.00005696 RMS(Int)=  0.00002712
 Iteration 83 RMS(Cart)=  0.00005696 RMS(Int)=  0.00002712
 Iteration 84 RMS(Cart)=  0.00005696 RMS(Int)=  0.00002712
 Iteration 85 RMS(Cart)=  0.00005696 RMS(Int)=  0.00002712
 Iteration 86 RMS(Cart)=  0.00005696 RMS(Int)=  0.00002712
 Iteration 87 RMS(Cart)=  0.00005696 RMS(Int)=  0.00002712
 Iteration 88 RMS(Cart)=  0.00005696 RMS(Int)=  0.00002712
 Iteration 89 RMS(Cart)=  0.00005696 RMS(Int)=  0.00002712
 Iteration 90 RMS(Cart)=  0.00005696 RMS(Int)=  0.00002712
 Iteration 91 RMS(Cart)=  0.00005696 RMS(Int)=  0.00002712
 Iteration 92 RMS(Cart)=  0.00005696 RMS(Int)=  0.00002712
 Iteration 93 RMS(Cart)=  0.00005696 RMS(Int)=  0.00002712
 Iteration 94 RMS(Cart)=  0.00005696 RMS(Int)=  0.00002712
 Iteration 95 RMS(Cart)=  0.00005696 RMS(Int)=  0.00002712
 Iteration 96 RMS(Cart)=  0.00005696 RMS(Int)=  0.00002712
 Iteration 97 RMS(Cart)=  0.00005696 RMS(Int)=  0.00002712
 Iteration 98 RMS(Cart)=  0.00005696 RMS(Int)=  0.00002712
 Iteration 99 RMS(Cart)=  0.00005696 RMS(Int)=  0.00002712
 Iteration100 RMS(Cart)=  0.00005696 RMS(Int)=  0.00002712
 New curvilinear step not converged.
 ITry= 8 IFail=1 DXMaxC= 1.34D-03 DCOld= 1.00D+10 DXMaxT= 1.44D-01 DXLimC= 3.00D+00 Rises=F
 Iteration  1 RMS(Cart)=  0.00100511 RMS(Int)=  0.00002706
 Iteration  2 RMS(Cart)=  0.00005682 RMS(Int)=  0.00002705
 Iteration  3 RMS(Cart)=  0.00005681 RMS(Int)=  0.00002705
 Iteration  4 RMS(Cart)=  0.00005681 RMS(Int)=  0.00002705
 Iteration  5 RMS(Cart)=  0.00005681 RMS(Int)=  0.00002705
 Iteration  6 RMS(Cart)=  0.00005681 RMS(Int)=  0.00002705
 Iteration  7 RMS(Cart)=  0.00005681 RMS(Int)=  0.00002705
 Iteration  8 RMS(Cart)=  0.00005681 RMS(Int)=  0.00002705
 Iteration  9 RMS(Cart)=  0.00005681 RMS(Int)=  0.00002705
 Iteration 10 RMS(Cart)=  0.00005681 RMS(Int)=  0.00002705
 Iteration 11 RMS(Cart)=  0.00005681 RMS(Int)=  0.00002705
 Iteration 12 RMS(Cart)=  0.00005681 RMS(Int)=  0.00002705
 Iteration 13 RMS(Cart)=  0.00005681 RMS(Int)=  0.00002705
 Iteration 14 RMS(Cart)=  0.00005681 RMS(Int)=  0.00002705
 Iteration 15 RMS(Cart)=  0.00005681 RMS(Int)=  0.00002705
 Iteration 16 RMS(Cart)=  0.00005681 RMS(Int)=  0.00002705
 Iteration 17 RMS(Cart)=  0.00005681 RMS(Int)=  0.00002705
 Iteration 18 RMS(Cart)=  0.00005681 RMS(Int)=  0.00002705
 Iteration 19 RMS(Cart)=  0.00005681 RMS(Int)=  0.00002705
 Iteration 20 RMS(Cart)=  0.00005681 RMS(Int)=  0.00002705
 Iteration 21 RMS(Cart)=  0.00005681 RMS(Int)=  0.00002705
 Iteration 22 RMS(Cart)=  0.00005681 RMS(Int)=  0.00002705
 Iteration 23 RMS(Cart)=  0.00005681 RMS(Int)=  0.00002705
 Iteration 24 RMS(Cart)=  0.00005681 RMS(Int)=  0.00002705
 Iteration 25 RMS(Cart)=  0.00005681 RMS(Int)=  0.00002705
 Iteration 26 RMS(Cart)=  0.00005681 RMS(Int)=  0.00002705
 Iteration 27 RMS(Cart)=  0.00005681 RMS(Int)=  0.00002705
 Iteration 28 RMS(Cart)=  0.00005681 RMS(Int)=  0.00002705
 Iteration 29 RMS(Cart)=  0.00005681 RMS(Int)=  0.00002705
 Iteration 30 RMS(Cart)=  0.00005681 RMS(Int)=  0.00002705
 Iteration 31 RMS(Cart)=  0.00005681 RMS(Int)=  0.00002705
 Iteration 32 RMS(Cart)=  0.00005681 RMS(Int)=  0.00002705
 Iteration 33 RMS(Cart)=  0.00005681 RMS(Int)=  0.00002705
 Iteration 34 RMS(Cart)=  0.00005681 RMS(Int)=  0.00002705
 Iteration 35 RMS(Cart)=  0.00005681 RMS(Int)=  0.00002705
 Iteration 36 RMS(Cart)=  0.00005681 RMS(Int)=  0.00002705
 Iteration 37 RMS(Cart)=  0.00005681 RMS(Int)=  0.00002705
 Iteration 38 RMS(Cart)=  0.00005681 RMS(Int)=  0.00002705
 Iteration 39 RMS(Cart)=  0.00005681 RMS(Int)=  0.00002705
 Iteration 40 RMS(Cart)=  0.00005681 RMS(Int)=  0.00002705
 Iteration 41 RMS(Cart)=  0.00005681 RMS(Int)=  0.00002705
 Iteration 42 RMS(Cart)=  0.00005681 RMS(Int)=  0.00002705
 Iteration 43 RMS(Cart)=  0.00005681 RMS(Int)=  0.00002705
 Iteration 44 RMS(Cart)=  0.00005681 RMS(Int)=  0.00002705
 Iteration 45 RMS(Cart)=  0.00005681 RMS(Int)=  0.00002705
 Iteration 46 RMS(Cart)=  0.00005681 RMS(Int)=  0.00002705
 Iteration 47 RMS(Cart)=  0.00005681 RMS(Int)=  0.00002705
 Iteration 48 RMS(Cart)=  0.00005681 RMS(Int)=  0.00002705
 Iteration 49 RMS(Cart)=  0.00005681 RMS(Int)=  0.00002705
 Iteration 50 RMS(Cart)=  0.00005681 RMS(Int)=  0.00002705
 Iteration 51 RMS(Cart)=  0.00005681 RMS(Int)=  0.00002705
 Iteration 52 RMS(Cart)=  0.00005681 RMS(Int)=  0.00002705
 Iteration 53 RMS(Cart)=  0.00005681 RMS(Int)=  0.00002705
 Iteration 54 RMS(Cart)=  0.00005681 RMS(Int)=  0.00002705
 Iteration 55 RMS(Cart)=  0.00005681 RMS(Int)=  0.00002705
 Iteration 56 RMS(Cart)=  0.00005681 RMS(Int)=  0.00002705
 Iteration 57 RMS(Cart)=  0.00005681 RMS(Int)=  0.00002705
 Iteration 58 RMS(Cart)=  0.00005681 RMS(Int)=  0.00002705
 Iteration 59 RMS(Cart)=  0.00005681 RMS(Int)=  0.00002705
 Iteration 60 RMS(Cart)=  0.00005681 RMS(Int)=  0.00002705
 Iteration 61 RMS(Cart)=  0.00005681 RMS(Int)=  0.00002705
 Iteration 62 RMS(Cart)=  0.00005681 RMS(Int)=  0.00002705
 Iteration 63 RMS(Cart)=  0.00005681 RMS(Int)=  0.00002705
 Iteration 64 RMS(Cart)=  0.00005681 RMS(Int)=  0.00002705
 Iteration 65 RMS(Cart)=  0.00005681 RMS(Int)=  0.00002705
 Iteration 66 RMS(Cart)=  0.00005681 RMS(Int)=  0.00002705
 Iteration 67 RMS(Cart)=  0.00005681 RMS(Int)=  0.00002705
 Iteration 68 RMS(Cart)=  0.00005681 RMS(Int)=  0.00002705
 Iteration 69 RMS(Cart)=  0.00005681 RMS(Int)=  0.00002705
 Iteration 70 RMS(Cart)=  0.00005681 RMS(Int)=  0.00002705
 Iteration 71 RMS(Cart)=  0.00005681 RMS(Int)=  0.00002705
 Iteration 72 RMS(Cart)=  0.00005681 RMS(Int)=  0.00002705
 Iteration 73 RMS(Cart)=  0.00005681 RMS(Int)=  0.00002705
 Iteration 74 RMS(Cart)=  0.00005681 RMS(Int)=  0.00002705
 Iteration 75 RMS(Cart)=  0.00005681 RMS(Int)=  0.00002705
 Iteration 76 RMS(Cart)=  0.00005681 RMS(Int)=  0.00002705
 Iteration 77 RMS(Cart)=  0.00005681 RMS(Int)=  0.00002705
 Iteration 78 RMS(Cart)=  0.00005681 RMS(Int)=  0.00002705
 Iteration 79 RMS(Cart)=  0.00005681 RMS(Int)=  0.00002705
 Iteration 80 RMS(Cart)=  0.00005681 RMS(Int)=  0.00002705
 Iteration 81 RMS(Cart)=  0.00005681 RMS(Int)=  0.00002705
 Iteration 82 RMS(Cart)=  0.00005681 RMS(Int)=  0.00002705
 Iteration 83 RMS(Cart)=  0.00005681 RMS(Int)=  0.00002705
 Iteration 84 RMS(Cart)=  0.00005681 RMS(Int)=  0.00002705
 Iteration 85 RMS(Cart)=  0.00005681 RMS(Int)=  0.00002705
 Iteration 86 RMS(Cart)=  0.00005681 RMS(Int)=  0.00002705
 Iteration 87 RMS(Cart)=  0.00005681 RMS(Int)=  0.00002705
 Iteration 88 RMS(Cart)=  0.00005681 RMS(Int)=  0.00002705
 Iteration 89 RMS(Cart)=  0.00005681 RMS(Int)=  0.00002705
 Iteration 90 RMS(Cart)=  0.00005681 RMS(Int)=  0.00002705
 Iteration 91 RMS(Cart)=  0.00005681 RMS(Int)=  0.00002705
 Iteration 92 RMS(Cart)=  0.00005681 RMS(Int)=  0.00002705
 Iteration 93 RMS(Cart)=  0.00005681 RMS(Int)=  0.00002705
 Iteration 94 RMS(Cart)=  0.00005681 RMS(Int)=  0.00002705
 Iteration 95 RMS(Cart)=  0.00005681 RMS(Int)=  0.00002705
 Iteration 96 RMS(Cart)=  0.00005681 RMS(Int)=  0.00002705
 Iteration 97 RMS(Cart)=  0.00005681 RMS(Int)=  0.00002705
 Iteration 98 RMS(Cart)=  0.00005681 RMS(Int)=  0.00002705
 Iteration 99 RMS(Cart)=  0.00005681 RMS(Int)=  0.00002705
 Iteration100 RMS(Cart)=  0.00005681 RMS(Int)=  0.00002705
 New curvilinear step not converged.
 ITry= 9 IFail=1 DXMaxC= 1.34D-03 DCOld= 1.00D+10 DXMaxT= 1.44D-01 DXLimC= 3.00D+00 Rises=F
 Iteration  1 RMS(Cart)=  0.00100505 RMS(Int)=  0.00002698
 Iteration  2 RMS(Cart)=  0.00005667 RMS(Int)=  0.00002698
 Iteration  3 RMS(Cart)=  0.00005666 RMS(Int)=  0.00002698
 Iteration  4 RMS(Cart)=  0.00005666 RMS(Int)=  0.00002698
 Iteration  5 RMS(Cart)=  0.00005666 RMS(Int)=  0.00002698
 Iteration  6 RMS(Cart)=  0.00005666 RMS(Int)=  0.00002698
 Iteration  7 RMS(Cart)=  0.00005666 RMS(Int)=  0.00002698
 Iteration  8 RMS(Cart)=  0.00005666 RMS(Int)=  0.00002698
 Iteration  9 RMS(Cart)=  0.00005666 RMS(Int)=  0.00002698
 Iteration 10 RMS(Cart)=  0.00005666 RMS(Int)=  0.00002698
 Iteration 11 RMS(Cart)=  0.00005666 RMS(Int)=  0.00002698
 Iteration 12 RMS(Cart)=  0.00005666 RMS(Int)=  0.00002698
 Iteration 13 RMS(Cart)=  0.00005666 RMS(Int)=  0.00002698
 Iteration 14 RMS(Cart)=  0.00005666 RMS(Int)=  0.00002698
 Iteration 15 RMS(Cart)=  0.00005666 RMS(Int)=  0.00002698
 Iteration 16 RMS(Cart)=  0.00005666 RMS(Int)=  0.00002698
 Iteration 17 RMS(Cart)=  0.00005666 RMS(Int)=  0.00002698
 Iteration 18 RMS(Cart)=  0.00005666 RMS(Int)=  0.00002698
 Iteration 19 RMS(Cart)=  0.00005666 RMS(Int)=  0.00002698
 Iteration 20 RMS(Cart)=  0.00005666 RMS(Int)=  0.00002698
 Iteration 21 RMS(Cart)=  0.00005666 RMS(Int)=  0.00002698
 Iteration 22 RMS(Cart)=  0.00005666 RMS(Int)=  0.00002698
 Iteration 23 RMS(Cart)=  0.00005666 RMS(Int)=  0.00002698
 Iteration 24 RMS(Cart)=  0.00005666 RMS(Int)=  0.00002698
 Iteration 25 RMS(Cart)=  0.00005666 RMS(Int)=  0.00002698
 Iteration 26 RMS(Cart)=  0.00005666 RMS(Int)=  0.00002698
 Iteration 27 RMS(Cart)=  0.00005666 RMS(Int)=  0.00002698
 Iteration 28 RMS(Cart)=  0.00005666 RMS(Int)=  0.00002698
 Iteration 29 RMS(Cart)=  0.00005666 RMS(Int)=  0.00002698
 Iteration 30 RMS(Cart)=  0.00005666 RMS(Int)=  0.00002698
 Iteration 31 RMS(Cart)=  0.00005666 RMS(Int)=  0.00002698
 Iteration 32 RMS(Cart)=  0.00005666 RMS(Int)=  0.00002698
 Iteration 33 RMS(Cart)=  0.00005666 RMS(Int)=  0.00002698
 Iteration 34 RMS(Cart)=  0.00005666 RMS(Int)=  0.00002698
 Iteration 35 RMS(Cart)=  0.00005666 RMS(Int)=  0.00002698
 Iteration 36 RMS(Cart)=  0.00005666 RMS(Int)=  0.00002698
 Iteration 37 RMS(Cart)=  0.00005666 RMS(Int)=  0.00002698
 Iteration 38 RMS(Cart)=  0.00005666 RMS(Int)=  0.00002698
 Iteration 39 RMS(Cart)=  0.00005666 RMS(Int)=  0.00002698
 Iteration 40 RMS(Cart)=  0.00005666 RMS(Int)=  0.00002698
 Iteration 41 RMS(Cart)=  0.00005666 RMS(Int)=  0.00002698
 Iteration 42 RMS(Cart)=  0.00005666 RMS(Int)=  0.00002698
 Iteration 43 RMS(Cart)=  0.00005666 RMS(Int)=  0.00002698
 Iteration 44 RMS(Cart)=  0.00005666 RMS(Int)=  0.00002698
 Iteration 45 RMS(Cart)=  0.00005666 RMS(Int)=  0.00002698
 Iteration 46 RMS(Cart)=  0.00005666 RMS(Int)=  0.00002698
 Iteration 47 RMS(Cart)=  0.00005666 RMS(Int)=  0.00002698
 Iteration 48 RMS(Cart)=  0.00005666 RMS(Int)=  0.00002698
 Iteration 49 RMS(Cart)=  0.00005666 RMS(Int)=  0.00002698
 Iteration 50 RMS(Cart)=  0.00005666 RMS(Int)=  0.00002698
 Iteration 51 RMS(Cart)=  0.00005666 RMS(Int)=  0.00002698
 Iteration 52 RMS(Cart)=  0.00005666 RMS(Int)=  0.00002698
 Iteration 53 RMS(Cart)=  0.00005666 RMS(Int)=  0.00002698
 Iteration 54 RMS(Cart)=  0.00005666 RMS(Int)=  0.00002698
 Iteration 55 RMS(Cart)=  0.00005666 RMS(Int)=  0.00002698
 Iteration 56 RMS(Cart)=  0.00005666 RMS(Int)=  0.00002698
 Iteration 57 RMS(Cart)=  0.00005666 RMS(Int)=  0.00002698
 Iteration 58 RMS(Cart)=  0.00005666 RMS(Int)=  0.00002698
 Iteration 59 RMS(Cart)=  0.00005666 RMS(Int)=  0.00002698
 Iteration 60 RMS(Cart)=  0.00005666 RMS(Int)=  0.00002698
 Iteration 61 RMS(Cart)=  0.00005666 RMS(Int)=  0.00002698
 Iteration 62 RMS(Cart)=  0.00005666 RMS(Int)=  0.00002698
 Iteration 63 RMS(Cart)=  0.00005666 RMS(Int)=  0.00002698
 Iteration 64 RMS(Cart)=  0.00005666 RMS(Int)=  0.00002698
 Iteration 65 RMS(Cart)=  0.00005666 RMS(Int)=  0.00002698
 Iteration 66 RMS(Cart)=  0.00005666 RMS(Int)=  0.00002698
 Iteration 67 RMS(Cart)=  0.00005666 RMS(Int)=  0.00002698
 Iteration 68 RMS(Cart)=  0.00005666 RMS(Int)=  0.00002698
 Iteration 69 RMS(Cart)=  0.00005666 RMS(Int)=  0.00002698
 Iteration 70 RMS(Cart)=  0.00005666 RMS(Int)=  0.00002698
 Iteration 71 RMS(Cart)=  0.00005666 RMS(Int)=  0.00002698
 Iteration 72 RMS(Cart)=  0.00005666 RMS(Int)=  0.00002698
 Iteration 73 RMS(Cart)=  0.00005666 RMS(Int)=  0.00002698
 Iteration 74 RMS(Cart)=  0.00005666 RMS(Int)=  0.00002698
 Iteration 75 RMS(Cart)=  0.00005666 RMS(Int)=  0.00002698
 Iteration 76 RMS(Cart)=  0.00005666 RMS(Int)=  0.00002698
 Iteration 77 RMS(Cart)=  0.00005666 RMS(Int)=  0.00002698
 Iteration 78 RMS(Cart)=  0.00005666 RMS(Int)=  0.00002698
 Iteration 79 RMS(Cart)=  0.00005666 RMS(Int)=  0.00002698
 Iteration 80 RMS(Cart)=  0.00005666 RMS(Int)=  0.00002698
 Iteration 81 RMS(Cart)=  0.00005666 RMS(Int)=  0.00002698
 Iteration 82 RMS(Cart)=  0.00005666 RMS(Int)=  0.00002698
 Iteration 83 RMS(Cart)=  0.00005666 RMS(Int)=  0.00002698
 Iteration 84 RMS(Cart)=  0.00005666 RMS(Int)=  0.00002698
 Iteration 85 RMS(Cart)=  0.00005666 RMS(Int)=  0.00002698
 Iteration 86 RMS(Cart)=  0.00005666 RMS(Int)=  0.00002698
 Iteration 87 RMS(Cart)=  0.00005666 RMS(Int)=  0.00002698
 Iteration 88 RMS(Cart)=  0.00005666 RMS(Int)=  0.00002698
 Iteration 89 RMS(Cart)=  0.00005666 RMS(Int)=  0.00002698
 Iteration 90 RMS(Cart)=  0.00005666 RMS(Int)=  0.00002698
 Iteration 91 RMS(Cart)=  0.00005666 RMS(Int)=  0.00002698
 Iteration 92 RMS(Cart)=  0.00005666 RMS(Int)=  0.00002698
 Iteration 93 RMS(Cart)=  0.00005666 RMS(Int)=  0.00002698
 Iteration 94 RMS(Cart)=  0.00005666 RMS(Int)=  0.00002698
 Iteration 95 RMS(Cart)=  0.00005666 RMS(Int)=  0.00002698
 Iteration 96 RMS(Cart)=  0.00005666 RMS(Int)=  0.00002698
 Iteration 97 RMS(Cart)=  0.00005666 RMS(Int)=  0.00002698
 Iteration 98 RMS(Cart)=  0.00005666 RMS(Int)=  0.00002698
 Iteration 99 RMS(Cart)=  0.00005666 RMS(Int)=  0.00002698
 Iteration100 RMS(Cart)=  0.00005666 RMS(Int)=  0.00002698
 New curvilinear step not converged.
 ITry=10 IFail=1 DXMaxC= 1.34D-03 DCOld= 1.00D+10 DXMaxT= 1.44D-01 DXLimC= 3.00D+00 Rises=F
 RedQX1 iteration     1 Try  1 RMS(Cart)=  0.00020112 RMS(Int)=  0.00038315 XScale=  5.00001715
 RedQX1 iteration     1 Try  2 RMS(Cart)=  0.00020112 RMS(Int)=  0.00028737 XScale=  2.50001605
 RedQX1 iteration     1 Try  3 RMS(Cart)=  0.00020112 RMS(Int)=  0.00019158 XScale=  1.66668091
 RedQX1 iteration     1 Try  4 RMS(Cart)=  0.00020112 RMS(Int)=  0.00009579 XScale=  1.25001147
 RedQX1 iteration     1 Try  5 RMS(Cart)=  0.00020112 RMS(Int)=  0.00002762 XScale=  1.06119028
 RedQX1 iteration     1 Try  6 RMS(Cart)=  0.00005802 RMS(Int)=  0.00005525 XScale=  1.13033751
 RedQX1 iteration     2 Try  1 RMS(Cart)=  0.00002321 RMS(Int)=  0.00006630 XScale=  1.16058945
 RedQX1 iteration     2 Try  2 RMS(Cart)=  0.00003481 RMS(Int)=  0.00008287 XScale=  1.20912906
 RedQX1 iteration     2 Try  3 RMS(Cart)=  0.00005802 RMS(Int)=  0.00011049 XScale=  1.29972172
 RedQX1 iteration     2 Try  4 RMS(Cart)=  0.00011603 RMS(Int)=  0.00016574 XScale=  1.52877408
 RedQX1 iteration     2 Try  5 RMS(Cart)=  0.00034810 RMS(Int)=  0.00033149 XScale=  3.24017030
 RedQX1 iteration     2 Try  6 RMS(Cart)=  0.00069620 RMS(Int)=  0.00066297 XScale=  2.59467407
 RedQX1 iteration     3 Try  1 RMS(Cart)=  0.00027848 RMS(Int)=  0.00079557 XScale=  1.51080951
 RedQX1 iteration     3 Try  2 RMS(Cart)=  0.00041772 RMS(Int)=  0.00099446 XScale=  0.92852553
 RedQX1 iteration     4 Try  1 RMS(Cart)=  0.00033418 RMS(Int)=  0.00095468 XScale=  1.00608905
 RedQX1 iteration     4 Try  2 RMS(Cart)=  0.00050127 RMS(Int)=  0.00119335 XScale=  0.67016834
 RedQX1 iteration     5 Try  1 RMS(Cart)=  0.00040101 RMS(Int)=  0.00114562 XScale=  0.71812601
 RedQX1 iteration     6 Try  1 RMS(Cart)=  0.00008020 RMS(Int)=  0.00099287 XScale=  0.93139754
 RedQX1 iteration     7 Try  1 RMS(Cart)=  0.00001604 RMS(Int)=  0.00096232 XScale=  0.99020781
 RedQX1 iteration     8 Try  1 RMS(Cart)=  0.00000321 RMS(Int)=  0.00095621 XScale=  1.00287219
 RedQX1 iteration     8 Try  2 RMS(Cart)=  0.00000322 RMS(Int)=  0.00095774 XScale=  0.99966562
 RedQX1 iteration     8 Try  3 RMS(Cart)=  0.00000323 RMS(Int)=  0.00095928 XScale=  0.99646929
 RedQX1 iteration     9 Try  1 RMS(Cart)=  0.00000322 RMS(Int)=  0.00095927 XScale=  0.99647949
 RedQX1 iteration    10 Try  1 RMS(Cart)=  0.00000064 RMS(Int)=  0.00095805 XScale=  0.99902677
 RedQX1 iteration    10 Try  2 RMS(Cart)=  0.00000064 RMS(Int)=  0.00095835 XScale=  0.99838832
 RedQX1 iteration    11 Try  1 RMS(Cart)=  0.00000064 RMS(Int)=  0.00095835 XScale=  0.99838852
 RedQX1 iteration    12 Try  1 RMS(Cart)=  0.00000013 RMS(Int)=  0.00095811 XScale=  0.99889905
 RedQX1 iteration    13 Try  1 RMS(Cart)=  0.00000003 RMS(Int)=  0.00095806 XScale=  0.99900122
 ClnCor:  largest displacement from symmetrization is 2.27D-13 for atom     3.
 B after Tr=     0.000000   39.684249   38.806782
         Rot=    0.000000    1.000000   -0.000000    0.000000 Ang= 180.00 deg.
 Variable       Old X    -DE/DX   Delta X   Delta X   Delta X     New X
                                 (Linear)    (Quad)   (Total)
    R1        5.14454  -0.00000  -0.00003   0.00001  -0.00001   5.14453
    R2        5.14454  -0.00000  -0.00003   0.00001  -0.00001   5.14453
    A1        3.14079   0.00000   0.00083   0.00000  -0.00083   3.13996
         Item               Value     Threshold  Converged?
 Maximum Force            0.000001     0.000450     YES
 RMS     Force            0.000001     0.000300     YES
 Maximum Displacement     0.001424     0.001800     YES
 RMS     Displacement     0.001007     0.001200     YES
 Predicted change in Energy=-1.012167D-09
 Optimization completed.
    -- Stationary point found.
                           ----------------------------
                           !   Optimized Parameters   !
                           ! (Angstroms and Degrees)  !
 --------------------------                            --------------------------
 ! Name  Definition              Value          Derivative Info.                !
 --------------------------------------------------------------------------------
 ! R1    R(1,2)                  2.7224         -DE/DX =    0.0                 !
 ! R2    R(1,3)                  2.7224         -DE/DX =    0.0                 !
 ! A1    A(2,1,3)              179.9539         -DE/DX =    0.0                 !
 --------------------------------------------------------------------------------
 GradGradGradGradGradGradGradGradGradGradGradGradGradGradGradGradGradGrad

                          Input orientation:                          
 ---------------------------------------------------------------------
 Center     Atomic      Atomic             Coordinates (Angstroms)
 Number     Number       Type             X           Y           Z
 ---------------------------------------------------------------------
      1         16           0       10.500000   10.500000   10.268563
      2         19           0        7.777625   10.500000   10.267467
      3         19           0       13.222375   10.500000   10.267467
 ---------------------------------------------------------------------
                    Distance matrix (angstroms):
                    1          2          3
     1  S    0.000000
     2  K    2.722375   0.000000
     3  K    2.722375   5.444750   0.000000
 Stoichiometry    K2S
 Framework group  C2V[C2(S),SGV(K2)]
 Deg. of freedom     2
 Full point group                 C2V     NOp   4
 Largest Abelian subgroup         C2V     NOp   4
 Largest concise Abelian subgroup C2      NOp   2
                         Standard orientation:                         
 ---------------------------------------------------------------------
 Center     Atomic      Atomic             Coordinates (Angstroms)
 Number     Number       Type             X           Y           Z
 ---------------------------------------------------------------------
      1         16           0        0.000000    0.000000    0.000771
      2         19           0       -0.000000    2.722375   -0.000325
      3         19           0       -0.000000   -2.722375   -0.000325
 ---------------------------------------------------------------------
 Rotational constants (GHZ):    18551140.3193487           0.8750463           0.8750463

 **********************************************************************

            Population analysis using the SCF Density.

 **********************************************************************

 Orbital symmetries:
       Occupied  (B2) (A1) (A1) (B2) (A1) (B1) (A1) (A2) (B2) (A1)
                 (B2) (A1) (B2) (A1) (B1) (A1) (B2) (A1) (B1) (B2)
                 (A2) (A1) (B2) (A1) (B2) (A1) (B1)
       Virtual   (A1) (B2) (A1) (B1) (A2) (B2) (A1) (B2) (A1) (B2)
                 (B1) (A1) (A2) (B2) (A1) (A1) (B1) (B2) (A2) (B2)
                 (A2) (B2) (A1) (B1) (A1) (B2) (A1) (B2) (A2) (B2)
                 (A1) (B1) (A1) (B1) (B1) (A1) (A2) (B2) (A2) (B2)
                 (A1) (A1) (B1) (A1) (B2) (A1) (B1) (B2) (A2) (B2)
                 (A2) (A1) (B1) (B2) (A2) (B2) (A1) (B1) (A1) (A1)
                 (B1) (B2) (A1) (A2) (B2) (B2) (A1) (A1) (B1) (B2)
                 (A2) (B2) (A1) (A1) (B1) (B2) (A2) (B1) (A1) (A2)
                 (B2) (B2) (A1) (A1) (A1) (B1) (B1) (A1) (B1) (A1)
                 (B2) (A2) (B2) (A2) (B2) (A1) (B1) (B2) (A1) (B2)
                 (A1) (B1) (A1) (A2) (B2) (B1) (A1) (A2) (B2) (A2)
                 (B2) (A1) (B1) (A1) (B2) (A1) (B1) (A1) (B1) (A1)
                 (A2) (B2) (A2) (B2) (B1) (A1) (B2) (A2) (B2) (A1)
                 (B2) (A2) (A1) (B1) (B1) (A1) (A2) (B2) (A1) (B1)
                 (B2) (A2) (A1) (B1) (A1) (B2) (B1) (A1) (B2) (A1)
                 (B2) (A1) (B1) (A1) (A2) (B2) (B1) (A1) (A2) (B2)
                 (A2) (B2) (A1) (B1) (A1) (B2) (A1) (B1) (A2) (B2)
                 (A1) (A1) (B2) (A1) (B1) (A1) (B2) (A1) (B2) (A1)
                 (A1) (B2) (A1)
 The electronic state is 1-A1.
 Alpha  occ. eigenvalues -- -129.15403-129.15403 -88.16539 -12.91434 -12.91434
 Alpha  occ. eigenvalues --  -10.27337 -10.27337 -10.27337 -10.27337 -10.27325
 Alpha  occ. eigenvalues --  -10.27325  -7.55255  -5.52898  -5.52829  -5.52829
 Alpha  occ. eigenvalues --   -1.25984  -1.25983  -0.65281  -0.65281  -0.65279
 Alpha  occ. eigenvalues --   -0.65279  -0.65021  -0.64846  -0.43614  -0.10274
 Alpha  occ. eigenvalues --   -0.08597  -0.08597
 Alpha virt. eigenvalues --   -0.04173  -0.03393   0.00468   0.00468   0.00698
 Alpha virt. eigenvalues --    0.00698   0.01298   0.02144   0.03759   0.04625
 Alpha virt. eigenvalues --    0.05580   0.05580   0.06278   0.06278   0.07757
 Alpha virt. eigenvalues --    0.07798   0.07798   0.08651   0.08651   0.08969
 Alpha virt. eigenvalues --    0.10298   0.10298   0.11434   0.11434   0.14178
 Alpha virt. eigenvalues --    0.17407   0.19459   0.20841   0.21190   0.21190
 Alpha virt. eigenvalues --    0.21572   0.21572   0.23435   0.23435   0.23772
 Alpha virt. eigenvalues --    0.23772   0.24865   0.24866   0.25292   0.25292
 Alpha virt. eigenvalues --    0.25816   0.26256   0.26256   0.27395   0.28005
 Alpha virt. eigenvalues --    0.29876   0.29876   0.30519   0.30519   0.32448
 Alpha virt. eigenvalues --    0.32449   0.34149   0.34149   0.35420   0.35777
 Alpha virt. eigenvalues --    0.35777   0.38260   0.46041   0.46041   0.46587
 Alpha virt. eigenvalues --    0.46587   0.47277   0.47837   0.53925   0.53925
 Alpha virt. eigenvalues --    0.55202   0.64660   0.68040   0.68040   0.68512
 Alpha virt. eigenvalues --    0.68512   0.70438   0.82208   0.82516   0.82516
 Alpha virt. eigenvalues --    0.82748   0.82749   0.84086   0.84086   0.90977
 Alpha virt. eigenvalues --    0.90977   1.01263   1.08061   1.09576   1.13675
 Alpha virt. eigenvalues --    1.13675   1.17587   1.17587   1.20307   1.20307
 Alpha virt. eigenvalues --    1.22400   1.22400   1.22888   1.29210   1.29210
 Alpha virt. eigenvalues --    1.35194   1.35194   1.38281   1.46453   1.50256
 Alpha virt. eigenvalues --    2.03859   2.15043   2.15043   2.15077   2.15077
 Alpha virt. eigenvalues --    2.15627   2.15629   2.15866   2.15868   2.17710
 Alpha virt. eigenvalues --    2.17710   2.20367   2.20367   2.39289   2.43381
 Alpha virt. eigenvalues --    2.83306   2.83307   2.88094   2.92052   2.92053
 Alpha virt. eigenvalues --    2.93081   2.93081   2.93507   2.93507   2.95119
 Alpha virt. eigenvalues --    2.95119   2.99726   2.99726   3.09320   3.11528
 Alpha virt. eigenvalues --    3.15229   3.15229   3.15413   3.15413   3.16037
 Alpha virt. eigenvalues --    3.16037   3.20477   3.20477   3.30643   3.30643
 Alpha virt. eigenvalues --    3.34268   3.34269   3.45919   3.45919   3.50958
 Alpha virt. eigenvalues --    3.63064   3.73676   3.73676   4.06915   4.17884
 Alpha virt. eigenvalues --    4.31335   7.07268   7.45125   7.45125   7.45145
 Alpha virt. eigenvalues --    7.45145   7.45331   7.45342   7.45455   7.45465
 Alpha virt. eigenvalues --    7.47273   7.47273   7.48722   7.48722   7.61940
 Alpha virt. eigenvalues --    7.64891   8.76754   8.76754   8.86827   8.86827
 Alpha virt. eigenvalues --    8.98249  14.31776  14.37350  24.20355  28.70379
 Alpha virt. eigenvalues --   28.70379  28.83704  49.43549  49.48895  83.63393
 Alpha virt. eigenvalues --  342.36942 342.46283 451.30351
          Condensed to atoms (all electrons):
               1          2          3
     1  S   16.529347   0.264853   0.264853
     2  K    0.264853  18.206829  -0.001208
     3  K    0.264853  -0.001208  18.206829
 Mulliken charges:
               1
     1  S   -1.059052
     2  K    0.529526
     3  K    0.529526
 Sum of Mulliken charges =   0.00000
 Mulliken charges with hydrogens summed into heavy atoms:
               1
     1  S   -1.059052
     2  K    0.529526
     3  K    0.529526
 Electronic spatial extent (au):  <R**2>=           1062.9550
 Charge=             -0.0000 electrons
 Dipole moment (field-independent basis, Debye):
    X=              0.0000    Y=             -0.0000    Z=             -0.0060  Tot=              0.0060
 Quadrupole moment (field-independent basis, Debye-Ang):
   XX=            -43.2365   YY=              9.4904   ZZ=            -43.2365
   XY=             -0.0000   XZ=             -0.0000   YZ=              0.0000
 Traceless Quadrupole moment (field-independent basis, Debye-Ang):
   XX=            -17.5756   YY=             35.1513   ZZ=            -17.5756
   XY=             -0.0000   XZ=             -0.0000   YZ=              0.0000
 Octapole moment (field-independent basis, Debye-Ang**2):
  XXX=              0.0000  YYY=              0.0000  ZZZ=             -0.0223  XYY=              0.0000
  XXY=              0.0000  XXZ=             -0.0074  XZZ=              0.0000  YZZ=              0.0000
  YYZ=             -0.0193  XYZ=              0.0000
 Hexadecapole moment (field-independent basis, Debye-Ang**3):
 XXXX=            -88.9939 YYYY=           -686.1637 ZZZZ=            -88.9940 XXXY=             -0.0000
 XXXZ=              0.0000 YYYX=             -0.0000 YYYZ=              0.0000 ZZZX=              0.0000
 ZZZY=              0.0000 XXYY=           -180.0874 XXZZ=            -29.6646 YYZZ=           -180.0874
 XXYZ=              0.0000 YYXZ=             -0.0000 ZZXY=             -0.0000
 N-N= 1.532691900544D+02 E-N=-4.104715084722D+03  KE= 1.595293003454D+03
 Symmetry A1   KE= 8.579482431722D+02
 Symmetry A2   KE= 6.254494495567D+01
 Symmetry B1   KE= 1.005653466502D+02
 Symmetry B2   KE= 5.742344686757D+02
 Unable to Open any file for archive entry.
 1\1\GINC-TCOPT10\FOpt\RTPSSTPSS\def2QZVPP\K2S1\HUTTER\31-Jul-2021\0\\#
 N RTPSSTPSS/Def2QZVPP scf=tight Int(Grid=ultrafine) OPT FREQ\\Mol job 
 1\\0,1\S,10.5,10.5,10.2685630647\K,7.7776250427,10.5,10.2674668627\K,1
 3.2223749573,10.5,10.2674668627\\Version=ES64L-G16RevC.01\State=1-A1\H
 F=-1598.2084445\RMSD=1.697e-09\RMSF=3.809e-07\Dipole=0.,0.,-0.0023598\
 Quadrupole=26.1340932,-13.067046,-13.0670472,0.,0.,0.\PG=C02V [C2(S1),
 SGV(K2)]\\@
 The archive entry for this job was punched.


 TO SEE A WORLD IN A GRAIN OF SAND
 AND A HEAVEN IN A WILD FLOWER
 HOLD INFINITY IN THE PALM OF YOUR HAND
 AND ETERNITY IN AN HOUR

                       -- WILLIAM BLAKE
 Job cpu time:       0 days  0 hours 35 minutes  7.3 seconds.
 Elapsed time:       0 days  0 hours  4 minutes 45.7 seconds.
 File lengths (MBytes):  RWF=     22 Int=      0 D2E=      0 Chk=      4 Scr=      1
 Normal termination of Gaussian 16 at Sat Jul 31 23:35:45 2021.
 Link1:  Proceeding to internal job step number  2.
 ----------------------------------------------------------------------
 #N Geom=AllCheck Guess=TCheck SCRF=Check GenChk RTPSSTPSS/def2QZVPP Fr
 eq
 ----------------------------------------------------------------------
 1/10=4,29=7,30=1,38=1,40=1/1,3;
 2/12=2,40=1/2;
 3/5=45,7=202,11=2,14=-4,25=1,30=1,70=2,71=2,74=2523,75=-5,116=1,140=1/1,2,3;
 4/5=101/1;
 5/5=2,32=2,38=6,98=1/2;
 8/6=4,10=90,11=11/1;
 11/6=1,8=1,9=11,15=111,16=1/1,2,10;
 10/6=1/2;
 6/7=2,8=2,9=2,10=2,28=1/1;
 7/8=1,10=1,25=1/1,2,3,16;
 1/10=4,30=1/3;
 99//99;
 Structure from the checkpoint file:  "/data/hutter/SMG16/TPSS/Gau-56371.chk"
 ---------
 Mol job 1
 ---------
 Charge =  0 Multiplicity = 1
 Redundant internal coordinates found in file.  (old form).
 S,0,10.5,10.5,10.2685630647
 K,0,7.7776250427,10.5,10.2674668627
 K,0,13.2223749573,10.5,10.2674668627
 Recover connectivity data from disk.

 GradGradGradGradGradGradGradGradGradGradGradGradGradGradGradGradGradGrad
 Berny optimization.
 Initialization pass.
                           ----------------------------
                           !    Initial Parameters    !
                           ! (Angstroms and Degrees)  !
 --------------------------                            --------------------------
 ! Name  Definition              Value          Derivative Info.                !
 --------------------------------------------------------------------------------
 ! R1    R(1,2)                  2.7224         calculate D2E/DX2 analytically  !
 ! R2    R(1,3)                  2.7224         calculate D2E/DX2 analytically  !
 ! A1    A(2,1,3)              179.9539         calculate D2E/DX2 analytically  !
 --------------------------------------------------------------------------------
 Trust Radius=3.00D-01 FncErr=1.00D-07 GrdErr=1.00D-07 EigMax=2.50D+02 EigMin=1.00D-04
 Number of steps in this run=      2 maximum allowed number of steps=      2.
 GradGradGradGradGradGradGradGradGradGradGradGradGradGradGradGradGradGrad

                          Input orientation:                          
 ---------------------------------------------------------------------
 Center     Atomic      Atomic             Coordinates (Angstroms)
 Number     Number       Type             X           Y           Z
 ---------------------------------------------------------------------
      1         16           0       10.500000   10.500000   10.268563
      2         19           0        7.777625   10.500000   10.267467
      3         19           0       13.222375   10.500000   10.267467
 ---------------------------------------------------------------------
                    Distance matrix (angstroms):
                    1          2          3
     1  S    0.000000
     2  K    2.722375   0.000000
     3  K    2.722375   5.444750   0.000000
 Stoichiometry    K2S
 Framework group  C2V[C2(S),SGV(K2)]
 Deg. of freedom     2
 Full point group                 C2V     NOp   4
 Largest Abelian subgroup         C2V     NOp   4
 Largest concise Abelian subgroup C2      NOp   2
                         Standard orientation:                         
 ---------------------------------------------------------------------
 Center     Atomic      Atomic             Coordinates (Angstroms)
 Number     Number       Type             X           Y           Z
 ---------------------------------------------------------------------
      1         16           0        0.000000    0.000000    0.000771
      2         19           0       -0.000000    2.722375   -0.000325
      3         19           0       -0.000000   -2.722375   -0.000325
 ---------------------------------------------------------------------
 Rotational constants (GHZ):    18551140.3193487           0.8750463           0.8750463
 Standard basis: def2QZVPP (5D, 7F)
 There are    96 symmetry adapted cartesian basis functions of A1  symmetry.
 There are    35 symmetry adapted cartesian basis functions of A2  symmetry.
 There are    45 symmetry adapted cartesian basis functions of B1  symmetry.
 There are    76 symmetry adapted cartesian basis functions of B2  symmetry.
 There are    77 symmetry adapted basis functions of A1  symmetry.
 There are    31 symmetry adapted basis functions of A2  symmetry.
 There are    39 symmetry adapted basis functions of B1  symmetry.
 There are    63 symmetry adapted basis functions of B2  symmetry.
   210 basis functions,   385 primitive gaussians,   252 cartesian basis functions
    27 alpha electrons       27 beta electrons
       nuclear repulsion energy       153.2691900544 Hartrees.
 NAtoms=    3 NActive=    3 NUniq=    2 SFac= 2.25D+00 NAtFMM=   60 NAOKFM=F Big=F
 Integral buffers will be    131072 words long.
 Raffenetti 2 integral format.
 Two-electron integral symmetry is turned on.
 One-electron integrals computed using PRISM.
   4 Symmetry operations used in ECPInt.
 ECPInt:  NShTT=    2485 NPrTT=   10021 LenC2=    2319 LenP2D=    7244.
 LDataN:  DoStor=T MaxTD1= 8 Len=  415
 NBasis=   210 RedAO= T EigKep=  7.54D-04  NBF=    77    31    39    63
 NBsUse=   210 1.00D-06 EigRej= -1.00D+00 NBFU=    77    31    39    63
 Initial guess from the checkpoint file:  "/data/hutter/SMG16/TPSS/Gau-56371.chk"
 B after Tr=     0.000000    0.000000    0.000000
         Rot=    1.000000   -0.000000    0.000000   -0.000000 Ang=   0.00 deg.
 Initial guess orbital symmetries:
       Occupied  (B2) (A1) (A1) (B2) (A1) (B1) (A1) (A2) (B2) (A1)
                 (B2) (A1) (B2) (A1) (B1) (A1) (B2) (A1) (B1) (B2)
                 (A2) (A1) (B2) (A1) (B2) (A1) (B1)
       Virtual   (A1) (B2) (A1) (B1) (A2) (B2) (A1) (B2) (A1) (B2)
                 (B1) (A1) (A2) (B2) (A1) (A1) (B1) (B2) (A2) (B2)
                 (A2) (B2) (A1) (B1) (A1) (B2) (A1) (B2) (A2) (B2)
                 (A1) (B1) (A1) (B1) (B1) (A1) (A2) (B2) (A2) (B2)
                 (A1) (A1) (B1) (A1) (B2) (A1) (B1) (B2) (A2) (B2)
                 (A2) (A1) (B1) (B2) (A2) (B2) (A1) (B1) (A1) (A1)
                 (B1) (B2) (A1) (A2) (B2) (B2) (A1) (A1) (B1) (B2)
                 (A2) (B2) (A1) (A1) (B1) (B2) (A2) (B1) (A1) (A2)
                 (B2) (B2) (A1) (A1) (A1) (B1) (B1) (A1) (B1) (A1)
                 (B2) (A2) (B2) (A2) (B2) (A1) (B1) (B2) (A1) (B2)
                 (A1) (B1) (A1) (A2) (B2) (B1) (A1) (A2) (B2) (A2)
                 (B2) (A1) (B1) (A1) (B2) (A1) (B1) (A1) (B1) (A1)
                 (A2) (B2) (A2) (B2) (B1) (A1) (B2) (A2) (B2) (A1)
                 (B2) (A2) (A1) (B1) (B1) (A1) (A2) (B2) (A1) (B1)
                 (B2) (A2) (A1) (B1) (A1) (B2) (B1) (A1) (B2) (A1)
                 (B2) (A1) (B1) (A1) (A2) (B2) (B1) (A1) (A2) (B2)
                 (A2) (B2) (A1) (B1) (A1) (B2) (A1) (B1) (A2) (B2)
                 (A1) (A1) (B2) (A1) (B1) (A1) (B2) (A1) (B2) (A1)
                 (A1) (B2) (A1)
 Keep J ints in memory in symmetry-blocked form, NReq=307684869.
 Requested convergence on RMS density matrix=1.00D-08 within 128 cycles.
 Requested convergence on MAX density matrix=1.00D-06.
 Requested convergence on             energy=1.00D-06.
 No special actions if energy rises.
 SCF Done:  E(RTPSS-TPSS) =  -1598.20844452     A.U. after    1 cycles
            NFock=  1  Conv=0.12D-08     -V/T= 2.0018
 DoSCS=F DFT=T ScalE2(SS,OS)=  1.000000  1.000000
 Range of M.O.s used for correlation:     1   210
 NBasis=   210 NAE=    27 NBE=    27 NFC=     0 NFV=     0
 NROrb=    210 NOA=    27 NOB=    27 NVA=   183 NVB=   183

 **** Warning!!: The largest alpha MO coefficient is  0.11703731D+02


 **** Warning!!: The smallest alpha delta epsilon is  0.44238053D-01

   4 Symmetry operations used in ECPInt.
 ECPInt:  NShTT=    2485 NPrTT=   10021 LenC2=    2319 LenP2D=    7244.
 LDataN:  DoStor=T MaxTD1= 9 Len=  602
 Symmetrizing basis deriv contribution to polar:
 IMax=3 JMax=2 DiffMx= 0.00D+00
 G2DrvN: will do     4 centers at a time, making    1 passes.
 Calling FoFCou, ICntrl=  3507 FMM=F I1Cent=   0 AccDes= 0.00D+00.
 End of G2Drv F.D. properties file   721 does not exist.
 End of G2Drv F.D. properties file   722 does not exist.
 End of G2Drv F.D. properties file   788 does not exist.
          IDoAtm=111
          Differentiating once with respect to electric field.
                with respect to dipole field.
          Differentiating once with respect to nuclear coordinates.
 Keep J ints in memory in symmetry-blocked form, NReq=307686824.
          There are     9 degrees of freedom in the 1st order CPHF.  IDoFFX=4 NUNeed=     9.
      9 vectors produced by pass  0 Test12= 5.49D-14 1.11D-08 XBig12= 1.32D+03 3.36D+01.
 AX will form     9 AO Fock derivatives at one time.
      9 vectors produced by pass  1 Test12= 5.49D-14 1.11D-08 XBig12= 7.99D+01 3.94D+00.
      9 vectors produced by pass  2 Test12= 5.49D-14 1.11D-08 XBig12= 3.32D+00 4.97D-01.
      9 vectors produced by pass  3 Test12= 5.49D-14 1.11D-08 XBig12= 4.75D-02 7.16D-02.
      9 vectors produced by pass  4 Test12= 5.49D-14 1.11D-08 XBig12= 2.13D-04 5.02D-03.
      9 vectors produced by pass  5 Test12= 5.49D-14 1.11D-08 XBig12= 1.73D-07 1.24D-04.
      8 vectors produced by pass  6 Test12= 5.49D-14 1.11D-08 XBig12= 1.07D-09 8.06D-06.
      4 vectors produced by pass  7 Test12= 5.49D-14 1.11D-08 XBig12= 7.37D-13 2.00D-07.
      2 vectors produced by pass  8 Test12= 5.49D-14 1.11D-08 XBig12= 4.50D-15 2.34D-08.
 InvSVY:  IOpt=1 It=  1 EMax= 3.00D-15
 Solved reduced A of dimension    68 with     9 vectors.
 Isotropic polarizability for W=    0.000000      162.10 Bohr**3.
 End of Minotr F.D. properties file   721 does not exist.
 End of Minotr F.D. properties file   722 does not exist.
 End of Minotr F.D. properties file   788 does not exist.

 **********************************************************************

            Population analysis using the SCF Density.

 **********************************************************************

 Orbital symmetries:
       Occupied  (B2) (A1) (A1) (B2) (A1) (A1) (B1) (B2) (A2) (A1)
                 (B2) (A1) (B2) (A1) (B1) (A1) (B2) (A1) (B1) (B2)
                 (A2) (A1) (B2) (A1) (B2) (A1) (B1)
       Virtual   (A1) (B2) (A1) (B1) (A2) (B2) (A1) (B2) (A1) (B2)
                 (B1) (A1) (A2) (B2) (A1) (A1) (B1) (B2) (A2) (B2)
                 (A2) (B2) (A1) (B1) (A1) (B2) (A1) (B2) (A2) (B2)
                 (A1) (B1) (A1) (B1) (B1) (A1) (A2) (B2) (A2) (B2)
                 (A1) (A1) (B1) (A1) (B2) (A1) (B1) (B2) (A2) (B2)
                 (A2) (A1) (B1) (B2) (A2) (B2) (A1) (B1) (A1) (A1)
                 (B1) (B2) (A1) (A2) (B2) (B2) (A1) (A1) (B1) (B2)
                 (A2) (B2) (A1) (A1) (B1) (B2) (A2) (B1) (A1) (A2)
                 (B2) (B2) (A1) (A1) (A1) (B1) (B1) (A1) (B1) (A1)
                 (B2) (A2) (B2) (A2) (B2) (A1) (B1) (B2) (A1) (B2)
                 (A1) (B1) (A1) (A2) (B2) (B1) (A1) (A2) (B2) (A2)
                 (B2) (A1) (B1) (A1) (B2) (A1) (B1) (A1) (B1) (A1)
                 (A2) (B2) (A2) (B2) (B1) (A1) (B2) (A2) (B2) (A1)
                 (B2) (A2) (A1) (B1) (B1) (A1) (A2) (B2) (A1) (B1)
                 (B2) (A2) (A1) (B1) (A1) (B2) (B1) (A1) (B2) (A1)
                 (B2) (A1) (B1) (A1) (A2) (B2) (B1) (A1) (A2) (B2)
                 (A2) (B2) (A1) (B1) (A1) (B2) (A1) (B1) (A2) (B2)
                 (A1) (A1) (B2) (A1) (B1) (A1) (B2) (A1) (B2) (A1)
                 (A1) (B2) (A1)
 The electronic state is 1-A1.
 Alpha  occ. eigenvalues -- -129.15403-129.15403 -88.16539 -12.91434 -12.91434
 Alpha  occ. eigenvalues --  -10.27337 -10.27337 -10.27337 -10.27337 -10.27325
 Alpha  occ. eigenvalues --  -10.27325  -7.55255  -5.52898  -5.52829  -5.52829
 Alpha  occ. eigenvalues --   -1.25984  -1.25983  -0.65281  -0.65281  -0.65279
 Alpha  occ. eigenvalues --   -0.65279  -0.65021  -0.64846  -0.43614  -0.10274
 Alpha  occ. eigenvalues --   -0.08597  -0.08597
 Alpha virt. eigenvalues --   -0.04173  -0.03393   0.00468   0.00468   0.00698
 Alpha virt. eigenvalues --    0.00698   0.01298   0.02144   0.03759   0.04625
 Alpha virt. eigenvalues --    0.05580   0.05580   0.06278   0.06278   0.07757
 Alpha virt. eigenvalues --    0.07798   0.07798   0.08651   0.08651   0.08969
 Alpha virt. eigenvalues --    0.10298   0.10298   0.11434   0.11434   0.14178
 Alpha virt. eigenvalues --    0.17407   0.19459   0.20841   0.21190   0.21190
 Alpha virt. eigenvalues --    0.21572   0.21572   0.23435   0.23435   0.23772
 Alpha virt. eigenvalues --    0.23772   0.24865   0.24866   0.25292   0.25292
 Alpha virt. eigenvalues --    0.25816   0.26256   0.26256   0.27395   0.28005
 Alpha virt. eigenvalues --    0.29876   0.29876   0.30519   0.30519   0.32448
 Alpha virt. eigenvalues --    0.32449   0.34149   0.34149   0.35420   0.35777
 Alpha virt. eigenvalues --    0.35777   0.38260   0.46041   0.46041   0.46587
 Alpha virt. eigenvalues --    0.46587   0.47277   0.47837   0.53925   0.53925
 Alpha virt. eigenvalues --    0.55202   0.64660   0.68040   0.68040   0.68512
 Alpha virt. eigenvalues --    0.68512   0.70438   0.82208   0.82516   0.82516
 Alpha virt. eigenvalues --    0.82748   0.82749   0.84086   0.84086   0.90977
 Alpha virt. eigenvalues --    0.90977   1.01263   1.08061   1.09576   1.13675
 Alpha virt. eigenvalues --    1.13675   1.17587   1.17587   1.20307   1.20307
 Alpha virt. eigenvalues --    1.22400   1.22400   1.22888   1.29210   1.29210
 Alpha virt. eigenvalues --    1.35194   1.35194   1.38281   1.46453   1.50256
 Alpha virt. eigenvalues --    2.03859   2.15043   2.15043   2.15077   2.15077
 Alpha virt. eigenvalues --    2.15627   2.15629   2.15866   2.15868   2.17710
 Alpha virt. eigenvalues --    2.17710   2.20367   2.20367   2.39289   2.43381
 Alpha virt. eigenvalues --    2.83306   2.83307   2.88094   2.92052   2.92053
 Alpha virt. eigenvalues --    2.93081   2.93081   2.93507   2.93507   2.95119
 Alpha virt. eigenvalues --    2.95119   2.99726   2.99726   3.09320   3.11528
 Alpha virt. eigenvalues --    3.15229   3.15229   3.15413   3.15413   3.16037
 Alpha virt. eigenvalues --    3.16037   3.20477   3.20477   3.30643   3.30643
 Alpha virt. eigenvalues --    3.34268   3.34269   3.45919   3.45919   3.50958
 Alpha virt. eigenvalues --    3.63064   3.73676   3.73676   4.06915   4.17884
 Alpha virt. eigenvalues --    4.31335   7.07268   7.45125   7.45125   7.45145
 Alpha virt. eigenvalues --    7.45145   7.45331   7.45342   7.45455   7.45465
 Alpha virt. eigenvalues --    7.47273   7.47273   7.48722   7.48722   7.61940
 Alpha virt. eigenvalues --    7.64891   8.76754   8.76754   8.86827   8.86827
 Alpha virt. eigenvalues --    8.98249  14.31776  14.37350  24.20355  28.70379
 Alpha virt. eigenvalues --   28.70379  28.83704  49.43549  49.48895  83.63393
 Alpha virt. eigenvalues --  342.36942 342.46283 451.30351
          Condensed to atoms (all electrons):
               1          2          3
     1  S   16.529347   0.264853   0.264853
     2  K    0.264853  18.206829  -0.001208
     3  K    0.264853  -0.001208  18.206829
 Mulliken charges:
               1
     1  S   -1.059052
     2  K    0.529526
     3  K    0.529526
 Sum of Mulliken charges =  -0.00000
 Mulliken charges with hydrogens summed into heavy atoms:
               1
     1  S   -1.059052
     2  K    0.529526
     3  K    0.529526
 APT charges:
               1
     1  S   -1.261841
     2  K    0.630920
     3  K    0.630920
 Sum of APT charges =   0.00000
 APT charges with hydrogens summed into heavy atoms:
               1
     1  S   -1.261841
     2  K    0.630920
     3  K    0.630920
 Electronic spatial extent (au):  <R**2>=           1062.9551
 Charge=             -0.0000 electrons
 Dipole moment (field-independent basis, Debye):
    X=              0.0000    Y=              0.0000    Z=             -0.0060  Tot=              0.0060
 Quadrupole moment (field-independent basis, Debye-Ang):
   XX=            -43.2365   YY=              9.4904   ZZ=            -43.2365
   XY=              0.0000   XZ=              0.0000   YZ=              0.0000
 Traceless Quadrupole moment (field-independent basis, Debye-Ang):
   XX=            -17.5756   YY=             35.1512   ZZ=            -17.5756
   XY=              0.0000   XZ=              0.0000   YZ=              0.0000
 Octapole moment (field-independent basis, Debye-Ang**2):
  XXX=              0.0000  YYY=             -0.0000  ZZZ=             -0.0223  XYY=              0.0000
  XXY=              0.0000  XXZ=             -0.0074  XZZ=              0.0000  YZZ=              0.0000
  YYZ=             -0.0193  XYZ=             -0.0000
 Hexadecapole moment (field-independent basis, Debye-Ang**3):
 XXXX=            -88.9940 YYYY=           -686.1642 ZZZZ=            -88.9941 XXXY=             -0.0000
 XXXZ=              0.0000 YYYX=             -0.0000 YYYZ=             -0.0000 ZZZX=              0.0000
 ZZZY=             -0.0000 XXYY=           -180.0874 XXZZ=            -29.6646 YYZZ=           -180.0874
 XXYZ=             -0.0000 YYXZ=              0.0000 ZZXY=             -0.0000
 N-N= 1.532691900544D+02 E-N=-4.104715077048D+03  KE= 1.595293001367D+03
 Symmetry A1   KE= 8.579482423921D+02
 Symmetry A2   KE= 6.254494490620D+01
 Symmetry B1   KE= 1.005653461720D+02
 Symmetry B2   KE= 5.742344678967D+02
  Exact polarizability:     107.234       0.000     271.827      -0.000      -0.000     107.234
 Approx polarizability:     158.787       0.000     420.720      -0.000       0.000     158.787
   4 Symmetry operations used in ECPInt.
 ECPInt:  NShTT=    2485 NPrTT=   10021 LenC2=    2319 LenP2D=    7244.
 LDataN:  DoStor=T MaxTD1=10 Len=  848
 Calling FoFJK, ICntrl=    100527 FMM=F ISym2X=1 I1Cent= 0 IOpClX= 0 NMat=1 NMatS=1 NMatT=0.
 Full mass-weighted force constant matrix:
 Low frequencies ---   -0.0086   -0.0076   -0.0016    3.7296    3.7299   13.4035
 Low frequencies ---   13.4037  191.0982  336.7822
 Diagonal vibrational polarizability:
        0.0000000      23.1641525    8362.1621133
 Harmonic frequencies (cm**-1), IR intensities (KM/Mole), Raman scattering
 activities (A**4/AMU), depolarization ratios for plane and unpolarized
 incident light, reduced masses (AMU), force constants (mDyne/A),
 and normal coordinates:
                      1                      2                      3
                     A1                     A1                     B2
 Frequencies --     13.4035               191.0982               336.7822
 Red. masses --     33.7330                38.9637                33.7330
 Frc consts  --      0.0036                 0.8383                 2.2543
 IR Inten    --     55.8237                 0.0000                97.6296
  Atom  AN      X      Y      Z        X      Y      Z        X      Y      Z
     1  16    -0.00  -0.00   0.86    -0.00  -0.00   0.00     0.00   0.86   0.00
     2  19     0.00  -0.00  -0.35     0.00   0.71  -0.00    -0.00  -0.35   0.00
     3  19     0.00   0.00  -0.35    -0.00  -0.71  -0.00    -0.00  -0.35  -0.00

 -------------------
 - Thermochemistry -
 -------------------
 Temperature   298.150 Kelvin.  Pressure   1.00000 Atm.
 Atom     1 has atomic number 16 and mass  31.97207
 Atom     2 has atomic number 19 and mass  38.96371
 Atom     3 has atomic number 19 and mass  38.96371
 Molecular mass:   109.89949 amu.
 Principal axes and moments of inertia in atomic units:
                           1         2         3
     Eigenvalues --     0.000102062.452192062.45229
           X            0.00000  -0.00000   1.00000
           Y            1.00000  -0.00000  -0.00000
           Z            0.00000   1.00000   0.00000
 This molecule is an asymmetric top.
 Rotational symmetry number  2.
 Rotational temperatures (Kelvin) 890314.37149     0.04200     0.04200
 Rotational constants (GHZ):      ************     0.87505     0.87505
 Zero-point vibrational energy       3237.6 (Joules/Mol)
                                    0.77380 (Kcal/Mol)
 Warning -- explicit consideration of   3 degrees of freedom as
           vibrations may cause significant error
 Vibrational temperatures:     19.28   274.95   484.55
          (Kelvin)
 
 Zero-point correction=                           0.001233 (Hartree/Particle)
 Thermal correction to Energy=                    0.005931
 Thermal correction to Enthalpy=                  0.006875
 Thermal correction to Gibbs Free Energy=        -0.023194
 Sum of electronic and zero-point Energies=          -1598.207211
 Sum of electronic and thermal Energies=             -1598.202514
 Sum of electronic and thermal Enthalpies=           -1598.201570
 Sum of electronic and thermal Free Energies=        -1598.231639
 
                     E (Thermal)             CV                S
                      KCal/Mol        Cal/Mol-Kelvin    Cal/Mol-Kelvin
 Total                    3.722             11.402             63.285
 Electronic               0.000              0.000              0.000
 Translational            0.889              2.981             39.999
 Rotational               0.889              2.981             12.412
 Vibrational              1.944              5.441             10.874
 Vibration     1          0.593              1.987              7.429
 Vibration     2          0.634              1.852              2.217
 Vibration     3          0.717              1.602              1.227
                       Q            Log10(Q)             Ln(Q)
 Total Bot       0.466153D+11         10.668528         24.565194
 Total V=0       0.172080D+12         11.235730         25.871225
 Vib (Bot)       0.894044D+01          0.951359          2.190585
 Vib (Bot)    1  0.154578D+02          1.189149          2.738117
 Vib (Bot)    2  0.104690D+01          0.019904          0.045830
 Vib (Bot)    3  0.552467D+00         -0.257694         -0.593361
 Vib (V=0)       0.330036D+02          1.518561          3.496617
 Vib (V=0)    1  0.159659D+02          1.203194          2.770457
 Vib (V=0)    2  0.166017D+01          0.220152          0.506919
 Vib (V=0)    3  0.124513D+01          0.095215          0.219241
 Electronic      0.100000D+01          0.000000          0.000000
 Translational   0.452843D+08          7.655947         17.628470
 Rotational      0.115139D+03          2.061222          4.746138
 ***** Axes restored to original set *****
 -------------------------------------------------------------------
 Center     Atomic                   Forces (Hartrees/Bohr)
 Number     Number              X              Y              Z
 -------------------------------------------------------------------
      1       16          -0.000000000   -0.000000000   -0.000000320
      2       19           0.000000759    0.000000000    0.000000160
      3       19          -0.000000759   -0.000000000    0.000000160
 -------------------------------------------------------------------
 Cartesian Forces:  Max     0.000000759 RMS     0.000000381
 FormGI is forming the generalized inverse of G from B-inverse, IUseBI=4.

 GradGradGradGradGradGradGradGradGradGradGradGradGradGradGradGradGradGrad
 Berny optimization.
 Internal  Forces:  Max     0.000000823 RMS     0.000000781
 Search for a local minimum.
 Step number   1 out of a maximum of    2
 All quantities printed in internal units (Hartrees-Bohrs-Radians)
 Second derivative matrix not updated -- analytic derivatives used.
 The second derivative matrix:
                          R1        R2        A1
           R1           0.05125
           R2           0.00260   0.05125
           A1           0.00000   0.00000   0.00102
 ITU=  0
     Eigenvalues ---    0.00102   0.04865   0.05385
 Angle between quadratic step and forces=  51.13 degrees.
 Linear search not attempted -- first point.
 Iteration  1 RMS(Cart)=  0.00098021 RMS(Int)=  0.00000346
 Iteration  2 RMS(Cart)=  0.00000725 RMS(Int)=  0.00000345
 Iteration  3 RMS(Cart)=  0.00000724 RMS(Int)=  0.00000345
 Iteration  4 RMS(Cart)=  0.00000724 RMS(Int)=  0.00000345
 Iteration  5 RMS(Cart)=  0.00000724 RMS(Int)=  0.00000345
 Iteration  6 RMS(Cart)=  0.00000724 RMS(Int)=  0.00000345
 Iteration  7 RMS(Cart)=  0.00000724 RMS(Int)=  0.00000345
 Iteration  8 RMS(Cart)=  0.00000724 RMS(Int)=  0.00000345
 Iteration  9 RMS(Cart)=  0.00000724 RMS(Int)=  0.00000345
 Iteration 10 RMS(Cart)=  0.00000724 RMS(Int)=  0.00000345
 Iteration 11 RMS(Cart)=  0.00000724 RMS(Int)=  0.00000345
 Iteration 12 RMS(Cart)=  0.00000724 RMS(Int)=  0.00000345
 Iteration 13 RMS(Cart)=  0.00000724 RMS(Int)=  0.00000345
 Iteration 14 RMS(Cart)=  0.00000724 RMS(Int)=  0.00000345
 Iteration 15 RMS(Cart)=  0.00000724 RMS(Int)=  0.00000345
 Iteration 16 RMS(Cart)=  0.00000724 RMS(Int)=  0.00000345
 Iteration 17 RMS(Cart)=  0.00000724 RMS(Int)=  0.00000345
 Iteration 18 RMS(Cart)=  0.00000724 RMS(Int)=  0.00000345
 Iteration 19 RMS(Cart)=  0.00000724 RMS(Int)=  0.00000345
 Iteration 20 RMS(Cart)=  0.00000724 RMS(Int)=  0.00000345
 Iteration 21 RMS(Cart)=  0.00000724 RMS(Int)=  0.00000345
 Iteration 22 RMS(Cart)=  0.00000724 RMS(Int)=  0.00000345
 Iteration 23 RMS(Cart)=  0.00000724 RMS(Int)=  0.00000345
 Iteration 24 RMS(Cart)=  0.00000724 RMS(Int)=  0.00000345
 Iteration 25 RMS(Cart)=  0.00000724 RMS(Int)=  0.00000345
 Iteration 26 RMS(Cart)=  0.00000724 RMS(Int)=  0.00000345
 Iteration 27 RMS(Cart)=  0.00000724 RMS(Int)=  0.00000345
 Iteration 28 RMS(Cart)=  0.00000724 RMS(Int)=  0.00000345
 Iteration 29 RMS(Cart)=  0.00000724 RMS(Int)=  0.00000345
 Iteration 30 RMS(Cart)=  0.00000724 RMS(Int)=  0.00000345
 Iteration 31 RMS(Cart)=  0.00000724 RMS(Int)=  0.00000345
 Iteration 32 RMS(Cart)=  0.00000724 RMS(Int)=  0.00000345
 Iteration 33 RMS(Cart)=  0.00000724 RMS(Int)=  0.00000345
 Iteration 34 RMS(Cart)=  0.00000724 RMS(Int)=  0.00000345
 Iteration 35 RMS(Cart)=  0.00000724 RMS(Int)=  0.00000345
 Iteration 36 RMS(Cart)=  0.00000724 RMS(Int)=  0.00000345
 Iteration 37 RMS(Cart)=  0.00000724 RMS(Int)=  0.00000345
 Iteration 38 RMS(Cart)=  0.00000724 RMS(Int)=  0.00000345
 Iteration 39 RMS(Cart)=  0.00000724 RMS(Int)=  0.00000345
 Iteration 40 RMS(Cart)=  0.00000724 RMS(Int)=  0.00000345
 Iteration 41 RMS(Cart)=  0.00000724 RMS(Int)=  0.00000345
 Iteration 42 RMS(Cart)=  0.00000724 RMS(Int)=  0.00000345
 Iteration 43 RMS(Cart)=  0.00000724 RMS(Int)=  0.00000345
 Iteration 44 RMS(Cart)=  0.00000724 RMS(Int)=  0.00000345
 Iteration 45 RMS(Cart)=  0.00000724 RMS(Int)=  0.00000345
 Iteration 46 RMS(Cart)=  0.00000724 RMS(Int)=  0.00000345
 Iteration 47 RMS(Cart)=  0.00000724 RMS(Int)=  0.00000345
 Iteration 48 RMS(Cart)=  0.00000724 RMS(Int)=  0.00000345
 Iteration 49 RMS(Cart)=  0.00000724 RMS(Int)=  0.00000345
 Iteration 50 RMS(Cart)=  0.00000724 RMS(Int)=  0.00000345
 Iteration 51 RMS(Cart)=  0.00000724 RMS(Int)=  0.00000345
 Iteration 52 RMS(Cart)=  0.00000724 RMS(Int)=  0.00000345
 Iteration 53 RMS(Cart)=  0.00000724 RMS(Int)=  0.00000345
 Iteration 54 RMS(Cart)=  0.00000724 RMS(Int)=  0.00000345
 Iteration 55 RMS(Cart)=  0.00000724 RMS(Int)=  0.00000345
 Iteration 56 RMS(Cart)=  0.00000724 RMS(Int)=  0.00000345
 Iteration 57 RMS(Cart)=  0.00000724 RMS(Int)=  0.00000345
 Iteration 58 RMS(Cart)=  0.00000724 RMS(Int)=  0.00000345
 Iteration 59 RMS(Cart)=  0.00000724 RMS(Int)=  0.00000345
 Iteration 60 RMS(Cart)=  0.00000724 RMS(Int)=  0.00000345
 Iteration 61 RMS(Cart)=  0.00000724 RMS(Int)=  0.00000345
 Iteration 62 RMS(Cart)=  0.00000724 RMS(Int)=  0.00000345
 Iteration 63 RMS(Cart)=  0.00000724 RMS(Int)=  0.00000345
 Iteration 64 RMS(Cart)=  0.00000724 RMS(Int)=  0.00000345
 Iteration 65 RMS(Cart)=  0.00000724 RMS(Int)=  0.00000345
 Iteration 66 RMS(Cart)=  0.00000724 RMS(Int)=  0.00000345
 Iteration 67 RMS(Cart)=  0.00000724 RMS(Int)=  0.00000345
 Iteration 68 RMS(Cart)=  0.00000724 RMS(Int)=  0.00000345
 Iteration 69 RMS(Cart)=  0.00000724 RMS(Int)=  0.00000345
 Iteration 70 RMS(Cart)=  0.00000724 RMS(Int)=  0.00000345
 Iteration 71 RMS(Cart)=  0.00000724 RMS(Int)=  0.00000345
 Iteration 72 RMS(Cart)=  0.00000724 RMS(Int)=  0.00000345
 Iteration 73 RMS(Cart)=  0.00000724 RMS(Int)=  0.00000345
 Iteration 74 RMS(Cart)=  0.00000724 RMS(Int)=  0.00000345
 Iteration 75 RMS(Cart)=  0.00000724 RMS(Int)=  0.00000345
 Iteration 76 RMS(Cart)=  0.00000724 RMS(Int)=  0.00000345
 Iteration 77 RMS(Cart)=  0.00000724 RMS(Int)=  0.00000345
 Iteration 78 RMS(Cart)=  0.00000724 RMS(Int)=  0.00000345
 Iteration 79 RMS(Cart)=  0.00000724 RMS(Int)=  0.00000345
 Iteration 80 RMS(Cart)=  0.00000724 RMS(Int)=  0.00000345
 Iteration 81 RMS(Cart)=  0.00000724 RMS(Int)=  0.00000345
 Iteration 82 RMS(Cart)=  0.00000724 RMS(Int)=  0.00000345
 Iteration 83 RMS(Cart)=  0.00000724 RMS(Int)=  0.00000345
 Iteration 84 RMS(Cart)=  0.00000724 RMS(Int)=  0.00000345
 Iteration 85 RMS(Cart)=  0.00000724 RMS(Int)=  0.00000345
 Iteration 86 RMS(Cart)=  0.00000724 RMS(Int)=  0.00000345
 Iteration 87 RMS(Cart)=  0.00000724 RMS(Int)=  0.00000345
 Iteration 88 RMS(Cart)=  0.00000724 RMS(Int)=  0.00000345
 Iteration 89 RMS(Cart)=  0.00000724 RMS(Int)=  0.00000345
 Iteration 90 RMS(Cart)=  0.00000724 RMS(Int)=  0.00000345
 Iteration 91 RMS(Cart)=  0.00000724 RMS(Int)=  0.00000345
 Iteration 92 RMS(Cart)=  0.00000724 RMS(Int)=  0.00000345
 Iteration 93 RMS(Cart)=  0.00000724 RMS(Int)=  0.00000345
 Iteration 94 RMS(Cart)=  0.00000724 RMS(Int)=  0.00000345
 Iteration 95 RMS(Cart)=  0.00000724 RMS(Int)=  0.00000345
 Iteration 96 RMS(Cart)=  0.00000724 RMS(Int)=  0.00000345
 Iteration 97 RMS(Cart)=  0.00000724 RMS(Int)=  0.00000345
 Iteration 98 RMS(Cart)=  0.00000724 RMS(Int)=  0.00000345
 Iteration 99 RMS(Cart)=  0.00000724 RMS(Int)=  0.00000345
 Iteration100 RMS(Cart)=  0.00000724 RMS(Int)=  0.00000345
 New curvilinear step not converged.
 ITry= 1 IFail=1 DXMaxC= 1.38D-03 DCOld= 1.00D+10 DXMaxT= 3.00D-01 DXLimC= 3.00D+00 Rises=F
 Iteration  1 RMS(Cart)=  0.00088219 RMS(Int)=  0.00000028
 Iteration  2 RMS(Cart)=  0.00000028 RMS(Int)=  0.00000000
 ITry= 2 IFail=0 DXMaxC= 1.25D-03 DCOld= 1.00D+10 DXMaxT= 3.00D-01 DXLimC= 3.00D+00 Rises=F
 ClnCor:  largest displacement from symmetrization is 1.56D-13 for atom     1.
 Variable       Old X    -DE/DX   Delta X   Delta X   Delta X     New X
                                 (Linear)    (Quad)   (Total)
    R1        5.14454  -0.00000   0.00000  -0.00001  -0.00001   5.14453
    R2        5.14454  -0.00000   0.00000  -0.00001  -0.00001   5.14453
    A1        3.14079   0.00000   0.00000   0.00081   0.00073   3.14151
         Item               Value     Threshold  Converged?
 Maximum Force            0.000001     0.000450     YES
 RMS     Force            0.000001     0.000300     YES
 Maximum Displacement     0.001248     0.001800     YES
 RMS     Displacement     0.000882     0.001200     YES
 Predicted change in Energy=-3.398002D-10
 Optimization completed.
    -- Stationary point found.
                           ----------------------------
                           !   Optimized Parameters   !
                           ! (Angstroms and Degrees)  !
 --------------------------                            --------------------------
 ! Name  Definition              Value          Derivative Info.                !
 --------------------------------------------------------------------------------
 ! R1    R(1,2)                  2.7224         -DE/DX =    0.0                 !
 ! R2    R(1,3)                  2.7224         -DE/DX =    0.0                 !
 ! A1    A(2,1,3)              179.9539         -DE/DX =    0.0                 !
 --------------------------------------------------------------------------------
 GradGradGradGradGradGradGradGradGradGradGradGradGradGradGradGradGradGrad


 ----------------------------------------------------------------------

 Electric dipole moment (input orientation):
 (Debye = 10**-18 statcoulomb cm , SI units = C m)
                  (au)            (Debye)         (10**-30 SI)
   Tot        0.236008D-02      0.599873D-02      0.200096D-01
   x          0.000000D+00      0.000000D+00      0.000000D+00
   y          0.000000D+00      0.000000D+00      0.000000D+00
   z         -0.236008D-02     -0.599873D-02     -0.200096D-01

 Dipole polarizability, Alpha (input orientation).
 (esu units = cm**3 , SI units = C**2 m**2 J**-1)
 Alpha(0;0):
               (au)            (10**-24 esu)      (10**-40 SI)
   iso        0.162098D+03      0.240205D+02      0.267264D+02
   aniso      0.164593D+03      0.243902D+02      0.271377D+02
   xx         0.271827D+03      0.402806D+02      0.448182D+02
   yx         0.000000D+00      0.000000D+00      0.000000D+00
   yy         0.107234D+03      0.158905D+02      0.176805D+02
   zx         0.000000D+00      0.000000D+00      0.000000D+00
   zy         0.000000D+00      0.000000D+00      0.000000D+00
   zz         0.107234D+03      0.158905D+02      0.176805D+02

 ----------------------------------------------------------------------

 Dipole orientation:
    16         19.84212431        -19.84212431        -19.40477189
    19         14.69758123        -19.84212431        -19.40270036
    19         24.98666739        -19.84212431        -19.40270036

 Electric dipole moment (dipole orientation):
 (Debye = 10**-18 statcoulomb cm , SI units = C m)
                  (au)            (Debye)         (10**-30 SI)
   Tot        0.236008D-02      0.599873D-02      0.200096D-01
   x          0.000000D+00      0.000000D+00      0.000000D+00
   y          0.000000D+00      0.000000D+00      0.000000D+00
   z          0.236008D-02      0.599873D-02      0.200096D-01

 Dipole polarizability, Alpha (dipole orientation).
 (esu units = cm**3 , SI units = C**2 m**2 J**-1)
 Alpha(0;0):
               (au)            (10**-24 esu)      (10**-40 SI)
   iso        0.162098D+03      0.240205D+02      0.267264D+02
   aniso      0.164593D+03      0.243902D+02      0.271377D+02
   xx         0.271827D+03      0.402806D+02      0.448182D+02
   yx         0.000000D+00      0.000000D+00      0.000000D+00
   yy         0.107234D+03      0.158905D+02      0.176805D+02
   zx         0.000000D+00      0.000000D+00      0.000000D+00
   zy         0.000000D+00      0.000000D+00      0.000000D+00
   zz         0.107234D+03      0.158905D+02      0.176805D+02

 ----------------------------------------------------------------------
 Unable to Open any file for archive entry.
 1\1\GINC-TCOPT10\Freq\RTPSSTPSS\def2QZVPP\K2S1\HUTTER\31-Jul-2021\0\\#
 N Geom=AllCheck Guess=TCheck SCRF=Check GenChk RTPSSTPSS/def2QZVPP Fre
 q\\Mol job 1\\0,1\S,10.5,10.5,10.2685630647\K,7.7776250427,10.5,10.267
 4668627\K,13.2223749573,10.5,10.2674668627\\Version=ES64L-G16RevC.01\S
 tate=1-A1\HF=-1598.2084445\RMSD=1.246e-09\RMSF=3.811e-07\ZeroPoint=0.0
 012331\Thermal=0.0059306\ETot=-1598.2025139\HTot=-1598.2015697\GTot=-1
 598.2316386\Dipole=0.,0.,-0.0023601\DipoleDeriv=-1.5067731,0.,0.,0.,-1
 .1393749,0.,0.,0.,-1.1393748,0.7533866,0.,-0.0000902,0.,0.5696874,0.,0
 .0000731,0.,0.5696874,0.7533866,0.,0.0000902,0.,0.5696874,0.,-0.000073
 1,0.,0.5696874\Polar=271.8269849,0.,107.2340725,0.,0.,107.2340875\Quad
 rupole=26.1340855,-13.0670422,-13.0670433,0.,0.,0.\PG=C02V [C2(S1),SGV
 (K2)]\NImag=0\\0.09730947,0.,0.00015414,0.,0.,0.00015415,-0.04865474,0
 .,-0.00001984,0.05125107,0.,-0.00007707,0.,0.,0.00004879,-0.00001922,0
 .,-0.00007707,0.00001953,0.,0.00004880,-0.04865474,0.,0.00001984,-0.00
 259633,0.,-0.00000031,0.05125107,0.,-0.00007707,0.,0.,0.00002828,0.,0.
 ,0.00004879,0.00001922,0.,-0.00007707,0.00000031,0.,0.00002828,-0.0000
 1953,0.,0.00004880\\0.,0.,0.00000032,-0.00000076,0.,-0.00000016,0.0000
 0076,0.,-0.00000016\\\@
 The archive entry for this job was punched.


 THAT'S WHAT MAKES US A GREAT COUNTRY.
 THE LITTLE THINGS ARE SERIOUS AND THE BIG ONES ARE NOT.
           WILL ROGERS
 Job cpu time:       0 days  0 hours 10 minutes 18.1 seconds.
 Elapsed time:       0 days  0 hours  1 minutes 17.7 seconds.
 File lengths (MBytes):  RWF=     22 Int=      0 D2E=      0 Chk=      5 Scr=      1
 Normal termination of Gaussian 16 at Sat Jul 31 23:37:03 2021.
