 Entering Gaussian System, Link 0=g16
 Initial command:
 /sw-ng/spack/opt/spack/linux-opensuse_leap15-sandybridge/pgi-18.10/gaussian-src-16-C.01-zldqaomctopxhethwccpmxmwefdscg3m/g16/l1.exe "/data/hutter/SMG16/TPSS/Gau-87080.inp" -scrdir="/data/hutter/SMG16/TPSS/"
 Entering Link 1 = /sw-ng/spack/opt/spack/linux-opensuse_leap15-sandybridge/pgi-18.10/gaussian-src-16-C.01-zldqaomctopxhethwccpmxmwefdscg3m/g16/l1.exe PID=     87088.
  
 Copyright (c) 1988-2019, Gaussian, Inc.  All Rights Reserved.
  
 This is part of the Gaussian(R) 16 program.  It is based on
 the Gaussian(R) 09 system (copyright 2009, Gaussian, Inc.),
 the Gaussian(R) 03 system (copyright 2003, Gaussian, Inc.),
 the Gaussian(R) 98 system (copyright 1998, Gaussian, Inc.),
 the Gaussian(R) 94 system (copyright 1995, Gaussian, Inc.),
 the Gaussian 92(TM) system (copyright 1992, Gaussian, Inc.),
 the Gaussian 90(TM) system (copyright 1990, Gaussian, Inc.),
 the Gaussian 88(TM) system (copyright 1988, Gaussian, Inc.),
 the Gaussian 86(TM) system (copyright 1986, Carnegie Mellon
 University), and the Gaussian 82(TM) system (copyright 1983,
 Carnegie Mellon University). Gaussian is a federally registered
 trademark of Gaussian, Inc.
  
 This software contains proprietary and confidential information,
 including trade secrets, belonging to Gaussian, Inc.
  
 This software is provided under written license and may be
 used, copied, transmitted, or stored only in accord with that
 written license.
  
 The following legend is applicable only to US Government
 contracts under FAR:
  
                    RESTRICTED RIGHTS LEGEND
  
 Use, reproduction and disclosure by the US Government is
 subject to restrictions as set forth in subparagraphs (a)
 and (c) of the Commercial Computer Software - Restricted
 Rights clause in FAR 52.227-19.
  
 Gaussian, Inc.
 340 Quinnipiac St., Bldg. 40, Wallingford CT 06492
  
  
 ---------------------------------------------------------------
 Warning -- This program may not be used in any manner that
 competes with the business of Gaussian, Inc. or will provide
 assistance to any competitor of Gaussian, Inc.  The licensee
 of this program is prohibited from giving any competitor of
 Gaussian, Inc. access to this program.  By using this program,
 the user acknowledges that Gaussian, Inc. is engaged in the
 business of creating and licensing software in the field of
 computational chemistry and represents and warrants to the
 licensee that it is not a competitor of Gaussian, Inc. and that
 it will not use this program in any manner prohibited above.
 ---------------------------------------------------------------
  

 Cite this work as:
 Gaussian 16, Revision C.01,
 M. J. Frisch, G. W. Trucks, H. B. Schlegel, G. E. Scuseria, 
 M. A. Robb, J. R. Cheeseman, G. Scalmani, V. Barone, 
 G. A. Petersson, H. Nakatsuji, X. Li, M. Caricato, A. V. Marenich, 
 J. Bloino, B. G. Janesko, R. Gomperts, B. Mennucci, H. P. Hratchian, 
 J. V. Ortiz, A. F. Izmaylov, J. L. Sonnenberg, D. Williams-Young, 
 F. Ding, F. Lipparini, F. Egidi, J. Goings, B. Peng, A. Petrone, 
 T. Henderson, D. Ranasinghe, V. G. Zakrzewski, J. Gao, N. Rega, 
 G. Zheng, W. Liang, M. Hada, M. Ehara, K. Toyota, R. Fukuda, 
 J. Hasegawa, M. Ishida, T. Nakajima, Y. Honda, O. Kitao, H. Nakai, 
 T. Vreven, K. Throssell, J. A. Montgomery, Jr., J. E. Peralta, 
 F. Ogliaro, M. J. Bearpark, J. J. Heyd, E. N. Brothers, K. N. Kudin, 
 V. N. Staroverov, T. A. Keith, R. Kobayashi, J. Normand, 
 K. Raghavachari, A. P. Rendell, J. C. Burant, S. S. Iyengar, 
 J. Tomasi, M. Cossi, J. M. Millam, M. Klene, C. Adamo, R. Cammi, 
 J. W. Ochterski, R. L. Martin, K. Morokuma, O. Farkas, 
 J. B. Foresman, and D. J. Fox, Gaussian, Inc., Wallingford CT, 2019.
 
 ******************************************
 Gaussian 16:  ES64L-G16RevC.01  3-Jul-2019
                31-Jul-2021 
 ******************************************
 %mem=8GB
 %NProcShare=8
 Will use up to    8 processors via shared memory.
 -------------------------------------------------------------
 #N RTPSSTPSS/Def2QZVPP scf=tight Int(Grid=ultrafine) OPT FREQ
 -------------------------------------------------------------
 1/18=20,19=15,26=4,38=1/1,3;
 2/9=110,12=2,17=6,18=5,40=1/2;
 3/5=45,7=202,11=2,25=1,30=1,71=1,74=2523,75=-5,116=1/1,2,3;
 4//1;
 5/5=2,32=2,38=5/2;
 6/7=2,8=2,9=2,10=2,28=1/1;
 7//1,2,3,16;
 1/18=20,19=15,26=4/3(2);
 2/9=110/2;
 99//99;
 2/9=110/2;
 3/5=45,7=202,11=2,25=1,30=1,71=1,74=2523,75=-5,116=1/1,2,3;
 4/5=5,16=3,69=1/1;
 5/5=2,32=2,38=5/2;
 7//1,2,3,16;
 1/18=20,19=15,26=4/3(-5);
 2/9=110/2;
 6/7=2,8=2,9=2,10=2,19=2,28=1/1;
 99/9=1/99;
 ---------
 Mol job 1
 ---------
 Symbolic Z-matrix:
 Charge =  0 Multiplicity = 1
 Au                    8.        8.        6.86227 
 Cl                    8.        8.        9.13773 
 

 GradGradGradGradGradGradGradGradGradGradGradGradGradGradGradGradGradGrad
 Berny optimization.
 Initialization pass.
                           ----------------------------
                           !    Initial Parameters    !
                           ! (Angstroms and Degrees)  !
 --------------------------                            --------------------------
 ! Name  Definition              Value          Derivative Info.                !
 --------------------------------------------------------------------------------
 ! R1    R(1,2)                  2.2755         estimate D2E/DX2                !
 --------------------------------------------------------------------------------
 Trust Radius=3.00D-01 FncErr=1.00D-07 GrdErr=1.00D-06 EigMax=2.50D+02 EigMin=1.00D-04
 Number of steps in this run=     20 maximum allowed number of steps=    100.
 GradGradGradGradGradGradGradGradGradGradGradGradGradGradGradGradGradGrad

                          Input orientation:                          
 ---------------------------------------------------------------------
 Center     Atomic      Atomic             Coordinates (Angstroms)
 Number     Number       Type             X           Y           Z
 ---------------------------------------------------------------------
      1         79           0        8.000000    8.000000    6.862266
      2         17           0        8.000000    8.000000    9.137735
 ---------------------------------------------------------------------
 Stoichiometry    AuCl
 Framework group  C*V[C*(ClAu)]
 Deg. of freedom     1
 Full point group                 C*V     NOp   4
 Largest Abelian subgroup         C2V     NOp   4
 Largest concise Abelian subgroup C1      NOp   1
                         Standard orientation:                         
 ---------------------------------------------------------------------
 Center     Atomic      Atomic             Coordinates (Angstroms)
 Number     Number       Type             X           Y           Z
 ---------------------------------------------------------------------
      1         79           0        0.000000    0.000000    0.402948
      2         17           0        0.000000    0.000000   -1.872521
 ---------------------------------------------------------------------
 Rotational constants (GHZ):           0.0000000           3.2867640           3.2867640
 Standard basis: def2QZVPP (5D, 7F)
 There are    87 symmetry adapted cartesian basis functions of A1  symmetry.
 There are    23 symmetry adapted cartesian basis functions of A2  symmetry.
 There are    46 symmetry adapted cartesian basis functions of B1  symmetry.
 There are    46 symmetry adapted cartesian basis functions of B2  symmetry.
 There are    64 symmetry adapted basis functions of A1  symmetry.
 There are    20 symmetry adapted basis functions of A2  symmetry.
 There are    37 symmetry adapted basis functions of B1  symmetry.
 There are    37 symmetry adapted basis functions of B2  symmetry.
   158 basis functions,   260 primitive gaussians,   202 cartesian basis functions
    18 alpha electrons       18 beta electrons
       nuclear repulsion energy        75.1160482200 Hartrees.
 NAtoms=    2 NActive=    2 NUniq=    2 SFac= 1.00D+00 NAtFMM=   60 NAOKFM=F Big=F
 Integral buffers will be    131072 words long.
 Raffenetti 2 integral format.
 Two-electron integral symmetry is turned on.
 One-electron integrals computed using PRISM.
   4 Symmetry operations used in ECPInt.
 ECPInt:  NShTT=     990 NPrTT=    2574 LenC2=     980 LenP2D=    2356.
 LDataN:  DoStor=T MaxTD1= 8 Len=  415
 NBasis=   158 RedAO= T EigKep=  1.04D-03  NBF=    64    20    37    37
 NBsUse=   158 1.00D-06 EigRej= -1.00D+00 NBFU=    64    20    37    37
 Defaulting to unpruned grid for atomic number  79.
 ExpMin= 2.50D-02 ExpMax= 1.47D+06 ExpMxC= 1.67D+03 IAcc=3 IRadAn=         5 AccDes= 0.00D+00
 Harris functional with IExCor= 1009 and IRadAn=       5 diagonalized for initial guess.
 HarFok:  IExCor= 1009 AccDes= 0.00D+00 IRadAn=         5 IDoV= 1 UseB2=F ITyADJ=14
 ICtDFT=  3500011 ScaDFX=  1.000000  1.000000  1.000000  1.000000
 Defaulting to unpruned grid for atomic number  79.
 FoFCou: FMM=F IPFlag=           0 FMFlag=      100000 FMFlg1=           0
         NFxFlg=           0 DoJE=T BraDBF=F KetDBF=T FulRan=T
         wScrn=  0.000000 ICntrl=       500 IOpCl=  0 I1Cent=   200000004 NGrid=           0
         NMat0=    1 NMatS0=      1 NMatT0=    0 NMatD0=    1 NMtDS0=    0 NMtDT0=    0
 Petite list used in FoFCou.
 Initial guess orbital symmetries:
       Occupied  (SG) (SG) (SG) (PI) (PI) (SG) (SG) (PI) (PI) (SG)
                 (SG) (PI) (PI) (SG) (DLTA) (DLTA) (PI) (PI)
       Virtual   (SG) (PI) (PI) (SG) (SG) (PI) (PI) (SG) (SG) (PI)
                 (PI) (DLTA) (DLTA) (SG) (PI) (PI) (DLTA) (DLTA)
                 (SG) (PI) (PI) (PHI) (PHI) (DLTA) (DLTA) (SG)
                 (SG) (PI) (PI) (SG) (PI) (PI) (SG) (DLTA) (DLTA)
                 (PI) (PI) (PHI) (PHI) (SG) (PI) (PI) (DLTA) (DLTA)
                 (PI) (PI) (SG) (PHI) (PHI) (DLTA) (DLTA) (SG)
                 (DLTA) (DLTA) (PI) (PI) (SG) (PI) (PI) (SG) (SG)
                 (PHI) (PHI) (DLTA) (DLTA) (PI) (PI) (SG) (PHI)
                 (PHI) (?A) (?A) (DLTA) (DLTA) (SG) (PI) (PI) (SG)
                 (DLTA) (DLTA) (PI) (PI) (SG) (?A) (?A) (PHI) (PHI)
                 (DLTA) (DLTA) (PI) (PI) (SG) (PI) (PI) (PHI) (PHI)
                 (DLTA) (DLTA) (SG) (PI) (PI) (SG) (DLTA) (DLTA)
                 (PI) (PI) (SG) (PHI) (PHI) (DLTA) (DLTA) (PI)
                 (PI) (SG) (?A) (?A) (PHI) (PHI) (DLTA) (DLTA)
                 (PI) (PI) (SG) (SG) (DLTA) (DLTA) (PI) (PI) (SG)
                 (PI) (PI) (SG) (SG) (PI) (PI) (SG) (SG) (SG) (SG)
                 (SG)
 The electronic state of the initial guess is 1-SG.
 Keep J ints in memory in symmetry-blocked form, NReq=98933213.
 Requested convergence on RMS density matrix=1.00D-08 within 128 cycles.
 Requested convergence on MAX density matrix=1.00D-06.
 Requested convergence on             energy=1.00D-06.
 No special actions if energy rises.
 Defaulting to unpruned grid for atomic number  79.
 Defaulting to unpruned grid for atomic number  79.
 Defaulting to unpruned grid for atomic number  79.
 Defaulting to unpruned grid for atomic number  79.
 Defaulting to unpruned grid for atomic number  79.
 Defaulting to unpruned grid for atomic number  79.
 Defaulting to unpruned grid for atomic number  79.
 Defaulting to unpruned grid for atomic number  79.
 EnCoef did   100 forward-backward iterations
 EnCoef did     2 forward-backward iterations
 SCF Done:  E(RTPSS-TPSS) =  -595.967347336     A.U. after   11 cycles
            NFock= 11  Conv=0.53D-08     -V/T= 2.1790

 **********************************************************************

            Population analysis using the SCF Density.

 **********************************************************************

 Orbital symmetries:
       Occupied  (SG) (SG) (SG) (PI) (PI) (SG) (SG) (PI) (PI) (SG)
                 (SG) (PI) (PI) (DLTA) (DLTA) (SG) (PI) (PI)
       Virtual   (SG) (PI) (PI) (SG) (SG) (PI) (PI) (SG) (SG) (PI)
                 (PI) (DLTA) (DLTA) (SG) (PI) (PI) (DLTA) (DLTA)
                 (SG) (PI) (PI) (PHI) (PHI) (DLTA) (DLTA) (SG)
                 (SG) (PI) (PI) (SG) (PI) (PI) (SG) (DLTA) (DLTA)
                 (PI) (PI) (PHI) (PHI) (SG) (PI) (PI) (DLTA) (DLTA)
                 (PI) (PI) (SG) (DLTA) (DLTA) (PHI) (PHI) (SG)
                 (PI) (PI) (DLTA) (DLTA) (SG) (PI) (PI) (SG) (SG)
                 (DLTA) (PHI) (PHI) (DLTA) (PI) (PI) (SG) (PHI)
                 (PHI) (?A) (?A) (DLTA) (DLTA) (SG) (PI) (PI) (SG)
                 (DLTA) (DLTA) (PI) (PI) (SG) (PHI) (PHI) (?A)
                 (?A) (DLTA) (DLTA) (PI) (PI) (SG) (PI) (PI) (PHI)
                 (PHI) (DLTA) (DLTA) (SG) (PI) (PI) (SG) (DLTA)
                 (DLTA) (PI) (PI) (SG) (PHI) (PHI) (DLTA) (DLTA)
                 (PI) (PI) (SG) (PHI) (PHI) (?A) (?A) (DLTA) (DLTA)
                 (PI) (PI) (SG) (SG) (DLTA) (DLTA) (PI) (PI) (SG)
                 (PI) (PI) (SG) (SG) (PI) (PI) (SG) (SG) (SG) (SG)
                 (SG)
 The electronic state is 1-SG.
 Alpha  occ. eigenvalues -- -100.98175  -9.23310  -7.01276  -7.00289  -7.00289
 Alpha  occ. eigenvalues --   -4.05238  -2.27327  -2.25517  -2.25517  -0.73478
 Alpha  occ. eigenvalues --   -0.37678  -0.32637  -0.32637  -0.28677  -0.28676
 Alpha  occ. eigenvalues --   -0.26534  -0.25051  -0.25051
 Alpha virt. eigenvalues --   -0.17145  -0.02301  -0.02301   0.01110   0.04677
 Alpha virt. eigenvalues --    0.07566   0.07566   0.12198   0.18388   0.20432
 Alpha virt. eigenvalues --    0.20432   0.24570   0.24570   0.27156   0.27338
 Alpha virt. eigenvalues --    0.27338   0.29404   0.29404   0.33929   0.35534
 Alpha virt. eigenvalues --    0.35534   0.35967   0.35967   0.45089   0.45089
 Alpha virt. eigenvalues --    0.46681   0.54733   0.59806   0.59806   0.63854
 Alpha virt. eigenvalues --    0.73844   0.73844   0.77471   0.93314   0.93314
 Alpha virt. eigenvalues --    0.94735   0.94735   0.96014   0.96014   1.00567
 Alpha virt. eigenvalues --    1.11121   1.11121   1.16693   1.16693   1.19248
 Alpha virt. eigenvalues --    1.19248   1.19957   1.29843   1.29844   1.31660
 Alpha virt. eigenvalues --    1.31660   1.34027   1.37305   1.37305   1.38580
 Alpha virt. eigenvalues --    1.38580   1.49291   1.73482   1.73482   2.00369
 Alpha virt. eigenvalues --    2.18682   2.22689   2.22690   2.22690   2.22690
 Alpha virt. eigenvalues --    2.24610   2.24610   2.33889   2.46128   2.46128
 Alpha virt. eigenvalues --    2.47192   2.47197   2.49013   2.49014   2.58214
 Alpha virt. eigenvalues --    2.68145   2.68145   2.91730   3.24137   3.24138
 Alpha virt. eigenvalues --    3.37168   3.37168   3.46734   3.60877   3.60877
 Alpha virt. eigenvalues --    3.62337   3.62337   3.65279   3.65279   3.74276
 Alpha virt. eigenvalues --    3.74276   3.80089   3.88972   3.88972   3.90270
 Alpha virt. eigenvalues --    3.90270   3.97009   3.97009   4.17196   4.28135
 Alpha virt. eigenvalues --    4.28135   4.40527   5.22646   5.22666   5.36473
 Alpha virt. eigenvalues --    5.36473   5.56562   5.66033   5.66033   5.66503
 Alpha virt. eigenvalues --    5.66507   5.70396   5.70396   5.88504   6.35500
 Alpha virt. eigenvalues --    6.35500   6.35947   6.35985   6.39889   6.39891
 Alpha virt. eigenvalues --    6.60289   6.60289   6.62146   8.29064  10.56733
 Alpha virt. eigenvalues --   10.56733  10.66537  10.66537  10.76697  25.56568
 Alpha virt. eigenvalues --   25.56568  28.48204  33.39643  41.51516  41.51516
 Alpha virt. eigenvalues --   41.54145  45.77811  97.97760 206.80573 526.20298
          Condensed to atoms (all electrons):
               1          2
     1  Au  18.338631   0.242416
     2  Cl   0.242416  17.176537
 Mulliken charges:
               1
     1  Au   0.418953
     2  Cl  -0.418953
 Sum of Mulliken charges =  -0.00000
 Mulliken charges with hydrogens summed into heavy atoms:
               1
     1  Au   0.418953
     2  Cl  -0.418953
 Electronic spatial extent (au):  <R**2>=            303.2761
 Charge=             -0.0000 electrons
 Dipole moment (field-independent basis, Debye):
    X=              0.0000    Y=              0.0000    Z=              3.4304  Tot=              3.4304
 Quadrupole moment (field-independent basis, Debye-Ang):
   XX=            -35.8857   YY=            -35.8857   ZZ=            -35.0195
   XY=              0.0000   XZ=              0.0000   YZ=              0.0000
 Traceless Quadrupole moment (field-independent basis, Debye-Ang):
   XX=             -0.2887   YY=             -0.2887   ZZ=              0.5775
   XY=              0.0000   XZ=              0.0000   YZ=              0.0000
 Octapole moment (field-independent basis, Debye-Ang**2):
  XXX=              0.0000  YYY=              0.0000  ZZZ=             51.4818  XYY=              0.0000
  XXY=              0.0000  XXZ=             16.6737  XZZ=              0.0000  YZZ=              0.0000
  YYZ=             16.6737  XYZ=              0.0000
 Hexadecapole moment (field-independent basis, Debye-Ang**3):
 XXXX=            -42.2275 YYYY=            -42.2275 ZZZZ=           -312.1321 XXXY=              0.0000
 XXXZ=              0.0000 YYYX=              0.0000 YYYZ=              0.0000 ZZZX=              0.0000
 ZZZY=              0.0000 XXYY=            -14.0758 XXZZ=            -63.1689 YYZZ=            -63.1689
 XXYZ=              0.0000 YYXZ=              0.0000 ZZXY=              0.0000
 N-N= 7.511604822002D+01 E-N=-1.529344440924D+03  KE= 5.054657482637D+02
 Symmetry A1   KE= 3.880872426621D+02
 Symmetry A2   KE= 4.950223456412D+00
 Symmetry B1   KE= 5.621414107621D+01
 Symmetry B2   KE= 5.621414106906D+01
   4 Symmetry operations used in ECPInt.
 ECPInt:  NShTT=     990 NPrTT=    2574 LenC2=     980 LenP2D=    2356.
 LDataN:  DoStor=T MaxTD1= 9 Len=  602
 Calling FoFJK, ICntrl=      2527 FMM=F ISym2X=1 I1Cent= 0 IOpClX= 0 NMat=1 NMatS=1 NMatT=0.
 Defaulting to unpruned grid for atomic number  79.
 Defaulting to unpruned grid for atomic number  79.
 Defaulting to unpruned grid for atomic number  79.
 Defaulting to unpruned grid for atomic number  79.
 Defaulting to unpruned grid for atomic number  79.
 Defaulting to unpruned grid for atomic number  79.
 Defaulting to unpruned grid for atomic number  79.
 Defaulting to unpruned grid for atomic number  79.
 ***** Axes restored to original set *****
 -------------------------------------------------------------------
 Center     Atomic                   Forces (Hartrees/Bohr)
 Number     Number              X              Y              Z
 -------------------------------------------------------------------
      1       79          -0.000000000   -0.000000000    0.012893493
      2       17          -0.000000000   -0.000000000   -0.012893493
 -------------------------------------------------------------------
 Cartesian Forces:  Max     0.012893493 RMS     0.007444062

 GradGradGradGradGradGradGradGradGradGradGradGradGradGradGradGradGradGrad
 Berny optimization.
 FormGI is forming the generalized inverse of G from B-inverse, IUseBI=4.
 Internal  Forces:  Max     0.012893493 RMS     0.012893493
 Search for a local minimum.
 Step number   1 out of a maximum of   20
 All quantities printed in internal units (Hartrees-Bohrs-Radians)
 Mixed Optimization -- RFO/linear search
 Second derivative matrix not updated -- first step.
 The second derivative matrix:
                          R1
           R1           0.22287
 ITU=  0
     Eigenvalues ---    0.22287
 RFO step:  Lambda=-7.43424316D-04 EMin= 2.22873367D-01
 Linear search not attempted -- first point.
 Iteration  1 RMS(Cart)=  0.04077098 RMS(Int)=  0.00000000
 Iteration  2 RMS(Cart)=  0.00000000 RMS(Int)=  0.00000000
 ClnCor:  largest displacement from symmetrization is 0.00D+00 for atom     0.
 Variable       Old X    -DE/DX   Delta X   Delta X   Delta X     New X
                                 (Linear)    (Quad)   (Total)
    R1        4.30001  -0.01289   0.00000  -0.05766  -0.05766   4.24235
         Item               Value     Threshold  Converged?
 Maximum Force            0.012893     0.000450     NO 
 RMS     Force            0.012893     0.000300     NO 
 Maximum Displacement     0.028829     0.001800     NO 
 RMS     Displacement     0.040771     0.001200     NO 
 Predicted change in Energy=-3.729479D-04
 GradGradGradGradGradGradGradGradGradGradGradGradGradGradGradGradGradGrad

                          Input orientation:                          
 ---------------------------------------------------------------------
 Center     Atomic      Atomic             Coordinates (Angstroms)
 Number     Number       Type             X           Y           Z
 ---------------------------------------------------------------------
      1         79           0        8.000000    8.000000    6.877521
      2         17           0        8.000000    8.000000    9.122479
 ---------------------------------------------------------------------
 Stoichiometry    AuCl
 Framework group  C*V[C*(ClAu)]
 Deg. of freedom     1
 Full point group                 C*V     NOp   4
 Largest Abelian subgroup         C2V     NOp   4
 Largest concise Abelian subgroup C1      NOp   1
                         Standard orientation:                         
 ---------------------------------------------------------------------
 Center     Atomic      Atomic             Coordinates (Angstroms)
 Number     Number       Type             X           Y           Z
 ---------------------------------------------------------------------
      1         79           0        0.000000    0.000000    0.397545
      2         17           0        0.000000    0.000000   -1.847413
 ---------------------------------------------------------------------
 Rotational constants (GHZ):           0.0000000           3.3767135           3.3767135
 Standard basis: def2QZVPP (5D, 7F)
 There are    87 symmetry adapted cartesian basis functions of A1  symmetry.
 There are    23 symmetry adapted cartesian basis functions of A2  symmetry.
 There are    46 symmetry adapted cartesian basis functions of B1  symmetry.
 There are    46 symmetry adapted cartesian basis functions of B2  symmetry.
 There are    64 symmetry adapted basis functions of A1  symmetry.
 There are    20 symmetry adapted basis functions of A2  symmetry.
 There are    37 symmetry adapted basis functions of B1  symmetry.
 There are    37 symmetry adapted basis functions of B2  symmetry.
   158 basis functions,   260 primitive gaussians,   202 cartesian basis functions
    18 alpha electrons       18 beta electrons
       nuclear repulsion energy        76.1369688214 Hartrees.
 NAtoms=    2 NActive=    2 NUniq=    2 SFac= 1.00D+00 NAtFMM=   60 NAOKFM=F Big=F
 Integral buffers will be    131072 words long.
 Raffenetti 2 integral format.
 Two-electron integral symmetry is turned on.
 One-electron integrals computed using PRISM.
   4 Symmetry operations used in ECPInt.
 ECPInt:  NShTT=     990 NPrTT=    2574 LenC2=     981 LenP2D=    2358.
 LDataN:  DoStor=T MaxTD1= 8 Len=  415
 NBasis=   158 RedAO= T EigKep=  1.01D-03  NBF=    64    20    37    37
 NBsUse=   158 1.00D-06 EigRej= -1.00D+00 NBFU=    64    20    37    37
 Defaulting to unpruned grid for atomic number  79.
 Initial guess from the checkpoint file:  "/data/hutter/SMG16/TPSS/Gau-87088.chk"
 B after Tr=     0.000000    0.000000    0.000000
         Rot=    1.000000    0.000000    0.000000    0.000000 Ang=   0.00 deg.
 Initial guess orbital symmetries:
       Occupied  (SG) (SG) (SG) (PI) (PI) (SG) (SG) (PI) (PI) (SG)
                 (SG) (PI) (PI) (DLTA) (DLTA) (SG) (PI) (PI)
       Virtual   (SG) (PI) (PI) (SG) (SG) (PI) (PI) (SG) (SG) (PI)
                 (PI) (DLTA) (DLTA) (SG) (PI) (PI) (DLTA) (DLTA)
                 (SG) (PI) (PI) (PHI) (PHI) (DLTA) (DLTA) (SG)
                 (SG) (PI) (PI) (SG) (PI) (PI) (SG) (DLTA) (DLTA)
                 (PI) (PI) (PHI) (PHI) (SG) (PI) (PI) (DLTA) (DLTA)
                 (PI) (PI) (SG) (DLTA) (DLTA) (PHI) (PHI) (SG)
                 (PI) (PI) (DLTA) (DLTA) (SG) (PI) (PI) (SG) (SG)
                 (DLTA) (PHI) (PHI) (DLTA) (PI) (PI) (SG) (PHI)
                 (PHI) (?A) (?A) (DLTA) (DLTA) (SG) (PI) (PI) (SG)
                 (DLTA) (DLTA) (PI) (PI) (SG) (PHI) (PHI) (?A)
                 (?A) (DLTA) (DLTA) (PI) (PI) (SG) (PI) (PI) (PHI)
                 (PHI) (DLTA) (DLTA) (SG) (PI) (PI) (SG) (DLTA)
                 (DLTA) (PI) (PI) (SG) (PHI) (PHI) (DLTA) (DLTA)
                 (PI) (PI) (SG) (PHI) (PHI) (?A) (?A) (DLTA) (DLTA)
                 (PI) (PI) (SG) (SG) (DLTA) (DLTA) (PI) (PI) (SG)
                 (PI) (PI) (SG) (SG) (PI) (PI) (SG) (SG) (SG) (SG)
                 (SG)
 ExpMin= 2.50D-02 ExpMax= 1.47D+06 ExpMxC= 1.67D+03 IAcc=3 IRadAn=         5 AccDes= 0.00D+00
 Harris functional with IExCor= 1009 and IRadAn=       5 diagonalized for initial guess.
 HarFok:  IExCor= 1009 AccDes= 0.00D+00 IRadAn=         5 IDoV= 1 UseB2=F ITyADJ=14
 ICtDFT=  3500011 ScaDFX=  1.000000  1.000000  1.000000  1.000000
 Defaulting to unpruned grid for atomic number  79.
 FoFCou: FMM=F IPFlag=           0 FMFlag=      100000 FMFlg1=           0
         NFxFlg=           0 DoJE=T BraDBF=F KetDBF=T FulRan=T
         wScrn=  0.000000 ICntrl=       500 IOpCl=  0 I1Cent=   200000004 NGrid=           0
         NMat0=    1 NMatS0=      1 NMatT0=    0 NMatD0=    1 NMtDS0=    0 NMtDT0=    0
 Petite list used in FoFCou.
 Keep J ints in memory in symmetry-blocked form, NReq=98933213.
 Requested convergence on RMS density matrix=1.00D-08 within 128 cycles.
 Requested convergence on MAX density matrix=1.00D-06.
 Requested convergence on             energy=1.00D-06.
 No special actions if energy rises.
 Defaulting to unpruned grid for atomic number  79.
 Defaulting to unpruned grid for atomic number  79.
 Defaulting to unpruned grid for atomic number  79.
 Defaulting to unpruned grid for atomic number  79.
 Defaulting to unpruned grid for atomic number  79.
 Defaulting to unpruned grid for atomic number  79.
 Defaulting to unpruned grid for atomic number  79.
 Defaulting to unpruned grid for atomic number  79.
 SCF Done:  E(RTPSS-TPSS) =  -595.967890622     A.U. after    9 cycles
            NFock=  9  Conv=0.60D-08     -V/T= 2.1790
   4 Symmetry operations used in ECPInt.
 ECPInt:  NShTT=     990 NPrTT=    2574 LenC2=     981 LenP2D=    2358.
 LDataN:  DoStor=T MaxTD1= 9 Len=  602
 Calling FoFJK, ICntrl=      2527 FMM=F ISym2X=1 I1Cent= 0 IOpClX= 0 NMat=1 NMatS=1 NMatT=0.
 Defaulting to unpruned grid for atomic number  79.
 Defaulting to unpruned grid for atomic number  79.
 Defaulting to unpruned grid for atomic number  79.
 Defaulting to unpruned grid for atomic number  79.
 Defaulting to unpruned grid for atomic number  79.
 Defaulting to unpruned grid for atomic number  79.
 Defaulting to unpruned grid for atomic number  79.
 Defaulting to unpruned grid for atomic number  79.
 ***** Axes restored to original set *****
 -------------------------------------------------------------------
 Center     Atomic                   Forces (Hartrees/Bohr)
 Number     Number              X              Y              Z
 -------------------------------------------------------------------
      1       79          -0.000000000   -0.000000000    0.005768447
      2       17          -0.000000000   -0.000000000   -0.005768447
 -------------------------------------------------------------------
 Cartesian Forces:  Max     0.005768447 RMS     0.003330414

 GradGradGradGradGradGradGradGradGradGradGradGradGradGradGradGradGradGrad
 Berny optimization.
 Using GEDIIS/GDIIS optimizer.
 Internal  Forces:  Max     0.005768447 RMS     0.005768447
 Search for a local minimum.
 Step number   2 out of a maximum of   20
 All quantities printed in internal units (Hartrees-Bohrs-Radians)
 Mixed Optimization -- RFO/linear search
 Update second derivatives using D2CorX and points    1    2
 DE= -5.43D-04 DEPred=-3.73D-04 R= 1.46D+00
 TightC=F SS=  1.41D+00  RLast= 5.77D-02 DXNew= 5.0454D-01 1.7298D-01
 Trust test= 1.46D+00 RLast= 5.77D-02 DXMaxT set to 3.00D-01
 The second derivative matrix:
                          R1
           R1           0.12357
 ITU=  1  0
 Use linear search instead of GDIIS.
     Eigenvalues ---    0.12357
 RFO step:  Lambda= 0.00000000D+00 EMin= 1.23572405D-01
 Quartic linear search produced a step of  0.71268.
 Iteration  1 RMS(Cart)=  0.02905665 RMS(Int)=  0.00000000
 Iteration  2 RMS(Cart)=  0.00000000 RMS(Int)=  0.00000000
 ClnCor:  largest displacement from symmetrization is 0.00D+00 for atom     0.
 Variable       Old X    -DE/DX   Delta X   Delta X   Delta X     New X
                                 (Linear)    (Quad)   (Total)
    R1        4.24235  -0.00577  -0.04109   0.00000  -0.04109   4.20126
         Item               Value     Threshold  Converged?
 Maximum Force            0.005768     0.000450     NO 
 RMS     Force            0.005768     0.000300     NO 
 Maximum Displacement     0.020546     0.001800     NO 
 RMS     Displacement     0.029057     0.001200     NO 
 Predicted change in Energy=-1.327080D-04
 GradGradGradGradGradGradGradGradGradGradGradGradGradGradGradGradGradGrad

                          Input orientation:                          
 ---------------------------------------------------------------------
 Center     Atomic      Atomic             Coordinates (Angstroms)
 Number     Number       Type             X           Y           Z
 ---------------------------------------------------------------------
      1         79           0        8.000000    8.000000    6.888394
      2         17           0        8.000000    8.000000    9.111606
 ---------------------------------------------------------------------
 Stoichiometry    AuCl
 Framework group  C*V[C*(ClAu)]
 Deg. of freedom     1
 Full point group                 C*V     NOp   4
 Largest Abelian subgroup         C2V     NOp   4
 Largest concise Abelian subgroup C1      NOp   1
                         Standard orientation:                         
 ---------------------------------------------------------------------
 Center     Atomic      Atomic             Coordinates (Angstroms)
 Number     Number       Type             X           Y           Z
 ---------------------------------------------------------------------
      1         79           0        0.000000    0.000000    0.393694
      2         17           0        0.000000    0.000000   -1.829518
 ---------------------------------------------------------------------
 Rotational constants (GHZ):           0.0000000           3.4430915           3.4430915
 Standard basis: def2QZVPP (5D, 7F)
 There are    87 symmetry adapted cartesian basis functions of A1  symmetry.
 There are    23 symmetry adapted cartesian basis functions of A2  symmetry.
 There are    46 symmetry adapted cartesian basis functions of B1  symmetry.
 There are    46 symmetry adapted cartesian basis functions of B2  symmetry.
 There are    64 symmetry adapted basis functions of A1  symmetry.
 There are    20 symmetry adapted basis functions of A2  symmetry.
 There are    37 symmetry adapted basis functions of B1  symmetry.
 There are    37 symmetry adapted basis functions of B2  symmetry.
   158 basis functions,   260 primitive gaussians,   202 cartesian basis functions
    18 alpha electrons       18 beta electrons
       nuclear repulsion energy        76.8816602363 Hartrees.
 NAtoms=    2 NActive=    2 NUniq=    2 SFac= 1.00D+00 NAtFMM=   60 NAOKFM=F Big=F
 Integral buffers will be    131072 words long.
 Raffenetti 2 integral format.
 Two-electron integral symmetry is turned on.
 One-electron integrals computed using PRISM.
   4 Symmetry operations used in ECPInt.
 ECPInt:  NShTT=     990 NPrTT=    2574 LenC2=     982 LenP2D=    2361.
 LDataN:  DoStor=T MaxTD1= 8 Len=  415
 NBasis=   158 RedAO= T EigKep=  9.96D-04  NBF=    64    20    37    37
 NBsUse=   158 1.00D-06 EigRej= -1.00D+00 NBFU=    64    20    37    37
 Defaulting to unpruned grid for atomic number  79.
 Initial guess from the checkpoint file:  "/data/hutter/SMG16/TPSS/Gau-87088.chk"
 B after Tr=     0.000000    0.000000   -0.000000
         Rot=    1.000000    0.000000    0.000000    0.000000 Ang=   0.00 deg.
 Initial guess orbital symmetries:
       Occupied  (SG) (SG) (SG) (PI) (PI) (SG) (SG) (PI) (PI) (SG)
                 (SG) (PI) (PI) (DLTA) (DLTA) (SG) (PI) (PI)
       Virtual   (SG) (PI) (PI) (SG) (SG) (PI) (PI) (SG) (SG) (PI)
                 (PI) (DLTA) (DLTA) (SG) (PI) (PI) (DLTA) (DLTA)
                 (SG) (PI) (PI) (PHI) (PHI) (DLTA) (DLTA) (SG)
                 (SG) (PI) (PI) (SG) (PI) (PI) (SG) (DLTA) (DLTA)
                 (PI) (PI) (PHI) (PHI) (SG) (PI) (PI) (DLTA) (DLTA)
                 (PI) (PI) (SG) (DLTA) (DLTA) (PHI) (PHI) (SG)
                 (PI) (PI) (DLTA) (DLTA) (SG) (PI) (PI) (SG) (SG)
                 (PHI) (PHI) (DLTA) (DLTA) (PI) (PI) (SG) (PHI)
                 (PHI) (?A) (?A) (DLTA) (DLTA) (SG) (PI) (PI) (SG)
                 (DLTA) (DLTA) (PI) (PI) (SG) (PHI) (PHI) (?A)
                 (?A) (DLTA) (DLTA) (PI) (PI) (SG) (PI) (PI) (PHI)
                 (PHI) (DLTA) (DLTA) (SG) (PI) (PI) (SG) (DLTA)
                 (DLTA) (PI) (PI) (SG) (PHI) (PHI) (DLTA) (DLTA)
                 (PI) (PI) (SG) (PHI) (PHI) (?A) (?A) (DLTA) (DLTA)
                 (PI) (PI) (SG) (SG) (DLTA) (DLTA) (PI) (PI) (SG)
                 (PI) (PI) (SG) (SG) (PI) (PI) (SG) (SG) (SG) (SG)
                 (SG)
 ExpMin= 2.50D-02 ExpMax= 1.47D+06 ExpMxC= 1.67D+03 IAcc=3 IRadAn=         5 AccDes= 0.00D+00
 Harris functional with IExCor= 1009 and IRadAn=       5 diagonalized for initial guess.
 HarFok:  IExCor= 1009 AccDes= 0.00D+00 IRadAn=         5 IDoV= 1 UseB2=F ITyADJ=14
 ICtDFT=  3500011 ScaDFX=  1.000000  1.000000  1.000000  1.000000
 Defaulting to unpruned grid for atomic number  79.
 FoFCou: FMM=F IPFlag=           0 FMFlag=      100000 FMFlg1=           0
         NFxFlg=           0 DoJE=T BraDBF=F KetDBF=T FulRan=T
         wScrn=  0.000000 ICntrl=       500 IOpCl=  0 I1Cent=   200000004 NGrid=           0
         NMat0=    1 NMatS0=      1 NMatT0=    0 NMatD0=    1 NMtDS0=    0 NMtDT0=    0
 Petite list used in FoFCou.
 Keep J ints in memory in symmetry-blocked form, NReq=98933213.
 Requested convergence on RMS density matrix=1.00D-08 within 128 cycles.
 Requested convergence on MAX density matrix=1.00D-06.
 Requested convergence on             energy=1.00D-06.
 No special actions if energy rises.
 Defaulting to unpruned grid for atomic number  79.
 Defaulting to unpruned grid for atomic number  79.
 Defaulting to unpruned grid for atomic number  79.
 Defaulting to unpruned grid for atomic number  79.
 Defaulting to unpruned grid for atomic number  79.
 Defaulting to unpruned grid for atomic number  79.
 Defaulting to unpruned grid for atomic number  79.
 Defaulting to unpruned grid for atomic number  79.
 SCF Done:  E(RTPSS-TPSS) =  -595.968010970     A.U. after    9 cycles
            NFock=  9  Conv=0.24D-08     -V/T= 2.1790
   4 Symmetry operations used in ECPInt.
 ECPInt:  NShTT=     990 NPrTT=    2574 LenC2=     982 LenP2D=    2361.
 LDataN:  DoStor=T MaxTD1= 9 Len=  602
 Calling FoFJK, ICntrl=      2527 FMM=F ISym2X=1 I1Cent= 0 IOpClX= 0 NMat=1 NMatS=1 NMatT=0.
 Defaulting to unpruned grid for atomic number  79.
 Defaulting to unpruned grid for atomic number  79.
 Defaulting to unpruned grid for atomic number  79.
 Defaulting to unpruned grid for atomic number  79.
 Defaulting to unpruned grid for atomic number  79.
 Defaulting to unpruned grid for atomic number  79.
 Defaulting to unpruned grid for atomic number  79.
 Defaulting to unpruned grid for atomic number  79.
 ***** Axes restored to original set *****
 -------------------------------------------------------------------
 Center     Atomic                   Forces (Hartrees/Bohr)
 Number     Number              X              Y              Z
 -------------------------------------------------------------------
      1       79          -0.000000000   -0.000000000   -0.000014341
      2       17          -0.000000000   -0.000000000    0.000014341
 -------------------------------------------------------------------
 Cartesian Forces:  Max     0.000014341 RMS     0.000008280

 GradGradGradGradGradGradGradGradGradGradGradGradGradGradGradGradGradGrad
 Berny optimization.
 Using GEDIIS/GDIIS optimizer.
 Internal  Forces:  Max     0.000014341 RMS     0.000014341
 Search for a local minimum.
 Step number   3 out of a maximum of   20
 All quantities printed in internal units (Hartrees-Bohrs-Radians)
 Mixed Optimization -- En-DIIS/RFO-DIIS
 Update second derivatives using D2CorX and points    2    3
 DE= -1.20D-04 DEPred=-1.33D-04 R= 9.07D-01
 TightC=F SS=  1.41D+00  RLast= 4.11D-02 DXNew= 5.0454D-01 1.2328D-01
 Trust test= 9.07D-01 RLast= 4.11D-02 DXMaxT set to 3.00D-01
 The second derivative matrix:
                          R1
           R1           0.14073
 ITU=  1  1
 Use linear search instead of GDIIS.
     Eigenvalues ---    0.14073
 RFO step:  Lambda= 0.00000000D+00 EMin= 1.40726772D-01
 Quartic linear search produced a step of -0.00235.
 Iteration  1 RMS(Cart)=  0.00006837 RMS(Int)=  0.00000000
 Iteration  2 RMS(Cart)=  0.00000000 RMS(Int)=  0.00000000
 ClnCor:  largest displacement from symmetrization is 0.00D+00 for atom     0.
 Variable       Old X    -DE/DX   Delta X   Delta X   Delta X     New X
                                 (Linear)    (Quad)   (Total)
    R1        4.20126   0.00001   0.00010  -0.00000   0.00010   4.20136
         Item               Value     Threshold  Converged?
 Maximum Force            0.000014     0.000450     YES
 RMS     Force            0.000014     0.000300     YES
 Maximum Displacement     0.000048     0.001800     YES
 RMS     Displacement     0.000068     0.001200     YES
 Predicted change in Energy=-7.287999D-10
 Optimization completed.
    -- Stationary point found.
                           ----------------------------
                           !   Optimized Parameters   !
                           ! (Angstroms and Degrees)  !
 --------------------------                            --------------------------
 ! Name  Definition              Value          Derivative Info.                !
 --------------------------------------------------------------------------------
 ! R1    R(1,2)                  2.2232         -DE/DX =    0.0                 !
 --------------------------------------------------------------------------------
 GradGradGradGradGradGradGradGradGradGradGradGradGradGradGradGradGradGrad

                          Input orientation:                          
 ---------------------------------------------------------------------
 Center     Atomic      Atomic             Coordinates (Angstroms)
 Number     Number       Type             X           Y           Z
 ---------------------------------------------------------------------
      1         79           0        8.000000    8.000000    6.888394
      2         17           0        8.000000    8.000000    9.111606
 ---------------------------------------------------------------------
 Stoichiometry    AuCl
 Framework group  C*V[C*(ClAu)]
 Deg. of freedom     1
 Full point group                 C*V     NOp   4
 Largest Abelian subgroup         C2V     NOp   4
 Largest concise Abelian subgroup C1      NOp   1
                         Standard orientation:                         
 ---------------------------------------------------------------------
 Center     Atomic      Atomic             Coordinates (Angstroms)
 Number     Number       Type             X           Y           Z
 ---------------------------------------------------------------------
      1         79           0        0.000000    0.000000    0.393694
      2         17           0        0.000000    0.000000   -1.829518
 ---------------------------------------------------------------------
 Rotational constants (GHZ):           0.0000000           3.4430915           3.4430915

 **********************************************************************

            Population analysis using the SCF Density.

 **********************************************************************

 Orbital symmetries:
       Occupied  (SG) (SG) (SG) (PI) (PI) (SG) (SG) (PI) (PI) (SG)
                 (SG) (PI) (PI) (DLTA) (DLTA) (SG) (PI) (PI)
       Virtual   (SG) (PI) (PI) (SG) (SG) (PI) (PI) (SG) (SG) (PI)
                 (PI) (DLTA) (DLTA) (SG) (PI) (PI) (DLTA) (DLTA)
                 (SG) (PI) (PI) (PHI) (PHI) (DLTA) (DLTA) (SG)
                 (SG) (PI) (PI) (SG) (PI) (PI) (SG) (DLTA) (DLTA)
                 (PI) (PI) (PHI) (PHI) (SG) (PI) (PI) (DLTA) (DLTA)
                 (PI) (PI) (SG) (DLTA) (DLTA) (PHI) (PHI) (SG)
                 (PI) (PI) (DLTA) (DLTA) (SG) (PI) (PI) (SG) (SG)
                 (PHI) (PHI) (DLTA) (DLTA) (PI) (PI) (SG) (PHI)
                 (PHI) (?A) (?A) (DLTA) (DLTA) (SG) (PI) (PI) (SG)
                 (DLTA) (DLTA) (PI) (PI) (SG) (PHI) (PHI) (?A)
                 (?A) (DLTA) (DLTA) (PI) (PI) (SG) (PI) (PI) (PHI)
                 (PHI) (DLTA) (DLTA) (SG) (PI) (PI) (SG) (DLTA)
                 (DLTA) (PI) (PI) (SG) (PHI) (PHI) (DLTA) (DLTA)
                 (PI) (PI) (SG) (PHI) (PHI) (?A) (?A) (DLTA) (DLTA)
                 (PI) (PI) (SG) (SG) (DLTA) (DLTA) (PI) (PI) (SG)
                 (PI) (PI) (SG) (SG) (PI) (PI) (SG) (SG) (SG) (SG)
                 (SG)
 The electronic state is 1-SG.
 Alpha  occ. eigenvalues -- -100.98361  -9.23523  -7.01481  -7.00502  -7.00502
 Alpha  occ. eigenvalues --   -4.05394  -2.27591  -2.25613  -2.25613  -0.73998
 Alpha  occ. eigenvalues --   -0.38382  -0.33213  -0.33213  -0.28706  -0.28706
 Alpha  occ. eigenvalues --   -0.26481  -0.24949  -0.24949
 Alpha virt. eigenvalues --   -0.16734  -0.02200  -0.02200   0.01254   0.04691
 Alpha virt. eigenvalues --    0.07540   0.07540   0.12642   0.18569   0.20292
 Alpha virt. eigenvalues --    0.20292   0.24365   0.24365   0.26975   0.27590
 Alpha virt. eigenvalues --    0.27590   0.29411   0.29411   0.33818   0.35868
 Alpha virt. eigenvalues --    0.35868   0.36002   0.36002   0.45495   0.45495
 Alpha virt. eigenvalues --    0.46449   0.55114   0.59790   0.59790   0.64010
 Alpha virt. eigenvalues --    0.73733   0.73733   0.78045   0.92913   0.92913
 Alpha virt. eigenvalues --    0.95271   0.95271   0.96058   0.96058   1.01226
 Alpha virt. eigenvalues --    1.11262   1.11262   1.16774   1.16774   1.19482
 Alpha virt. eigenvalues --    1.19482   1.19978   1.29616   1.29616   1.31469
 Alpha virt. eigenvalues --    1.31469   1.34285   1.38218   1.38218   1.39633
 Alpha virt. eigenvalues --    1.39633   1.52485   1.76549   1.76549   2.00252
 Alpha virt. eigenvalues --    2.18035   2.22694   2.22694   2.22765   2.22765
 Alpha virt. eigenvalues --    2.23775   2.23775   2.36191   2.46095   2.46095
 Alpha virt. eigenvalues --    2.47271   2.47279   2.49660   2.49661   2.61329
 Alpha virt. eigenvalues --    2.69516   2.69516   2.91976   3.24252   3.24252
 Alpha virt. eigenvalues --    3.38125   3.38125   3.46720   3.60651   3.60651
 Alpha virt. eigenvalues --    3.62034   3.62034   3.66241   3.66242   3.76374
 Alpha virt. eigenvalues --    3.76374   3.79706   3.89348   3.89348   3.90102
 Alpha virt. eigenvalues --    3.90102   3.98132   3.98132   4.23608   4.31484
 Alpha virt. eigenvalues --    4.31484   4.42040   5.22743   5.22760   5.36915
 Alpha virt. eigenvalues --    5.36915   5.58950   5.66011   5.66011   5.66362
 Alpha virt. eigenvalues --    5.66363   5.70743   5.70743   5.92433   6.35511
 Alpha virt. eigenvalues --    6.35511   6.35918   6.35948   6.41005   6.41006
 Alpha virt. eigenvalues --    6.62812   6.62812   6.65987   8.30634  10.56746
 Alpha virt. eigenvalues --   10.56746  10.67189  10.67189  10.78732  25.68546
 Alpha virt. eigenvalues --   25.68546  28.49453  34.10942  41.51357  41.51357
 Alpha virt. eigenvalues --   41.54125  45.79473  97.99409 206.80728 526.23120
          Condensed to atoms (all electrons):
               1          2
     1  Au  18.334195   0.252034
     2  Cl   0.252034  17.161737
 Mulliken charges:
               1
     1  Au   0.413771
     2  Cl  -0.413771
 Sum of Mulliken charges =  -0.00000
 Mulliken charges with hydrogens summed into heavy atoms:
               1
     1  Au   0.413771
     2  Cl  -0.413771
 Electronic spatial extent (au):  <R**2>=            292.9977
 Charge=             -0.0000 electrons
 Dipole moment (field-independent basis, Debye):
    X=              0.0000    Y=              0.0000    Z=              3.3082  Tot=              3.3082
 Quadrupole moment (field-independent basis, Debye-Ang):
   XX=            -35.9370   YY=            -35.9370   ZZ=            -34.7644
   XY=              0.0000   XZ=              0.0000   YZ=              0.0000
 Traceless Quadrupole moment (field-independent basis, Debye-Ang):
   XX=             -0.3909   YY=             -0.3909   ZZ=              0.7817
   XY=              0.0000   XZ=              0.0000   YZ=              0.0000
 Octapole moment (field-independent basis, Debye-Ang**2):
  XXX=              0.0000  YYY=              0.0000  ZZZ=             49.8096  XYY=              0.0000
  XXY=              0.0000  XXZ=             16.1579  XZZ=              0.0000  YZZ=              0.0000
  YYZ=             16.1579  XYZ=              0.0000
 Hexadecapole moment (field-independent basis, Debye-Ang**3):
 XXXX=            -42.4274 YYYY=            -42.4274 ZZZZ=           -298.1352 XXXY=              0.0000
 XXXZ=              0.0000 YYYX=              0.0000 YYYZ=              0.0000 ZZZX=              0.0000
 ZZZY=              0.0000 XXYY=            -14.1425 XXZZ=            -60.8071 YYZZ=            -60.8071
 XXYZ=              0.0000 YYXZ=              0.0000 ZZXY=              0.0000
 N-N= 7.688166023634D+01 E-N=-1.532813896442D+03  KE= 5.054839706844D+02
 Symmetry A1   KE= 3.880895683708D+02
 Symmetry A2   KE= 4.951879182684D+00
 Symmetry B1   KE= 5.622126156549D+01
 Symmetry B2   KE= 5.622126156549D+01
 Unable to Open any file for archive entry.
 1\1\GINC-TCOPT10\FOpt\RTPSSTPSS\def2QZVPP\Au1Cl1\HUTTER\31-Jul-2021\0\
 \#N RTPSSTPSS/Def2QZVPP scf=tight Int(Grid=ultrafine) OPT FREQ\\Mol jo
 b 1\\0,1\Au,8.,8.,6.8883939382\Cl,8.,8.,9.1116060618\\Version=ES64L-G1
 6RevC.01\State=1-SG\HF=-595.968011\RMSD=2.390e-09\RMSF=8.280e-06\Dipol
 e=0.,0.,-1.3015379\Quadrupole=-0.2905913,-0.2905913,0.5811826,0.,0.,0.
 \PG=C*V [C*(Cl1Au1)]\\@
 The archive entry for this job was punched.


 LEARN FROM YESTERDAY,
 LIVE FOR TODAY,
 LOOK TO TOMORROW,
 REST THIS AFTERNOON.

           -- SNOOPY
 Job cpu time:       0 days  0 hours  7 minutes 31.5 seconds.
 Elapsed time:       0 days  0 hours  0 minutes 57.5 seconds.
 File lengths (MBytes):  RWF=     15 Int=      0 D2E=      0 Chk=      3 Scr=      1
 Normal termination of Gaussian 16 at Sat Jul 31 21:06:14 2021.
 Link1:  Proceeding to internal job step number  2.
 ----------------------------------------------------------------------
 #N Geom=AllCheck Guess=TCheck SCRF=Check GenChk RTPSSTPSS/def2QZVPP Fr
 eq
 ----------------------------------------------------------------------
 1/10=4,29=7,30=1,38=1,40=1/1,3;
 2/12=2,40=1/2;
 3/5=45,7=202,11=2,14=-4,25=1,30=1,70=2,71=2,74=2523,75=-5,116=1,140=1/1,2,3;
 4/5=101/1;
 5/5=2,32=2,38=6,98=1/2;
 8/6=4,10=90,11=11/1;
 11/6=1,8=1,9=11,15=111,16=1/1,2,10;
 10/6=1/2;
 6/7=2,8=2,9=2,10=2,28=1/1;
 7/8=1,10=1,25=1/1,2,3,16;
 1/10=4,30=1/3;
 99//99;
 Structure from the checkpoint file:  "/data/hutter/SMG16/TPSS/Gau-87088.chk"
 ---------
 Mol job 1
 ---------
 Charge =  0 Multiplicity = 1
 Redundant internal coordinates found in file.  (old form).
 Au,0,8.,8.,6.8883939382
 Cl,0,8.,8.,9.1116060618
 Recover connectivity data from disk.

 GradGradGradGradGradGradGradGradGradGradGradGradGradGradGradGradGradGrad
 Berny optimization.
 Initialization pass.
                           ----------------------------
                           !    Initial Parameters    !
                           ! (Angstroms and Degrees)  !
 --------------------------                            --------------------------
 ! Name  Definition              Value          Derivative Info.                !
 --------------------------------------------------------------------------------
 ! R1    R(1,2)                  2.2232         calculate D2E/DX2 analytically  !
 --------------------------------------------------------------------------------
 Trust Radius=3.00D-01 FncErr=1.00D-07 GrdErr=1.00D-07 EigMax=2.50D+02 EigMin=1.00D-04
 Number of steps in this run=      2 maximum allowed number of steps=      2.
 GradGradGradGradGradGradGradGradGradGradGradGradGradGradGradGradGradGrad

                          Input orientation:                          
 ---------------------------------------------------------------------
 Center     Atomic      Atomic             Coordinates (Angstroms)
 Number     Number       Type             X           Y           Z
 ---------------------------------------------------------------------
      1         79           0        8.000000    8.000000    6.888394
      2         17           0        8.000000    8.000000    9.111606
 ---------------------------------------------------------------------
 Stoichiometry    AuCl
 Framework group  C*V[C*(ClAu)]
 Deg. of freedom     1
 Full point group                 C*V     NOp   4
 Largest Abelian subgroup         C2V     NOp   4
 Largest concise Abelian subgroup C1      NOp   1
                         Standard orientation:                         
 ---------------------------------------------------------------------
 Center     Atomic      Atomic             Coordinates (Angstroms)
 Number     Number       Type             X           Y           Z
 ---------------------------------------------------------------------
      1         79           0        0.000000    0.000000    0.393694
      2         17           0        0.000000    0.000000   -1.829518
 ---------------------------------------------------------------------
 Rotational constants (GHZ):           0.0000000           3.4430915           3.4430915
 Standard basis: def2QZVPP (5D, 7F)
 There are    87 symmetry adapted cartesian basis functions of A1  symmetry.
 There are    23 symmetry adapted cartesian basis functions of A2  symmetry.
 There are    46 symmetry adapted cartesian basis functions of B1  symmetry.
 There are    46 symmetry adapted cartesian basis functions of B2  symmetry.
 There are    64 symmetry adapted basis functions of A1  symmetry.
 There are    20 symmetry adapted basis functions of A2  symmetry.
 There are    37 symmetry adapted basis functions of B1  symmetry.
 There are    37 symmetry adapted basis functions of B2  symmetry.
   158 basis functions,   260 primitive gaussians,   202 cartesian basis functions
    18 alpha electrons       18 beta electrons
       nuclear repulsion energy        76.8816602363 Hartrees.
 NAtoms=    2 NActive=    2 NUniq=    2 SFac= 1.00D+00 NAtFMM=   60 NAOKFM=F Big=F
 Integral buffers will be    131072 words long.
 Raffenetti 2 integral format.
 Two-electron integral symmetry is turned on.
 One-electron integrals computed using PRISM.
   4 Symmetry operations used in ECPInt.
 ECPInt:  NShTT=     990 NPrTT=    2574 LenC2=     982 LenP2D=    2361.
 LDataN:  DoStor=T MaxTD1= 8 Len=  415
 NBasis=   158 RedAO= T EigKep=  9.96D-04  NBF=    64    20    37    37
 NBsUse=   158 1.00D-06 EigRej= -1.00D+00 NBFU=    64    20    37    37
 Defaulting to unpruned grid for atomic number  79.
 Initial guess from the checkpoint file:  "/data/hutter/SMG16/TPSS/Gau-87088.chk"
 B after Tr=     0.000000    0.000000    0.000000
         Rot=    1.000000    0.000000    0.000000    0.000000 Ang=   0.00 deg.
 Initial guess orbital symmetries:
       Occupied  (SG) (SG) (SG) (PI) (PI) (SG) (SG) (PI) (PI) (SG)
                 (SG) (PI) (PI) (DLTA) (DLTA) (SG) (PI) (PI)
       Virtual   (SG) (PI) (PI) (SG) (SG) (PI) (PI) (SG) (SG) (PI)
                 (PI) (DLTA) (DLTA) (SG) (PI) (PI) (DLTA) (DLTA)
                 (SG) (PI) (PI) (PHI) (PHI) (DLTA) (DLTA) (SG)
                 (SG) (PI) (PI) (SG) (PI) (PI) (SG) (DLTA) (DLTA)
                 (PI) (PI) (PHI) (PHI) (SG) (PI) (PI) (DLTA) (DLTA)
                 (PI) (PI) (SG) (DLTA) (DLTA) (PHI) (PHI) (SG)
                 (PI) (PI) (DLTA) (DLTA) (SG) (PI) (PI) (SG) (SG)
                 (PHI) (PHI) (DLTA) (DLTA) (PI) (PI) (SG) (PHI)
                 (PHI) (?A) (?A) (DLTA) (DLTA) (SG) (PI) (PI) (SG)
                 (DLTA) (DLTA) (PI) (PI) (SG) (PHI) (PHI) (?A)
                 (?A) (DLTA) (DLTA) (PI) (PI) (SG) (PI) (PI) (PHI)
                 (PHI) (DLTA) (DLTA) (SG) (PI) (PI) (SG) (DLTA)
                 (DLTA) (PI) (PI) (SG) (PHI) (PHI) (DLTA) (DLTA)
                 (PI) (PI) (SG) (PHI) (PHI) (?A) (?A) (DLTA) (DLTA)
                 (PI) (PI) (SG) (SG) (DLTA) (DLTA) (PI) (PI) (SG)
                 (PI) (PI) (SG) (SG) (PI) (PI) (SG) (SG) (SG) (SG)
                 (SG)
 Keep J ints in memory in symmetry-blocked form, NReq=98933213.
 Requested convergence on RMS density matrix=1.00D-08 within 128 cycles.
 Requested convergence on MAX density matrix=1.00D-06.
 Requested convergence on             energy=1.00D-06.
 No special actions if energy rises.
 Defaulting to unpruned grid for atomic number  79.
 Defaulting to unpruned grid for atomic number  79.
 Defaulting to unpruned grid for atomic number  79.
 Defaulting to unpruned grid for atomic number  79.
 Defaulting to unpruned grid for atomic number  79.
 Defaulting to unpruned grid for atomic number  79.
 Defaulting to unpruned grid for atomic number  79.
 Defaulting to unpruned grid for atomic number  79.
 SCF Done:  E(RTPSS-TPSS) =  -595.968010970     A.U. after    1 cycles
            NFock=  1  Conv=0.13D-08     -V/T= 2.1790
 DoSCS=F DFT=T ScalE2(SS,OS)=  1.000000  1.000000
 Range of M.O.s used for correlation:     1   158
 NBasis=   158 NAE=    18 NBE=    18 NFC=     0 NFV=     0
 NROrb=    158 NOA=    18 NOB=    18 NVA=   140 NVB=   140

 **** Warning!!: The largest alpha MO coefficient is  0.10195811D+02


 **** Warning!!: The smallest alpha delta epsilon is  0.82145193D-01

   4 Symmetry operations used in ECPInt.
 ECPInt:  NShTT=     990 NPrTT=    2574 LenC2=     982 LenP2D=    2361.
 LDataN:  DoStor=T MaxTD1= 9 Len=  602
 Symmetrizing basis deriv contribution to polar:
 IMax=3 JMax=2 DiffMx= 0.00D+00
 G2DrvN: will do     3 centers at a time, making    1 passes.
 Calling FoFCou, ICntrl=  3507 FMM=F I1Cent=   0 AccDes= 0.00D+00.
 Defaulting to unpruned grid for atomic number  79.
 Defaulting to unpruned grid for atomic number  79.
 Defaulting to unpruned grid for atomic number  79.
 Defaulting to unpruned grid for atomic number  79.
 Defaulting to unpruned grid for atomic number  79.
 Defaulting to unpruned grid for atomic number  79.
 Defaulting to unpruned grid for atomic number  79.
 Defaulting to unpruned grid for atomic number  79.
 End of G2Drv F.D. properties file   721 does not exist.
 End of G2Drv F.D. properties file   722 does not exist.
 End of G2Drv F.D. properties file   788 does not exist.
          IDoAtm=11
          Differentiating once with respect to electric field.
                with respect to dipole field.
          Differentiating once with respect to nuclear coordinates.
 Defaulting to unpruned grid for atomic number  79.
 Keep J ints in memory in symmetry-blocked form, NReq=98934648.
 Defaulting to unpruned grid for atomic number  79.
 Defaulting to unpruned grid for atomic number  79.
 Defaulting to unpruned grid for atomic number  79.
 Defaulting to unpruned grid for atomic number  79.
 Defaulting to unpruned grid for atomic number  79.
 Defaulting to unpruned grid for atomic number  79.
 Defaulting to unpruned grid for atomic number  79.
 Defaulting to unpruned grid for atomic number  79.
          There are     9 degrees of freedom in the 1st order CPHF.  IDoFFX=6 NUNeed=     3.
      6 vectors produced by pass  0 Test12= 2.80D-14 1.11D-08 XBig12= 1.90D+02 9.18D+00.
 AX will form     6 AO Fock derivatives at one time.
      6 vectors produced by pass  1 Test12= 2.80D-14 1.11D-08 XBig12= 5.71D+01 3.22D+00.
      6 vectors produced by pass  2 Test12= 2.80D-14 1.11D-08 XBig12= 3.56D+00 3.88D-01.
      6 vectors produced by pass  3 Test12= 2.80D-14 1.11D-08 XBig12= 6.27D-01 2.43D-01.
      6 vectors produced by pass  4 Test12= 2.80D-14 1.11D-08 XBig12= 1.57D-02 4.77D-02.
      6 vectors produced by pass  5 Test12= 2.80D-14 1.11D-08 XBig12= 3.16D-04 4.27D-03.
      4 vectors produced by pass  6 Test12= 2.80D-14 1.11D-08 XBig12= 6.82D-07 1.71D-04.
      4 vectors produced by pass  7 Test12= 2.80D-14 1.11D-08 XBig12= 4.09D-09 1.64D-05.
      4 vectors produced by pass  8 Test12= 2.80D-14 1.11D-08 XBig12= 1.80D-11 1.12D-06.
      1 vectors produced by pass  9 Test12= 2.80D-14 1.11D-08 XBig12= 2.57D-13 1.15D-07.
 InvSVY:  IOpt=1 It=  1 EMax= 4.44D-16
 Solved reduced A of dimension    49 with     6 vectors.
 Isotropic polarizability for W=    0.000000       46.84 Bohr**3.
 End of Minotr F.D. properties file   721 does not exist.
 End of Minotr F.D. properties file   722 does not exist.
 End of Minotr F.D. properties file   788 does not exist.

 **********************************************************************

            Population analysis using the SCF Density.

 **********************************************************************

 Orbital symmetries:
       Occupied  (SG) (SG) (SG) (PI) (PI) (SG) (SG) (PI) (PI) (SG)
                 (SG) (PI) (PI) (DLTA) (DLTA) (SG) (PI) (PI)
       Virtual   (SG) (PI) (PI) (SG) (SG) (PI) (PI) (SG) (SG) (PI)
                 (PI) (DLTA) (DLTA) (SG) (PI) (PI) (DLTA) (DLTA)
                 (SG) (PI) (PI) (PHI) (PHI) (DLTA) (DLTA) (SG)
                 (SG) (PI) (PI) (SG) (PI) (PI) (SG) (DLTA) (DLTA)
                 (PI) (PI) (PHI) (PHI) (SG) (PI) (PI) (DLTA) (DLTA)
                 (PI) (PI) (SG) (DLTA) (DLTA) (PHI) (PHI) (SG)
                 (PI) (PI) (DLTA) (DLTA) (SG) (PI) (PI) (SG) (SG)
                 (PHI) (PHI) (DLTA) (DLTA) (PI) (PI) (SG) (PHI)
                 (PHI) (?A) (?A) (DLTA) (DLTA) (SG) (PI) (PI) (SG)
                 (DLTA) (DLTA) (PI) (PI) (SG) (PHI) (PHI) (?A)
                 (?A) (DLTA) (DLTA) (PI) (PI) (SG) (PI) (PI) (PHI)
                 (PHI) (DLTA) (DLTA) (SG) (PI) (PI) (SG) (DLTA)
                 (DLTA) (PI) (PI) (SG) (PHI) (PHI) (DLTA) (DLTA)
                 (PI) (PI) (SG) (PHI) (PHI) (?A) (?A) (DLTA) (DLTA)
                 (PI) (PI) (SG) (SG) (DLTA) (DLTA) (PI) (PI) (SG)
                 (PI) (PI) (SG) (SG) (PI) (PI) (SG) (SG) (SG) (SG)
                 (SG)
 The electronic state is 1-SG.
 Alpha  occ. eigenvalues -- -100.98361  -9.23523  -7.01481  -7.00502  -7.00502
 Alpha  occ. eigenvalues --   -4.05394  -2.27591  -2.25613  -2.25613  -0.73998
 Alpha  occ. eigenvalues --   -0.38382  -0.33213  -0.33213  -0.28706  -0.28706
 Alpha  occ. eigenvalues --   -0.26481  -0.24949  -0.24949
 Alpha virt. eigenvalues --   -0.16734  -0.02200  -0.02200   0.01254   0.04691
 Alpha virt. eigenvalues --    0.07540   0.07540   0.12642   0.18569   0.20292
 Alpha virt. eigenvalues --    0.20292   0.24365   0.24365   0.26975   0.27590
 Alpha virt. eigenvalues --    0.27590   0.29411   0.29411   0.33818   0.35868
 Alpha virt. eigenvalues --    0.35868   0.36002   0.36002   0.45495   0.45495
 Alpha virt. eigenvalues --    0.46449   0.55114   0.59790   0.59790   0.64010
 Alpha virt. eigenvalues --    0.73733   0.73733   0.78045   0.92913   0.92913
 Alpha virt. eigenvalues --    0.95271   0.95271   0.96058   0.96058   1.01226
 Alpha virt. eigenvalues --    1.11262   1.11262   1.16774   1.16774   1.19482
 Alpha virt. eigenvalues --    1.19482   1.19978   1.29616   1.29616   1.31469
 Alpha virt. eigenvalues --    1.31469   1.34285   1.38218   1.38218   1.39633
 Alpha virt. eigenvalues --    1.39633   1.52485   1.76549   1.76549   2.00252
 Alpha virt. eigenvalues --    2.18035   2.22694   2.22694   2.22765   2.22765
 Alpha virt. eigenvalues --    2.23775   2.23775   2.36191   2.46095   2.46095
 Alpha virt. eigenvalues --    2.47271   2.47279   2.49660   2.49661   2.61329
 Alpha virt. eigenvalues --    2.69516   2.69516   2.91976   3.24252   3.24252
 Alpha virt. eigenvalues --    3.38125   3.38125   3.46720   3.60651   3.60651
 Alpha virt. eigenvalues --    3.62034   3.62034   3.66241   3.66242   3.76374
 Alpha virt. eigenvalues --    3.76374   3.79706   3.89348   3.89348   3.90102
 Alpha virt. eigenvalues --    3.90102   3.98132   3.98132   4.23608   4.31484
 Alpha virt. eigenvalues --    4.31484   4.42040   5.22743   5.22760   5.36915
 Alpha virt. eigenvalues --    5.36915   5.58950   5.66011   5.66011   5.66362
 Alpha virt. eigenvalues --    5.66363   5.70743   5.70743   5.92433   6.35511
 Alpha virt. eigenvalues --    6.35511   6.35918   6.35948   6.41005   6.41006
 Alpha virt. eigenvalues --    6.62812   6.62812   6.65987   8.30634  10.56746
 Alpha virt. eigenvalues --   10.56746  10.67189  10.67189  10.78732  25.68546
 Alpha virt. eigenvalues --   25.68546  28.49453  34.10942  41.51357  41.51357
 Alpha virt. eigenvalues --   41.54125  45.79473  97.99409 206.80728 526.23120
          Condensed to atoms (all electrons):
               1          2
     1  Au  18.334195   0.252034
     2  Cl   0.252034  17.161737
 Mulliken charges:
               1
     1  Au   0.413771
     2  Cl  -0.413771
 Sum of Mulliken charges =  -0.00000
 Mulliken charges with hydrogens summed into heavy atoms:
               1
     1  Au   0.413771
     2  Cl  -0.413771
 APT charges:
               1
     1  Au   0.368106
     2  Cl  -0.368106
 Sum of APT charges =  -0.00000
 APT charges with hydrogens summed into heavy atoms:
               1
     1  Au   0.368106
     2  Cl  -0.368106
 Electronic spatial extent (au):  <R**2>=            292.9977
 Charge=             -0.0000 electrons
 Dipole moment (field-independent basis, Debye):
    X=              0.0000    Y=              0.0000    Z=              3.3082  Tot=              3.3082
 Quadrupole moment (field-independent basis, Debye-Ang):
   XX=            -35.9370   YY=            -35.9370   ZZ=            -34.7644
   XY=              0.0000   XZ=              0.0000   YZ=              0.0000
 Traceless Quadrupole moment (field-independent basis, Debye-Ang):
   XX=             -0.3909   YY=             -0.3909   ZZ=              0.7817
   XY=              0.0000   XZ=              0.0000   YZ=              0.0000
 Octapole moment (field-independent basis, Debye-Ang**2):
  XXX=              0.0000  YYY=              0.0000  ZZZ=             49.8096  XYY=              0.0000
  XXY=              0.0000  XXZ=             16.1579  XZZ=              0.0000  YZZ=              0.0000
  YYZ=             16.1579  XYZ=              0.0000
 Hexadecapole moment (field-independent basis, Debye-Ang**3):
 XXXX=            -42.4274 YYYY=            -42.4274 ZZZZ=           -298.1352 XXXY=              0.0000
 XXXZ=              0.0000 YYYX=              0.0000 YYYZ=              0.0000 ZZZX=              0.0000
 ZZZY=              0.0000 XXYY=            -14.1425 XXZZ=            -60.8071 YYZZ=            -60.8071
 XXYZ=              0.0000 YYXZ=              0.0000 ZZXY=              0.0000
 N-N= 7.688166023634D+01 E-N=-1.532813900628D+03  KE= 5.054839722261D+02
 Symmetry A1   KE= 3.880895692461D+02
 Symmetry A2   KE= 4.951879248057D+00
 Symmetry B1   KE= 5.622126186597D+01
 Symmetry B2   KE= 5.622126186596D+01
  Exact polarizability:      38.628       0.000      38.628       0.000       0.000      63.251
 Approx polarizability:      73.699      -0.000      73.699      -0.000      -0.000     146.345
   4 Symmetry operations used in ECPInt.
 ECPInt:  NShTT=     990 NPrTT=    2574 LenC2=     982 LenP2D=    2361.
 LDataN:  DoStor=T MaxTD1=10 Len=  848
 Calling FoFJK, ICntrl=    100527 FMM=F ISym2X=1 I1Cent= 0 IOpClX= 0 NMat=1 NMatS=1 NMatT=0.
 Defaulting to unpruned grid for atomic number  79.
 Defaulting to unpruned grid for atomic number  79.
 Defaulting to unpruned grid for atomic number  79.
 Defaulting to unpruned grid for atomic number  79.
 Defaulting to unpruned grid for atomic number  79.
 Defaulting to unpruned grid for atomic number  79.
 Defaulting to unpruned grid for atomic number  79.
 Defaulting to unpruned grid for atomic number  79.
 Full mass-weighted force constant matrix:
 Low frequencies ---   -0.0014   -0.0014   -0.0014    8.1132    8.1132  363.3539
 Diagonal vibrational polarizability:
        0.0000000       0.0000000       1.5712872
 Harmonic frequencies (cm**-1), IR intensities (KM/Mole), Raman scattering
 activities (A**4/AMU), depolarization ratios for plane and unpolarized
 incident light, reduced masses (AMU), force constants (mDyne/A),
 and normal coordinates:
                      1
                     SG
 Frequencies --    363.3539
 Red. masses --     39.9189
 Frc consts  --      3.1052
 IR Inten    --      7.7087
  Atom  AN      X      Y      Z
     1  79    -0.00  -0.00  -0.17
     2  17    -0.00  -0.00   0.98

 -------------------
 - Thermochemistry -
 -------------------
 Temperature   298.150 Kelvin.  Pressure   1.00000 Atm.
 Atom     1 has atomic number 79 and mass 196.96660
 Atom     2 has atomic number 17 and mass  34.96885
 Molecular mass:   231.93545 amu.
 Principal axes and moments of inertia in atomic units:
                           1         2         3
     Eigenvalues --     0.00000 524.16301 524.16301
           X            0.00000  -0.00000   1.00000
           Y            0.00000   1.00000   0.00000
           Z            1.00000   0.00000   0.00000
 This molecule is a prolate symmetric top.
 Rotational symmetry number  1.
 Warning -- assumption of classical behavior for rotation
           may cause significant error
 Rotational temperature (Kelvin)      0.16524
 Rotational constant (GHZ):           3.443091
 Zero-point vibrational energy       2173.3 (Joules/Mol)
                                    0.51944 (Kcal/Mol)
 Warning -- explicit consideration of   1 degrees of freedom as
           vibrations may cause significant error
 Vibrational temperatures:    522.79
          (Kelvin)
 
 Zero-point correction=                           0.000828 (Hartree/Particle)
 Thermal correction to Energy=                    0.003535
 Thermal correction to Enthalpy=                  0.004479
 Thermal correction to Gibbs Free Energy=        -0.024134
 Sum of electronic and zero-point Energies=           -595.967183
 Sum of electronic and thermal Energies=              -595.964476
 Sum of electronic and thermal Enthalpies=            -595.963532
 Sum of electronic and thermal Free Energies=         -595.992145
 
                     E (Thermal)             CV                S
                      KCal/Mol        Cal/Mol-Kelvin    Cal/Mol-Kelvin
 Total                    2.218              6.516             60.221
 Electronic               0.000              0.000              0.000
 Translational            0.889              2.981             42.226
 Rotational               0.592              1.987             16.887
 Vibrational              0.737              1.548              1.108
 Vibration     1          0.737              1.548              1.108
                       Q            Log10(Q)             Ln(Q)
 Total Bot       0.126082D+12         11.100654         25.560200
 Total V=0       0.302975D+12         11.481407         26.436916
 Vib (Bot)       0.503310D+00         -0.298164         -0.686548
 Vib (Bot)    1  0.503310D+00         -0.298164         -0.686548
 Vib (V=0)       0.120945D+01          0.082588          0.190167
 Vib (V=0)    1  0.120945D+01          0.082588          0.190167
 Electronic      0.100000D+01          0.000000          0.000000
 Translational   0.138837D+09          8.142505         18.748810
 Rotational      0.180432D+04          3.256313          7.497939
 ***** Axes restored to original set *****
 -------------------------------------------------------------------
 Center     Atomic                   Forces (Hartrees/Bohr)
 Number     Number              X              Y              Z
 -------------------------------------------------------------------
      1       79          -0.000000000   -0.000000000   -0.000014359
      2       17          -0.000000000   -0.000000000    0.000014359
 -------------------------------------------------------------------
 Cartesian Forces:  Max     0.000014359 RMS     0.000008290
 FormGI is forming the generalized inverse of G from B-inverse, IUseBI=4.

 GradGradGradGradGradGradGradGradGradGradGradGradGradGradGradGradGradGrad
 Berny optimization.
 Internal  Forces:  Max     0.000014359 RMS     0.000014359
 Search for a local minimum.
 Step number   1 out of a maximum of    2
 All quantities printed in internal units (Hartrees-Bohrs-Radians)
 Second derivative matrix not updated -- analytic derivatives used.
 The second derivative matrix:
                          R1
           R1           0.14837
 ITU=  0
     Eigenvalues ---    0.14837
 Angle between quadratic step and forces=   0.00 degrees.
 Linear search not attempted -- first point.
 Iteration  1 RMS(Cart)=  0.00006843 RMS(Int)=  0.00000000
 Iteration  2 RMS(Cart)=  0.00000000 RMS(Int)=  0.00000000
 ClnCor:  largest displacement from symmetrization is 0.00D+00 for atom     0.
 Variable       Old X    -DE/DX   Delta X   Delta X   Delta X     New X
                                 (Linear)    (Quad)   (Total)
    R1        4.20126   0.00001   0.00000   0.00010   0.00010   4.20136
         Item               Value     Threshold  Converged?
 Maximum Force            0.000014     0.000450     YES
 RMS     Force            0.000014     0.000300     YES
 Maximum Displacement     0.000048     0.001800     YES
 RMS     Displacement     0.000068     0.001200     YES
 Predicted change in Energy=-6.947736D-10
 Optimization completed.
    -- Stationary point found.
                           ----------------------------
                           !   Optimized Parameters   !
                           ! (Angstroms and Degrees)  !
 --------------------------                            --------------------------
 ! Name  Definition              Value          Derivative Info.                !
 --------------------------------------------------------------------------------
 ! R1    R(1,2)                  2.2232         -DE/DX =    0.0                 !
 --------------------------------------------------------------------------------
 GradGradGradGradGradGradGradGradGradGradGradGradGradGradGradGradGradGrad


 ----------------------------------------------------------------------

 Electric dipole moment (input orientation):
 (Debye = 10**-18 statcoulomb cm , SI units = C m)
                  (au)            (Debye)         (10**-30 SI)
   Tot        0.130154D+01      0.330818D+01      0.110349D+02
   x          0.000000D+00      0.000000D+00      0.000000D+00
   y          0.000000D+00      0.000000D+00      0.000000D+00
   z         -0.130154D+01     -0.330818D+01     -0.110349D+02

 Dipole polarizability, Alpha (input orientation).
 (esu units = cm**3 , SI units = C**2 m**2 J**-1)
 Alpha(0;0):
               (au)            (10**-24 esu)      (10**-40 SI)
   iso        0.468356D+02      0.694032D+01      0.772215D+01
   aniso      0.246230D+02      0.364875D+01      0.405979D+01
   xx         0.386280D+02      0.572407D+01      0.636889D+01
   yx         0.000000D+00      0.000000D+00      0.000000D+00
   yy         0.386280D+02      0.572407D+01      0.636889D+01
   zx         0.000000D+00      0.000000D+00      0.000000D+00
   zy         0.000000D+00      0.000000D+00      0.000000D+00
   zz         0.632510D+02      0.937283D+01      0.104287D+02

 ----------------------------------------------------------------------

 Dipole orientation:
    79         15.11780900        -15.11780900        -13.01717798
    17         15.11780900        -15.11780900        -17.21844001

 Electric dipole moment (dipole orientation):
 (Debye = 10**-18 statcoulomb cm , SI units = C m)
                  (au)            (Debye)         (10**-30 SI)
   Tot        0.130154D+01      0.330818D+01      0.110349D+02
   x          0.000000D+00      0.000000D+00      0.000000D+00
   y          0.000000D+00      0.000000D+00      0.000000D+00
   z          0.130154D+01      0.330818D+01      0.110349D+02

 Dipole polarizability, Alpha (dipole orientation).
 (esu units = cm**3 , SI units = C**2 m**2 J**-1)
 Alpha(0;0):
               (au)            (10**-24 esu)      (10**-40 SI)
   iso        0.468356D+02      0.694032D+01      0.772215D+01
   aniso      0.246230D+02      0.364875D+01      0.405979D+01
   xx         0.386280D+02      0.572407D+01      0.636889D+01
   yx         0.000000D+00      0.000000D+00      0.000000D+00
   yy         0.386280D+02      0.572407D+01      0.636889D+01
   zx         0.000000D+00      0.000000D+00      0.000000D+00
   zy         0.000000D+00      0.000000D+00      0.000000D+00
   zz         0.632510D+02      0.937283D+01      0.104287D+02

 ----------------------------------------------------------------------
 Unable to Open any file for archive entry.
 1\1\GINC-TCOPT10\Freq\RTPSSTPSS\def2QZVPP\Au1Cl1\HUTTER\31-Jul-2021\0\
 \#N Geom=AllCheck Guess=TCheck SCRF=Check GenChk RTPSSTPSS/def2QZVPP F
 req\\Mol job 1\\0,1\Au,8.,8.,6.8883939382\Cl,8.,8.,9.1116060618\\Versi
 on=ES64L-G16RevC.01\State=1-SG\HF=-595.968011\RMSD=1.282e-09\RMSF=8.29
 0e-06\Thermal=0.003535\ETot=-595.964476\HTot=-595.9635318\GTot=-595.99
 21445\Dipole=0.,0.,-1.3015391\DipoleDeriv=0.309867,0.,0.,0.,0.309867,0
 .,0.,0.,0.4845837,-0.309867,0.,0.,0.,-0.309867,0.,0.,0.,-0.4845837\Pol
 ar=38.6279523,0.,38.6279523,0.,0.,63.2509648\Quadrupole=-0.2905899,-0.
 2905899,0.5811799,0.,0.,0.\PG=C*V [C*(Cl1Au1)]\NImag=0\\0.00007398,0.,
 0.00007398,0.,0.,0.14837401,-0.00007398,0.,0.,0.00007398,0.,-0.0000739
 8,0.,0.,0.00007398,0.,0.,-0.14837401,0.,0.,0.14837401\\0.,0.,0.0000143
 6,0.,0.,-0.00001436\\\@
 The archive entry for this job was punched.


 THE SECRET OF SUCCESS IN LIFE IS TO EAT WHAT YOU LIKE, AND LET THE FOOD
 FIGHT IT OUT INSIDE YOU. -- FROM A FORTUNE COOKIE
 Job cpu time:       0 days  0 hours 12 minutes 36.2 seconds.
 Elapsed time:       0 days  0 hours  1 minutes 34.9 seconds.
 File lengths (MBytes):  RWF=     15 Int=      0 D2E=      0 Chk=      3 Scr=      1
 Normal termination of Gaussian 16 at Sat Jul 31 21:07:50 2021.
