 Entering Gaussian System, Link 0=g16
 Initial command:
 /sw-ng/spack/opt/spack/linux-opensuse_leap15-sandybridge/pgi-18.10/gaussian-src-16-C.01-zldqaomctopxhethwccpmxmwefdscg3m/g16/l1.exe "/data/hutter/SMG16/TPSS/Gau-91895.inp" -scrdir="/data/hutter/SMG16/TPSS/"
 Entering Link 1 = /sw-ng/spack/opt/spack/linux-opensuse_leap15-sandybridge/pgi-18.10/gaussian-src-16-C.01-zldqaomctopxhethwccpmxmwefdscg3m/g16/l1.exe PID=     91901.
  
 Copyright (c) 1988-2019, Gaussian, Inc.  All Rights Reserved.
  
 This is part of the Gaussian(R) 16 program.  It is based on
 the Gaussian(R) 09 system (copyright 2009, Gaussian, Inc.),
 the Gaussian(R) 03 system (copyright 2003, Gaussian, Inc.),
 the Gaussian(R) 98 system (copyright 1998, Gaussian, Inc.),
 the Gaussian(R) 94 system (copyright 1995, Gaussian, Inc.),
 the Gaussian 92(TM) system (copyright 1992, Gaussian, Inc.),
 the Gaussian 90(TM) system (copyright 1990, Gaussian, Inc.),
 the Gaussian 88(TM) system (copyright 1988, Gaussian, Inc.),
 the Gaussian 86(TM) system (copyright 1986, Carnegie Mellon
 University), and the Gaussian 82(TM) system (copyright 1983,
 Carnegie Mellon University). Gaussian is a federally registered
 trademark of Gaussian, Inc.
  
 This software contains proprietary and confidential information,
 including trade secrets, belonging to Gaussian, Inc.
  
 This software is provided under written license and may be
 used, copied, transmitted, or stored only in accord with that
 written license.
  
 The following legend is applicable only to US Government
 contracts under FAR:
  
                    RESTRICTED RIGHTS LEGEND
  
 Use, reproduction and disclosure by the US Government is
 subject to restrictions as set forth in subparagraphs (a)
 and (c) of the Commercial Computer Software - Restricted
 Rights clause in FAR 52.227-19.
  
 Gaussian, Inc.
 340 Quinnipiac St., Bldg. 40, Wallingford CT 06492
  
  
 ---------------------------------------------------------------
 Warning -- This program may not be used in any manner that
 competes with the business of Gaussian, Inc. or will provide
 assistance to any competitor of Gaussian, Inc.  The licensee
 of this program is prohibited from giving any competitor of
 Gaussian, Inc. access to this program.  By using this program,
 the user acknowledges that Gaussian, Inc. is engaged in the
 business of creating and licensing software in the field of
 computational chemistry and represents and warrants to the
 licensee that it is not a competitor of Gaussian, Inc. and that
 it will not use this program in any manner prohibited above.
 ---------------------------------------------------------------
  

 Cite this work as:
 Gaussian 16, Revision C.01,
 M. J. Frisch, G. W. Trucks, H. B. Schlegel, G. E. Scuseria, 
 M. A. Robb, J. R. Cheeseman, G. Scalmani, V. Barone, 
 G. A. Petersson, H. Nakatsuji, X. Li, M. Caricato, A. V. Marenich, 
 J. Bloino, B. G. Janesko, R. Gomperts, B. Mennucci, H. P. Hratchian, 
 J. V. Ortiz, A. F. Izmaylov, J. L. Sonnenberg, D. Williams-Young, 
 F. Ding, F. Lipparini, F. Egidi, J. Goings, B. Peng, A. Petrone, 
 T. Henderson, D. Ranasinghe, V. G. Zakrzewski, J. Gao, N. Rega, 
 G. Zheng, W. Liang, M. Hada, M. Ehara, K. Toyota, R. Fukuda, 
 J. Hasegawa, M. Ishida, T. Nakajima, Y. Honda, O. Kitao, H. Nakai, 
 T. Vreven, K. Throssell, J. A. Montgomery, Jr., J. E. Peralta, 
 F. Ogliaro, M. J. Bearpark, J. J. Heyd, E. N. Brothers, K. N. Kudin, 
 V. N. Staroverov, T. A. Keith, R. Kobayashi, J. Normand, 
 K. Raghavachari, A. P. Rendell, J. C. Burant, S. S. Iyengar, 
 J. Tomasi, M. Cossi, J. M. Millam, M. Klene, C. Adamo, R. Cammi, 
 J. W. Ochterski, R. L. Martin, K. Morokuma, O. Farkas, 
 J. B. Foresman, and D. J. Fox, Gaussian, Inc., Wallingford CT, 2019.
 
 ******************************************
 Gaussian 16:  ES64L-G16RevC.01  3-Jul-2019
                31-Jul-2021 
 ******************************************
 %mem=8GB
 %NProcShare=8
 Will use up to    8 processors via shared memory.
 -------------------------------------------------------------
 #N RTPSSTPSS/Def2QZVPP scf=tight Int(Grid=ultrafine) OPT FREQ
 -------------------------------------------------------------
 1/18=20,19=15,26=4,38=1/1,3;
 2/9=110,12=2,17=6,18=5,40=1/2;
 3/5=45,7=202,11=2,25=1,30=1,71=1,74=2523,75=-5,116=1/1,2,3;
 4//1;
 5/5=2,32=2,38=5/2;
 6/7=2,8=2,9=2,10=2,28=1/1;
 7//1,2,3,16;
 1/18=20,19=15,26=4/3(2);
 2/9=110/2;
 99//99;
 2/9=110/2;
 3/5=45,7=202,11=2,25=1,30=1,71=1,74=2523,75=-5,116=1/1,2,3;
 4/5=5,16=3,69=1/1;
 5/5=2,32=2,38=5/2;
 7//1,2,3,16;
 1/18=20,19=15,26=4/3(-5);
 2/9=110/2;
 6/7=2,8=2,9=2,10=2,19=2,28=1/1;
 99/9=1/99;
 ---------
 Mol job 1
 ---------
 Symbolic Z-matrix:
 Charge =  0 Multiplicity = 1
 Ba                    8.5       8.5       7.47889 
 O                     8.5       8.5       9.52111 
 

 GradGradGradGradGradGradGradGradGradGradGradGradGradGradGradGradGradGrad
 Berny optimization.
 Initialization pass.
                           ----------------------------
                           !    Initial Parameters    !
                           ! (Angstroms and Degrees)  !
 --------------------------                            --------------------------
 ! Name  Definition              Value          Derivative Info.                !
 --------------------------------------------------------------------------------
 ! R1    R(1,2)                  2.0422         estimate D2E/DX2                !
 --------------------------------------------------------------------------------
 Trust Radius=3.00D-01 FncErr=1.00D-07 GrdErr=1.00D-06 EigMax=2.50D+02 EigMin=1.00D-04
 Number of steps in this run=     20 maximum allowed number of steps=    100.
 GradGradGradGradGradGradGradGradGradGradGradGradGradGradGradGradGradGrad

                          Input orientation:                          
 ---------------------------------------------------------------------
 Center     Atomic      Atomic             Coordinates (Angstroms)
 Number     Number       Type             X           Y           Z
 ---------------------------------------------------------------------
      1         56           0        8.500000    8.500000    7.478887
      2          8           0        8.500000    8.500000    9.521113
 ---------------------------------------------------------------------
 Stoichiometry    BaO
 Framework group  C*V[C*(OBa)]
 Deg. of freedom     1
 Full point group                 C*V     NOp   4
 Largest Abelian subgroup         C2V     NOp   4
 Largest concise Abelian subgroup C1      NOp   1
                         Standard orientation:                         
 ---------------------------------------------------------------------
 Center     Atomic      Atomic             Coordinates (Angstroms)
 Number     Number       Type             X           Y           Z
 ---------------------------------------------------------------------
      1         56           0        0.000000    0.000000    0.255278
      2          8           0        0.000000    0.000000   -1.786948
 ---------------------------------------------------------------------
 Rotational constants (GHZ):           0.0000000           8.4544564           8.4544564
 Standard basis: def2QZVPP (5D, 7F)
 There are    62 symmetry adapted cartesian basis functions of A1  symmetry.
 There are    14 symmetry adapted cartesian basis functions of A2  symmetry.
 There are    33 symmetry adapted cartesian basis functions of B1  symmetry.
 There are    33 symmetry adapted cartesian basis functions of B2  symmetry.
 There are    48 symmetry adapted basis functions of A1  symmetry.
 There are    13 symmetry adapted basis functions of A2  symmetry.
 There are    27 symmetry adapted basis functions of B1  symmetry.
 There are    27 symmetry adapted basis functions of B2  symmetry.
   115 basis functions,   184 primitive gaussians,   142 cartesian basis functions
     9 alpha electrons        9 beta electrons
       nuclear repulsion energy        20.7294196996 Hartrees.
 NAtoms=    2 NActive=    2 NUniq=    2 SFac= 1.00D+00 NAtFMM=   60 NAOKFM=F Big=F
 Integral buffers will be    131072 words long.
 Raffenetti 2 integral format.
 Two-electron integral symmetry is turned on.
 One-electron integrals computed using PRISM.
   4 Symmetry operations used in ECPInt.
 ECPInt:  NShTT=     630 NPrTT=    1480 LenC2=     629 LenP2D=    1433.
 LDataN:  DoStor=T MaxTD1= 8 Len=  415
 NBasis=   115 RedAO= T EigKep=  2.12D-03  NBF=    48    13    27    27
 NBsUse=   115 1.00D-06 EigRej= -1.00D+00 NBFU=    48    13    27    27
 Defaulting to unpruned grid for atomic number  56.
 ExpMin= 1.62D-02 ExpMax= 1.17D+05 ExpMxC= 1.13D+03 IAcc=3 IRadAn=         5 AccDes= 0.00D+00
 Harris functional with IExCor= 1009 and IRadAn=       5 diagonalized for initial guess.
 HarFok:  IExCor= 1009 AccDes= 0.00D+00 IRadAn=         5 IDoV= 1 UseB2=F ITyADJ=14
 ICtDFT=  3500011 ScaDFX=  1.000000  1.000000  1.000000  1.000000
 Defaulting to unpruned grid for atomic number  56.
 FoFCou: FMM=F IPFlag=           0 FMFlag=      100000 FMFlg1=           0
         NFxFlg=           0 DoJE=T BraDBF=F KetDBF=T FulRan=T
         wScrn=  0.000000 ICntrl=       500 IOpCl=  0 I1Cent=   200000004 NGrid=           0
         NMat0=    1 NMatS0=      1 NMatT0=    0 NMatD0=    1 NMtDS0=    0 NMtDT0=    0
 Petite list used in FoFCou.
 Initial guess orbital symmetries:
       Occupied  (SG) (SG) (SG) (PI) (PI) (SG) (PI) (PI) (SG)
       Virtual   (SG) (DLTA) (DLTA) (PI) (PI) (SG) (PI) (PI) (SG)
                 (SG) (PI) (PI) (SG) (PI) (PI) (DLTA) (DLTA) (SG)
                 (DLTA) (DLTA) (SG) (PHI) (PHI) (SG) (PI) (PI)
                 (PI) (PI) (SG) (PI) (PI) (SG) (PI) (PI) (DLTA)
                 (DLTA) (PHI) (PHI) (SG) (SG) (DLTA) (DLTA) (PI)
                 (PI) (SG) (DLTA) (DLTA) (SG) (PI) (PI) (SG) (PI)
                 (PI) (DLTA) (DLTA) (PHI) (PHI) (SG) (PI) (PI)
                 (SG) (PHI) (PHI) (DLTA) (DLTA) (PI) (PI) (SG)
                 (SG) (DLTA) (DLTA) (PI) (PI) (SG) (PI) (PI) (SG)
                 (DLTA) (DLTA) (PI) (PI) (PHI) (PHI) (SG) (?A)
                 (?A) (PHI) (PHI) (DLTA) (DLTA) (PI) (PI) (SG)
                 (DLTA) (DLTA) (PI) (PI) (SG) (SG) (SG) (PI) (PI)
                 (SG) (SG) (SG) (SG)
 The electronic state of the initial guess is 1-SG.
 Keep J ints in memory in symmetry-blocked form, NReq=31330906.
 Requested convergence on RMS density matrix=1.00D-08 within 128 cycles.
 Requested convergence on MAX density matrix=1.00D-06.
 Requested convergence on             energy=1.00D-06.
 No special actions if energy rises.
 Defaulting to unpruned grid for atomic number  56.
 Defaulting to unpruned grid for atomic number  56.
 Defaulting to unpruned grid for atomic number  56.
 Defaulting to unpruned grid for atomic number  56.
 Defaulting to unpruned grid for atomic number  56.
 Defaulting to unpruned grid for atomic number  56.
 Defaulting to unpruned grid for atomic number  56.
 Defaulting to unpruned grid for atomic number  56.
 SCF Done:  E(RTPSS-TPSS) =  -100.781356303     A.U. after   14 cycles
            NFock= 14  Conv=0.11D-08     -V/T= 2.2185

 **********************************************************************

            Population analysis using the SCF Density.

 **********************************************************************

 Orbital symmetries:
       Occupied  (SG) (SG) (SG) (PI) (PI) (SG) (PI) (PI) (SG)
       Virtual   (SG) (PI) (PI) (DLTA) (DLTA) (SG) (SG) (PI) (PI)
                 (SG) (PI) (PI) (SG) (DLTA) (DLTA) (PI) (PI) (SG)
                 (SG) (PHI) (PHI) (DLTA) (DLTA) (SG) (PI) (PI)
                 (PI) (PI) (SG) (PI) (PI) (SG) (PHI) (PHI) (PI)
                 (PI) (DLTA) (DLTA) (SG) (SG) (DLTA) (DLTA) (PI)
                 (PI) (SG) (SG) (DLTA) (DLTA) (PI) (PI) (SG) (PI)
                 (PI) (PHI) (PHI) (DLTA) (DLTA) (SG) (PI) (PI)
                 (SG) (PHI) (PHI) (DLTA) (DLTA) (PI) (PI) (SG)
                 (SG) (DLTA) (DLTA) (PI) (PI) (SG) (PI) (PI) (SG)
                 (DLTA) (DLTA) (PI) (PI) (PHI) (PHI) (SG) (?A)
                 (?A) (PHI) (PHI) (DLTA) (DLTA) (PI) (PI) (SG)
                 (DLTA) (DLTA) (PI) (PI) (SG) (SG) (SG) (PI) (PI)
                 (SG) (SG) (SG) (SG)
 The electronic state is 1-SG.
 Alpha  occ. eigenvalues --  -18.72870  -1.18891  -0.73785  -0.62708  -0.62708
 Alpha  occ. eigenvalues --   -0.53955  -0.14163  -0.14163  -0.12709
 Alpha virt. eigenvalues --   -0.06393  -0.01459  -0.01459  -0.00609  -0.00609
 Alpha virt. eigenvalues --   -0.00100   0.03133   0.03729   0.03729   0.04742
 Alpha virt. eigenvalues --    0.07538   0.07538   0.11478   0.12521   0.12521
 Alpha virt. eigenvalues --    0.13069   0.13069   0.17688   0.22097   0.22201
 Alpha virt. eigenvalues --    0.22201   0.22768   0.22768   0.26079   0.26898
 Alpha virt. eigenvalues --    0.26898   0.35282   0.35282   0.40537   0.46704
 Alpha virt. eigenvalues --    0.46704   0.48294   0.70760   0.70760   0.71260
 Alpha virt. eigenvalues --    0.71260   0.71698   0.71698   0.81711   0.83073
 Alpha virt. eigenvalues --    0.86942   0.86945   0.92336   0.92336   0.95594
 Alpha virt. eigenvalues --    1.07662   1.16709   1.16709   1.39670   1.39670
 Alpha virt. eigenvalues --    1.50244   1.54006   1.54006   1.93581   1.93581
 Alpha virt. eigenvalues --    1.94584   1.94596   2.04046   2.05791   2.05791
 Alpha virt. eigenvalues --    2.09702   3.22151   3.22151   3.24184   3.24185
 Alpha virt. eigenvalues --    3.32777   3.32777   3.37574   3.45318   3.89883
 Alpha virt. eigenvalues --    3.89883   4.08446   4.08446   4.35790   5.13966
 Alpha virt. eigenvalues --    5.13966   5.44827   9.08064   9.08064   9.08094
 Alpha virt. eigenvalues --    9.08094   9.08907   9.08907   9.09238   9.10165
 Alpha virt. eigenvalues --    9.10166  11.08334  11.08334  11.09509  11.09510
 Alpha virt. eigenvalues --   11.15567  11.15567  11.23793  12.05819  12.05819
 Alpha virt. eigenvalues --   12.19181  12.19181  12.33385  12.88970  26.43362
 Alpha virt. eigenvalues --   27.65569  27.65569  34.14546  47.17641 254.12665
 Alpha virt. eigenvalues --  257.43626
          Condensed to atoms (all electrons):
               1          2
     1  Ba   8.948109   0.227704
     2  O    0.227704   8.596483
 Mulliken charges:
               1
     1  Ba   0.824187
     2  O   -0.824187
 Sum of Mulliken charges =  -0.00000
 Mulliken charges with hydrogens summed into heavy atoms:
               1
     1  Ba   0.824187
     2  O   -0.824187
 Electronic spatial extent (au):  <R**2>=            166.8501
 Charge=             -0.0000 electrons
 Dipole moment (field-independent basis, Debye):
    X=              0.0000    Y=              0.0000    Z=              8.0420  Tot=              8.0420
 Quadrupole moment (field-independent basis, Debye-Ang):
   XX=            -26.4414   YY=            -26.4414   ZZ=            -45.7060
   XY=              0.0000   XZ=              0.0000   YZ=              0.0000
 Traceless Quadrupole moment (field-independent basis, Debye-Ang):
   XX=              6.4215   YY=              6.4215   ZZ=            -12.8430
   XY=              0.0000   XZ=              0.0000   YZ=              0.0000
 Octapole moment (field-independent basis, Debye-Ang**2):
  XXX=              0.0000  YYY=              0.0000  ZZZ=             42.0026  XYY=              0.0000
  XXY=              0.0000  XXZ=              9.4860  XZZ=              0.0000  YZZ=              0.0000
  YYZ=              9.4860  XYZ=              0.0000
 Hexadecapole moment (field-independent basis, Debye-Ang**3):
 XXXX=            -37.4430 YYYY=            -37.4430 ZZZZ=           -263.8937 XXXY=              0.0000
 XXXZ=              0.0000 YYYX=              0.0000 YYYZ=              0.0000 ZZZX=              0.0000
 ZZZY=              0.0000 XXYY=            -12.4810 XXZZ=            -44.2594 YYZZ=            -44.2594
 XXYZ=              0.0000 YYXZ=              0.0000 ZZXY=              0.0000
 N-N= 2.072941969962D+01 E-N=-2.715076725721D+02  KE= 8.270835834363D+01
 Symmetry A1   KE= 7.170341676586D+01
 Symmetry A2   KE= 5.970278017541D-47
 Symmetry B1   KE= 5.502470788888D+00
 Symmetry B2   KE= 5.502470788888D+00
   4 Symmetry operations used in ECPInt.
 ECPInt:  NShTT=     630 NPrTT=    1480 LenC2=     629 LenP2D=    1433.
 LDataN:  DoStor=T MaxTD1= 9 Len=  602
 Calling FoFJK, ICntrl=      2527 FMM=F ISym2X=1 I1Cent= 0 IOpClX= 0 NMat=1 NMatS=1 NMatT=0.
 Defaulting to unpruned grid for atomic number  56.
 Defaulting to unpruned grid for atomic number  56.
 Defaulting to unpruned grid for atomic number  56.
 Defaulting to unpruned grid for atomic number  56.
 Defaulting to unpruned grid for atomic number  56.
 Defaulting to unpruned grid for atomic number  56.
 Defaulting to unpruned grid for atomic number  56.
 Defaulting to unpruned grid for atomic number  56.
 ***** Axes restored to original set *****
 -------------------------------------------------------------------
 Center     Atomic                   Forces (Hartrees/Bohr)
 Number     Number              X              Y              Z
 -------------------------------------------------------------------
      1       56          -0.000000000   -0.000000000    0.018831092
      2        8          -0.000000000   -0.000000000   -0.018831092
 -------------------------------------------------------------------
 Cartesian Forces:  Max     0.018831092 RMS     0.010872136

 GradGradGradGradGradGradGradGradGradGradGradGradGradGradGradGradGradGrad
 Berny optimization.
 FormGI is forming the generalized inverse of G from B-inverse, IUseBI=4.
 Internal  Forces:  Max     0.018831092 RMS     0.018831092
 Search for a local minimum.
 Step number   1 out of a maximum of   20
 All quantities printed in internal units (Hartrees-Bohrs-Radians)
 Mixed Optimization -- RFO/linear search
 Second derivative matrix not updated -- first step.
 The second derivative matrix:
                          R1
           R1           0.17687
 ITU=  0
     Eigenvalues ---    0.17687
 RFO step:  Lambda=-1.98268534D-03 EMin= 1.76870725D-01
 Linear search not attempted -- first point.
 Iteration  1 RMS(Cart)=  0.07444976 RMS(Int)=  0.00000000
 Iteration  2 RMS(Cart)=  0.00000000 RMS(Int)=  0.00000000
 ClnCor:  largest displacement from symmetrization is 0.00D+00 for atom     0.
 Variable       Old X    -DE/DX   Delta X   Delta X   Delta X     New X
                                 (Linear)    (Quad)   (Total)
    R1        3.85925  -0.01883   0.00000  -0.10529  -0.10529   3.75396
         Item               Value     Threshold  Converged?
 Maximum Force            0.018831     0.000450     NO 
 RMS     Force            0.018831     0.000300     NO 
 Maximum Displacement     0.052644     0.001800     NO 
 RMS     Displacement     0.074450     0.001200     NO 
 Predicted change in Energy=-1.002332D-03
 GradGradGradGradGradGradGradGradGradGradGradGradGradGradGradGradGradGrad

                          Input orientation:                          
 ---------------------------------------------------------------------
 Center     Atomic      Atomic             Coordinates (Angstroms)
 Number     Number       Type             X           Y           Z
 ---------------------------------------------------------------------
      1         56           0        8.500000    8.500000    7.506745
      2          8           0        8.500000    8.500000    9.493255
 ---------------------------------------------------------------------
 Stoichiometry    BaO
 Framework group  C*V[C*(OBa)]
 Deg. of freedom     1
 Full point group                 C*V     NOp   4
 Largest Abelian subgroup         C2V     NOp   4
 Largest concise Abelian subgroup C1      NOp   1
                         Standard orientation:                         
 ---------------------------------------------------------------------
 Center     Atomic      Atomic             Coordinates (Angstroms)
 Number     Number       Type             X           Y           Z
 ---------------------------------------------------------------------
      1         56           0        0.000000    0.000000    0.248314
      2          8           0        0.000000    0.000000   -1.738197
 ---------------------------------------------------------------------
 Rotational constants (GHZ):           0.0000000           8.9353535           8.9353535
 Standard basis: def2QZVPP (5D, 7F)
 There are    62 symmetry adapted cartesian basis functions of A1  symmetry.
 There are    14 symmetry adapted cartesian basis functions of A2  symmetry.
 There are    33 symmetry adapted cartesian basis functions of B1  symmetry.
 There are    33 symmetry adapted cartesian basis functions of B2  symmetry.
 There are    48 symmetry adapted basis functions of A1  symmetry.
 There are    13 symmetry adapted basis functions of A2  symmetry.
 There are    27 symmetry adapted basis functions of B1  symmetry.
 There are    27 symmetry adapted basis functions of B2  symmetry.
   115 basis functions,   184 primitive gaussians,   142 cartesian basis functions
     9 alpha electrons        9 beta electrons
       nuclear repulsion energy        21.3108204838 Hartrees.
 NAtoms=    2 NActive=    2 NUniq=    2 SFac= 1.00D+00 NAtFMM=   60 NAOKFM=F Big=F
 Integral buffers will be    131072 words long.
 Raffenetti 2 integral format.
 Two-electron integral symmetry is turned on.
 One-electron integrals computed using PRISM.
   4 Symmetry operations used in ECPInt.
 ECPInt:  NShTT=     630 NPrTT=    1480 LenC2=     631 LenP2D=    1436.
 LDataN:  DoStor=T MaxTD1= 8 Len=  415
 NBasis=   115 RedAO= T EigKep=  1.97D-03  NBF=    48    13    27    27
 NBsUse=   115 1.00D-06 EigRej= -1.00D+00 NBFU=    48    13    27    27
 Defaulting to unpruned grid for atomic number  56.
 Initial guess from the checkpoint file:  "/data/hutter/SMG16/TPSS/Gau-91901.chk"
 B after Tr=     0.000000    0.000000    0.000000
         Rot=    1.000000    0.000000    0.000000    0.000000 Ang=   0.00 deg.
 Initial guess orbital symmetries:
       Occupied  (SG) (SG) (SG) (PI) (PI) (SG) (PI) (PI) (SG)
       Virtual   (SG) (PI) (PI) (DLTA) (DLTA) (SG) (SG) (PI) (PI)
                 (SG) (PI) (PI) (SG) (DLTA) (DLTA) (PI) (PI) (SG)
                 (SG) (PHI) (PHI) (DLTA) (DLTA) (SG) (PI) (PI)
                 (PI) (PI) (SG) (PI) (PI) (SG) (PHI) (PHI) (PI)
                 (PI) (DLTA) (DLTA) (SG) (SG) (DLTA) (DLTA) (PI)
                 (PI) (SG) (SG) (DLTA) (DLTA) (PI) (PI) (SG) (PI)
                 (PI) (PHI) (PHI) (DLTA) (DLTA) (SG) (PI) (PI)
                 (SG) (PHI) (PHI) (DLTA) (DLTA) (PI) (PI) (SG)
                 (SG) (DLTA) (DLTA) (PI) (PI) (SG) (PI) (PI) (SG)
                 (DLTA) (DLTA) (PI) (PI) (PHI) (PHI) (SG) (?A)
                 (?A) (PHI) (PHI) (DLTA) (DLTA) (PI) (PI) (SG)
                 (DLTA) (DLTA) (PI) (PI) (SG) (SG) (SG) (PI) (PI)
                 (SG) (SG) (SG) (SG)
 ExpMin= 1.62D-02 ExpMax= 1.17D+05 ExpMxC= 1.13D+03 IAcc=3 IRadAn=         5 AccDes= 0.00D+00
 Harris functional with IExCor= 1009 and IRadAn=       5 diagonalized for initial guess.
 HarFok:  IExCor= 1009 AccDes= 0.00D+00 IRadAn=         5 IDoV= 1 UseB2=F ITyADJ=14
 ICtDFT=  3500011 ScaDFX=  1.000000  1.000000  1.000000  1.000000
 Defaulting to unpruned grid for atomic number  56.
 FoFCou: FMM=F IPFlag=           0 FMFlag=      100000 FMFlg1=           0
         NFxFlg=           0 DoJE=T BraDBF=F KetDBF=T FulRan=T
         wScrn=  0.000000 ICntrl=       500 IOpCl=  0 I1Cent=   200000004 NGrid=           0
         NMat0=    1 NMatS0=      1 NMatT0=    0 NMatD0=    1 NMtDS0=    0 NMtDT0=    0
 Petite list used in FoFCou.
 Keep J ints in memory in symmetry-blocked form, NReq=31330963.
 Requested convergence on RMS density matrix=1.00D-08 within 128 cycles.
 Requested convergence on MAX density matrix=1.00D-06.
 Requested convergence on             energy=1.00D-06.
 No special actions if energy rises.
 Defaulting to unpruned grid for atomic number  56.
 Defaulting to unpruned grid for atomic number  56.
 Defaulting to unpruned grid for atomic number  56.
 Defaulting to unpruned grid for atomic number  56.
 Defaulting to unpruned grid for atomic number  56.
 Defaulting to unpruned grid for atomic number  56.
 Defaulting to unpruned grid for atomic number  56.
 Defaulting to unpruned grid for atomic number  56.
 SCF Done:  E(RTPSS-TPSS) =  -100.782201424     A.U. after   12 cycles
            NFock= 12  Conv=0.45D-08     -V/T= 2.2173
   4 Symmetry operations used in ECPInt.
 ECPInt:  NShTT=     630 NPrTT=    1480 LenC2=     631 LenP2D=    1436.
 LDataN:  DoStor=T MaxTD1= 9 Len=  602
 Calling FoFJK, ICntrl=      2527 FMM=F ISym2X=1 I1Cent= 0 IOpClX= 0 NMat=1 NMatS=1 NMatT=0.
 Defaulting to unpruned grid for atomic number  56.
 Defaulting to unpruned grid for atomic number  56.
 Defaulting to unpruned grid for atomic number  56.
 Defaulting to unpruned grid for atomic number  56.
 Defaulting to unpruned grid for atomic number  56.
 Defaulting to unpruned grid for atomic number  56.
 Defaulting to unpruned grid for atomic number  56.
 Defaulting to unpruned grid for atomic number  56.
 ***** Axes restored to original set *****
 -------------------------------------------------------------------
 Center     Atomic                   Forces (Hartrees/Bohr)
 Number     Number              X              Y              Z
 -------------------------------------------------------------------
      1       56          -0.000000000   -0.000000000   -0.003680063
      2        8          -0.000000000   -0.000000000    0.003680063
 -------------------------------------------------------------------
 Cartesian Forces:  Max     0.003680063 RMS     0.002124685

 GradGradGradGradGradGradGradGradGradGradGradGradGradGradGradGradGradGrad
 Berny optimization.
 Using GEDIIS/GDIIS optimizer.
 Internal  Forces:  Max     0.003680063 RMS     0.003680063
 Search for a local minimum.
 Step number   2 out of a maximum of   20
 All quantities printed in internal units (Hartrees-Bohrs-Radians)
 Mixed Optimization -- RFO/linear search
 Update second derivatives using D2CorX and points    1    2
 DE= -8.45D-04 DEPred=-1.00D-03 R= 8.43D-01
 TightC=F SS=  1.41D+00  RLast= 1.05D-01 DXNew= 5.0454D-01 3.1586D-01
 Trust test= 8.43D-01 RLast= 1.05D-01 DXMaxT set to 3.16D-01
 The second derivative matrix:
                          R1
           R1           0.21381
 ITU=  1  0
 Use linear search instead of GDIIS.
     Eigenvalues ---    0.21381
 RFO step:  Lambda= 0.00000000D+00 EMin= 2.13805808D-01
 Quartic linear search produced a step of -0.14809.
 Iteration  1 RMS(Cart)=  0.01102522 RMS(Int)=  0.00000000
 Iteration  2 RMS(Cart)=  0.00000000 RMS(Int)=  0.00000000
 ClnCor:  largest displacement from symmetrization is 0.00D+00 for atom     0.
 Variable       Old X    -DE/DX   Delta X   Delta X   Delta X     New X
                                 (Linear)    (Quad)   (Total)
    R1        3.75396   0.00368   0.01559   0.00000   0.01559   3.76955
         Item               Value     Threshold  Converged?
 Maximum Force            0.003680     0.000450     NO 
 RMS     Force            0.003680     0.000300     NO 
 Maximum Displacement     0.007796     0.001800     NO 
 RMS     Displacement     0.011025     0.001200     NO 
 Predicted change in Energy=-3.139033D-05
 GradGradGradGradGradGradGradGradGradGradGradGradGradGradGradGradGradGrad

                          Input orientation:                          
 ---------------------------------------------------------------------
 Center     Atomic      Atomic             Coordinates (Angstroms)
 Number     Number       Type             X           Y           Z
 ---------------------------------------------------------------------
      1         56           0        8.500000    8.500000    7.502619
      2          8           0        8.500000    8.500000    9.497381
 ---------------------------------------------------------------------
 Stoichiometry    BaO
 Framework group  C*V[C*(OBa)]
 Deg. of freedom     1
 Full point group                 C*V     NOp   4
 Largest Abelian subgroup         C2V     NOp   4
 Largest concise Abelian subgroup C1      NOp   1
                         Standard orientation:                         
 ---------------------------------------------------------------------
 Center     Atomic      Atomic             Coordinates (Angstroms)
 Number     Number       Type             X           Y           Z
 ---------------------------------------------------------------------
      1         56           0        0.000000    0.000000    0.249345
      2          8           0        0.000000    0.000000   -1.745417
 ---------------------------------------------------------------------
 Rotational constants (GHZ):           0.0000000           8.8615877           8.8615877
 Standard basis: def2QZVPP (5D, 7F)
 There are    62 symmetry adapted cartesian basis functions of A1  symmetry.
 There are    14 symmetry adapted cartesian basis functions of A2  symmetry.
 There are    33 symmetry adapted cartesian basis functions of B1  symmetry.
 There are    33 symmetry adapted cartesian basis functions of B2  symmetry.
 There are    48 symmetry adapted basis functions of A1  symmetry.
 There are    13 symmetry adapted basis functions of A2  symmetry.
 There are    27 symmetry adapted basis functions of B1  symmetry.
 There are    27 symmetry adapted basis functions of B2  symmetry.
   115 basis functions,   184 primitive gaussians,   142 cartesian basis functions
     9 alpha electrons        9 beta electrons
       nuclear repulsion energy        21.2226724571 Hartrees.
 NAtoms=    2 NActive=    2 NUniq=    2 SFac= 1.00D+00 NAtFMM=   60 NAOKFM=F Big=F
 Integral buffers will be    131072 words long.
 Raffenetti 2 integral format.
 Two-electron integral symmetry is turned on.
 One-electron integrals computed using PRISM.
   4 Symmetry operations used in ECPInt.
 ECPInt:  NShTT=     630 NPrTT=    1480 LenC2=     631 LenP2D=    1436.
 LDataN:  DoStor=T MaxTD1= 8 Len=  415
 NBasis=   115 RedAO= T EigKep=  1.99D-03  NBF=    48    13    27    27
 NBsUse=   115 1.00D-06 EigRej= -1.00D+00 NBFU=    48    13    27    27
 Defaulting to unpruned grid for atomic number  56.
 Initial guess from the checkpoint file:  "/data/hutter/SMG16/TPSS/Gau-91901.chk"
 B after Tr=     0.000000    0.000000   -0.000000
         Rot=    1.000000    0.000000    0.000000    0.000000 Ang=   0.00 deg.
 Initial guess orbital symmetries:
       Occupied  (SG) (SG) (SG) (PI) (PI) (SG) (PI) (PI) (SG)
       Virtual   (SG) (PI) (PI) (DLTA) (DLTA) (SG) (SG) (PI) (PI)
                 (SG) (PI) (PI) (SG) (DLTA) (DLTA) (PI) (PI) (SG)
                 (PHI) (PHI) (SG) (DLTA) (DLTA) (SG) (PI) (PI)
                 (PI) (PI) (SG) (PI) (PI) (SG) (PHI) (PHI) (PI)
                 (PI) (DLTA) (DLTA) (SG) (SG) (DLTA) (DLTA) (PI)
                 (PI) (SG) (SG) (DLTA) (DLTA) (PI) (PI) (SG) (PI)
                 (PI) (PHI) (PHI) (DLTA) (DLTA) (SG) (PI) (PI)
                 (SG) (PHI) (PHI) (DLTA) (DLTA) (PI) (PI) (SG)
                 (SG) (DLTA) (DLTA) (PI) (PI) (SG) (PI) (PI) (SG)
                 (PI) (PI) (DLTA) (DLTA) (PHI) (PHI) (SG) (?A)
                 (?A) (PHI) (PHI) (DLTA) (DLTA) (PI) (PI) (SG)
                 (DLTA) (DLTA) (PI) (PI) (SG) (SG) (SG) (PI) (PI)
                 (SG) (SG) (SG) (SG)
 Keep J ints in memory in symmetry-blocked form, NReq=31330963.
 Requested convergence on RMS density matrix=1.00D-08 within 128 cycles.
 Requested convergence on MAX density matrix=1.00D-06.
 Requested convergence on             energy=1.00D-06.
 No special actions if energy rises.
 Defaulting to unpruned grid for atomic number  56.
 Defaulting to unpruned grid for atomic number  56.
 Defaulting to unpruned grid for atomic number  56.
 Defaulting to unpruned grid for atomic number  56.
 Defaulting to unpruned grid for atomic number  56.
 Defaulting to unpruned grid for atomic number  56.
 Defaulting to unpruned grid for atomic number  56.
 Defaulting to unpruned grid for atomic number  56.
 Rare condition: small coef for last iteration:  0.000D+00
 SCF Done:  E(RTPSS-TPSS) =  -100.782229896     A.U. after    8 cycles
            NFock=  8  Conv=0.36D-08     -V/T= 2.2175
   4 Symmetry operations used in ECPInt.
 ECPInt:  NShTT=     630 NPrTT=    1480 LenC2=     631 LenP2D=    1436.
 LDataN:  DoStor=T MaxTD1= 9 Len=  602
 Calling FoFJK, ICntrl=      2527 FMM=F ISym2X=1 I1Cent= 0 IOpClX= 0 NMat=1 NMatS=1 NMatT=0.
 Defaulting to unpruned grid for atomic number  56.
 Defaulting to unpruned grid for atomic number  56.
 Defaulting to unpruned grid for atomic number  56.
 Defaulting to unpruned grid for atomic number  56.
 Defaulting to unpruned grid for atomic number  56.
 Defaulting to unpruned grid for atomic number  56.
 Defaulting to unpruned grid for atomic number  56.
 Defaulting to unpruned grid for atomic number  56.
 ***** Axes restored to original set *****
 -------------------------------------------------------------------
 Center     Atomic                   Forces (Hartrees/Bohr)
 Number     Number              X              Y              Z
 -------------------------------------------------------------------
      1       56          -0.000000000   -0.000000000    0.000005924
      2        8          -0.000000000   -0.000000000   -0.000005924
 -------------------------------------------------------------------
 Cartesian Forces:  Max     0.000005924 RMS     0.000003420

 GradGradGradGradGradGradGradGradGradGradGradGradGradGradGradGradGradGrad
 Berny optimization.
 Using GEDIIS/GDIIS optimizer.
 Internal  Forces:  Max     0.000005924 RMS     0.000005924
 Search for a local minimum.
 Step number   3 out of a maximum of   20
 All quantities printed in internal units (Hartrees-Bohrs-Radians)
 Mixed Optimization -- En-DIIS/RFO-DIIS
 Update second derivatives using D2CorX and points    2    3
 DE= -2.85D-05 DEPred=-3.14D-05 R= 9.07D-01
 TightC=F SS=  1.41D+00  RLast= 1.56D-02 DXNew= 5.3122D-01 4.6776D-02
 Trust test= 9.07D-01 RLast= 1.56D-02 DXMaxT set to 3.16D-01
 The second derivative matrix:
                          R1
           R1           0.23640
 ITU=  1  1
 Use linear search instead of GDIIS.
     Eigenvalues ---    0.23640
 RFO step:  Lambda= 0.00000000D+00 EMin= 2.36402170D-01
 Quartic linear search produced a step of -0.00164.
 Iteration  1 RMS(Cart)=  0.00001804 RMS(Int)=  0.00000000
 Iteration  2 RMS(Cart)=  0.00000000 RMS(Int)=  0.00000000
 ClnCor:  largest displacement from symmetrization is 0.00D+00 for atom     0.
 Variable       Old X    -DE/DX   Delta X   Delta X   Delta X     New X
                                 (Linear)    (Quad)   (Total)
    R1        3.76955  -0.00001  -0.00003  -0.00000  -0.00003   3.76953
         Item               Value     Threshold  Converged?
 Maximum Force            0.000006     0.000450     YES
 RMS     Force            0.000006     0.000300     YES
 Maximum Displacement     0.000013     0.001800     YES
 RMS     Displacement     0.000018     0.001200     YES
 Predicted change in Energy=-7.419915D-11
 Optimization completed.
    -- Stationary point found.
                           ----------------------------
                           !   Optimized Parameters   !
                           ! (Angstroms and Degrees)  !
 --------------------------                            --------------------------
 ! Name  Definition              Value          Derivative Info.                !
 --------------------------------------------------------------------------------
 ! R1    R(1,2)                  1.9948         -DE/DX =    0.0                 !
 --------------------------------------------------------------------------------
 GradGradGradGradGradGradGradGradGradGradGradGradGradGradGradGradGradGrad

                          Input orientation:                          
 ---------------------------------------------------------------------
 Center     Atomic      Atomic             Coordinates (Angstroms)
 Number     Number       Type             X           Y           Z
 ---------------------------------------------------------------------
      1         56           0        8.500000    8.500000    7.502619
      2          8           0        8.500000    8.500000    9.497381
 ---------------------------------------------------------------------
 Stoichiometry    BaO
 Framework group  C*V[C*(OBa)]
 Deg. of freedom     1
 Full point group                 C*V     NOp   4
 Largest Abelian subgroup         C2V     NOp   4
 Largest concise Abelian subgroup C1      NOp   1
                         Standard orientation:                         
 ---------------------------------------------------------------------
 Center     Atomic      Atomic             Coordinates (Angstroms)
 Number     Number       Type             X           Y           Z
 ---------------------------------------------------------------------
      1         56           0        0.000000    0.000000    0.249345
      2          8           0        0.000000    0.000000   -1.745417
 ---------------------------------------------------------------------
 Rotational constants (GHZ):           0.0000000           8.8615877           8.8615877

 **********************************************************************

            Population analysis using the SCF Density.

 **********************************************************************

 Orbital symmetries:
       Occupied  (SG) (SG) (SG) (PI) (PI) (SG) (PI) (PI) (SG)
       Virtual   (SG) (PI) (PI) (DLTA) (DLTA) (SG) (SG) (PI) (PI)
                 (SG) (PI) (PI) (SG) (DLTA) (DLTA) (PI) (PI) (SG)
                 (PHI) (PHI) (SG) (DLTA) (DLTA) (SG) (PI) (PI)
                 (PI) (PI) (SG) (PI) (PI) (SG) (PHI) (PHI) (PI)
                 (PI) (DLTA) (DLTA) (SG) (SG) (DLTA) (DLTA) (PI)
                 (PI) (SG) (SG) (DLTA) (DLTA) (PI) (PI) (SG) (PI)
                 (PI) (PHI) (PHI) (DLTA) (DLTA) (SG) (PI) (PI)
                 (SG) (PHI) (PHI) (DLTA) (DLTA) (PI) (PI) (SG)
                 (SG) (DLTA) (DLTA) (PI) (PI) (SG) (PI) (PI) (SG)
                 (PI) (PI) (DLTA) (DLTA) (PHI) (PHI) (SG) (?A)
                 (?A) (PHI) (PHI) (DLTA) (DLTA) (PI) (PI) (SG)
                 (DLTA) (DLTA) (PI) (PI) (SG) (SG) (SG) (PI) (PI)
                 (SG) (SG) (SG) (SG)
 The electronic state is 1-SG.
 Alpha  occ. eigenvalues --  -18.72953  -1.18407  -0.74832  -0.62160  -0.62160
 Alpha  occ. eigenvalues --   -0.52970  -0.14780  -0.14780  -0.12862
 Alpha virt. eigenvalues --   -0.06160  -0.01249  -0.01249  -0.00299  -0.00299
 Alpha virt. eigenvalues --    0.00164   0.03258   0.03987   0.03987   0.04929
 Alpha virt. eigenvalues --    0.07671   0.07671   0.11475   0.12753   0.12753
 Alpha virt. eigenvalues --    0.13440   0.13440   0.18188   0.22403   0.22403
 Alpha virt. eigenvalues --    0.22408   0.22942   0.22942   0.26321   0.27141
 Alpha virt. eigenvalues --    0.27141   0.35676   0.35676   0.40364   0.46639
 Alpha virt. eigenvalues --    0.46639   0.48514   0.71269   0.71269   0.71933
 Alpha virt. eigenvalues --    0.71933   0.72072   0.72072   0.81450   0.84900
 Alpha virt. eigenvalues --    0.87375   0.87379   0.92705   0.92705   0.96754
 Alpha virt. eigenvalues --    1.07699   1.16616   1.16616   1.41807   1.41807
 Alpha virt. eigenvalues --    1.50534   1.54099   1.54099   1.94114   1.94114
 Alpha virt. eigenvalues --    1.95268   1.95274   2.04796   2.05815   2.05815
 Alpha virt. eigenvalues --    2.18458   3.21443   3.21443   3.23926   3.23926
 Alpha virt. eigenvalues --    3.33159   3.33159   3.38367   3.48852   3.89738
 Alpha virt. eigenvalues --    3.89738   4.09378   4.09378   4.40615   5.13901
 Alpha virt. eigenvalues --    5.13901   5.49683   9.07120   9.07120   9.07136
 Alpha virt. eigenvalues --    9.07136   9.08109   9.08109   9.08917   9.09587
 Alpha virt. eigenvalues --    9.09588  11.07887  11.07887  11.09288  11.09288
 Alpha virt. eigenvalues --   11.16036  11.16036  11.26274  12.05733  12.05733
 Alpha virt. eigenvalues --   12.19768  12.19768  12.36531  12.89510  26.46105
 Alpha virt. eigenvalues --   27.73071  27.73071  34.43171  47.19029 254.14166
 Alpha virt. eigenvalues --  257.45377
          Condensed to atoms (all electrons):
               1          2
     1  Ba   8.993264   0.190999
     2  O    0.190999   8.624738
 Mulliken charges:
               1
     1  Ba   0.815737
     2  O   -0.815737
 Sum of Mulliken charges =   0.00000
 Mulliken charges with hydrogens summed into heavy atoms:
               1
     1  Ba   0.815737
     2  O   -0.815737
 Electronic spatial extent (au):  <R**2>=            161.7675
 Charge=              0.0000 electrons
 Dipole moment (field-independent basis, Debye):
    X=              0.0000    Y=              0.0000    Z=              7.7077  Tot=              7.7077
 Quadrupole moment (field-independent basis, Debye-Ang):
   XX=            -26.3421   YY=            -26.3421   ZZ=            -44.8494
   XY=              0.0000   XZ=              0.0000   YZ=              0.0000
 Traceless Quadrupole moment (field-independent basis, Debye-Ang):
   XX=              6.1691   YY=              6.1691   ZZ=            -12.3382
   XY=              0.0000   XZ=              0.0000   YZ=              0.0000
 Octapole moment (field-independent basis, Debye-Ang**2):
  XXX=              0.0000  YYY=              0.0000  ZZZ=             39.8157  XYY=              0.0000
  XXY=              0.0000  XXZ=              9.1345  XZZ=              0.0000  YZZ=              0.0000
  YYZ=              9.1345  XYZ=              0.0000
 Hexadecapole moment (field-independent basis, Debye-Ang**3):
 XXXX=            -36.8120 YYYY=            -36.8120 ZZZZ=           -250.9182 XXXY=              0.0000
 XXXZ=              0.0000 YYYX=              0.0000 YYYZ=              0.0000 ZZZX=              0.0000
 ZZZY=              0.0000 XXYY=            -12.2707 XXZZ=            -42.4038 YYZZ=            -42.4038
 XXYZ=              0.0000 YYXZ=              0.0000 ZZXY=              0.0000
 N-N= 2.122267245712D+01 E-N=-2.725529262530D+02  KE= 8.277804413102D+01
 Symmetry A1   KE= 7.173658617359D+01
 Symmetry A2   KE= 3.049454927883D-47
 Symmetry B1   KE= 5.520728978717D+00
 Symmetry B2   KE= 5.520728978717D+00
 Unable to Open any file for archive entry.
 1\1\GINC-TCOPT10\FOpt\RTPSSTPSS\def2QZVPP\Ba1O1\HUTTER\31-Jul-2021\0\\
 #N RTPSSTPSS/Def2QZVPP scf=tight Int(Grid=ultrafine) OPT FREQ\\Mol job
  1\\0,1\Ba,8.5,8.5,7.5026190868\O,8.5,8.5,9.4973809132\\Version=ES64L-
 G16RevC.01\State=1-SG\HF=-100.7822299\RMSD=3.566e-09\RMSF=3.420e-06\Di
 pole=0.,0.,-3.0324507\Quadrupole=4.5865625,4.5865625,-9.1731249,0.,0.,
 0.\PG=C*V [C*(O1Ba1)]\\@
 The archive entry for this job was punched.


 FRICTION IS A DRAG,
 AND ENTROPY AIN'T WHAT IT USED TO BE.
 Job cpu time:       0 days  0 hours  3 minutes 44.9 seconds.
 Elapsed time:       0 days  0 hours  0 minutes 29.1 seconds.
 File lengths (MBytes):  RWF=     10 Int=      0 D2E=      0 Chk=      2 Scr=      1
 Normal termination of Gaussian 16 at Sat Jul 31 21:19:52 2021.
 Link1:  Proceeding to internal job step number  2.
 ----------------------------------------------------------------------
 #N Geom=AllCheck Guess=TCheck SCRF=Check GenChk RTPSSTPSS/def2QZVPP Fr
 eq
 ----------------------------------------------------------------------
 1/10=4,29=7,30=1,38=1,40=1/1,3;
 2/12=2,40=1/2;
 3/5=45,7=202,11=2,14=-4,25=1,30=1,70=2,71=2,74=2523,75=-5,116=1,140=1/1,2,3;
 4/5=101/1;
 5/5=2,32=2,38=6,98=1/2;
 8/6=4,10=90,11=11/1;
 11/6=1,8=1,9=11,15=111,16=1/1,2,10;
 10/6=1/2;
 6/7=2,8=2,9=2,10=2,28=1/1;
 7/8=1,10=1,25=1/1,2,3,16;
 1/10=4,30=1/3;
 99//99;
 Structure from the checkpoint file:  "/data/hutter/SMG16/TPSS/Gau-91901.chk"
 ---------
 Mol job 1
 ---------
 Charge =  0 Multiplicity = 1
 Redundant internal coordinates found in file.  (old form).
 Ba,0,8.5,8.5,7.5026190868
 O,0,8.5,8.5,9.4973809132
 Recover connectivity data from disk.

 GradGradGradGradGradGradGradGradGradGradGradGradGradGradGradGradGradGrad
 Berny optimization.
 Initialization pass.
                           ----------------------------
                           !    Initial Parameters    !
                           ! (Angstroms and Degrees)  !
 --------------------------                            --------------------------
 ! Name  Definition              Value          Derivative Info.                !
 --------------------------------------------------------------------------------
 ! R1    R(1,2)                  1.9948         calculate D2E/DX2 analytically  !
 --------------------------------------------------------------------------------
 Trust Radius=3.00D-01 FncErr=1.00D-07 GrdErr=1.00D-07 EigMax=2.50D+02 EigMin=1.00D-04
 Number of steps in this run=      2 maximum allowed number of steps=      2.
 GradGradGradGradGradGradGradGradGradGradGradGradGradGradGradGradGradGrad

                          Input orientation:                          
 ---------------------------------------------------------------------
 Center     Atomic      Atomic             Coordinates (Angstroms)
 Number     Number       Type             X           Y           Z
 ---------------------------------------------------------------------
      1         56           0        8.500000    8.500000    7.502619
      2          8           0        8.500000    8.500000    9.497381
 ---------------------------------------------------------------------
 Stoichiometry    BaO
 Framework group  C*V[C*(OBa)]
 Deg. of freedom     1
 Full point group                 C*V     NOp   4
 Largest Abelian subgroup         C2V     NOp   4
 Largest concise Abelian subgroup C1      NOp   1
                         Standard orientation:                         
 ---------------------------------------------------------------------
 Center     Atomic      Atomic             Coordinates (Angstroms)
 Number     Number       Type             X           Y           Z
 ---------------------------------------------------------------------
      1         56           0        0.000000    0.000000    0.249345
      2          8           0        0.000000    0.000000   -1.745417
 ---------------------------------------------------------------------
 Rotational constants (GHZ):           0.0000000           8.8615877           8.8615877
 Standard basis: def2QZVPP (5D, 7F)
 There are    62 symmetry adapted cartesian basis functions of A1  symmetry.
 There are    14 symmetry adapted cartesian basis functions of A2  symmetry.
 There are    33 symmetry adapted cartesian basis functions of B1  symmetry.
 There are    33 symmetry adapted cartesian basis functions of B2  symmetry.
 There are    48 symmetry adapted basis functions of A1  symmetry.
 There are    13 symmetry adapted basis functions of A2  symmetry.
 There are    27 symmetry adapted basis functions of B1  symmetry.
 There are    27 symmetry adapted basis functions of B2  symmetry.
   115 basis functions,   184 primitive gaussians,   142 cartesian basis functions
     9 alpha electrons        9 beta electrons
       nuclear repulsion energy        21.2226724571 Hartrees.
 NAtoms=    2 NActive=    2 NUniq=    2 SFac= 1.00D+00 NAtFMM=   60 NAOKFM=F Big=F
 Integral buffers will be    131072 words long.
 Raffenetti 2 integral format.
 Two-electron integral symmetry is turned on.
 One-electron integrals computed using PRISM.
   4 Symmetry operations used in ECPInt.
 ECPInt:  NShTT=     630 NPrTT=    1480 LenC2=     631 LenP2D=    1436.
 LDataN:  DoStor=T MaxTD1= 8 Len=  415
 NBasis=   115 RedAO= T EigKep=  1.99D-03  NBF=    48    13    27    27
 NBsUse=   115 1.00D-06 EigRej= -1.00D+00 NBFU=    48    13    27    27
 Defaulting to unpruned grid for atomic number  56.
 Initial guess from the checkpoint file:  "/data/hutter/SMG16/TPSS/Gau-91901.chk"
 B after Tr=     0.000000    0.000000    0.000000
         Rot=    1.000000    0.000000    0.000000    0.000000 Ang=   0.00 deg.
 Initial guess orbital symmetries:
       Occupied  (SG) (SG) (SG) (PI) (PI) (SG) (PI) (PI) (SG)
       Virtual   (SG) (PI) (PI) (DLTA) (DLTA) (SG) (SG) (PI) (PI)
                 (SG) (PI) (PI) (SG) (DLTA) (DLTA) (PI) (PI) (SG)
                 (PHI) (PHI) (SG) (DLTA) (DLTA) (SG) (PI) (PI)
                 (PI) (PI) (SG) (PI) (PI) (SG) (PHI) (PHI) (PI)
                 (PI) (DLTA) (DLTA) (SG) (SG) (DLTA) (DLTA) (PI)
                 (PI) (SG) (SG) (DLTA) (DLTA) (PI) (PI) (SG) (PI)
                 (PI) (PHI) (PHI) (DLTA) (DLTA) (SG) (PI) (PI)
                 (SG) (PHI) (PHI) (DLTA) (DLTA) (PI) (PI) (SG)
                 (SG) (DLTA) (DLTA) (PI) (PI) (SG) (PI) (PI) (SG)
                 (PI) (PI) (DLTA) (DLTA) (PHI) (PHI) (SG) (?A)
                 (?A) (PHI) (PHI) (DLTA) (DLTA) (PI) (PI) (SG)
                 (DLTA) (DLTA) (PI) (PI) (SG) (SG) (SG) (PI) (PI)
                 (SG) (SG) (SG) (SG)
 Keep J ints in memory in symmetry-blocked form, NReq=31330963.
 Requested convergence on RMS density matrix=1.00D-08 within 128 cycles.
 Requested convergence on MAX density matrix=1.00D-06.
 Requested convergence on             energy=1.00D-06.
 No special actions if energy rises.
 Defaulting to unpruned grid for atomic number  56.
 Defaulting to unpruned grid for atomic number  56.
 Defaulting to unpruned grid for atomic number  56.
 Defaulting to unpruned grid for atomic number  56.
 Defaulting to unpruned grid for atomic number  56.
 Defaulting to unpruned grid for atomic number  56.
 Defaulting to unpruned grid for atomic number  56.
 Defaulting to unpruned grid for atomic number  56.
 SCF Done:  E(RTPSS-TPSS) =  -100.782229896     A.U. after    1 cycles
            NFock=  1  Conv=0.14D-08     -V/T= 2.2175
 DoSCS=F DFT=T ScalE2(SS,OS)=  1.000000  1.000000
 Range of M.O.s used for correlation:     1   115
 NBasis=   115 NAE=     9 NBE=     9 NFC=     0 NFV=     0
 NROrb=    115 NOA=     9 NOB=     9 NVA=   106 NVB=   106

 **** Warning!!: The smallest alpha delta epsilon is  0.67018341D-01

   4 Symmetry operations used in ECPInt.
 ECPInt:  NShTT=     630 NPrTT=    1480 LenC2=     631 LenP2D=    1436.
 LDataN:  DoStor=T MaxTD1= 9 Len=  602
 Symmetrizing basis deriv contribution to polar:
 IMax=3 JMax=2 DiffMx= 0.00D+00
 G2DrvN: will do     3 centers at a time, making    1 passes.
 Calling FoFCou, ICntrl=  3507 FMM=F I1Cent=   0 AccDes= 0.00D+00.
 Defaulting to unpruned grid for atomic number  56.
 Defaulting to unpruned grid for atomic number  56.
 Defaulting to unpruned grid for atomic number  56.
 Defaulting to unpruned grid for atomic number  56.
 Defaulting to unpruned grid for atomic number  56.
 Defaulting to unpruned grid for atomic number  56.
 Defaulting to unpruned grid for atomic number  56.
 Defaulting to unpruned grid for atomic number  56.
 End of G2Drv F.D. properties file   721 does not exist.
 End of G2Drv F.D. properties file   722 does not exist.
 End of G2Drv F.D. properties file   788 does not exist.
          IDoAtm=11
          Differentiating once with respect to electric field.
                with respect to dipole field.
          Differentiating once with respect to nuclear coordinates.
 Defaulting to unpruned grid for atomic number  56.
 Keep J ints in memory in symmetry-blocked form, NReq=31332276.
 Defaulting to unpruned grid for atomic number  56.
 Defaulting to unpruned grid for atomic number  56.
 Defaulting to unpruned grid for atomic number  56.
 Defaulting to unpruned grid for atomic number  56.
 Defaulting to unpruned grid for atomic number  56.
 Defaulting to unpruned grid for atomic number  56.
 Defaulting to unpruned grid for atomic number  56.
 Defaulting to unpruned grid for atomic number  56.
          There are     9 degrees of freedom in the 1st order CPHF.  IDoFFX=6 NUNeed=     3.
      6 vectors produced by pass  0 Test12= 1.06D-14 1.11D-08 XBig12= 4.01D+02 1.30D+01.
 AX will form     6 AO Fock derivatives at one time.
      6 vectors produced by pass  1 Test12= 1.06D-14 1.11D-08 XBig12= 7.91D+02 1.60D+01.
      6 vectors produced by pass  2 Test12= 1.06D-14 1.11D-08 XBig12= 2.15D+01 1.17D+00.
      6 vectors produced by pass  3 Test12= 1.06D-14 1.11D-08 XBig12= 1.64D+00 4.02D-01.
      6 vectors produced by pass  4 Test12= 1.06D-14 1.11D-08 XBig12= 3.76D-02 4.79D-02.
      6 vectors produced by pass  5 Test12= 1.06D-14 1.11D-08 XBig12= 4.10D-04 5.57D-03.
      4 vectors produced by pass  6 Test12= 1.06D-14 1.11D-08 XBig12= 1.24D-06 4.12D-04.
      4 vectors produced by pass  7 Test12= 1.06D-14 1.11D-08 XBig12= 1.89D-09 1.05D-05.
      1 vectors produced by pass  8 Test12= 1.06D-14 1.11D-08 XBig12= 3.14D-12 5.66D-07.
 InvSVY:  IOpt=1 It=  1 EMax= 4.44D-16
 Solved reduced A of dimension    45 with     6 vectors.
 Isotropic polarizability for W=    0.000000       57.07 Bohr**3.
 End of Minotr F.D. properties file   721 does not exist.
 End of Minotr F.D. properties file   722 does not exist.
 End of Minotr F.D. properties file   788 does not exist.

 **********************************************************************

            Population analysis using the SCF Density.

 **********************************************************************

 Orbital symmetries:
       Occupied  (SG) (SG) (SG) (PI) (PI) (SG) (PI) (PI) (SG)
       Virtual   (SG) (PI) (PI) (DLTA) (DLTA) (SG) (SG) (PI) (PI)
                 (SG) (PI) (PI) (SG) (DLTA) (DLTA) (PI) (PI) (SG)
                 (PHI) (PHI) (SG) (DLTA) (DLTA) (SG) (PI) (PI)
                 (PI) (PI) (SG) (PI) (PI) (SG) (PHI) (PHI) (PI)
                 (PI) (DLTA) (DLTA) (SG) (SG) (DLTA) (DLTA) (PI)
                 (PI) (SG) (SG) (DLTA) (DLTA) (PI) (PI) (SG) (PI)
                 (PI) (PHI) (PHI) (DLTA) (DLTA) (SG) (PI) (PI)
                 (SG) (PHI) (PHI) (DLTA) (DLTA) (PI) (PI) (SG)
                 (SG) (DLTA) (DLTA) (PI) (PI) (SG) (PI) (PI) (SG)
                 (PI) (PI) (DLTA) (DLTA) (PHI) (PHI) (SG) (?A)
                 (?A) (PHI) (PHI) (DLTA) (DLTA) (PI) (PI) (SG)
                 (DLTA) (DLTA) (PI) (PI) (SG) (SG) (SG) (PI) (PI)
                 (SG) (SG) (SG) (SG)
 The electronic state is 1-SG.
 Alpha  occ. eigenvalues --  -18.72953  -1.18407  -0.74832  -0.62160  -0.62160
 Alpha  occ. eigenvalues --   -0.52970  -0.14780  -0.14780  -0.12862
 Alpha virt. eigenvalues --   -0.06160  -0.01249  -0.01249  -0.00299  -0.00299
 Alpha virt. eigenvalues --    0.00164   0.03258   0.03987   0.03987   0.04929
 Alpha virt. eigenvalues --    0.07671   0.07671   0.11475   0.12753   0.12753
 Alpha virt. eigenvalues --    0.13440   0.13440   0.18188   0.22403   0.22403
 Alpha virt. eigenvalues --    0.22408   0.22942   0.22942   0.26321   0.27141
 Alpha virt. eigenvalues --    0.27141   0.35676   0.35676   0.40364   0.46639
 Alpha virt. eigenvalues --    0.46639   0.48514   0.71269   0.71269   0.71933
 Alpha virt. eigenvalues --    0.71933   0.72072   0.72072   0.81450   0.84900
 Alpha virt. eigenvalues --    0.87375   0.87379   0.92705   0.92705   0.96754
 Alpha virt. eigenvalues --    1.07699   1.16616   1.16616   1.41807   1.41807
 Alpha virt. eigenvalues --    1.50534   1.54099   1.54099   1.94114   1.94114
 Alpha virt. eigenvalues --    1.95268   1.95274   2.04796   2.05815   2.05815
 Alpha virt. eigenvalues --    2.18458   3.21443   3.21443   3.23926   3.23926
 Alpha virt. eigenvalues --    3.33159   3.33159   3.38367   3.48852   3.89738
 Alpha virt. eigenvalues --    3.89738   4.09378   4.09378   4.40615   5.13901
 Alpha virt. eigenvalues --    5.13901   5.49683   9.07120   9.07120   9.07136
 Alpha virt. eigenvalues --    9.07136   9.08109   9.08109   9.08917   9.09587
 Alpha virt. eigenvalues --    9.09588  11.07887  11.07887  11.09288  11.09288
 Alpha virt. eigenvalues --   11.16036  11.16036  11.26274  12.05733  12.05733
 Alpha virt. eigenvalues --   12.19768  12.19768  12.36531  12.89510  26.46105
 Alpha virt. eigenvalues --   27.73071  27.73071  34.43171  47.19029 254.14166
 Alpha virt. eigenvalues --  257.45377
          Condensed to atoms (all electrons):
               1          2
     1  Ba   8.993264   0.190999
     2  O    0.190999   8.624737
 Mulliken charges:
               1
     1  Ba   0.815737
     2  O   -0.815737
 Sum of Mulliken charges =   0.00000
 Mulliken charges with hydrogens summed into heavy atoms:
               1
     1  Ba   0.815737
     2  O   -0.815737
 APT charges:
               1
     1  Ba   1.044928
     2  O   -1.044928
 Sum of APT charges =  -0.00000
 APT charges with hydrogens summed into heavy atoms:
               1
     1  Ba   1.044928
     2  O   -1.044928
 Electronic spatial extent (au):  <R**2>=            161.7675
 Charge=             -0.0000 electrons
 Dipole moment (field-independent basis, Debye):
    X=              0.0000    Y=              0.0000    Z=              7.7077  Tot=              7.7077
 Quadrupole moment (field-independent basis, Debye-Ang):
   XX=            -26.3421   YY=            -26.3421   ZZ=            -44.8494
   XY=              0.0000   XZ=              0.0000   YZ=              0.0000
 Traceless Quadrupole moment (field-independent basis, Debye-Ang):
   XX=              6.1691   YY=              6.1691   ZZ=            -12.3382
   XY=              0.0000   XZ=              0.0000   YZ=              0.0000
 Octapole moment (field-independent basis, Debye-Ang**2):
  XXX=              0.0000  YYY=              0.0000  ZZZ=             39.8157  XYY=              0.0000
  XXY=              0.0000  XXZ=              9.1345  XZZ=              0.0000  YZZ=              0.0000
  YYZ=              9.1345  XYZ=              0.0000
 Hexadecapole moment (field-independent basis, Debye-Ang**3):
 XXXX=            -36.8120 YYYY=            -36.8120 ZZZZ=           -250.9183 XXXY=              0.0000
 XXXZ=              0.0000 YYYX=              0.0000 YYYZ=              0.0000 ZZZX=              0.0000
 ZZZY=              0.0000 XXYY=            -12.2707 XXZZ=            -42.4039 YYZZ=            -42.4039
 XXYZ=              0.0000 YYXZ=              0.0000 ZZXY=              0.0000
 N-N= 2.122267245712D+01 E-N=-2.725529220386D+02  KE= 8.277804249489D+01
 Symmetry A1   KE= 7.173658544971D+01
 Symmetry A2   KE= 3.048965130582D-47
 Symmetry B1   KE= 5.520728522593D+00
 Symmetry B2   KE= 5.520728522593D+00
  Exact polarizability:      34.557      -0.000      34.557      -0.000       0.000     102.094
 Approx polarizability:      52.191      -0.000      52.191      -0.000      -0.000     216.125
   4 Symmetry operations used in ECPInt.
 ECPInt:  NShTT=     630 NPrTT=    1480 LenC2=     631 LenP2D=    1436.
 LDataN:  DoStor=T MaxTD1=10 Len=  848
 Calling FoFJK, ICntrl=    100527 FMM=F ISym2X=1 I1Cent= 0 IOpClX= 0 NMat=1 NMatS=1 NMatT=0.
 Defaulting to unpruned grid for atomic number  56.
 Defaulting to unpruned grid for atomic number  56.
 Defaulting to unpruned grid for atomic number  56.
 Defaulting to unpruned grid for atomic number  56.
 Defaulting to unpruned grid for atomic number  56.
 Defaulting to unpruned grid for atomic number  56.
 Defaulting to unpruned grid for atomic number  56.
 Defaulting to unpruned grid for atomic number  56.
 Full mass-weighted force constant matrix:
 Low frequencies ---    0.0001    0.0001    0.0006    6.6085    6.6085  654.2876
 Diagonal vibrational polarizability:
        0.0000000       0.0000000       9.9484274
 Harmonic frequencies (cm**-1), IR intensities (KM/Mole), Raman scattering
 activities (A**4/AMU), depolarization ratios for plane and unpolarized
 incident light, reduced masses (AMU), force constants (mDyne/A),
 and normal coordinates:
                      1
                     SG
 Frequencies --    654.2876
 Red. masses --     17.6131
 Frc consts  --      4.4425
 IR Inten    --    158.2554
  Atom  AN      X      Y      Z
     1  56    -0.00  -0.00  -0.12
     2   8    -0.00  -0.00   0.99

 -------------------
 - Thermochemistry -
 -------------------
 Temperature   298.150 Kelvin.  Pressure   1.00000 Atm.
 Atom     1 has atomic number 56 and mass 137.90500
 Atom     2 has atomic number  8 and mass  15.99491
 Molecular mass:   153.89991 amu.
 Principal axes and moments of inertia in atomic units:
                           1         2         3
     Eigenvalues --     0.00000 203.65890 203.65890
           X            0.00000  -0.00000   1.00000
           Y            0.00000   1.00000   0.00000
           Z            1.00000   0.00000   0.00000
 This molecule is a prolate symmetric top.
 Rotational symmetry number  1.
 Rotational temperature (Kelvin)      0.42529
 Rotational constant (GHZ):           8.861588
 Zero-point vibrational energy       3913.5 (Joules/Mol)
                                    0.93535 (Kcal/Mol)
 Vibrational temperatures:    941.37
          (Kelvin)
 
 Zero-point correction=                           0.001491 (Hartree/Particle)
 Thermal correction to Energy=                    0.003983
 Thermal correction to Enthalpy=                  0.004928
 Thermal correction to Gibbs Free Energy=        -0.021859
 Sum of electronic and zero-point Energies=           -100.780739
 Sum of electronic and thermal Energies=              -100.778246
 Sum of electronic and thermal Enthalpies=            -100.777302
 Sum of electronic and thermal Free Energies=         -100.804089
 
                     E (Thermal)             CV                S
                      KCal/Mol        Cal/Mol-Kelvin    Cal/Mol-Kelvin
 Total                    2.500              5.887             56.377
 Electronic               0.000              0.000              0.000
 Translational            0.889              2.981             41.003
 Rotational               0.592              1.987             15.009
 Vibrational              1.018              0.919              0.365
                       Q            Log10(Q)             Ln(Q)
 Total Bot       0.113324D+11         10.054323         23.150934
 Total V=0       0.549465D+11         10.739940         24.729626
 Vib (Bot)       0.215408D+00         -0.666739         -1.535224
 Vib (V=0)       0.104443D+01          0.018878          0.043468
 Electronic      0.100000D+01          0.000000          0.000000
 Translational   0.750432D+08          7.875311         18.133575
 Rotational      0.701052D+03          2.845750          6.552583
 ***** Axes restored to original set *****
 -------------------------------------------------------------------
 Center     Atomic                   Forces (Hartrees/Bohr)
 Number     Number              X              Y              Z
 -------------------------------------------------------------------
      1       56          -0.000000000   -0.000000000    0.000005936
      2        8          -0.000000000   -0.000000000   -0.000005936
 -------------------------------------------------------------------
 Cartesian Forces:  Max     0.000005936 RMS     0.000003427
 FormGI is forming the generalized inverse of G from B-inverse, IUseBI=4.

 GradGradGradGradGradGradGradGradGradGradGradGradGradGradGradGradGradGrad
 Berny optimization.
 Internal  Forces:  Max     0.000005936 RMS     0.000005936
 Search for a local minimum.
 Step number   1 out of a maximum of    2
 All quantities printed in internal units (Hartrees-Bohrs-Radians)
 Second derivative matrix not updated -- analytic derivatives used.
 The second derivative matrix:
                          R1
           R1           0.23219
 ITU=  0
     Eigenvalues ---    0.23219
 Angle between quadratic step and forces=   0.00 degrees.
 Linear search not attempted -- first point.
 Iteration  1 RMS(Cart)=  0.00001808 RMS(Int)=  0.00000000
 Iteration  2 RMS(Cart)=  0.00000000 RMS(Int)=  0.00000000
 ClnCor:  largest displacement from symmetrization is 0.00D+00 for atom     0.
 Variable       Old X    -DE/DX   Delta X   Delta X   Delta X     New X
                                 (Linear)    (Quad)   (Total)
    R1        3.76955  -0.00001   0.00000  -0.00003  -0.00003   3.76953
         Item               Value     Threshold  Converged?
 Maximum Force            0.000006     0.000450     YES
 RMS     Force            0.000006     0.000300     YES
 Maximum Displacement     0.000013     0.001800     YES
 RMS     Displacement     0.000018     0.001200     YES
 Predicted change in Energy=-7.587566D-11
 Optimization completed.
    -- Stationary point found.
                           ----------------------------
                           !   Optimized Parameters   !
                           ! (Angstroms and Degrees)  !
 --------------------------                            --------------------------
 ! Name  Definition              Value          Derivative Info.                !
 --------------------------------------------------------------------------------
 ! R1    R(1,2)                  1.9948         -DE/DX =    0.0                 !
 --------------------------------------------------------------------------------
 GradGradGradGradGradGradGradGradGradGradGradGradGradGradGradGradGradGrad


 ----------------------------------------------------------------------

 Electric dipole moment (input orientation):
 (Debye = 10**-18 statcoulomb cm , SI units = C m)
                  (au)            (Debye)         (10**-30 SI)
   Tot        0.303245D+01      0.770772D+01      0.257102D+02
   x          0.000000D+00      0.000000D+00      0.000000D+00
   y          0.000000D+00      0.000000D+00      0.000000D+00
   z         -0.303245D+01     -0.770772D+01     -0.257102D+02

 Dipole polarizability, Alpha (input orientation).
 (esu units = cm**3 , SI units = C**2 m**2 J**-1)
 Alpha(0;0):
               (au)            (10**-24 esu)      (10**-40 SI)
   iso        0.570695D+02      0.845683D+01      0.940950D+01
   aniso      0.675364D+02      0.100079D+02      0.111353D+02
   xx         0.345574D+02      0.512088D+01      0.569774D+01
   yx         0.000000D+00      0.000000D+00      0.000000D+00
   yy         0.345574D+02      0.512088D+01      0.569774D+01
   zx         0.000000D+00      0.000000D+00      0.000000D+00
   zy         0.000000D+00      0.000000D+00      0.000000D+00
   zz         0.102094D+03      0.151287D+02      0.168330D+02

 ----------------------------------------------------------------------

 Dipole orientation:
    56         16.06267206        -16.06267206        -14.17789529
     8         16.06267206        -16.06267206        -17.94744883

 Electric dipole moment (dipole orientation):
 (Debye = 10**-18 statcoulomb cm , SI units = C m)
                  (au)            (Debye)         (10**-30 SI)
   Tot        0.303245D+01      0.770772D+01      0.257102D+02
   x          0.000000D+00      0.000000D+00      0.000000D+00
   y          0.000000D+00      0.000000D+00      0.000000D+00
   z          0.303245D+01      0.770772D+01      0.257102D+02

 Dipole polarizability, Alpha (dipole orientation).
 (esu units = cm**3 , SI units = C**2 m**2 J**-1)
 Alpha(0;0):
               (au)            (10**-24 esu)      (10**-40 SI)
   iso        0.570695D+02      0.845683D+01      0.940950D+01
   aniso      0.675364D+02      0.100079D+02      0.111353D+02
   xx         0.345574D+02      0.512088D+01      0.569774D+01
   yx         0.000000D+00      0.000000D+00      0.000000D+00
   yy         0.345574D+02      0.512088D+01      0.569774D+01
   zx         0.000000D+00      0.000000D+00      0.000000D+00
   zy         0.000000D+00      0.000000D+00      0.000000D+00
   zz         0.102094D+03      0.151287D+02      0.168330D+02

 ----------------------------------------------------------------------
 Unable to Open any file for archive entry.
 1\1\GINC-TCOPT10\Freq\RTPSSTPSS\def2QZVPP\Ba1O1\HUTTER\31-Jul-2021\0\\
 #N Geom=AllCheck Guess=TCheck SCRF=Check GenChk RTPSSTPSS/def2QZVPP Fr
 eq\\Mol job 1\\0,1\Ba,8.5,8.5,7.5026190868\O,8.5,8.5,9.4973809132\\Ver
 sion=ES64L-G16RevC.01\State=1-SG\HF=-100.7822299\RMSD=1.396e-09\RMSF=3
 .427e-06\ZeroPoint=0.0014906\Thermal=0.0039835\ETot=-100.7782464\HTot=
 -100.7773022\GTot=-100.8040887\Dipole=0.,0.,-3.0324488\DipoleDeriv=0.8
 047245,0.,0.,0.,0.8047245,0.,0.,0.,1.5253358,-0.8047245,0.,0.,0.,-0.80
 47245,0.,0.,0.,-1.5253358\Polar=34.5573928,0.,34.5573928,0.,0.,102.093
 8356\Quadrupole=4.5865618,4.5865618,-9.1731236,0.,0.,0.\PG=C*V [C*(O1B
 a1)]\NImag=0\\0.00002369,0.,0.00002369,0.,0.,0.23219472,-0.00002369,0.
 ,0.,0.00002369,0.,-0.00002369,0.,0.,0.00002369,0.,0.,-0.23219472,0.,0.
 ,0.23219472\\0.,0.,-0.00000594,0.,0.,0.00000594\\\@
 The archive entry for this job was punched.


 WE SHOULD BE CAREFUL TO GET OUT OF AN EXPERIENCE ONLY THE WISDOM
 THAT IS IN IT -- AND STOP THERE;
 LEST WE BE LIKE THE CAT THAT SITS DOWN ON A HOT STOVE-LID.
 SHE WILL NEVER SIT DOWN ON A HOT STOVE LID AGAIN;
 BUT ALSO SHE WILL NEVER SIT DOWN ON A COLD ONE ANY MORE.

                                                     -- MARK TWAIN
 Job cpu time:       0 days  0 hours  4 minutes 26.4 seconds.
 Elapsed time:       0 days  0 hours  0 minutes 33.8 seconds.
 File lengths (MBytes):  RWF=     10 Int=      0 D2E=      0 Chk=      2 Scr=      1
 Normal termination of Gaussian 16 at Sat Jul 31 21:20:26 2021.
