 Entering Gaussian System, Link 0=g16
 Initial command:
 /sw-ng/spack/opt/spack/linux-opensuse_leap15-sandybridge/pgi-18.10/gaussian-src-16-C.01-zldqaomctopxhethwccpmxmwefdscg3m/g16/l1.exe "/data/hutter/SMG16/TPSS/Gau-85947.inp" -scrdir="/data/hutter/SMG16/TPSS/"
 Entering Link 1 = /sw-ng/spack/opt/spack/linux-opensuse_leap15-sandybridge/pgi-18.10/gaussian-src-16-C.01-zldqaomctopxhethwccpmxmwefdscg3m/g16/l1.exe PID=     85954.
  
 Copyright (c) 1988-2019, Gaussian, Inc.  All Rights Reserved.
  
 This is part of the Gaussian(R) 16 program.  It is based on
 the Gaussian(R) 09 system (copyright 2009, Gaussian, Inc.),
 the Gaussian(R) 03 system (copyright 2003, Gaussian, Inc.),
 the Gaussian(R) 98 system (copyright 1998, Gaussian, Inc.),
 the Gaussian(R) 94 system (copyright 1995, Gaussian, Inc.),
 the Gaussian 92(TM) system (copyright 1992, Gaussian, Inc.),
 the Gaussian 90(TM) system (copyright 1990, Gaussian, Inc.),
 the Gaussian 88(TM) system (copyright 1988, Gaussian, Inc.),
 the Gaussian 86(TM) system (copyright 1986, Carnegie Mellon
 University), and the Gaussian 82(TM) system (copyright 1983,
 Carnegie Mellon University). Gaussian is a federally registered
 trademark of Gaussian, Inc.
  
 This software contains proprietary and confidential information,
 including trade secrets, belonging to Gaussian, Inc.
  
 This software is provided under written license and may be
 used, copied, transmitted, or stored only in accord with that
 written license.
  
 The following legend is applicable only to US Government
 contracts under FAR:
  
                    RESTRICTED RIGHTS LEGEND
  
 Use, reproduction and disclosure by the US Government is
 subject to restrictions as set forth in subparagraphs (a)
 and (c) of the Commercial Computer Software - Restricted
 Rights clause in FAR 52.227-19.
  
 Gaussian, Inc.
 340 Quinnipiac St., Bldg. 40, Wallingford CT 06492
  
  
 ---------------------------------------------------------------
 Warning -- This program may not be used in any manner that
 competes with the business of Gaussian, Inc. or will provide
 assistance to any competitor of Gaussian, Inc.  The licensee
 of this program is prohibited from giving any competitor of
 Gaussian, Inc. access to this program.  By using this program,
 the user acknowledges that Gaussian, Inc. is engaged in the
 business of creating and licensing software in the field of
 computational chemistry and represents and warrants to the
 licensee that it is not a competitor of Gaussian, Inc. and that
 it will not use this program in any manner prohibited above.
 ---------------------------------------------------------------
  

 Cite this work as:
 Gaussian 16, Revision C.01,
 M. J. Frisch, G. W. Trucks, H. B. Schlegel, G. E. Scuseria, 
 M. A. Robb, J. R. Cheeseman, G. Scalmani, V. Barone, 
 G. A. Petersson, H. Nakatsuji, X. Li, M. Caricato, A. V. Marenich, 
 J. Bloino, B. G. Janesko, R. Gomperts, B. Mennucci, H. P. Hratchian, 
 J. V. Ortiz, A. F. Izmaylov, J. L. Sonnenberg, D. Williams-Young, 
 F. Ding, F. Lipparini, F. Egidi, J. Goings, B. Peng, A. Petrone, 
 T. Henderson, D. Ranasinghe, V. G. Zakrzewski, J. Gao, N. Rega, 
 G. Zheng, W. Liang, M. Hada, M. Ehara, K. Toyota, R. Fukuda, 
 J. Hasegawa, M. Ishida, T. Nakajima, Y. Honda, O. Kitao, H. Nakai, 
 T. Vreven, K. Throssell, J. A. Montgomery, Jr., J. E. Peralta, 
 F. Ogliaro, M. J. Bearpark, J. J. Heyd, E. N. Brothers, K. N. Kudin, 
 V. N. Staroverov, T. A. Keith, R. Kobayashi, J. Normand, 
 K. Raghavachari, A. P. Rendell, J. C. Burant, S. S. Iyengar, 
 J. Tomasi, M. Cossi, J. M. Millam, M. Klene, C. Adamo, R. Cammi, 
 J. W. Ochterski, R. L. Martin, K. Morokuma, O. Farkas, 
 J. B. Foresman, and D. J. Fox, Gaussian, Inc., Wallingford CT, 2019.
 
 ******************************************
 Gaussian 16:  ES64L-G16RevC.01  3-Jul-2019
                 1-Aug-2021 
 ******************************************
 %mem=32GB
 %NProcShare=16
 Will use up to   16 processors via shared memory.
 -------------------------------------------------------------
 #N RTPSSTPSS/Def2QZVPP scf=tight Int(Grid=ultrafine) OPT FREQ
 -------------------------------------------------------------
 1/18=20,19=15,26=4,38=1/1,3;
 2/9=110,12=2,17=6,18=5,40=1/2;
 3/5=45,7=202,11=2,25=1,30=1,71=1,74=2523,75=-5,116=1/1,2,3;
 4//1;
 5/5=2,32=2,38=5/2;
 6/7=2,8=2,9=2,10=2,28=1/1;
 7//1,2,3,16;
 1/18=20,19=15,26=4/3(2);
 2/9=110/2;
 99//99;
 2/9=110/2;
 3/5=45,7=202,11=2,25=1,30=1,71=1,74=2523,75=-5,116=1/1,2,3;
 4/5=5,16=3,69=1/1;
 5/5=2,32=2,38=5/2;
 7//1,2,3,16;
 1/18=20,19=15,26=4/3(-5);
 2/9=110/2;
 6/7=2,8=2,9=2,10=2,19=2,28=1/1;
 99/9=1/99;
 ---------
 Mol job 1
 ---------
 Symbolic Z-matrix:
 Charge =  0 Multiplicity = 1
 Ni                    8.5       8.5       8.5 
 C                     9.5495    7.4505    9.5495 
 C                     7.4505    9.5495    9.5495 
 C                     7.4505    7.4505    7.4505 
 C                     9.5495    9.5495    7.4505 
 O                     10.21598   6.78402   10.21598 
 O                     6.78402   10.21598   10.21598 
 O                     6.78402   6.78402   6.78402 
 O                     10.21598   10.21598   6.78402 
 

 GradGradGradGradGradGradGradGradGradGradGradGradGradGradGradGradGradGrad
 Berny optimization.
 Initialization pass.
                           ----------------------------
                           !    Initial Parameters    !
                           ! (Angstroms and Degrees)  !
 --------------------------                            --------------------------
 ! Name  Definition              Value          Derivative Info.                !
 --------------------------------------------------------------------------------
 ! R1    R(1,2)                  1.8178         estimate D2E/DX2                !
 ! R2    R(1,3)                  1.8178         estimate D2E/DX2                !
 ! R3    R(1,4)                  1.8178         estimate D2E/DX2                !
 ! R4    R(1,5)                  1.8178         estimate D2E/DX2                !
 ! R5    R(2,6)                  1.1544         estimate D2E/DX2                !
 ! R6    R(3,7)                  1.1544         estimate D2E/DX2                !
 ! R7    R(4,8)                  1.1544         estimate D2E/DX2                !
 ! R8    R(5,9)                  1.1544         estimate D2E/DX2                !
 ! A1    A(2,1,3)              109.4712         estimate D2E/DX2                !
 ! A2    A(2,1,4)              109.4712         estimate D2E/DX2                !
 ! A3    A(2,1,5)              109.4712         estimate D2E/DX2                !
 ! A4    A(3,1,4)              109.4712         estimate D2E/DX2                !
 ! A5    A(3,1,5)              109.4712         estimate D2E/DX2                !
 ! A6    A(4,1,5)              109.4712         estimate D2E/DX2                !
 ! A7    L(1,2,6,7,-1)         180.0            estimate D2E/DX2                !
 ! A8    L(1,3,7,6,-1)         180.0            estimate D2E/DX2                !
 ! A9    L(1,4,8,6,-1)         180.0            estimate D2E/DX2                !
 ! A10   L(1,5,9,6,-1)         180.0            estimate D2E/DX2                !
 ! A11   L(1,2,6,7,-2)         180.0            estimate D2E/DX2                !
 ! A12   L(1,3,7,6,-2)         180.0            estimate D2E/DX2                !
 ! A13   L(1,4,8,6,-2)         180.0            estimate D2E/DX2                !
 ! A14   L(1,5,9,6,-2)         180.0            estimate D2E/DX2                !
 ! D1    D(2,1,4,3)            120.0            estimate D2E/DX2                !
 ! D2    D(2,1,5,3)           -120.0            estimate D2E/DX2                !
 ! D3    D(2,1,5,4)            120.0            estimate D2E/DX2                !
 ! D4    D(3,1,5,4)           -120.0            estimate D2E/DX2                !
 --------------------------------------------------------------------------------
 Trust Radius=3.00D-01 FncErr=1.00D-07 GrdErr=1.00D-06 EigMax=2.50D+02 EigMin=1.00D-04
 Number of steps in this run=     36 maximum allowed number of steps=    100.
 GradGradGradGradGradGradGradGradGradGradGradGradGradGradGradGradGradGrad

                          Input orientation:                          
 ---------------------------------------------------------------------
 Center     Atomic      Atomic             Coordinates (Angstroms)
 Number     Number       Type             X           Y           Z
 ---------------------------------------------------------------------
      1         28           0        8.500000    8.500000    8.500000
      2          6           0        9.549498    7.450502    9.549498
      3          6           0        7.450502    9.549498    9.549498
      4          6           0        7.450502    7.450502    7.450502
      5          6           0        9.549498    9.549498    7.450502
      6          8           0       10.215982    6.784018   10.215982
      7          8           0        6.784018   10.215982   10.215982
      8          8           0        6.784018    6.784018    6.784018
      9          8           0       10.215982   10.215982    6.784018
 ---------------------------------------------------------------------
                    Distance matrix (angstroms):
                    1          2          3          4          5
     1  Ni   0.000000
     2  C    1.817784   0.000000
     3  C    1.817784   2.968429   0.000000
     4  C    1.817784   2.968429   2.968429   0.000000
     5  C    1.817784   2.968429   2.968429   2.968429   0.000000
     6  O    2.972168   1.154385   3.967362   3.967362   3.967362
     7  O    2.972168   3.967362   1.154385   3.967362   3.967362
     8  O    2.972168   3.967362   3.967362   1.154385   3.967362
     9  O    2.972168   3.967362   3.967362   3.967362   1.154385
                    6          7          8          9
     6  O    0.000000
     7  O    4.853531   0.000000
     8  O    4.853531   4.853531   0.000000
     9  O    4.853531   4.853531   4.853531   0.000000
 Stoichiometry    C4NiO4
 Framework group  TD[O(Ni),4C3(.CO)]
 Deg. of freedom     2
 Full point group                 TD      NOp  24
 Largest Abelian subgroup         D2      NOp   4
 Largest concise Abelian subgroup D2      NOp   4
                         Standard orientation:                         
 ---------------------------------------------------------------------
 Center     Atomic      Atomic             Coordinates (Angstroms)
 Number     Number       Type             X           Y           Z
 ---------------------------------------------------------------------
      1         28           0        0.000000    0.000000    0.000000
      2          6           0        1.049498    1.049498    1.049498
      3          6           0       -1.049498   -1.049498    1.049498
      4          6           0        1.049498   -1.049498   -1.049498
      5          6           0       -1.049498    1.049498   -1.049498
      6          8           0        1.715982    1.715982    1.715982
      7          8           0       -1.715982   -1.715982    1.715982
      8          8           0        1.715982   -1.715982   -1.715982
      9          8           0       -1.715982    1.715982   -1.715982
 ---------------------------------------------------------------------
 Rotational constants (GHZ):           1.0473586           1.0473586           1.0473586
 Standard basis: def2QZVPP (5D, 7F)
 There are   186 symmetry adapted cartesian basis functions of A   symmetry.
 There are   173 symmetry adapted cartesian basis functions of B1  symmetry.
 There are   173 symmetry adapted cartesian basis functions of B2  symmetry.
 There are   173 symmetry adapted cartesian basis functions of B3  symmetry.
 There are   145 symmetry adapted basis functions of A   symmetry.
 There are   137 symmetry adapted basis functions of B1  symmetry.
 There are   137 symmetry adapted basis functions of B2  symmetry.
 There are   137 symmetry adapted basis functions of B3  symmetry.
   556 basis functions,   944 primitive gaussians,   705 cartesian basis functions
    42 alpha electrons       42 beta electrons
       nuclear repulsion energy       600.3699310496 Hartrees.
 NAtoms=    9 NActive=    9 NUniq=    3 SFac= 4.00D+00 NAtFMM=   60 NAOKFM=F Big=F
 Integral buffers will be    131072 words long.
 Raffenetti 2 integral format.
 Two-electron integral symmetry is turned on.
 One-electron integrals computed using PRISM.
  24 Symmetry operations used in ECPInt.
 ECPInt:  NShTT=   13530 NPrTT=   42629 LenC2=   12113 LenP2D=   28069.
 LDataN:  DoStor=T MaxTD1= 8 Len=  415
 NBasis=   556 RedAO= T EigKep=  6.17D-05  NBF=   145   137   137   137
 NBsUse=   556 1.00D-06 EigRej= -1.00D+00 NBFU=   145   137   137   137
 ExpMin= 3.10D-02 ExpMax= 5.04D+06 ExpMxC= 5.73D+03 IAcc=3 IRadAn=         5 AccDes= 0.00D+00
 Harris functional with IExCor= 1009 and IRadAn=       5 diagonalized for initial guess.
 HarFok:  IExCor= 1009 AccDes= 0.00D+00 IRadAn=         5 IDoV= 1 UseB2=F ITyADJ=14
 ICtDFT=  3500011 ScaDFX=  1.000000  1.000000  1.000000  1.000000
 FoFCou: FMM=F IPFlag=           0 FMFlag=      100000 FMFlg1=           0
         NFxFlg=           0 DoJE=T BraDBF=F KetDBF=T FulRan=T
         wScrn=  0.000000 ICntrl=       500 IOpCl=  0 I1Cent=   200000004 NGrid=           0
         NMat0=    1 NMatS0=      1 NMatT0=    0 NMatD0=    1 NMtDS0=    0 NMtDT0=    0
 Petite list used in FoFCou.
 Initial guess orbital symmetries:
       Occupied  (A1) (A1) (T2) (T2) (T2) (T2) (T2) (T2) (A1) (T2)
                 (T2) (T2) (A1) (A1) (T2) (T2) (T2) (A1) (T2) (T2)
                 (T2) (A1) (T2) (T2) (T2) (A1) (T2) (T2) (T2) (E)
                 (E) (T2) (T2) (T2) (T1) (T1) (T1) (E) (E) (T2)
                 (T2) (T2)
       Virtual   (T1) (T1) (T1) (T2) (T2) (T2) (E) (E) (A1) (T2)
                 (T2) (T2) (T2) (T2) (T2) (E) (E) (A1) (T2) (T2)
                 (T2) (T1) (T1) (T1) (A1) (T2) (T2) (T2) (A1) (T2)
                 (T2) (T2) (T2) (T2) (T2) (E) (E) (T2) (T2) (T2)
                 (A1) (T1) (T1) (T1) (T2) (T2) (T2) (E) (E) (T2)
                 (T2) (T2) (T1) (T1) (T1) (A1) (T2) (T2) (T2) (E)
                 (E) (E) (E) (A1) (T2) (T2) (T2) (T1) (T1) (T1)
                 (T2) (T2) (T2) (A1) (T2) (T2) (T2) (T1) (T1) (T1)
                 (E) (E) (A1) (T2) (T2) (T2) (T2) (T2) (T2) (T2)
                 (T2) (T2) (E) (E) (A1) (T2) (T2) (T2) (T1) (T1)
                 (T1) (A1) (T2) (T2) (T2) (T1) (T1) (T1) (E) (E)
                 (T2) (T2) (T2) (T1) (T1) (T1) (E) (E) (A1) (T2)
                 (T2) (T2) (T2) (T2) (T2) (T2) (T2) (T2) (T1) (T1)
                 (T1) (A2) (E) (E) (T2) (T2) (T2) (E) (E) (T1)
                 (T1) (T1) (T1) (T1) (T1) (A1) (T2) (T2) (T2) (A1)
                 (E) (E) (T2) (T2) (T2) (T1) (T1) (T1) (T2) (T2)
                 (T2) (T2) (T2) (T2) (A1) (T2) (T2) (T2) (E) (E)
                 (T1) (T1) (T1) (A1) (T2) (T2) (T2) (E) (E) (T2)
                 (T2) (T2) (A1) (T1) (T1) (T1) (T2) (T2) (T2) (T2)
                 (T2) (T2) (E) (E) (T1) (T1) (T1) (T2) (T2) (T2)
                 (A1) (T2) (T2) (T2) (A2) (T1) (T1) (T1) (A1) (T2)
                 (T2) (T2) (E) (E) (T1) (T1) (T1) (T2) (T2) (T2)
                 (E) (E) (T1) (T1) (T1) (A1) (T2) (T2) (T2) (E)
                 (E) (T1) (T1) (T1) (T2) (T2) (T2) (A1) (T2) (T2)
                 (T2) (T2) (T2) (T2) (A1) (T1) (T1) (T1) (T2) (T2)
                 (T2) (E) (E) (A1) (T2) (T2) (T2) (E) (E) (T1)
                 (T1) (T1) (T2) (T2) (T2) (E) (E) (T1) (T1) (T1)
                 (T2) (T2) (T2) (A2) (A1) (T2) (T2) (T2) (T1) (T1)
                 (T1) (T2) (T2) (T2) (A1) (T1) (T1) (T1) (E) (E)
                 (T2) (T2) (T2) (E) (E) (A1) (T2) (T2) (T2) (T1)
                 (T1) (T1) (T2) (T2) (T2) (T1) (T1) (T1) (E) (E)
                 (T2) (T2) (T2) (T2) (T2) (T2) (A2) (T1) (T1) (T1)
                 (T2) (T2) (T2) (E) (E) (A1) (T1) (T1) (T1) (E)
                 (E) (T2) (T2) (T2) (E) (E) (T1) (T1) (T1) (T2)
                 (T2) (T2) (T2) (T2) (T2) (T1) (T1) (T1) (A1) (E)
                 (E) (A1) (T2) (T2) (T2) (T1) (T1) (T1) (E) (E)
                 (T2) (T2) (T2) (A1) (T2) (T2) (T2) (T1) (T1) (T1)
                 (T2) (T2) (T2) (A1) (E) (E) (T2) (T2) (T2) (T1)
                 (T1) (T1) (T2) (T2) (T2) (E) (E) (T1) (T1) (T1)
                 (T2) (T2) (T2) (A1) (A2) (T1) (T1) (T1) (T2) (T2)
                 (T2) (A1) (A1) (T2) (T2) (T2) (T1) (T1) (T1) (E)
                 (E) (T2) (T2) (T2) (T2) (T2) (T2) (A1) (E) (E)
                 (T2) (T2) (T2) (T1) (T1) (T1) (A2) (T2) (T2) (T2)
                 (A1) (T1) (T1) (T1) (E) (E) (T1) (T1) (T1) (T2)
                 (T2) (T2) (T2) (T2) (T2) (T1) (T1) (T1) (E) (E)
                 (A1) (T2) (T2) (T2) (T1) (T1) (T1) (E) (E) (T2)
                 (T2) (T2) (A1) (E) (E) (T2) (T2) (T2) (T1) (T1)
                 (T1) (A1) (T2) (T2) (T2) (A1) (T2) (T2) (T2) (T2)
                 (T2) (T2) (T1) (T1) (T1) (A1) (E) (E) (T1) (T1)
                 (T1) (T2) (T2) (T2) (A1) (T2) (T2) (T2) (A1) (A1)
                 (A1) (T2) (T2) (T2) (A1) (A1) (T2) (T2) (T2) (A1)
                 (T2) (T2) (T2) (A1)
 The electronic state of the initial guess is 1-A1.
 Requested convergence on RMS density matrix=1.00D-08 within 128 cycles.
 Requested convergence on MAX density matrix=1.00D-06.
 Requested convergence on             energy=1.00D-06.
 No special actions if energy rises.
 EnCoef did   100 forward-backward iterations
 EnCoef did   100 forward-backward iterations
 EnCoef did   100 forward-backward iterations
 SCF Done:  E(RTPSS-TPSS) =  -1962.13915628     A.U. after   14 cycles
            NFock= 14  Conv=0.80D-09     -V/T= 2.0021

 **********************************************************************

            Population analysis using the SCF Density.

 **********************************************************************

 Orbital symmetries:
       Occupied  (A1) (A1) (T2) (T2) (T2) (T2) (T2) (T2) (A1) (T2)
                 (T2) (T2) (A1) (A1) (T2) (T2) (T2) (A1) (T2) (T2)
                 (T2) (A1) (T2) (T2) (T2) (A1) (E) (E) (T2) (T2)
                 (T2) (T1) (T1) (T1) (T2) (T2) (T2) (E) (E) (T2)
                 (T2) (T2)
       Virtual   (T2) (T2) (T2) (E) (E) (T1) (T1) (T1) (A1) (T2)
                 (T2) (T2) (T2) (T2) (T2) (E) (E) (A1) (T2) (T2)
                 (T2) (T1) (T1) (T1) (T2) (T2) (T2) (A1) (A1) (T2)
                 (T2) (T2) (E) (E) (T2) (T2) (T2) (A1) (T2) (T2)
                 (T2) (T1) (T1) (T1) (E) (E) (T2) (T2) (T2) (T2)
                 (T2) (T2) (A1) (T1) (T1) (T1) (T2) (T2) (T2) (E)
                 (E) (E) (E) (A1) (T2) (T2) (T2) (T1) (T1) (T1)
                 (A1) (T2) (T2) (T2) (T2) (T2) (T2) (E) (E) (T1)
                 (T1) (T1) (T2) (T2) (T2) (A1) (T2) (T2) (T2) (T2)
                 (T2) (T2) (E) (E) (A1) (T2) (T2) (T2) (T1) (T1)
                 (T1) (A1) (T2) (T2) (T2) (T1) (T1) (T1) (E) (E)
                 (T2) (T2) (T2) (T1) (T1) (T1) (E) (E) (A1) (T2)
                 (T2) (T2) (T2) (T2) (T2) (T2) (T2) (T2) (T1) (T1)
                 (T1) (A2) (E) (E) (T2) (T2) (T2) (T1) (T1) (T1)
                 (E) (E) (T1) (T1) (T1) (A1) (T2) (T2) (T2) (A1)
                 (E) (E) (T2) (T2) (T2) (T1) (T1) (T1) (T2) (T2)
                 (T2) (T2) (T2) (T2) (A1) (T2) (T2) (T2) (E) (E)
                 (T1) (T1) (T1) (A1) (T2) (T2) (T2) (T2) (T2) (T2)
                 (E) (E) (A1) (T1) (T1) (T1) (T2) (T2) (T2) (T2)
                 (T2) (T2) (E) (E) (T1) (T1) (T1) (T2) (T2) (T2)
                 (A1) (T2) (T2) (T2) (A2) (T1) (T1) (T1) (A1) (T2)
                 (T2) (T2) (E) (E) (T1) (T1) (T1) (T2) (T2) (T2)
                 (E) (E) (T1) (T1) (T1) (A1) (T2) (T2) (T2) (E)
                 (E) (T1) (T1) (T1) (T2) (T2) (T2) (A1) (T2) (T2)
                 (T2) (T2) (T2) (T2) (A1) (T1) (T1) (T1) (T2) (T2)
                 (T2) (E) (E) (A1) (T2) (T2) (T2) (E) (E) (T1)
                 (T1) (T1) (T2) (T2) (T2) (E) (E) (T1) (T1) (T1)
                 (T2) (T2) (T2) (A2) (A1) (T2) (T2) (T2) (T1) (T1)
                 (T1) (T2) (T2) (T2) (A1) (T1) (T1) (T1) (E) (E)
                 (T2) (T2) (T2) (E) (E) (A1) (T2) (T2) (T2) (T2)
                 (T2) (T2) (T1) (T1) (T1) (T1) (T1) (T1) (E) (E)
                 (T2) (T2) (T2) (T2) (T2) (T2) (A2) (T1) (T1) (T1)
                 (T2) (T2) (T2) (E) (E) (A1) (T1) (T1) (T1) (E)
                 (E) (T2) (T2) (T2) (E) (E) (T1) (T1) (T1) (T2)
                 (T2) (T2) (T2) (T2) (T2) (T1) (T1) (T1) (A1) (E)
                 (E) (A1) (T2) (T2) (T2) (T1) (T1) (T1) (E) (E)
                 (T2) (T2) (T2) (A1) (T2) (T2) (T2) (T1) (T1) (T1)
                 (T2) (T2) (T2) (A1) (E) (E) (T2) (T2) (T2) (T1)
                 (T1) (T1) (T2) (T2) (T2) (E) (E) (T1) (T1) (T1)
                 (T2) (T2) (T2) (A1) (A2) (T1) (T1) (T1) (T2) (T2)
                 (T2) (A1) (A1) (T2) (T2) (T2) (T1) (T1) (T1) (E)
                 (E) (T2) (T2) (T2) (T2) (T2) (T2) (A1) (E) (E)
                 (T2) (T2) (T2) (T1) (T1) (T1) (A2) (T2) (T2) (T2)
                 (A1) (T1) (T1) (T1) (E) (E) (T1) (T1) (T1) (T2)
                 (T2) (T2) (T2) (T2) (T2) (T1) (T1) (T1) (E) (E)
                 (A1) (T2) (T2) (T2) (T1) (T1) (T1) (T2) (T2) (T2)
                 (E) (E) (A1) (E) (E) (T2) (T2) (T2) (T1) (T1)
                 (T1) (A1) (T2) (T2) (T2) (A1) (T2) (T2) (T2) (T2)
                 (T2) (T2) (T1) (T1) (T1) (A1) (E) (E) (T1) (T1)
                 (T1) (T2) (T2) (T2) (A1) (T2) (T2) (T2) (A1) (A1)
                 (A1) (T2) (T2) (T2) (A1) (A1) (T2) (T2) (T2) (A1)
                 (T2) (T2) (T2) (A1)
 The electronic state is 1-A1.
 Alpha  occ. eigenvalues -- -299.01653 -35.44294 -30.88098 -30.88098 -30.88098
 Alpha  occ. eigenvalues --  -18.98014 -18.98014 -18.98014 -18.98014 -10.11691
 Alpha  occ. eigenvalues --  -10.11691 -10.11691 -10.11691  -3.93754  -2.54400
 Alpha  occ. eigenvalues --   -2.54400  -2.54400  -1.07712  -1.07681  -1.07681
 Alpha  occ. eigenvalues --   -1.07681  -0.55921  -0.53241  -0.53241  -0.53241
 Alpha  occ. eigenvalues --   -0.45684  -0.43316  -0.43316  -0.43175  -0.43175
 Alpha  occ. eigenvalues --   -0.43175  -0.42312  -0.42312  -0.42312  -0.42080
 Alpha  occ. eigenvalues --   -0.42080  -0.42080  -0.28746  -0.28746  -0.24616
 Alpha  occ. eigenvalues --   -0.24616  -0.24616
 Alpha virt. eigenvalues --   -0.08262  -0.08262  -0.08262  -0.07464  -0.07464
 Alpha virt. eigenvalues --   -0.05893  -0.05893  -0.05893   0.00009   0.02401
 Alpha virt. eigenvalues --    0.02401   0.02401   0.09316   0.09316   0.09316
 Alpha virt. eigenvalues --    0.11258   0.11258   0.15438   0.16956   0.16956
 Alpha virt. eigenvalues --    0.16956   0.18697   0.18697   0.18697   0.20625
 Alpha virt. eigenvalues --    0.20625   0.20625   0.22386   0.24269   0.25748
 Alpha virt. eigenvalues --    0.25748   0.25748   0.29190   0.29190   0.31050
 Alpha virt. eigenvalues --    0.31050   0.31050   0.35527   0.35890   0.35890
 Alpha virt. eigenvalues --    0.35890   0.40265   0.40265   0.40265   0.41652
 Alpha virt. eigenvalues --    0.41652   0.42384   0.42384   0.42384   0.49037
 Alpha virt. eigenvalues --    0.49037   0.49037   0.53381   0.54011   0.54011
 Alpha virt. eigenvalues --    0.54011   0.55713   0.55713   0.55713   0.57745
 Alpha virt. eigenvalues --    0.57745   0.60504   0.60504   0.62787   0.64816
 Alpha virt. eigenvalues --    0.64816   0.64816   0.73135   0.73135   0.73135
 Alpha virt. eigenvalues --    0.74708   0.75807   0.75807   0.75807   0.78835
 Alpha virt. eigenvalues --    0.78835   0.78835   0.83315   0.83315   0.83644
 Alpha virt. eigenvalues --    0.83644   0.83644   0.88948   0.88948   0.88948
 Alpha virt. eigenvalues --    0.88993   0.98173   0.98173   0.98173   1.04800
 Alpha virt. eigenvalues --    1.04800   1.04800   1.07282   1.07282   1.07927
 Alpha virt. eigenvalues --    1.09566   1.09566   1.09566   1.10041   1.10041
 Alpha virt. eigenvalues --    1.10041   1.18160   1.25246   1.25246   1.25246
 Alpha virt. eigenvalues --    1.26472   1.26472   1.26472   1.34329   1.34329
 Alpha virt. eigenvalues --    1.35045   1.35045   1.35045   1.35915   1.35915
 Alpha virt. eigenvalues --    1.35915   1.39200   1.39200   1.47783   1.49817
 Alpha virt. eigenvalues --    1.49817   1.49817   1.53874   1.53874   1.53874
 Alpha virt. eigenvalues --    1.62204   1.62204   1.62204   1.66751   1.66751
 Alpha virt. eigenvalues --    1.66751   1.66819   1.67653   1.67653   1.76653
 Alpha virt. eigenvalues --    1.76653   1.76653   1.77569   1.77569   1.77569
 Alpha virt. eigenvalues --    1.78464   1.78464   1.82874   1.82874   1.82874
 Alpha virt. eigenvalues --    1.84660   1.89196   1.89196   1.89196   1.92136
 Alpha virt. eigenvalues --    1.94929   1.94929   1.95076   1.95076   1.95076
 Alpha virt. eigenvalues --    1.98587   1.98587   1.98587   2.02348   2.02348
 Alpha virt. eigenvalues --    2.02348   2.12985   2.12985   2.12985   2.15685
 Alpha virt. eigenvalues --    2.26145   2.26145   2.26145   2.26596   2.26596
 Alpha virt. eigenvalues --    2.27732   2.27732   2.27732   2.32989   2.37067
 Alpha virt. eigenvalues --    2.37067   2.37067   2.40422   2.40422   2.40422
 Alpha virt. eigenvalues --    2.40728   2.40728   2.41331   2.43444   2.43444
 Alpha virt. eigenvalues --    2.43444   2.53155   2.53155   2.53155   2.67093
 Alpha virt. eigenvalues --    2.67093   2.67093   2.77182   2.77182   2.83921
 Alpha virt. eigenvalues --    2.83921   2.83921   2.92032   2.92032   2.92032
 Alpha virt. eigenvalues --    2.99134   3.06088   3.06088   3.06088   3.07831
 Alpha virt. eigenvalues --    3.11677   3.11677   3.11677   3.12221   3.15202
 Alpha virt. eigenvalues --    3.15202   3.15202   3.24571   3.24571   3.33390
 Alpha virt. eigenvalues --    3.33390   3.33390   3.39722   3.39722   3.39722
 Alpha virt. eigenvalues --    3.59271   3.59271   3.64089   3.64089   3.64089
 Alpha virt. eigenvalues --    3.77202   3.77228   3.77228   3.77228   3.80969
 Alpha virt. eigenvalues --    3.80969   3.83087   3.83087   3.83087   3.86096
 Alpha virt. eigenvalues --    3.86096   3.86096   3.88156   3.93682   3.93682
 Alpha virt. eigenvalues --    3.93682   4.04856   4.04856   4.04856   4.08313
 Alpha virt. eigenvalues --    4.13106   4.13106   4.13106   4.17558   4.17558
 Alpha virt. eigenvalues --    4.17558   4.17710   4.17710   4.52838   4.53493
 Alpha virt. eigenvalues --    4.53493   4.53493   4.61792   4.61792   4.64122
 Alpha virt. eigenvalues --    4.64122   4.64122   4.65319   4.65319   4.65319
 Alpha virt. eigenvalues --    4.77227   4.77227   4.77758   4.77758   4.77758
 Alpha virt. eigenvalues --    4.78173   4.78173   4.78173   4.91235   4.94390
 Alpha virt. eigenvalues --    4.96083   4.96083   4.96083   5.00447   5.00447
 Alpha virt. eigenvalues --    5.00447   5.02543   5.02543   5.02543   5.04126
 Alpha virt. eigenvalues --    5.22390   5.22390   5.22390   5.25230   5.25230
 Alpha virt. eigenvalues --    5.25564   5.25564   5.25564   5.46453   5.46453
 Alpha virt. eigenvalues --    5.55048   5.57938   5.57938   5.57938   5.58631
 Alpha virt. eigenvalues --    5.58631   5.58631   5.58771   5.58771   5.58771
 Alpha virt. eigenvalues --    5.63284   5.63284   5.63284   5.68771   5.68771
 Alpha virt. eigenvalues --    5.72081   5.72081   5.72081   5.80852   5.80852
 Alpha virt. eigenvalues --    5.80852   5.85845   5.88139   5.88139   5.88139
 Alpha virt. eigenvalues --    5.89666   5.89666   5.89666   5.90496   5.90496
 Alpha virt. eigenvalues --    5.92902   6.04786   6.04786   6.04786   6.06858
 Alpha virt. eigenvalues --    6.06858   6.13135   6.13135   6.13135   6.13641
 Alpha virt. eigenvalues --    6.13641   6.15189   6.15189   6.15189   6.24889
 Alpha virt. eigenvalues --    6.24889   6.24889   6.35123   6.35123   6.35123
 Alpha virt. eigenvalues --    6.35332   6.35332   6.35332   6.35566   6.40507
 Alpha virt. eigenvalues --    6.40507   6.48754   6.52713   6.52713   6.52713
 Alpha virt. eigenvalues --    6.62791   6.62791   6.62791   6.77796   6.77796
 Alpha virt. eigenvalues --    6.82801   6.82801   6.82801   6.91545   7.05304
 Alpha virt. eigenvalues --    7.05304   7.05304   7.16447   7.16447   7.16447
 Alpha virt. eigenvalues --    7.57179   7.57179   7.57179   7.58476   7.76035
 Alpha virt. eigenvalues --    7.76035   7.91537   7.91537   7.91537   8.19802
 Alpha virt. eigenvalues --    8.19802   8.19802   8.36554   8.36554   8.36554
 Alpha virt. eigenvalues --    8.85578   8.85578   8.85579   8.85579   8.85579
 Alpha virt. eigenvalues --    8.85583   8.85583   8.85583   8.93078   9.11050
 Alpha virt. eigenvalues --    9.11354   9.11354   9.11354   9.11426   9.11426
 Alpha virt. eigenvalues --    9.11426   9.12199   9.69339   9.69460   9.69460
 Alpha virt. eigenvalues --    9.69460   9.93394   9.93394   9.93394   9.94617
 Alpha virt. eigenvalues --    9.94617   9.96424   9.96424   9.96424  10.23643
 Alpha virt. eigenvalues --   10.23643  10.23643  10.25669  10.48769  10.48769
 Alpha virt. eigenvalues --   10.49321  10.49321  10.49321  10.49696  10.49696
 Alpha virt. eigenvalues --   10.49696  10.89483  10.89694  10.89694  10.89694
 Alpha virt. eigenvalues --   10.89780  10.89798  10.89798  10.89798  11.29723
 Alpha virt. eigenvalues --   11.29723  11.30836  11.30836  11.30836  11.32987
 Alpha virt. eigenvalues --   11.32987  11.32987  11.88552  11.88552  11.88552
 Alpha virt. eigenvalues --   11.90259  11.90259  11.90259  11.90407  11.90407
 Alpha virt. eigenvalues --   11.93740  11.95350  11.95350  11.95350  11.96054
 Alpha virt. eigenvalues --   11.96054  11.96054  11.98272  11.98272  11.98272
 Alpha virt. eigenvalues --   11.98651  11.98651  12.55926  13.34990  13.34990
 Alpha virt. eigenvalues --   13.37445  13.37445  13.37445  13.39951  13.39951
 Alpha virt. eigenvalues --   13.39951  13.81007  13.88765  13.88765  13.88765
 Alpha virt. eigenvalues --   14.49211  14.56563  14.56563  14.56563  20.39833
 Alpha virt. eigenvalues --   20.39833  20.39833  20.40318  20.40318  20.40318
 Alpha virt. eigenvalues --   20.60374  22.16135  22.16135  22.21779  22.21779
 Alpha virt. eigenvalues --   22.21779  22.35650  22.35650  22.35650  22.43652
 Alpha virt. eigenvalues --   28.18908  28.18908  28.18908  28.19435  41.10972
 Alpha virt. eigenvalues --   47.88954  47.96651  47.96651  47.96651 137.43834
 Alpha virt. eigenvalues --  148.82644 148.85036 148.85036 148.85036 255.00528
 Alpha virt. eigenvalues --  255.09325 255.09325 255.09325 871.05874
          Condensed to atoms (all electrons):
               1          2          3          4          5          6
     1  Ni  26.899705   0.324262   0.324262   0.324262   0.324262  -0.072630
     2  C    0.324262   5.056745   0.003911   0.003911   0.003911   0.552316
     3  C    0.324262   0.003911   5.056745   0.003911   0.003911  -0.000118
     4  C    0.324262   0.003911   0.003911   5.056745   0.003911  -0.000118
     5  C    0.324262   0.003911   0.003911   0.003911   5.056745  -0.000118
     6  O   -0.072630   0.552316  -0.000118  -0.000118  -0.000118   7.599113
     7  O   -0.072630  -0.000118   0.552316  -0.000118  -0.000118   0.000099
     8  O   -0.072630  -0.000118  -0.000118   0.552316  -0.000118   0.000099
     9  O   -0.072630  -0.000118  -0.000118  -0.000118   0.552316   0.000099
               7          8          9
     1  Ni  -0.072630  -0.072630  -0.072630
     2  C   -0.000118  -0.000118  -0.000118
     3  C    0.552316  -0.000118  -0.000118
     4  C   -0.000118   0.552316  -0.000118
     5  C   -0.000118  -0.000118   0.552316
     6  O    0.000099   0.000099   0.000099
     7  O    7.599113   0.000099   0.000099
     8  O    0.000099   7.599113   0.000099
     9  O    0.000099   0.000099   7.599113
 Mulliken charges:
               1
     1  Ni   0.093768
     2  C    0.055298
     3  C    0.055298
     4  C    0.055298
     5  C    0.055298
     6  O   -0.078740
     7  O   -0.078740
     8  O   -0.078740
     9  O   -0.078740
 Sum of Mulliken charges =   0.00000
 Mulliken charges with hydrogens summed into heavy atoms:
               1
     1  Ni   0.093768
     2  C    0.055298
     3  C    0.055298
     4  C    0.055298
     5  C    0.055298
     6  O   -0.078740
     7  O   -0.078740
     8  O   -0.078740
     9  O   -0.078740
 Electronic spatial extent (au):  <R**2>=           1423.9937
 Charge=             -0.0000 electrons
 Dipole moment (field-independent basis, Debye):
    X=             -0.0000    Y=              0.0000    Z=              0.0000  Tot=              0.0000
 Quadrupole moment (field-independent basis, Debye-Ang):
   XX=            -58.8770   YY=            -58.8770   ZZ=            -58.8770
   XY=             -0.0000   XZ=              0.0000   YZ=              0.0000
 Traceless Quadrupole moment (field-independent basis, Debye-Ang):
   XX=              0.0000   YY=              0.0000   ZZ=             -0.0000
   XY=             -0.0000   XZ=              0.0000   YZ=              0.0000
 Octapole moment (field-independent basis, Debye-Ang**2):
  XXX=              0.0000  YYY=              0.0000  ZZZ=              0.0000  XYY=             -0.0000
  XXY=             -0.0000  XXZ=              0.0000  XZZ=             -0.0000  YZZ=              0.0000
  YYZ=              0.0000  XYZ=            -10.6045
 Hexadecapole moment (field-independent basis, Debye-Ang**3):
 XXXX=           -570.9405 YYYY=           -570.9405 ZZZZ=           -570.9405 XXXY=              0.0000
 XXXZ=              0.0000 YYYX=             -0.0000 YYYZ=              0.0000 ZZZX=              0.0000
 ZZZY=             -0.0000 XXYY=           -207.2394 XXZZ=           -207.2394 YYZZ=           -207.2394
 XXYZ=              0.0000 YYXZ=             -0.0000 ZZXY=             -0.0000
 N-N= 6.003699310496D+02 E-N=-5.866032967578D+03  KE= 1.958043556586D+03
 Symmetry A    KE= 1.073012354491D+03
 Symmetry B1   KE= 2.950104006983D+02
 Symmetry B2   KE= 2.950104006983D+02
 Symmetry B3   KE= 2.950104006983D+02
  24 Symmetry operations used in ECPInt.
 ECPInt:  NShTT=   13530 NPrTT=   42629 LenC2=   12113 LenP2D=   28069.
 LDataN:  DoStor=T MaxTD1= 9 Len=  602
 Calling FoFJK, ICntrl=      2527 FMM=F ISym2X=1 I1Cent= 0 IOpClX= 0 NMat=1 NMatS=1 NMatT=0.
 ***** Axes restored to original set *****
 -------------------------------------------------------------------
 Center     Atomic                   Forces (Hartrees/Bohr)
 Number     Number              X              Y              Z
 -------------------------------------------------------------------
      1       28          -0.000000000   -0.000000000    0.000000000
      2        6           0.012298809   -0.012298809    0.012298809
      3        6          -0.012298809    0.012298809    0.012298809
      4        6          -0.012298809   -0.012298809   -0.012298809
      5        6           0.012298809    0.012298809   -0.012298809
      6        8          -0.010478849    0.010478849   -0.010478849
      7        8           0.010478849   -0.010478849   -0.010478849
      8        8           0.010478849    0.010478849    0.010478849
      9        8          -0.010478849   -0.010478849    0.010478849
 -------------------------------------------------------------------
 Cartesian Forces:  Max     0.012298809 RMS     0.010771712

 GradGradGradGradGradGradGradGradGradGradGradGradGradGradGradGradGradGrad
 Berny optimization.
 FormGI is forming the generalized inverse of G from B-inverse, IUseBI=4.
 Internal  Forces:  Max     0.018149899 RMS     0.007225549
 Search for a local minimum.
 Step number   1 out of a maximum of   36
 All quantities printed in internal units (Hartrees-Bohrs-Radians)
 Mixed Optimization -- RFO/linear search
 Second derivative matrix not updated -- first step.
 ITU=  0
     Eigenvalues ---    0.04941   0.04941   0.04941   0.04941   0.04941
     Eigenvalues ---    0.04941   0.04941   0.04941   0.11084   0.11890
     Eigenvalues ---    0.15619   0.22937   0.22937   0.22937   0.22937
     Eigenvalues ---    0.25000   0.25000   1.31540   1.31540   1.31540
     Eigenvalues ---    1.31540
 RFO step:  Lambda=-1.17323717D-03 EMin= 4.94080079D-02
 Linear search not attempted -- first point.
 Iteration  1 RMS(Cart)=  0.00536315 RMS(Int)=  0.00000001
 Iteration  2 RMS(Cart)=  0.00000004 RMS(Int)=  0.00000000
 ClnCor:  largest displacement from symmetrization is 2.17D-08 for atom     9.
 Variable       Old X    -DE/DX   Delta X   Delta X   Delta X     New X
                                 (Linear)    (Quad)   (Total)
    R1        3.43511   0.00315   0.00000   0.01367   0.01367   3.44879
    R2        3.43511   0.00315   0.00000   0.01367   0.01367   3.44879
    R3        3.43511   0.00315   0.00000   0.01367   0.01367   3.44879
    R4        3.43511   0.00315   0.00000   0.01367   0.01367   3.44879
    R5        2.18147  -0.01815   0.00000  -0.01379  -0.01379   2.16769
    R6        2.18147  -0.01815   0.00000  -0.01379  -0.01379   2.16769
    R7        2.18147  -0.01815   0.00000  -0.01379  -0.01379   2.16769
    R8        2.18147  -0.01815   0.00000  -0.01379  -0.01379   2.16769
    A1        1.91063   0.00000   0.00000   0.00000   0.00000   1.91063
    A2        1.91063   0.00000   0.00000   0.00000   0.00000   1.91063
    A3        1.91063   0.00000   0.00000   0.00000  -0.00000   1.91063
    A4        1.91063  -0.00000   0.00000  -0.00000   0.00000   1.91063
    A5        1.91063  -0.00000   0.00000  -0.00000  -0.00000   1.91063
    A6        1.91063   0.00000   0.00000   0.00000   0.00000   1.91063
    A7        3.14159   0.00000   0.00000   0.00000  -0.00000   3.14159
    A8        3.14159   0.00000   0.00000   0.00000  -0.00000   3.14159
    A9        3.14159   0.00000   0.00000   0.00000   0.00000   3.14159
   A10        3.14159   0.00000   0.00000   0.00000   0.00000   3.14159
   A11        3.14159  -0.00000   0.00000  -0.00000  -0.00000   3.14159
   A12        3.14159   0.00000   0.00000   0.00000  -0.00000   3.14159
   A13        3.14159  -0.00000   0.00000  -0.00000  -0.00000   3.14159
   A14        3.14159   0.00000   0.00000   0.00000   0.00000   3.14159
    D1        2.09440   0.00000   0.00000   0.00000   0.00000   2.09440
    D2       -2.09440  -0.00000   0.00000  -0.00000  -0.00000  -2.09440
    D3        2.09440   0.00000   0.00000   0.00000   0.00000   2.09440
    D4       -2.09440   0.00000   0.00000   0.00000   0.00000  -2.09440
         Item               Value     Threshold  Converged?
 Maximum Force            0.018150     0.000450     NO 
 RMS     Force            0.007226     0.000300     NO 
 Maximum Displacement     0.007894     0.001800     NO 
 RMS     Displacement     0.005363     0.001200     NO 
 Predicted change in Energy=-5.875045D-04
 GradGradGradGradGradGradGradGradGradGradGradGradGradGradGradGradGradGrad

                          Input orientation:                          
 ---------------------------------------------------------------------
 Center     Atomic      Atomic             Coordinates (Angstroms)
 Number     Number       Type             X           Y           Z
 ---------------------------------------------------------------------
      1         28           0        8.500000    8.500000    8.500000
      2          6           0        9.553675    7.446325    9.553675
      3          6           0        7.446325    9.553675    9.553675
      4          6           0        7.446325    7.446325    7.446325
      5          6           0        9.553675    9.553675    7.446325
      6          8           0       10.215948    6.784052   10.215948
      7          8           0        6.784052   10.215948   10.215948
      8          8           0        6.784052    6.784052    6.784052
      9          8           0       10.215948   10.215948    6.784052
 ---------------------------------------------------------------------
                    Distance matrix (angstroms):
                    1          2          3          4          5
     1  Ni   0.000000
     2  C    1.825019   0.000000
     3  C    1.825019   2.980244   0.000000
     4  C    1.825019   2.980244   2.980244   0.000000
     5  C    1.825019   2.980244   2.980244   2.980244   0.000000
     6  O    2.972109   1.147090   3.972434   3.972434   3.972434
     7  O    2.972109   3.972434   1.147090   3.972434   3.972434
     8  O    2.972109   3.972434   3.972434   1.147090   3.972434
     9  O    2.972109   3.972434   3.972434   3.972434   1.147090
                    6          7          8          9
     6  O    0.000000
     7  O    4.853433   0.000000
     8  O    4.853433   4.853433   0.000000
     9  O    4.853433   4.853433   4.853433   0.000000
 Stoichiometry    C4NiO4
 Framework group  TD[O(Ni),4C3(.CO)]
 Deg. of freedom     2
 Full point group                 TD      NOp  24
 Largest Abelian subgroup         D2      NOp   4
 Largest concise Abelian subgroup D2      NOp   4
                         Standard orientation:                         
 ---------------------------------------------------------------------
 Center     Atomic      Atomic             Coordinates (Angstroms)
 Number     Number       Type             X           Y           Z
 ---------------------------------------------------------------------
      1         28           0        0.000000    0.000000    0.000000
      2          6           0        1.053675    1.053675    1.053675
      3          6           0       -1.053675   -1.053675    1.053675
      4          6           0        1.053675   -1.053675   -1.053675
      5          6           0       -1.053675    1.053675   -1.053675
      6          8           0        1.715948    1.715948    1.715948
      7          8           0       -1.715948   -1.715948    1.715948
      8          8           0        1.715948   -1.715948   -1.715948
      9          8           0       -1.715948    1.715948   -1.715948
 ---------------------------------------------------------------------
 Rotational constants (GHZ):           1.0455638           1.0455638           1.0455638
 Standard basis: def2QZVPP (5D, 7F)
 There are   186 symmetry adapted cartesian basis functions of A   symmetry.
 There are   173 symmetry adapted cartesian basis functions of B1  symmetry.
 There are   173 symmetry adapted cartesian basis functions of B2  symmetry.
 There are   173 symmetry adapted cartesian basis functions of B3  symmetry.
 There are   145 symmetry adapted basis functions of A   symmetry.
 There are   137 symmetry adapted basis functions of B1  symmetry.
 There are   137 symmetry adapted basis functions of B2  symmetry.
 There are   137 symmetry adapted basis functions of B3  symmetry.
   556 basis functions,   944 primitive gaussians,   705 cartesian basis functions
    42 alpha electrons       42 beta electrons
       nuclear repulsion energy       599.9073939726 Hartrees.
 NAtoms=    9 NActive=    9 NUniq=    3 SFac= 4.00D+00 NAtFMM=   60 NAOKFM=F Big=F
 Integral buffers will be    131072 words long.
 Raffenetti 2 integral format.
 Two-electron integral symmetry is turned on.
 One-electron integrals computed using PRISM.
  24 Symmetry operations used in ECPInt.
 ECPInt:  NShTT=   13530 NPrTT=   42629 LenC2=   12113 LenP2D=   28057.
 LDataN:  DoStor=T MaxTD1= 8 Len=  415
 NBasis=   556 RedAO= T EigKep=  6.30D-05  NBF=   145   137   137   137
 NBsUse=   556 1.00D-06 EigRej= -1.00D+00 NBFU=   145   137   137   137
 Initial guess from the checkpoint file:  "/data/hutter/SMG16/TPSS/Gau-85954.chk"
 B after Tr=    -0.000000    0.000000   -0.000000
         Rot=    1.000000    0.000000   -0.000000    0.000000 Ang=   0.00 deg.
 Initial guess orbital symmetries:
       Occupied  (A1) (A1) (T2) (T2) (T2) (T2) (T2) (T2) (A1) (T2)
                 (T2) (T2) (A1) (A1) (T2) (T2) (T2) (A1) (T2) (T2)
                 (T2) (A1) (T2) (T2) (T2) (A1) (E) (E) (T2) (T2)
                 (T2) (T1) (T1) (T1) (T2) (T2) (T2) (E) (E) (T2)
                 (T2) (T2)
       Virtual   (T2) (T2) (T2) (E) (E) (T1) (T1) (T1) (A1) (T2)
                 (T2) (T2) (T2) (T2) (T2) (E) (E) (A1) (T2) (T2)
                 (T2) (T1) (T1) (T1) (T2) (T2) (T2) (A1) (A1) (T2)
                 (T2) (T2) (E) (E) (T2) (T2) (T2) (A1) (T2) (T2)
                 (T2) (T1) (T1) (T1) (E) (E) (T2) (T2) (T2) (T2)
                 (T2) (T2) (A1) (T1) (T1) (T1) (T2) (T2) (T2) (E)
                 (E) (E) (E) (A1) (T2) (T2) (T2) (T1) (T1) (T1)
                 (A1) (T2) (T2) (T2) (T2) (T2) (T2) (E) (E) (T1)
                 (T1) (T1) (T2) (T2) (T2) (A1) (T2) (T2) (T2) (T2)
                 (T2) (T2) (E) (E) (A1) (T2) (T2) (T2) (T1) (T1)
                 (T1) (A1) (T2) (T2) (T2) (T1) (T1) (T1) (E) (E)
                 (T2) (T2) (T2) (T1) (T1) (T1) (E) (E) (A1) (T2)
                 (T2) (T2) (T2) (T2) (T2) (T2) (T2) (T2) (T1) (T1)
                 (T1) (A2) (E) (E) (T2) (T2) (T2) (T1) (T1) (T1)
                 (E) (E) (T1) (T1) (T1) (A1) (T2) (T2) (T2) (A1)
                 (E) (E) (T2) (T2) (T2) (T1) (T1) (T1) (T2) (T2)
                 (T2) (T2) (T2) (T2) (A1) (T2) (T2) (T2) (E) (E)
                 (T1) (T1) (T1) (A1) (T2) (T2) (T2) (T2) (T2) (T2)
                 (E) (E) (A1) (T1) (T1) (T1) (T2) (T2) (T2) (T2)
                 (T2) (T2) (E) (E) (T1) (T1) (T1) (T2) (T2) (T2)
                 (A1) (T2) (T2) (T2) (A2) (T1) (T1) (T1) (A1) (T2)
                 (T2) (T2) (E) (E) (T1) (T1) (T1) (T2) (T2) (T2)
                 (E) (E) (T1) (T1) (T1) (A1) (T2) (T2) (T2) (E)
                 (E) (T1) (T1) (T1) (T2) (T2) (T2) (A1) (T2) (T2)
                 (T2) (T2) (T2) (T2) (A1) (T1) (T1) (T1) (T2) (T2)
                 (T2) (E) (E) (A1) (T2) (T2) (T2) (E) (E) (T1)
                 (T1) (T1) (T2) (T2) (T2) (E) (E) (T1) (T1) (T1)
                 (T2) (T2) (T2) (A2) (A1) (T2) (T2) (T2) (T1) (T1)
                 (T1) (T2) (T2) (T2) (A1) (T1) (T1) (T1) (E) (E)
                 (T2) (T2) (T2) (E) (E) (A1) (T2) (T2) (T2) (T2)
                 (T2) (T2) (T1) (T1) (T1) (T1) (T1) (T1) (E) (E)
                 (T2) (T2) (T2) (T2) (T2) (T2) (A2) (T1) (T1) (T1)
                 (T2) (T2) (T2) (E) (E) (A1) (T1) (T1) (T1) (E)
                 (E) (T2) (T2) (T2) (E) (E) (T1) (T1) (T1) (T2)
                 (T2) (T2) (T2) (T2) (T2) (T1) (T1) (T1) (A1) (E)
                 (E) (A1) (T2) (T2) (T2) (T1) (T1) (T1) (E) (E)
                 (T2) (T2) (T2) (A1) (T2) (T2) (T2) (T1) (T1) (T1)
                 (T2) (T2) (T2) (A1) (E) (E) (T2) (T2) (T2) (T1)
                 (T1) (T1) (T2) (T2) (T2) (E) (E) (T1) (T1) (T1)
                 (T2) (T2) (T2) (A1) (A2) (T1) (T1) (T1) (T2) (T2)
                 (T2) (A1) (A1) (T2) (T2) (T2) (T1) (T1) (T1) (E)
                 (E) (T2) (T2) (T2) (T2) (T2) (T2) (A1) (E) (E)
                 (T2) (T2) (T2) (T1) (T1) (T1) (A2) (T2) (T2) (T2)
                 (A1) (T1) (T1) (T1) (E) (E) (T1) (T1) (T1) (T2)
                 (T2) (T2) (T2) (T2) (T2) (T1) (T1) (T1) (E) (E)
                 (A1) (T2) (T2) (T2) (T1) (T1) (T1) (T2) (T2) (T2)
                 (E) (E) (A1) (E) (E) (T2) (T2) (T2) (T1) (T1)
                 (T1) (A1) (T2) (T2) (T2) (A1) (T2) (T2) (T2) (T2)
                 (T2) (T2) (T1) (T1) (T1) (A1) (E) (E) (T1) (T1)
                 (T1) (T2) (T2) (T2) (A1) (T2) (T2) (T2) (A1) (A1)
                 (A1) (T2) (T2) (T2) (A1) (A1) (T2) (T2) (T2) (A1)
                 (T2) (T2) (T2) (A1)
 Requested convergence on RMS density matrix=1.00D-08 within 128 cycles.
 Requested convergence on MAX density matrix=1.00D-06.
 Requested convergence on             energy=1.00D-06.
 No special actions if energy rises.
 EnCoef did     3 forward-backward iterations
 EnCoef did    13 forward-backward iterations
 EnCoef did     3 forward-backward iterations
 SCF Done:  E(RTPSS-TPSS) =  -1962.13987089     A.U. after    9 cycles
            NFock=  9  Conv=0.28D-08     -V/T= 2.0020
  24 Symmetry operations used in ECPInt.
 ECPInt:  NShTT=   13530 NPrTT=   42629 LenC2=   12113 LenP2D=   28057.
 LDataN:  DoStor=T MaxTD1= 9 Len=  602
 Calling FoFJK, ICntrl=      2527 FMM=F ISym2X=1 I1Cent= 0 IOpClX= 0 NMat=1 NMatS=1 NMatT=0.
 ***** Axes restored to original set *****
 -------------------------------------------------------------------
 Center     Atomic                   Forces (Hartrees/Bohr)
 Number     Number              X              Y              Z
 -------------------------------------------------------------------
      1       28           0.000000000    0.000000000   -0.000000000
      2        6           0.002621027   -0.002621027    0.002621027
      3        6          -0.002621027    0.002621027    0.002621027
      4        6          -0.002621027   -0.002621027   -0.002621027
      5        6           0.002621027    0.002621027   -0.002621027
      6        8          -0.001999033    0.001999033   -0.001999033
      7        8           0.001999033   -0.001999033   -0.001999033
      8        8           0.001999033    0.001999033    0.001999033
      9        8          -0.001999033   -0.001999033    0.001999033
 -------------------------------------------------------------------
 Cartesian Forces:  Max     0.002621027 RMS     0.002197566

 GradGradGradGradGradGradGradGradGradGradGradGradGradGradGradGradGradGrad
 Berny optimization.
 Using GEDIIS/GDIIS optimizer.
 FormGI is forming the generalized inverse of G from B-inverse, IUseBI=4.
 Internal  Forces:  Max     0.003462427 RMS     0.001422297
 Search for a local minimum.
 Step number   2 out of a maximum of   36
 All quantities printed in internal units (Hartrees-Bohrs-Radians)
 Mixed Optimization -- RFO/linear search
 Update second derivatives using D2CorX and points    1    2
 DE= -7.15D-04 DEPred=-5.88D-04 R= 1.22D+00
 TightC=F SS=  1.41D+00  RLast= 3.88D-02 DXNew= 5.0454D-01 1.1650D-01
 Trust test= 1.22D+00 RLast= 3.88D-02 DXMaxT set to 3.00D-01
 ITU=  1  0
 Use linear search instead of GDIIS.
     Eigenvalues ---    0.04941   0.04941   0.04941   0.04941   0.04941
     Eigenvalues ---    0.04941   0.04941   0.04941   0.11084   0.11890
     Eigenvalues ---    0.15619   0.21022   0.22937   0.22937   0.22937
     Eigenvalues ---    0.25000   0.25000   1.13129   1.31540   1.31540
     Eigenvalues ---    1.31540
 RFO step:  Lambda=-4.58723529D-06 EMin= 4.94080079D-02
 Quartic linear search produced a step of  0.26390.
 Iteration  1 RMS(Cart)=  0.00243596 RMS(Int)=  0.00000000
 Iteration  2 RMS(Cart)=  0.00000000 RMS(Int)=  0.00000000
 ClnCor:  largest displacement from symmetrization is 1.10D-08 for atom     6.
 Variable       Old X    -DE/DX   Delta X   Delta X   Delta X     New X
                                 (Linear)    (Quad)   (Total)
    R1        3.44879   0.00108   0.00361   0.00212   0.00573   3.45452
    R2        3.44879   0.00108   0.00361   0.00212   0.00573   3.45452
    R3        3.44879   0.00108   0.00361   0.00212   0.00573   3.45452
    R4        3.44879   0.00108   0.00361   0.00212   0.00573   3.45452
    R5        2.16769  -0.00346  -0.00364   0.00030  -0.00334   2.16435
    R6        2.16769  -0.00346  -0.00364   0.00030  -0.00334   2.16435
    R7        2.16769  -0.00346  -0.00364   0.00030  -0.00334   2.16435
    R8        2.16769  -0.00346  -0.00364   0.00030  -0.00334   2.16435
    A1        1.91063  -0.00000   0.00000  -0.00000  -0.00000   1.91063
    A2        1.91063   0.00000   0.00000  -0.00000  -0.00000   1.91063
    A3        1.91063   0.00000  -0.00000  -0.00000   0.00000   1.91063
    A4        1.91063   0.00000  -0.00000   0.00000   0.00000   1.91063
    A5        1.91063   0.00000   0.00000   0.00000   0.00000   1.91063
    A6        1.91063  -0.00000   0.00000  -0.00000   0.00000   1.91063
    A7        3.14159   0.00000  -0.00000   0.00000   0.00000   3.14159
    A8        3.14159  -0.00000  -0.00000  -0.00000   0.00000   3.14159
    A9        3.14159  -0.00000  -0.00000  -0.00000   0.00000   3.14159
   A10        3.14159   0.00000   0.00000  -0.00000   0.00000   3.14159
   A11        3.14159  -0.00000  -0.00000   0.00000  -0.00000   3.14159
   A12        3.14159  -0.00000  -0.00000   0.00000   0.00000   3.14159
   A13        3.14159   0.00000  -0.00000   0.00000  -0.00000   3.14159
   A14        3.14159  -0.00000   0.00000  -0.00000   0.00000   3.14159
    D1        2.09440   0.00000   0.00000   0.00000  -0.00000   2.09440
    D2       -2.09440  -0.00000   0.00000   0.00000   0.00000  -2.09440
    D3        2.09440  -0.00000   0.00000  -0.00000   0.00000   2.09440
    D4       -2.09440  -0.00000   0.00000  -0.00000  -0.00000  -2.09440
         Item               Value     Threshold  Converged?
 Maximum Force            0.003462     0.000450     NO 
 RMS     Force            0.001422     0.000300     NO 
 Maximum Displacement     0.003309     0.001800     NO 
 RMS     Displacement     0.002436     0.001200     NO 
 Predicted change in Energy=-3.648177D-05
 GradGradGradGradGradGradGradGradGradGradGradGradGradGradGradGradGradGrad

                          Input orientation:                          
 ---------------------------------------------------------------------
 Center     Atomic      Atomic             Coordinates (Angstroms)
 Number     Number       Type             X           Y           Z
 ---------------------------------------------------------------------
      1         28           0        8.500000    8.500000    8.500000
      2          6           0        9.555426    7.444574    9.555426
      3          6           0        7.444574    9.555426    9.555426
      4          6           0        7.444574    7.444574    7.444574
      5          6           0        9.555426    9.555426    7.444574
      6          8           0       10.216679    6.783321   10.216679
      7          8           0        6.783321   10.216679   10.216679
      8          8           0        6.783321    6.783321    6.783321
      9          8           0       10.216679   10.216679    6.783321
 ---------------------------------------------------------------------
                    Distance matrix (angstroms):
                    1          2          3          4          5
     1  Ni   0.000000
     2  C    1.828052   0.000000
     3  C    1.828052   2.985196   0.000000
     4  C    1.828052   2.985196   2.985196   0.000000
     5  C    1.828052   2.985196   2.985196   2.985196   0.000000
     6  O    2.973375   1.145323   3.975725   3.975725   3.975725
     7  O    2.973375   3.975725   1.145323   3.975725   3.975725
     8  O    2.973375   3.975725   3.975725   1.145323   3.975725
     9  O    2.973375   3.975725   3.975725   3.975725   1.145323
                    6          7          8          9
     6  O    0.000000
     7  O    4.855501   0.000000
     8  O    4.855501   4.855501   0.000000
     9  O    4.855501   4.855501   4.855501   0.000000
 Stoichiometry    C4NiO4
 Framework group  TD[O(Ni),4C3(.CO)]
 Deg. of freedom     2
 Full point group                 TD      NOp  24
 Largest Abelian subgroup         D2      NOp   4
 Largest concise Abelian subgroup D2      NOp   4
                         Standard orientation:                         
 ---------------------------------------------------------------------
 Center     Atomic      Atomic             Coordinates (Angstroms)
 Number     Number       Type             X           Y           Z
 ---------------------------------------------------------------------
      1         28           0        0.000000    0.000000    0.000000
      2          6           0        1.055426    1.055426    1.055426
      3          6           0       -1.055426   -1.055426    1.055426
      4          6           0        1.055426   -1.055426   -1.055426
      5          6           0       -1.055426    1.055426   -1.055426
      6          8           0        1.716679    1.716679    1.716679
      7          8           0       -1.716679   -1.716679    1.716679
      8          8           0        1.716679   -1.716679   -1.716679
      9          8           0       -1.716679    1.716679   -1.716679
 ---------------------------------------------------------------------
 Rotational constants (GHZ):           1.0441043           1.0441043           1.0441043
 Standard basis: def2QZVPP (5D, 7F)
 There are   186 symmetry adapted cartesian basis functions of A   symmetry.
 There are   173 symmetry adapted cartesian basis functions of B1  symmetry.
 There are   173 symmetry adapted cartesian basis functions of B2  symmetry.
 There are   173 symmetry adapted cartesian basis functions of B3  symmetry.
 There are   145 symmetry adapted basis functions of A   symmetry.
 There are   137 symmetry adapted basis functions of B1  symmetry.
 There are   137 symmetry adapted basis functions of B2  symmetry.
 There are   137 symmetry adapted basis functions of B3  symmetry.
   556 basis functions,   944 primitive gaussians,   705 cartesian basis functions
    42 alpha electrons       42 beta electrons
       nuclear repulsion energy       599.5078329384 Hartrees.
 NAtoms=    9 NActive=    9 NUniq=    3 SFac= 4.00D+00 NAtFMM=   60 NAOKFM=F Big=F
 Integral buffers will be    131072 words long.
 Raffenetti 2 integral format.
 Two-electron integral symmetry is turned on.
 One-electron integrals computed using PRISM.
  24 Symmetry operations used in ECPInt.
 ECPInt:  NShTT=   13530 NPrTT=   42629 LenC2=   12113 LenP2D=   28057.
 LDataN:  DoStor=T MaxTD1= 8 Len=  415
 NBasis=   556 RedAO= T EigKep=  6.36D-05  NBF=   145   137   137   137
 NBsUse=   556 1.00D-06 EigRej= -1.00D+00 NBFU=   145   137   137   137
 Initial guess from the checkpoint file:  "/data/hutter/SMG16/TPSS/Gau-85954.chk"
 B after Tr=    -0.000000   -0.000000   -0.000000
         Rot=    1.000000   -0.000000    0.000000   -0.000000 Ang=   0.00 deg.
 Initial guess orbital symmetries:
       Occupied  (A1) (A1) (T2) (T2) (T2) (T2) (T2) (T2) (A1) (T2)
                 (T2) (T2) (A1) (A1) (T2) (T2) (T2) (A1) (T2) (T2)
                 (T2) (A1) (T2) (T2) (T2) (A1) (E) (E) (T2) (T2)
                 (T2) (T1) (T1) (T1) (T2) (T2) (T2) (E) (E) (T2)
                 (T2) (T2)
       Virtual   (T2) (T2) (T2) (E) (E) (T1) (T1) (T1) (A1) (T2)
                 (T2) (T2) (T2) (T2) (T2) (E) (E) (A1) (T2) (T2)
                 (T2) (T1) (T1) (T1) (T2) (T2) (T2) (A1) (A1) (T2)
                 (T2) (T2) (E) (E) (T2) (T2) (T2) (A1) (T2) (T2)
                 (T2) (T1) (T1) (T1) (E) (E) (T2) (T2) (T2) (T2)
                 (T2) (T2) (A1) (T1) (T1) (T1) (T2) (T2) (T2) (E)
                 (E) (E) (E) (A1) (T2) (T2) (T2) (T1) (T1) (T1)
                 (A1) (T2) (T2) (T2) (T2) (T2) (T2) (E) (E) (T1)
                 (T1) (T1) (T2) (T2) (T2) (A1) (T2) (T2) (T2) (T2)
                 (T2) (T2) (E) (E) (A1) (T2) (T2) (T2) (T1) (T1)
                 (T1) (A1) (T2) (T2) (T2) (T1) (T1) (T1) (E) (E)
                 (T2) (T2) (T2) (T1) (T1) (T1) (E) (E) (A1) (T2)
                 (T2) (T2) (T2) (T2) (T2) (T2) (T2) (T2) (A2) (T1)
                 (T1) (T1) (E) (E) (T2) (T2) (T2) (T1) (T1) (T1)
                 (E) (E) (T1) (T1) (T1) (A1) (T2) (T2) (T2) (A1)
                 (T2) (T2) (T2) (E) (E) (T1) (T1) (T1) (T2) (T2)
                 (T2) (T2) (T2) (T2) (A1) (T2) (T2) (T2) (E) (E)
                 (T1) (T1) (T1) (A1) (T2) (T2) (T2) (E) (E) (T2)
                 (T2) (T2) (A1) (T1) (T1) (T1) (T2) (T2) (T2) (T2)
                 (T2) (T2) (E) (E) (T1) (T1) (T1) (T2) (T2) (T2)
                 (A1) (T2) (T2) (T2) (A2) (T1) (T1) (T1) (A1) (T2)
                 (T2) (T2) (E) (E) (T1) (T1) (T1) (T2) (T2) (T2)
                 (E) (E) (T1) (T1) (T1) (T2) (T2) (T2) (A1) (E)
                 (E) (T1) (T1) (T1) (T2) (T2) (T2) (A1) (T2) (T2)
                 (T2) (T2) (T2) (T2) (A1) (T1) (T1) (T1) (T2) (T2)
                 (T2) (E) (E) (A1) (T2) (T2) (T2) (E) (E) (T1)
                 (T1) (T1) (T2) (T2) (T2) (E) (E) (T1) (T1) (T1)
                 (T2) (T2) (T2) (A2) (A1) (T2) (T2) (T2) (T1) (T1)
                 (T1) (T2) (T2) (T2) (A1) (T1) (T1) (T1) (E) (E)
                 (T2) (T2) (T2) (E) (E) (A1) (T2) (T2) (T2) (T2)
                 (T2) (T2) (T1) (T1) (T1) (T1) (T1) (T1) (E) (E)
                 (T2) (T2) (T2) (T2) (T2) (T2) (A2) (T1) (T1) (T1)
                 (T2) (T2) (T2) (E) (E) (A1) (T1) (T1) (T1) (E)
                 (E) (T2) (T2) (T2) (E) (E) (T1) (T1) (T1) (T2)
                 (T2) (T2) (T2) (T2) (T2) (T1) (T1) (T1) (A1) (E)
                 (E) (A1) (T2) (T2) (T2) (T1) (T1) (T1) (E) (E)
                 (T2) (T2) (T2) (A1) (T2) (T2) (T2) (T1) (T1) (T1)
                 (T2) (T2) (T2) (A1) (E) (E) (T2) (T2) (T2) (T1)
                 (T1) (T1) (T2) (T2) (T2) (E) (E) (T1) (T1) (T1)
                 (T2) (T2) (T2) (A1) (A2) (T1) (T1) (T1) (T2) (T2)
                 (T2) (A1) (A1) (T2) (T2) (T2) (T1) (T1) (T1) (E)
                 (E) (T2) (T2) (T2) (T2) (T2) (T2) (A1) (E) (E)
                 (T2) (T2) (T2) (T1) (T1) (T1) (A2) (T2) (T2) (T2)
                 (A1) (T1) (T1) (T1) (E) (E) (T1) (T1) (T1) (T2)
                 (T2) (T2) (T2) (T2) (T2) (T1) (T1) (T1) (E) (E)
                 (A1) (T2) (T2) (T2) (T1) (T1) (T1) (T2) (T2) (T2)
                 (E) (E) (A1) (E) (E) (T2) (T2) (T2) (T1) (T1)
                 (T1) (A1) (T2) (T2) (T2) (A1) (T2) (T2) (T2) (T2)
                 (T2) (T2) (T1) (T1) (T1) (A1) (E) (E) (T1) (T1)
                 (T1) (T2) (T2) (T2) (A1) (T2) (T2) (T2) (A1) (A1)
                 (A1) (T2) (T2) (T2) (A1) (A1) (T2) (T2) (T2) (A1)
                 (T2) (T2) (T2) (A1)
 Requested convergence on RMS density matrix=1.00D-08 within 128 cycles.
 Requested convergence on MAX density matrix=1.00D-06.
 Requested convergence on             energy=1.00D-06.
 No special actions if energy rises.
 EnCoef did     3 forward-backward iterations
 EnCoef did    12 forward-backward iterations
 EnCoef did     4 forward-backward iterations
 SCF Done:  E(RTPSS-TPSS) =  -1962.13990742     A.U. after    8 cycles
            NFock=  8  Conv=0.52D-08     -V/T= 2.0020
  24 Symmetry operations used in ECPInt.
 ECPInt:  NShTT=   13530 NPrTT=   42629 LenC2=   12113 LenP2D=   28057.
 LDataN:  DoStor=T MaxTD1= 9 Len=  602
 Calling FoFJK, ICntrl=      2527 FMM=F ISym2X=1 I1Cent= 0 IOpClX= 0 NMat=1 NMatS=1 NMatT=0.
 ***** Axes restored to original set *****
 -------------------------------------------------------------------
 Center     Atomic                   Forces (Hartrees/Bohr)
 Number     Number              X              Y              Z
 -------------------------------------------------------------------
      1       28          -0.000000000   -0.000000000    0.000000000
      2        6           0.000014317   -0.000014317    0.000014317
      3        6          -0.000014317    0.000014317    0.000014317
      4        6          -0.000014317   -0.000014317   -0.000014317
      5        6           0.000014317    0.000014317   -0.000014317
      6        8           0.000092608   -0.000092608    0.000092608
      7        8          -0.000092608    0.000092608    0.000092608
      8        8          -0.000092608   -0.000092608   -0.000092608
      9        8           0.000092608    0.000092608   -0.000092608
 -------------------------------------------------------------------
 Cartesian Forces:  Max     0.000092608 RMS     0.000062472

 GradGradGradGradGradGradGradGradGradGradGradGradGradGradGradGradGradGrad
 Berny optimization.
 Using GEDIIS/GDIIS optimizer.
 FormGI is forming the generalized inverse of G from B-inverse, IUseBI=4.
 Internal  Forces:  Max     0.000185199 RMS     0.000096099
 Search for a local minimum.
 Step number   3 out of a maximum of   36
 All quantities printed in internal units (Hartrees-Bohrs-Radians)
 Mixed Optimization -- En-DIIS/RFO-DIIS
 Update second derivatives using D2CorX and points    1    2    3
 DE= -3.65D-05 DEPred=-3.65D-05 R= 1.00D+00
 TightC=F SS=  1.41D+00  RLast= 1.33D-02 DXNew= 5.0454D-01 3.9794D-02
 Trust test= 1.00D+00 RLast= 1.33D-02 DXMaxT set to 3.00D-01
 ITU=  1  1  0
 Use linear search instead of GDIIS.
     Eigenvalues ---    0.04941   0.04941   0.04941   0.04941   0.04941
     Eigenvalues ---    0.04941   0.04941   0.04941   0.11084   0.11890
     Eigenvalues ---    0.15619   0.19521   0.22937   0.22937   0.22937
     Eigenvalues ---    0.25000   0.25000   1.22535   1.31540   1.31540
     Eigenvalues ---    1.31540
 RFO step:  Lambda=-6.43452055D-07 EMin= 4.94080079D-02
 Quartic linear search produced a step of  0.03051.
 Iteration  1 RMS(Cart)=  0.00051537 RMS(Int)=  0.00000001
 Iteration  2 RMS(Cart)=  0.00000001 RMS(Int)=  0.00000000
 ClnCor:  largest displacement from symmetrization is 1.87D-08 for atom     8.
 Variable       Old X    -DE/DX   Delta X   Delta X   Delta X     New X
                                 (Linear)    (Quad)   (Total)
    R1        3.45452   0.00019   0.00017   0.00072   0.00089   3.45541
    R2        3.45452   0.00019   0.00017   0.00072   0.00089   3.45541
    R3        3.45452   0.00019   0.00017   0.00072   0.00089   3.45541
    R4        3.45452   0.00019   0.00017   0.00072   0.00089   3.45541
    R5        2.16435   0.00016  -0.00010   0.00018   0.00007   2.16442
    R6        2.16435   0.00016  -0.00010   0.00018   0.00007   2.16442
    R7        2.16435   0.00016  -0.00010   0.00018   0.00007   2.16442
    R8        2.16435   0.00016  -0.00010   0.00018   0.00007   2.16442
    A1        1.91063  -0.00000  -0.00000  -0.00000   0.00000   1.91063
    A2        1.91063  -0.00000  -0.00000  -0.00000   0.00000   1.91063
    A3        1.91063   0.00000   0.00000   0.00000  -0.00000   1.91063
    A4        1.91063  -0.00000   0.00000  -0.00000   0.00000   1.91063
    A5        1.91063  -0.00000   0.00000  -0.00000   0.00000   1.91063
    A6        1.91063   0.00000   0.00000   0.00000  -0.00000   1.91063
    A7        3.14159  -0.00000   0.00000  -0.00000  -0.00000   3.14159
    A8        3.14159  -0.00000   0.00000  -0.00000  -0.00000   3.14159
    A9        3.14159  -0.00000   0.00000  -0.00000   0.00000   3.14159
   A10        3.14159  -0.00000   0.00000  -0.00000  -0.00000   3.14159
   A11        3.14159  -0.00000  -0.00000   0.00000   0.00000   3.14159
   A12        3.14159   0.00000  -0.00000   0.00000   0.00000   3.14159
   A13        3.14159  -0.00000   0.00000   0.00000  -0.00000   3.14159
   A14        3.14159   0.00000  -0.00000  -0.00000   0.00000   3.14159
    D1        2.09440  -0.00000  -0.00000  -0.00000   0.00000   2.09440
    D2       -2.09440   0.00000   0.00000   0.00000  -0.00000  -2.09440
    D3        2.09440   0.00000  -0.00000   0.00000  -0.00000   2.09440
    D4       -2.09440   0.00000  -0.00000  -0.00000  -0.00000  -2.09440
         Item               Value     Threshold  Converged?
 Maximum Force            0.000185     0.000450     YES
 RMS     Force            0.000096     0.000300     YES
 Maximum Displacement     0.000557     0.001800     YES
 RMS     Displacement     0.000515     0.001200     YES
 Predicted change in Energy=-3.541599D-07
 Optimization completed.
    -- Stationary point found.
                           ----------------------------
                           !   Optimized Parameters   !
                           ! (Angstroms and Degrees)  !
 --------------------------                            --------------------------
 ! Name  Definition              Value          Derivative Info.                !
 --------------------------------------------------------------------------------
 ! R1    R(1,2)                  1.8281         -DE/DX =    0.0002              !
 ! R2    R(1,3)                  1.8281         -DE/DX =    0.0002              !
 ! R3    R(1,4)                  1.8281         -DE/DX =    0.0002              !
 ! R4    R(1,5)                  1.8281         -DE/DX =    0.0002              !
 ! R5    R(2,6)                  1.1453         -DE/DX =    0.0002              !
 ! R6    R(3,7)                  1.1453         -DE/DX =    0.0002              !
 ! R7    R(4,8)                  1.1453         -DE/DX =    0.0002              !
 ! R8    R(5,9)                  1.1453         -DE/DX =    0.0002              !
 ! A1    A(2,1,3)              109.4712         -DE/DX =    0.0                 !
 ! A2    A(2,1,4)              109.4712         -DE/DX =    0.0                 !
 ! A3    A(2,1,5)              109.4712         -DE/DX =    0.0                 !
 ! A4    A(3,1,4)              109.4712         -DE/DX =    0.0                 !
 ! A5    A(3,1,5)              109.4712         -DE/DX =    0.0                 !
 ! A6    A(4,1,5)              109.4712         -DE/DX =    0.0                 !
 ! A7    L(1,2,6,7,-1)         180.0            -DE/DX =    0.0                 !
 ! A8    L(1,3,7,6,-1)         180.0            -DE/DX =    0.0                 !
 ! A9    L(1,4,8,6,-1)         180.0            -DE/DX =    0.0                 !
 ! A10   L(1,5,9,6,-1)         180.0            -DE/DX =    0.0                 !
 ! A11   L(1,2,6,7,-2)         180.0            -DE/DX =    0.0                 !
 ! A12   L(1,3,7,6,-2)         180.0            -DE/DX =    0.0                 !
 ! A13   L(1,4,8,6,-2)         180.0            -DE/DX =    0.0                 !
 ! A14   L(1,5,9,6,-2)         180.0            -DE/DX =    0.0                 !
 ! D1    D(2,1,4,3)            120.0            -DE/DX =    0.0                 !
 ! D2    D(2,1,5,3)           -120.0            -DE/DX =    0.0                 !
 ! D3    D(2,1,5,4)            120.0            -DE/DX =    0.0                 !
 ! D4    D(3,1,5,4)           -120.0            -DE/DX =    0.0                 !
 --------------------------------------------------------------------------------
 GradGradGradGradGradGradGradGradGradGradGradGradGradGradGradGradGradGrad

                          Input orientation:                          
 ---------------------------------------------------------------------
 Center     Atomic      Atomic             Coordinates (Angstroms)
 Number     Number       Type             X           Y           Z
 ---------------------------------------------------------------------
      1         28           0        8.500000    8.500000    8.500000
      2          6           0        9.555426    7.444574    9.555426
      3          6           0        7.444574    9.555426    9.555426
      4          6           0        7.444574    7.444574    7.444574
      5          6           0        9.555426    9.555426    7.444574
      6          8           0       10.216679    6.783321   10.216679
      7          8           0        6.783321   10.216679   10.216679
      8          8           0        6.783321    6.783321    6.783321
      9          8           0       10.216679   10.216679    6.783321
 ---------------------------------------------------------------------
                    Distance matrix (angstroms):
                    1          2          3          4          5
     1  Ni   0.000000
     2  C    1.828052   0.000000
     3  C    1.828052   2.985196   0.000000
     4  C    1.828052   2.985196   2.985196   0.000000
     5  C    1.828052   2.985196   2.985196   2.985196   0.000000
     6  O    2.973375   1.145323   3.975725   3.975725   3.975725
     7  O    2.973375   3.975725   1.145323   3.975725   3.975725
     8  O    2.973375   3.975725   3.975725   1.145323   3.975725
     9  O    2.973375   3.975725   3.975725   3.975725   1.145323
                    6          7          8          9
     6  O    0.000000
     7  O    4.855501   0.000000
     8  O    4.855501   4.855501   0.000000
     9  O    4.855501   4.855501   4.855501   0.000000
 Stoichiometry    C4NiO4
 Framework group  TD[O(Ni),4C3(.CO)]
 Deg. of freedom     2
 Full point group                 TD      NOp  24
 Largest Abelian subgroup         D2      NOp   4
 Largest concise Abelian subgroup D2      NOp   4
                         Standard orientation:                         
 ---------------------------------------------------------------------
 Center     Atomic      Atomic             Coordinates (Angstroms)
 Number     Number       Type             X           Y           Z
 ---------------------------------------------------------------------
      1         28           0        0.000000    0.000000    0.000000
      2          6           0        1.055426    1.055426    1.055426
      3          6           0       -1.055426   -1.055426    1.055426
      4          6           0        1.055426   -1.055426   -1.055426
      5          6           0       -1.055426    1.055426   -1.055426
      6          8           0        1.716679    1.716679    1.716679
      7          8           0       -1.716679   -1.716679    1.716679
      8          8           0        1.716679   -1.716679   -1.716679
      9          8           0       -1.716679    1.716679   -1.716679
 ---------------------------------------------------------------------
 Rotational constants (GHZ):           1.0441043           1.0441043           1.0441043

 **********************************************************************

            Population analysis using the SCF Density.

 **********************************************************************

 Orbital symmetries:
       Occupied  (A1) (A1) (T2) (T2) (T2) (T2) (T2) (T2) (A1) (T2)
                 (T2) (T2) (A1) (A1) (T2) (T2) (T2) (A1) (T2) (T2)
                 (T2) (A1) (T2) (T2) (T2) (A1) (E) (E) (T2) (T2)
                 (T2) (T1) (T1) (T1) (T2) (T2) (T2) (E) (E) (T2)
                 (T2) (T2)
       Virtual   (T2) (T2) (T2) (E) (E) (T1) (T1) (T1) (A1) (T2)
                 (T2) (T2) (T2) (T2) (T2) (E) (E) (A1) (T2) (T2)
                 (T2) (T1) (T1) (T1) (T2) (T2) (T2) (A1) (A1) (T2)
                 (T2) (T2) (E) (E) (T2) (T2) (T2) (A1) (T2) (T2)
                 (T2) (T1) (T1) (T1) (E) (E) (T2) (T2) (T2) (T2)
                 (T2) (T2) (A1) (T1) (T1) (T1) (T2) (T2) (T2) (E)
                 (E) (E) (E) (A1) (T2) (T2) (T2) (T1) (T1) (T1)
                 (A1) (T2) (T2) (T2) (T2) (T2) (T2) (T1) (T1) (T1)
                 (E) (E) (T2) (T2) (T2) (A1) (T2) (T2) (T2) (T2)
                 (T2) (T2) (E) (E) (A1) (T2) (T2) (T2) (T1) (T1)
                 (T1) (A1) (T2) (T2) (T2) (T1) (T1) (T1) (E) (E)
                 (T2) (T2) (T2) (T1) (T1) (T1) (E) (E) (A1) (T2)
                 (T2) (T2) (T2) (T2) (T2) (T2) (T2) (T2) (A2) (T1)
                 (T1) (T1) (E) (E) (T2) (T2) (T2) (T1) (T1) (T1)
                 (E) (E) (T1) (T1) (T1) (A1) (T2) (T2) (T2) (A1)
                 (T2) (T2) (T2) (E) (E) (T1) (T1) (T1) (T2) (T2)
                 (T2) (T2) (T2) (T2) (A1) (T2) (T2) (T2) (E) (E)
                 (T1) (T1) (T1) (A1) (T2) (T2) (T2) (E) (E) (T2)
                 (T2) (T2) (A1) (T1) (T1) (T1) (T2) (T2) (T2) (T2)
                 (T2) (T2) (E) (E) (T1) (T1) (T1) (T2) (T2) (T2)
                 (A1) (T2) (T2) (T2) (A2) (T1) (T1) (T1) (A1) (T2)
                 (T2) (T2) (E) (E) (T1) (T1) (T1) (T2) (T2) (T2)
                 (E) (E) (T1) (T1) (T1) (T2) (T2) (T2) (A1) (E)
                 (E) (T1) (T1) (T1) (T2) (T2) (T2) (A1) (T2) (T2)
                 (T2) (T2) (T2) (T2) (A1) (T1) (T1) (T1) (T2) (T2)
                 (T2) (E) (E) (A1) (T2) (T2) (T2) (E) (E) (T1)
                 (T1) (T1) (T2) (T2) (T2) (E) (E) (T1) (T1) (T1)
                 (T2) (T2) (T2) (A2) (A1) (T2) (T2) (T2) (T1) (T1)
                 (T1) (T2) (T2) (T2) (A1) (T1) (T1) (T1) (E) (E)
                 (T2) (T2) (T2) (E) (E) (A1) (T2) (T2) (T2) (T2)
                 (T2) (T2) (T1) (T1) (T1) (T1) (T1) (T1) (E) (E)
                 (T2) (T2) (T2) (T2) (T2) (T2) (A2) (T1) (T1) (T1)
                 (T2) (T2) (T2) (E) (E) (A1) (T1) (T1) (T1) (E)
                 (E) (T2) (T2) (T2) (E) (E) (T1) (T1) (T1) (T2)
                 (T2) (T2) (T2) (T2) (T2) (T1) (T1) (T1) (A1) (E)
                 (E) (A1) (T2) (T2) (T2) (T1) (T1) (T1) (E) (E)
                 (T2) (T2) (T2) (A1) (T2) (T2) (T2) (T1) (T1) (T1)
                 (T2) (T2) (T2) (A1) (E) (E) (T2) (T2) (T2) (T1)
                 (T1) (T1) (T2) (T2) (T2) (E) (E) (T1) (T1) (T1)
                 (T2) (T2) (T2) (A1) (A2) (T1) (T1) (T1) (T2) (T2)
                 (T2) (A1) (A1) (T2) (T2) (T2) (T1) (T1) (T1) (E)
                 (E) (T2) (T2) (T2) (T2) (T2) (T2) (A1) (E) (E)
                 (T2) (T2) (T2) (T1) (T1) (T1) (A2) (T2) (T2) (T2)
                 (A1) (T1) (T1) (T1) (E) (E) (T1) (T1) (T1) (T2)
                 (T2) (T2) (T2) (T2) (T2) (T1) (T1) (T1) (E) (E)
                 (A1) (T2) (T2) (T2) (T1) (T1) (T1) (T2) (T2) (T2)
                 (E) (E) (A1) (E) (E) (T2) (T2) (T2) (T1) (T1)
                 (T1) (A1) (T2) (T2) (T2) (A1) (T2) (T2) (T2) (T2)
                 (T2) (T2) (T1) (T1) (T1) (A1) (E) (E) (T1) (T1)
                 (T1) (T2) (T2) (T2) (A1) (T2) (T2) (T2) (A1) (A1)
                 (A1) (T2) (T2) (T2) (A1) (A1) (T2) (T2) (T2) (A1)
                 (T2) (T2) (T2) (A1)
 The electronic state is 1-A1.
 Alpha  occ. eigenvalues -- -299.01133 -35.43683 -30.87496 -30.87496 -30.87496
 Alpha  occ. eigenvalues --  -18.97943 -18.97943 -18.97943 -18.97943 -10.11375
 Alpha  occ. eigenvalues --  -10.11375 -10.11375 -10.11375  -3.93161  -2.53808
 Alpha  occ. eigenvalues --   -2.53808  -2.53808  -1.08155  -1.08125  -1.08125
 Alpha  occ. eigenvalues --   -1.08125  -0.55589  -0.53087  -0.53087  -0.53087
 Alpha  occ. eigenvalues --   -0.45600  -0.43498  -0.43498  -0.43374  -0.43374
 Alpha  occ. eigenvalues --   -0.43374  -0.42568  -0.42568  -0.42568  -0.41824
 Alpha  occ. eigenvalues --   -0.41824  -0.41824  -0.28199  -0.28199  -0.24199
 Alpha  occ. eigenvalues --   -0.24199  -0.24199
 Alpha virt. eigenvalues --   -0.07956  -0.07956  -0.07956  -0.07107  -0.07107
 Alpha virt. eigenvalues --   -0.05507  -0.05507  -0.05507   0.00073   0.02434
 Alpha virt. eigenvalues --    0.02434   0.02434   0.09329   0.09329   0.09329
 Alpha virt. eigenvalues --    0.11231   0.11231   0.15385   0.17002   0.17002
 Alpha virt. eigenvalues --    0.17002   0.18634   0.18634   0.18634   0.20721
 Alpha virt. eigenvalues --    0.20721   0.20721   0.22509   0.24089   0.25751
 Alpha virt. eigenvalues --    0.25751   0.25751   0.29261   0.29261   0.31069
 Alpha virt. eigenvalues --    0.31069   0.31069   0.35741   0.35946   0.35946
 Alpha virt. eigenvalues --    0.35946   0.40329   0.40329   0.40329   0.41641
 Alpha virt. eigenvalues --    0.41641   0.42506   0.42506   0.42506   0.49397
 Alpha virt. eigenvalues --    0.49397   0.49397   0.53431   0.53958   0.53958
 Alpha virt. eigenvalues --    0.53958   0.55940   0.55940   0.55940   0.57564
 Alpha virt. eigenvalues --    0.57564   0.60596   0.60596   0.63362   0.65281
 Alpha virt. eigenvalues --    0.65281   0.65281   0.73104   0.73104   0.73104
 Alpha virt. eigenvalues --    0.74771   0.75809   0.75809   0.75809   0.78827
 Alpha virt. eigenvalues --    0.78827   0.78827   0.83503   0.83503   0.83503
 Alpha virt. eigenvalues --    0.83516   0.83516   0.88957   0.88957   0.88957
 Alpha virt. eigenvalues --    0.89327   0.98196   0.98196   0.98196   1.04608
 Alpha virt. eigenvalues --    1.04608   1.04608   1.07358   1.07358   1.08475
 Alpha virt. eigenvalues --    1.09764   1.09764   1.09764   1.10045   1.10045
 Alpha virt. eigenvalues --    1.10045   1.18109   1.25294   1.25294   1.25294
 Alpha virt. eigenvalues --    1.26619   1.26619   1.26619   1.34443   1.34443
 Alpha virt. eigenvalues --    1.35084   1.35084   1.35084   1.35961   1.35961
 Alpha virt. eigenvalues --    1.35961   1.39373   1.39373   1.48028   1.49851
 Alpha virt. eigenvalues --    1.49851   1.49851   1.54249   1.54249   1.54249
 Alpha virt. eigenvalues --    1.62038   1.62038   1.62038   1.66664   1.66861
 Alpha virt. eigenvalues --    1.66861   1.66861   1.67441   1.67441   1.77011
 Alpha virt. eigenvalues --    1.77011   1.77011   1.77317   1.77317   1.77317
 Alpha virt. eigenvalues --    1.78445   1.78445   1.82792   1.82792   1.82792
 Alpha virt. eigenvalues --    1.84360   1.89007   1.89007   1.89007   1.91727
 Alpha virt. eigenvalues --    1.94667   1.94667   1.94667   1.94764   1.94764
 Alpha virt. eigenvalues --    1.98091   1.98091   1.98091   2.02341   2.02341
 Alpha virt. eigenvalues --    2.02341   2.12818   2.12818   2.12818   2.15803
 Alpha virt. eigenvalues --    2.25590   2.25590   2.25590   2.26783   2.26783
 Alpha virt. eigenvalues --    2.27469   2.27469   2.27469   2.31850   2.37462
 Alpha virt. eigenvalues --    2.37462   2.37462   2.39971   2.39971   2.40933
 Alpha virt. eigenvalues --    2.40933   2.40933   2.41732   2.43312   2.43312
 Alpha virt. eigenvalues --    2.43312   2.52485   2.52485   2.52485   2.67200
 Alpha virt. eigenvalues --    2.67200   2.67200   2.78078   2.78078   2.83869
 Alpha virt. eigenvalues --    2.83869   2.83869   2.92068   2.92068   2.92068
 Alpha virt. eigenvalues --    2.99410   3.06414   3.06414   3.06414   3.08011
 Alpha virt. eigenvalues --    3.11813   3.11813   3.11813   3.12414   3.15270
 Alpha virt. eigenvalues --    3.15270   3.15270   3.24828   3.24828   3.33551
 Alpha virt. eigenvalues --    3.33551   3.33551   3.39652   3.39652   3.39652
 Alpha virt. eigenvalues --    3.60290   3.60290   3.64543   3.64543   3.64543
 Alpha virt. eigenvalues --    3.77467   3.77467   3.77467   3.79087   3.81164
 Alpha virt. eigenvalues --    3.81164   3.83347   3.83347   3.83347   3.86833
 Alpha virt. eigenvalues --    3.86833   3.86833   3.88109   3.95402   3.95402
 Alpha virt. eigenvalues --    3.95402   4.04128   4.04128   4.04128   4.07935
 Alpha virt. eigenvalues --    4.12994   4.12994   4.12994   4.17487   4.17487
 Alpha virt. eigenvalues --    4.17487   4.17653   4.17653   4.51688   4.52441
 Alpha virt. eigenvalues --    4.52441   4.52441   4.61286   4.61286   4.63484
 Alpha virt. eigenvalues --    4.63484   4.63484   4.64834   4.64834   4.64834
 Alpha virt. eigenvalues --    4.77306   4.77306   4.77811   4.77811   4.77811
 Alpha virt. eigenvalues --    4.78251   4.78251   4.78251   4.92008   4.96566
 Alpha virt. eigenvalues --    4.97475   4.97475   4.97475   5.00971   5.00971
 Alpha virt. eigenvalues --    5.00971   5.03327   5.03327   5.03327   5.04452
 Alpha virt. eigenvalues --    5.23677   5.23677   5.23677   5.26680   5.26680
 Alpha virt. eigenvalues --    5.26860   5.26860   5.26860   5.47602   5.47602
 Alpha virt. eigenvalues --    5.54694   5.57977   5.57977   5.57977   5.59413
 Alpha virt. eigenvalues --    5.59413   5.59413   5.60135   5.60135   5.60135
 Alpha virt. eigenvalues --    5.63434   5.63434   5.63434   5.69415   5.69415
 Alpha virt. eigenvalues --    5.73035   5.73035   5.73035   5.80430   5.80430
 Alpha virt. eigenvalues --    5.80430   5.85789   5.88236   5.88236   5.88236
 Alpha virt. eigenvalues --    5.89645   5.89645   5.89645   5.90136   5.90136
 Alpha virt. eigenvalues --    5.92693   6.05449   6.05449   6.05449   6.06370
 Alpha virt. eigenvalues --    6.06370   6.13283   6.13283   6.13283   6.14168
 Alpha virt. eigenvalues --    6.14168   6.14419   6.14419   6.14419   6.25447
 Alpha virt. eigenvalues --    6.25447   6.25447   6.34722   6.34722   6.34722
 Alpha virt. eigenvalues --    6.35229   6.35229   6.35229   6.37003   6.41618
 Alpha virt. eigenvalues --    6.41618   6.50217   6.53933   6.53933   6.53933
 Alpha virt. eigenvalues --    6.63144   6.63144   6.63144   6.77566   6.77566
 Alpha virt. eigenvalues --    6.84280   6.84280   6.84280   6.91580   7.05699
 Alpha virt. eigenvalues --    7.05699   7.05699   7.17323   7.17323   7.17323
 Alpha virt. eigenvalues --    7.54806   7.54806   7.54806   7.55352   7.78435
 Alpha virt. eigenvalues --    7.78435   7.92921   7.92921   7.92921   8.19826
 Alpha virt. eigenvalues --    8.19826   8.19826   8.37129   8.37129   8.37129
 Alpha virt. eigenvalues --    8.85513   8.85513   8.85514   8.85514   8.85514
 Alpha virt. eigenvalues --    8.85518   8.85518   8.85518   8.94538   9.12276
 Alpha virt. eigenvalues --    9.12590   9.12590   9.12590   9.12657   9.12657
 Alpha virt. eigenvalues --    9.12657   9.13399   9.68566   9.70090   9.70090
 Alpha virt. eigenvalues --    9.70090   9.96434   9.96434   9.96434   9.97602
 Alpha virt. eigenvalues --    9.97602   9.99303   9.99303   9.99303  10.27071
 Alpha virt. eigenvalues --   10.27071  10.27071  10.28375  10.50026  10.50026
 Alpha virt. eigenvalues --   10.50427  10.50427  10.50427  10.50457  10.50457
 Alpha virt. eigenvalues --   10.50457  10.89543  10.89756  10.89756  10.89756
 Alpha virt. eigenvalues --   10.89844  10.89863  10.89863  10.89863  11.30127
 Alpha virt. eigenvalues --   11.30127  11.31177  11.31177  11.31177  11.33447
 Alpha virt. eigenvalues --   11.33447  11.33447  11.90146  11.90146  11.90146
 Alpha virt. eigenvalues --   11.90847  11.90847  11.90847  11.91035  11.91035
 Alpha virt. eigenvalues --   11.95945  11.96306  11.96306  11.96306  11.96951
 Alpha virt. eigenvalues --   11.96951  11.96951  11.99210  11.99210  11.99210
 Alpha virt. eigenvalues --   11.99348  11.99348  12.53995  13.39271  13.39271
 Alpha virt. eigenvalues --   13.41762  13.41762  13.41762  13.43932  13.43932
 Alpha virt. eigenvalues --   13.43932  13.79159  13.86805  13.86805  13.86805
 Alpha virt. eigenvalues --   14.52825  14.61243  14.61243  14.61243  20.39769
 Alpha virt. eigenvalues --   20.39769  20.39769  20.40203  20.40203  20.40203
 Alpha virt. eigenvalues --   20.60944  22.16209  22.16209  22.21475  22.21475
 Alpha virt. eigenvalues --   22.21475  22.35136  22.35136  22.35136  22.42295
 Alpha virt. eigenvalues --   28.22058  28.22058  28.22058  28.22757  41.09948
 Alpha virt. eigenvalues --   47.91137  47.98624  47.98624  47.98624 137.43114
 Alpha virt. eigenvalues --  148.86377 148.88504 148.88504 148.88504 255.03081
 Alpha virt. eigenvalues --  255.11617 255.11617 255.11617 871.04105
          Condensed to atoms (all electrons):
               1          2          3          4          5          6
     1  Ni  26.911334   0.322369   0.322369   0.322369   0.322369  -0.071127
     2  C    0.322369   5.064941   0.003699   0.003699   0.003699   0.549560
     3  C    0.322369   0.003699   5.064941   0.003699   0.003699  -0.000128
     4  C    0.322369   0.003699   0.003699   5.064941   0.003699  -0.000128
     5  C    0.322369   0.003699   0.003699   0.003699   5.064941  -0.000128
     6  O   -0.071127   0.549560  -0.000128  -0.000128  -0.000128   7.595001
     7  O   -0.071127  -0.000128   0.549560  -0.000128  -0.000128   0.000097
     8  O   -0.071127  -0.000128  -0.000128   0.549560  -0.000128   0.000097
     9  O   -0.071127  -0.000128  -0.000128  -0.000128   0.549560   0.000097
               7          8          9
     1  Ni  -0.071127  -0.071127  -0.071127
     2  C   -0.000128  -0.000128  -0.000128
     3  C    0.549560  -0.000128  -0.000128
     4  C   -0.000128   0.549560  -0.000128
     5  C   -0.000128  -0.000128   0.549560
     6  O    0.000097   0.000097   0.000097
     7  O    7.595001   0.000097   0.000097
     8  O    0.000097   7.595001   0.000097
     9  O    0.000097   0.000097   7.595001
 Mulliken charges:
               1
     1  Ni   0.083702
     2  C    0.052418
     3  C    0.052418
     4  C    0.052418
     5  C    0.052418
     6  O   -0.073343
     7  O   -0.073343
     8  O   -0.073343
     9  O   -0.073343
 Sum of Mulliken charges =   0.00000
 Mulliken charges with hydrogens summed into heavy atoms:
               1
     1  Ni   0.083702
     2  C    0.052418
     3  C    0.052418
     4  C    0.052418
     5  C    0.052418
     6  O   -0.073343
     7  O   -0.073343
     8  O   -0.073343
     9  O   -0.073343
 Electronic spatial extent (au):  <R**2>=           1427.4978
 Charge=              0.0000 electrons
 Dipole moment (field-independent basis, Debye):
    X=              0.0000    Y=             -0.0000    Z=             -0.0000  Tot=              0.0000
 Quadrupole moment (field-independent basis, Debye-Ang):
   XX=            -58.6420   YY=            -58.6420   ZZ=            -58.6420
   XY=              0.0000   XZ=             -0.0000   YZ=             -0.0000
 Traceless Quadrupole moment (field-independent basis, Debye-Ang):
   XX=             -0.0000   YY=              0.0000   ZZ=              0.0000
   XY=              0.0000   XZ=             -0.0000   YZ=             -0.0000
 Octapole moment (field-independent basis, Debye-Ang**2):
  XXX=              0.0000  YYY=             -0.0000  ZZZ=              0.0000  XYY=              0.0000
  XXY=              0.0000  XXZ=             -0.0000  XZZ=              0.0000  YZZ=             -0.0000
  YYZ=              0.0000  XYZ=            -10.3151
 Hexadecapole moment (field-independent basis, Debye-Ang**3):
 XXXX=           -571.1086 YYYY=           -571.1086 ZZZZ=           -571.1086 XXXY=             -0.0000
 XXXZ=              0.0000 YYYX=              0.0000 YYYZ=             -0.0000 ZZZX=              0.0000
 ZZZY=             -0.0000 XXYY=           -207.1370 XXZZ=           -207.1370 YYZZ=           -207.1370
 XXYZ=              0.0000 YYXZ=              0.0000 ZZXY=              0.0000
 N-N= 5.995078329384D+02 E-N=-5.864555350170D+03  KE= 1.958159963502D+03
 Symmetry A    KE= 1.073031253693D+03
 Symmetry B1   KE= 2.950429032696D+02
 Symmetry B2   KE= 2.950429032696D+02
 Symmetry B3   KE= 2.950429032696D+02
 Unable to Open any file for archive entry.
 1\1\GINC-TCOPT10\FOpt\RTPSSTPSS\def2QZVPP\C4Ni1O4\HUTTER\01-Aug-2021\0
 \\#N RTPSSTPSS/Def2QZVPP scf=tight Int(Grid=ultrafine) OPT FREQ\\Mol j
 ob 1\\0,1\Ni,8.5,8.5,8.5\C,9.5554263116,7.4445736884,9.5554263116\C,7.
 4445736884,9.5554263116,9.5554263116\C,7.4445736884,7.4445736884,7.444
 5736884\C,9.5554263116,9.5554263116,7.4445736884\O,10.2166788909,6.783
 3211091,10.2166788909\O,6.7833211091,10.2166788909,10.2166788909\O,6.7
 833211091,6.7833211091,6.7833211091\O,10.2166788909,10.2166788909,6.78
 33211091\\Version=ES64L-G16RevC.01\State=1-A1\HF=-1962.1399074\RMSD=5.
 200e-09\RMSF=6.247e-05\Dipole=0.,0.,0.\Quadrupole=0.,0.,0.,0.,0.,0.\PG
 =TD [O(Ni1),4C3(.C1O1)]\\@
 The archive entry for this job was punched.


 The juvenile sea squirt wanders through the sea searching
 for a suitable rock or hunk of coral to cling to and make
 its home for life.  For this task it has a rudimentary
 nervous system.  When it finds its spot and takes root, it
 doesn't need its brain any more so it eats it.
 It's rather like getting tenure.

                               -- source unknown
 Job cpu time:       0 days  2 hours 18 minutes 14.5 seconds.
 Elapsed time:       0 days  0 hours  9 minutes 34.1 seconds.
 File lengths (MBytes):  RWF=    189 Int=      0 D2E=      0 Chk=     23 Scr=      1
 Normal termination of Gaussian 16 at Sun Aug  1 00:29:42 2021.
 Link1:  Proceeding to internal job step number  2.
 ----------------------------------------------------------------------
 #N Geom=AllCheck Guess=TCheck SCRF=Check GenChk RTPSSTPSS/def2QZVPP Fr
 eq
 ----------------------------------------------------------------------
 1/10=4,29=7,30=1,38=1,40=1/1,3;
 2/12=2,40=1/2;
 3/5=45,7=202,11=2,14=-4,25=1,30=1,70=2,71=2,74=2523,75=-5,116=1,140=1/1,2,3;
 4/5=101/1;
 5/5=2,32=2,38=6,98=1/2;
 8/6=4,10=90,11=11/1;
 11/6=1,8=1,9=11,15=111,16=1/1,2,10;
 10/6=1/2;
 6/7=2,8=2,9=2,10=2,28=1/1;
 7/8=1,10=1,25=1/1,2,3,16;
 1/10=4,30=1/3;
 99//99;
 Structure from the checkpoint file:  "/data/hutter/SMG16/TPSS/Gau-85954.chk"
 ---------
 Mol job 1
 ---------
 Charge =  0 Multiplicity = 1
 Redundant internal coordinates found in file.  (old form).
 Ni,0,8.5,8.5,8.5
 C,0,9.5554263116,7.4445736884,9.5554263116
 C,0,7.4445736884,9.5554263116,9.5554263116
 C,0,7.4445736884,7.4445736884,7.4445736884
 C,0,9.5554263116,9.5554263116,7.4445736884
 O,0,10.2166788909,6.7833211091,10.2166788909
 O,0,6.7833211091,10.2166788909,10.2166788909
 O,0,6.7833211091,6.7833211091,6.7833211091
 O,0,10.2166788909,10.2166788909,6.7833211091
 Recover connectivity data from disk.

 GradGradGradGradGradGradGradGradGradGradGradGradGradGradGradGradGradGrad
 Berny optimization.
 Initialization pass.
                           ----------------------------
                           !    Initial Parameters    !
                           ! (Angstroms and Degrees)  !
 --------------------------                            --------------------------
 ! Name  Definition              Value          Derivative Info.                !
 --------------------------------------------------------------------------------
 ! R1    R(1,2)                  1.8281         calculate D2E/DX2 analytically  !
 ! R2    R(1,3)                  1.8281         calculate D2E/DX2 analytically  !
 ! R3    R(1,4)                  1.8281         calculate D2E/DX2 analytically  !
 ! R4    R(1,5)                  1.8281         calculate D2E/DX2 analytically  !
 ! R5    R(2,6)                  1.1453         calculate D2E/DX2 analytically  !
 ! R6    R(3,7)                  1.1453         calculate D2E/DX2 analytically  !
 ! R7    R(4,8)                  1.1453         calculate D2E/DX2 analytically  !
 ! R8    R(5,9)                  1.1453         calculate D2E/DX2 analytically  !
 ! A1    A(2,1,3)              109.4712         calculate D2E/DX2 analytically  !
 ! A2    A(2,1,4)              109.4712         calculate D2E/DX2 analytically  !
 ! A3    A(2,1,5)              109.4712         calculate D2E/DX2 analytically  !
 ! A4    A(3,1,4)              109.4712         calculate D2E/DX2 analytically  !
 ! A5    A(3,1,5)              109.4712         calculate D2E/DX2 analytically  !
 ! A6    A(4,1,5)              109.4712         calculate D2E/DX2 analytically  !
 ! A7    L(1,2,6,7,-1)         180.0            calculate D2E/DX2 analytically  !
 ! A8    L(1,3,7,6,-1)         180.0            calculate D2E/DX2 analytically  !
 ! A9    L(1,4,8,6,-1)         180.0            calculate D2E/DX2 analytically  !
 ! A10   L(1,5,9,6,-1)         180.0            calculate D2E/DX2 analytically  !
 ! A11   L(1,2,6,7,-2)         180.0            calculate D2E/DX2 analytically  !
 ! A12   L(1,3,7,6,-2)         180.0            calculate D2E/DX2 analytically  !
 ! A13   L(1,4,8,6,-2)         180.0            calculate D2E/DX2 analytically  !
 ! A14   L(1,5,9,6,-2)         180.0            calculate D2E/DX2 analytically  !
 ! D1    D(2,1,4,3)            120.0            calculate D2E/DX2 analytically  !
 ! D2    D(2,1,5,3)           -120.0            calculate D2E/DX2 analytically  !
 ! D3    D(2,1,5,4)            120.0            calculate D2E/DX2 analytically  !
 ! D4    D(3,1,5,4)           -120.0            calculate D2E/DX2 analytically  !
 --------------------------------------------------------------------------------
 Trust Radius=3.00D-01 FncErr=1.00D-07 GrdErr=1.00D-07 EigMax=2.50D+02 EigMin=1.00D-04
 Number of steps in this run=      2 maximum allowed number of steps=      2.
 GradGradGradGradGradGradGradGradGradGradGradGradGradGradGradGradGradGrad

                          Input orientation:                          
 ---------------------------------------------------------------------
 Center     Atomic      Atomic             Coordinates (Angstroms)
 Number     Number       Type             X           Y           Z
 ---------------------------------------------------------------------
      1         28           0        8.500000    8.500000    8.500000
      2          6           0        9.555426    7.444574    9.555426
      3          6           0        7.444574    9.555426    9.555426
      4          6           0        7.444574    7.444574    7.444574
      5          6           0        9.555426    9.555426    7.444574
      6          8           0       10.216679    6.783321   10.216679
      7          8           0        6.783321   10.216679   10.216679
      8          8           0        6.783321    6.783321    6.783321
      9          8           0       10.216679   10.216679    6.783321
 ---------------------------------------------------------------------
                    Distance matrix (angstroms):
                    1          2          3          4          5
     1  Ni   0.000000
     2  C    1.828052   0.000000
     3  C    1.828052   2.985196   0.000000
     4  C    1.828052   2.985196   2.985196   0.000000
     5  C    1.828052   2.985196   2.985196   2.985196   0.000000
     6  O    2.973375   1.145323   3.975725   3.975725   3.975725
     7  O    2.973375   3.975725   1.145323   3.975725   3.975725
     8  O    2.973375   3.975725   3.975725   1.145323   3.975725
     9  O    2.973375   3.975725   3.975725   3.975725   1.145323
                    6          7          8          9
     6  O    0.000000
     7  O    4.855501   0.000000
     8  O    4.855501   4.855501   0.000000
     9  O    4.855501   4.855501   4.855501   0.000000
 Stoichiometry    C4NiO4
 Framework group  TD[O(Ni),4C3(.CO)]
 Deg. of freedom     2
 Full point group                 TD      NOp  24
 Largest Abelian subgroup         D2      NOp   4
 Largest concise Abelian subgroup D2      NOp   4
                         Standard orientation:                         
 ---------------------------------------------------------------------
 Center     Atomic      Atomic             Coordinates (Angstroms)
 Number     Number       Type             X           Y           Z
 ---------------------------------------------------------------------
      1         28           0        0.000000    0.000000    0.000000
      2          6           0        1.055426    1.055426    1.055426
      3          6           0       -1.055426   -1.055426    1.055426
      4          6           0        1.055426   -1.055426   -1.055426
      5          6           0       -1.055426    1.055426   -1.055426
      6          8           0        1.716679    1.716679    1.716679
      7          8           0       -1.716679   -1.716679    1.716679
      8          8           0        1.716679   -1.716679   -1.716679
      9          8           0       -1.716679    1.716679   -1.716679
 ---------------------------------------------------------------------
 Rotational constants (GHZ):           1.0441043           1.0441043           1.0441043
 Standard basis: def2QZVPP (5D, 7F)
 There are   186 symmetry adapted cartesian basis functions of A   symmetry.
 There are   173 symmetry adapted cartesian basis functions of B1  symmetry.
 There are   173 symmetry adapted cartesian basis functions of B2  symmetry.
 There are   173 symmetry adapted cartesian basis functions of B3  symmetry.
 There are   145 symmetry adapted basis functions of A   symmetry.
 There are   137 symmetry adapted basis functions of B1  symmetry.
 There are   137 symmetry adapted basis functions of B2  symmetry.
 There are   137 symmetry adapted basis functions of B3  symmetry.
   556 basis functions,   944 primitive gaussians,   705 cartesian basis functions
    42 alpha electrons       42 beta electrons
       nuclear repulsion energy       599.5078329384 Hartrees.
 NAtoms=    9 NActive=    9 NUniq=    3 SFac= 4.00D+00 NAtFMM=   60 NAOKFM=F Big=F
 Integral buffers will be    131072 words long.
 Raffenetti 2 integral format.
 Two-electron integral symmetry is turned on.
 One-electron integrals computed using PRISM.
  24 Symmetry operations used in ECPInt.
 ECPInt:  NShTT=   13530 NPrTT=   42629 LenC2=   12113 LenP2D=   28057.
 LDataN:  DoStor=T MaxTD1= 8 Len=  415
 NBasis=   556 RedAO= T EigKep=  6.36D-05  NBF=   145   137   137   137
 NBsUse=   556 1.00D-06 EigRej= -1.00D+00 NBFU=   145   137   137   137
 Initial guess from the checkpoint file:  "/data/hutter/SMG16/TPSS/Gau-85954.chk"
 B after Tr=     0.000000    0.000000    0.000000
         Rot=    1.000000    0.000000    0.000000    0.000000 Ang=   0.00 deg.
 Initial guess orbital symmetries:
       Occupied  (A1) (A1) (T2) (T2) (T2) (T2) (T2) (T2) (A1) (T2)
                 (T2) (T2) (A1) (A1) (T2) (T2) (T2) (A1) (T2) (T2)
                 (T2) (A1) (T2) (T2) (T2) (A1) (E) (E) (T2) (T2)
                 (T2) (T1) (T1) (T1) (T2) (T2) (T2) (E) (E) (T2)
                 (T2) (T2)
       Virtual   (T2) (T2) (T2) (E) (E) (T1) (T1) (T1) (A1) (T2)
                 (T2) (T2) (T2) (T2) (T2) (E) (E) (A1) (T2) (T2)
                 (T2) (T1) (T1) (T1) (T2) (T2) (T2) (A1) (A1) (T2)
                 (T2) (T2) (E) (E) (T2) (T2) (T2) (A1) (T2) (T2)
                 (T2) (T1) (T1) (T1) (E) (E) (T2) (T2) (T2) (T2)
                 (T2) (T2) (A1) (T1) (T1) (T1) (T2) (T2) (T2) (E)
                 (E) (E) (E) (A1) (T2) (T2) (T2) (T1) (T1) (T1)
                 (A1) (T2) (T2) (T2) (T2) (T2) (T2) (T1) (T1) (T1)
                 (E) (E) (T2) (T2) (T2) (A1) (T2) (T2) (T2) (T2)
                 (T2) (T2) (E) (E) (A1) (T2) (T2) (T2) (T1) (T1)
                 (T1) (A1) (T2) (T2) (T2) (T1) (T1) (T1) (E) (E)
                 (T2) (T2) (T2) (T1) (T1) (T1) (E) (E) (A1) (T2)
                 (T2) (T2) (T2) (T2) (T2) (T2) (T2) (T2) (A2) (T1)
                 (T1) (T1) (E) (E) (T2) (T2) (T2) (T1) (T1) (T1)
                 (E) (E) (T1) (T1) (T1) (A1) (T2) (T2) (T2) (A1)
                 (T2) (T2) (T2) (E) (E) (T1) (T1) (T1) (T2) (T2)
                 (T2) (T2) (T2) (T2) (A1) (T2) (T2) (T2) (E) (E)
                 (T1) (T1) (T1) (A1) (T2) (T2) (T2) (E) (E) (T2)
                 (T2) (T2) (A1) (T1) (T1) (T1) (T2) (T2) (T2) (T2)
                 (T2) (T2) (E) (E) (T1) (T1) (T1) (T2) (T2) (T2)
                 (A1) (T2) (T2) (T2) (A2) (T1) (T1) (T1) (A1) (T2)
                 (T2) (T2) (E) (E) (T1) (T1) (T1) (T2) (T2) (T2)
                 (E) (E) (T1) (T1) (T1) (T2) (T2) (T2) (A1) (E)
                 (E) (T1) (T1) (T1) (T2) (T2) (T2) (A1) (T2) (T2)
                 (T2) (T2) (T2) (T2) (A1) (T1) (T1) (T1) (T2) (T2)
                 (T2) (E) (E) (A1) (T2) (T2) (T2) (E) (E) (T1)
                 (T1) (T1) (T2) (T2) (T2) (E) (E) (T1) (T1) (T1)
                 (T2) (T2) (T2) (A2) (A1) (T2) (T2) (T2) (T1) (T1)
                 (T1) (T2) (T2) (T2) (A1) (T1) (T1) (T1) (E) (E)
                 (T2) (T2) (T2) (E) (E) (A1) (T2) (T2) (T2) (T2)
                 (T2) (T2) (T1) (T1) (T1) (T1) (T1) (T1) (E) (E)
                 (T2) (T2) (T2) (T2) (T2) (T2) (A2) (T1) (T1) (T1)
                 (T2) (T2) (T2) (E) (E) (A1) (T1) (T1) (T1) (E)
                 (E) (T2) (T2) (T2) (E) (E) (T1) (T1) (T1) (T2)
                 (T2) (T2) (T2) (T2) (T2) (T1) (T1) (T1) (A1) (E)
                 (E) (A1) (T2) (T2) (T2) (T1) (T1) (T1) (E) (E)
                 (T2) (T2) (T2) (A1) (T2) (T2) (T2) (T1) (T1) (T1)
                 (T2) (T2) (T2) (A1) (E) (E) (T2) (T2) (T2) (T1)
                 (T1) (T1) (T2) (T2) (T2) (E) (E) (T1) (T1) (T1)
                 (T2) (T2) (T2) (A1) (A2) (T1) (T1) (T1) (T2) (T2)
                 (T2) (A1) (A1) (T2) (T2) (T2) (T1) (T1) (T1) (E)
                 (E) (T2) (T2) (T2) (T2) (T2) (T2) (A1) (E) (E)
                 (T2) (T2) (T2) (T1) (T1) (T1) (A2) (T2) (T2) (T2)
                 (A1) (T1) (T1) (T1) (E) (E) (T1) (T1) (T1) (T2)
                 (T2) (T2) (T2) (T2) (T2) (T1) (T1) (T1) (E) (E)
                 (A1) (T2) (T2) (T2) (T1) (T1) (T1) (T2) (T2) (T2)
                 (E) (E) (A1) (E) (E) (T2) (T2) (T2) (T1) (T1)
                 (T1) (A1) (T2) (T2) (T2) (A1) (T2) (T2) (T2) (T2)
                 (T2) (T2) (T1) (T1) (T1) (A1) (E) (E) (T1) (T1)
                 (T1) (T2) (T2) (T2) (A1) (T2) (T2) (T2) (A1) (A1)
                 (A1) (T2) (T2) (T2) (A1) (A1) (T2) (T2) (T2) (A1)
                 (T2) (T2) (T2) (A1)
 Requested convergence on RMS density matrix=1.00D-08 within 128 cycles.
 Requested convergence on MAX density matrix=1.00D-06.
 Requested convergence on             energy=1.00D-06.
 No special actions if energy rises.
 Density matrix is not changing but DIIS error= 1.34D-06 CofLast= 7.67D-02.
 SCF Done:  E(RTPSS-TPSS) =  -1962.13990742     A.U. after    3 cycles
            NFock=  3  Conv=0.52D-08     -V/T= 2.0020
 DoSCS=F DFT=T ScalE2(SS,OS)=  1.000000  1.000000
 Range of M.O.s used for correlation:     1   556
 NBasis=   556 NAE=    42 NBE=    42 NFC=     0 NFV=     0
 NROrb=    556 NOA=    42 NOB=    42 NVA=   514 NVB=   514

 **** Warning!!: The largest alpha MO coefficient is  0.71533045D+02

  24 Symmetry operations used in ECPInt.
 ECPInt:  NShTT=   13530 NPrTT=   42629 LenC2=   12113 LenP2D=   28057.
 LDataN:  DoStor=T MaxTD1= 9 Len=  602
 Symmetrizing basis deriv contribution to polar:
 IMax=3 JMax=2 DiffMx= 0.00D+00
 G2DrvN: will do    10 centers at a time, making    1 passes.
 Calling FoFCou, ICntrl=  3507 FMM=F I1Cent=   0 AccDes= 0.00D+00.
 End of G2Drv F.D. properties file   721 does not exist.
 End of G2Drv F.D. properties file   722 does not exist.
 End of G2Drv F.D. properties file   788 does not exist.
          IDoAtm=111111111
          Differentiating once with respect to electric field.
                with respect to dipole field.
          Differentiating once with respect to nuclear coordinates.
 CalDSu exits because no D1Ps are significant.
          There are    12 degrees of freedom in the 1st order CPHF.  IDoFFX=4 NUNeed=    12.
     12 vectors produced by pass  0 Test12= 1.80D-13 8.33D-09 XBig12= 1.83D+02 6.36D+00.
 AX will form    12 AO Fock derivatives at one time.
     12 vectors produced by pass  1 Test12= 1.80D-13 8.33D-09 XBig12= 6.31D+01 1.62D+00.
     12 vectors produced by pass  2 Test12= 1.80D-13 8.33D-09 XBig12= 6.84D+00 6.61D-01.
     12 vectors produced by pass  3 Test12= 1.80D-13 8.33D-09 XBig12= 2.74D-01 6.79D-02.
     12 vectors produced by pass  4 Test12= 1.80D-13 8.33D-09 XBig12= 3.72D-03 1.04D-02.
     12 vectors produced by pass  5 Test12= 1.80D-13 8.33D-09 XBig12= 1.60D-04 1.82D-03.
     12 vectors produced by pass  6 Test12= 1.80D-13 8.33D-09 XBig12= 2.15D-06 2.28D-04.
     12 vectors produced by pass  7 Test12= 1.80D-13 8.33D-09 XBig12= 7.94D-09 1.15D-05.
      7 vectors produced by pass  8 Test12= 1.80D-13 8.33D-09 XBig12= 2.41D-11 8.19D-07.
      4 vectors produced by pass  9 Test12= 1.80D-13 8.33D-09 XBig12= 1.25D-13 6.67D-08.
 InvSVY:  IOpt=1 It=  1 EMax= 5.33D-15
 Solved reduced A of dimension   107 with    12 vectors.
 Isotropic polarizability for W=    0.000000       88.81 Bohr**3.
 End of Minotr F.D. properties file   721 does not exist.
 End of Minotr F.D. properties file   722 does not exist.
 End of Minotr F.D. properties file   788 does not exist.

 **********************************************************************

            Population analysis using the SCF Density.

 **********************************************************************

 Orbital symmetries:
       Occupied  (A1) (A1) (T2) (T2) (T2) (T2) (T2) (T2) (A1) (T2)
                 (T2) (T2) (A1) (A1) (T2) (T2) (T2) (A1) (T2) (T2)
                 (T2) (A1) (T2) (T2) (T2) (A1) (E) (E) (T2) (T2)
                 (T2) (T1) (T1) (T1) (T2) (T2) (T2) (E) (E) (T2)
                 (T2) (T2)
       Virtual   (T2) (T2) (T2) (E) (E) (T1) (T1) (T1) (A1) (T2)
                 (T2) (T2) (T2) (T2) (T2) (E) (E) (A1) (T2) (T2)
                 (T2) (T1) (T1) (T1) (T2) (T2) (T2) (A1) (A1) (T2)
                 (T2) (T2) (E) (E) (T2) (T2) (T2) (A1) (T2) (T2)
                 (T2) (T1) (T1) (T1) (E) (E) (T2) (T2) (T2) (T2)
                 (T2) (T2) (A1) (T1) (T1) (T1) (T2) (T2) (T2) (E)
                 (E) (E) (E) (A1) (T2) (T2) (T2) (T1) (T1) (T1)
                 (A1) (T2) (T2) (T2) (T2) (T2) (T2) (T1) (T1) (T1)
                 (E) (E) (T2) (T2) (T2) (A1) (T2) (T2) (T2) (T2)
                 (T2) (T2) (E) (E) (A1) (T2) (T2) (T2) (T1) (T1)
                 (T1) (A1) (T2) (T2) (T2) (T1) (T1) (T1) (E) (E)
                 (T2) (T2) (T2) (T1) (T1) (T1) (E) (E) (A1) (T2)
                 (T2) (T2) (T2) (T2) (T2) (T2) (T2) (T2) (A2) (T1)
                 (T1) (T1) (E) (E) (T2) (T2) (T2) (T1) (T1) (T1)
                 (E) (E) (T1) (T1) (T1) (A1) (T2) (T2) (T2) (A1)
                 (T2) (T2) (T2) (E) (E) (T1) (T1) (T1) (T2) (T2)
                 (T2) (T2) (T2) (T2) (A1) (T2) (T2) (T2) (E) (E)
                 (T1) (T1) (T1) (A1) (T2) (T2) (T2) (E) (E) (T2)
                 (T2) (T2) (A1) (T1) (T1) (T1) (T2) (T2) (T2) (T2)
                 (T2) (T2) (E) (E) (T1) (T1) (T1) (T2) (T2) (T2)
                 (A1) (T2) (T2) (T2) (A2) (T1) (T1) (T1) (A1) (T2)
                 (T2) (T2) (E) (E) (T1) (T1) (T1) (T2) (T2) (T2)
                 (E) (E) (T1) (T1) (T1) (T2) (T2) (T2) (A1) (E)
                 (E) (T1) (T1) (T1) (T2) (T2) (T2) (A1) (T2) (T2)
                 (T2) (T2) (T2) (T2) (A1) (T1) (T1) (T1) (T2) (T2)
                 (T2) (E) (E) (A1) (T2) (T2) (T2) (E) (E) (T1)
                 (T1) (T1) (T2) (T2) (T2) (E) (E) (T1) (T1) (T1)
                 (T2) (T2) (T2) (A2) (A1) (T2) (T2) (T2) (T1) (T1)
                 (T1) (T2) (T2) (T2) (A1) (T1) (T1) (T1) (E) (E)
                 (T2) (T2) (T2) (E) (E) (A1) (T2) (T2) (T2) (T2)
                 (T2) (T2) (T1) (T1) (T1) (T1) (T1) (T1) (E) (E)
                 (T2) (T2) (T2) (T2) (T2) (T2) (A2) (T1) (T1) (T1)
                 (T2) (T2) (T2) (E) (E) (A1) (T1) (T1) (T1) (E)
                 (E) (T2) (T2) (T2) (E) (E) (T1) (T1) (T1) (T2)
                 (T2) (T2) (T2) (T2) (T2) (T1) (T1) (T1) (A1) (E)
                 (E) (A1) (T2) (T2) (T2) (T1) (T1) (T1) (E) (E)
                 (T2) (T2) (T2) (A1) (T2) (T2) (T2) (T1) (T1) (T1)
                 (T2) (T2) (T2) (A1) (E) (E) (T2) (T2) (T2) (T1)
                 (T1) (T1) (T2) (T2) (T2) (E) (E) (T1) (T1) (T1)
                 (T2) (T2) (T2) (A1) (A2) (T1) (T1) (T1) (T2) (T2)
                 (T2) (A1) (A1) (T2) (T2) (T2) (T1) (T1) (T1) (E)
                 (E) (T2) (T2) (T2) (T2) (T2) (T2) (A1) (E) (E)
                 (T2) (T2) (T2) (T1) (T1) (T1) (A2) (T2) (T2) (T2)
                 (A1) (T1) (T1) (T1) (E) (E) (T1) (T1) (T1) (T2)
                 (T2) (T2) (T2) (T2) (T2) (T1) (T1) (T1) (E) (E)
                 (A1) (T2) (T2) (T2) (T1) (T1) (T1) (T2) (T2) (T2)
                 (E) (E) (A1) (E) (E) (T2) (T2) (T2) (T1) (T1)
                 (T1) (A1) (T2) (T2) (T2) (A1) (T2) (T2) (T2) (T2)
                 (T2) (T2) (T1) (T1) (T1) (A1) (E) (E) (T1) (T1)
                 (T1) (T2) (T2) (T2) (A1) (T2) (T2) (T2) (A1) (A1)
                 (A1) (T2) (T2) (T2) (A1) (A1) (T2) (T2) (T2) (A1)
                 (T2) (T2) (T2) (A1)
 The electronic state is 1-A1.
 Alpha  occ. eigenvalues -- -299.01133 -35.43683 -30.87496 -30.87496 -30.87496
 Alpha  occ. eigenvalues --  -18.97943 -18.97943 -18.97943 -18.97943 -10.11375
 Alpha  occ. eigenvalues --  -10.11375 -10.11375 -10.11375  -3.93161  -2.53808
 Alpha  occ. eigenvalues --   -2.53808  -2.53808  -1.08155  -1.08125  -1.08125
 Alpha  occ. eigenvalues --   -1.08125  -0.55589  -0.53087  -0.53087  -0.53087
 Alpha  occ. eigenvalues --   -0.45600  -0.43498  -0.43498  -0.43374  -0.43374
 Alpha  occ. eigenvalues --   -0.43374  -0.42568  -0.42568  -0.42568  -0.41824
 Alpha  occ. eigenvalues --   -0.41824  -0.41824  -0.28199  -0.28199  -0.24199
 Alpha  occ. eigenvalues --   -0.24199  -0.24199
 Alpha virt. eigenvalues --   -0.07956  -0.07956  -0.07956  -0.07107  -0.07107
 Alpha virt. eigenvalues --   -0.05507  -0.05507  -0.05507   0.00073   0.02434
 Alpha virt. eigenvalues --    0.02434   0.02434   0.09329   0.09329   0.09329
 Alpha virt. eigenvalues --    0.11231   0.11231   0.15385   0.17002   0.17002
 Alpha virt. eigenvalues --    0.17002   0.18634   0.18634   0.18634   0.20721
 Alpha virt. eigenvalues --    0.20721   0.20721   0.22509   0.24089   0.25751
 Alpha virt. eigenvalues --    0.25751   0.25751   0.29261   0.29261   0.31069
 Alpha virt. eigenvalues --    0.31069   0.31069   0.35741   0.35946   0.35946
 Alpha virt. eigenvalues --    0.35946   0.40329   0.40329   0.40329   0.41641
 Alpha virt. eigenvalues --    0.41641   0.42506   0.42506   0.42506   0.49397
 Alpha virt. eigenvalues --    0.49397   0.49397   0.53431   0.53958   0.53958
 Alpha virt. eigenvalues --    0.53958   0.55940   0.55940   0.55940   0.57564
 Alpha virt. eigenvalues --    0.57564   0.60596   0.60596   0.63362   0.65281
 Alpha virt. eigenvalues --    0.65281   0.65281   0.73104   0.73104   0.73104
 Alpha virt. eigenvalues --    0.74771   0.75809   0.75809   0.75809   0.78827
 Alpha virt. eigenvalues --    0.78827   0.78827   0.83503   0.83503   0.83503
 Alpha virt. eigenvalues --    0.83516   0.83516   0.88957   0.88957   0.88957
 Alpha virt. eigenvalues --    0.89327   0.98196   0.98196   0.98196   1.04608
 Alpha virt. eigenvalues --    1.04608   1.04608   1.07358   1.07358   1.08475
 Alpha virt. eigenvalues --    1.09764   1.09764   1.09764   1.10045   1.10045
 Alpha virt. eigenvalues --    1.10045   1.18109   1.25294   1.25294   1.25294
 Alpha virt. eigenvalues --    1.26619   1.26619   1.26619   1.34443   1.34443
 Alpha virt. eigenvalues --    1.35084   1.35084   1.35084   1.35961   1.35961
 Alpha virt. eigenvalues --    1.35961   1.39373   1.39373   1.48028   1.49851
 Alpha virt. eigenvalues --    1.49851   1.49851   1.54249   1.54249   1.54249
 Alpha virt. eigenvalues --    1.62038   1.62038   1.62038   1.66664   1.66861
 Alpha virt. eigenvalues --    1.66861   1.66861   1.67441   1.67441   1.77011
 Alpha virt. eigenvalues --    1.77011   1.77011   1.77317   1.77317   1.77317
 Alpha virt. eigenvalues --    1.78445   1.78445   1.82792   1.82792   1.82792
 Alpha virt. eigenvalues --    1.84360   1.89007   1.89007   1.89007   1.91727
 Alpha virt. eigenvalues --    1.94667   1.94667   1.94667   1.94764   1.94764
 Alpha virt. eigenvalues --    1.98091   1.98091   1.98091   2.02341   2.02341
 Alpha virt. eigenvalues --    2.02341   2.12818   2.12818   2.12818   2.15803
 Alpha virt. eigenvalues --    2.25590   2.25590   2.25590   2.26783   2.26783
 Alpha virt. eigenvalues --    2.27469   2.27469   2.27469   2.31850   2.37462
 Alpha virt. eigenvalues --    2.37462   2.37462   2.39971   2.39971   2.40933
 Alpha virt. eigenvalues --    2.40933   2.40933   2.41732   2.43312   2.43312
 Alpha virt. eigenvalues --    2.43312   2.52485   2.52485   2.52485   2.67200
 Alpha virt. eigenvalues --    2.67200   2.67200   2.78078   2.78078   2.83869
 Alpha virt. eigenvalues --    2.83869   2.83869   2.92068   2.92068   2.92068
 Alpha virt. eigenvalues --    2.99410   3.06414   3.06414   3.06414   3.08011
 Alpha virt. eigenvalues --    3.11813   3.11813   3.11813   3.12414   3.15270
 Alpha virt. eigenvalues --    3.15270   3.15270   3.24828   3.24828   3.33551
 Alpha virt. eigenvalues --    3.33551   3.33551   3.39652   3.39652   3.39652
 Alpha virt. eigenvalues --    3.60290   3.60290   3.64543   3.64543   3.64543
 Alpha virt. eigenvalues --    3.77467   3.77467   3.77467   3.79087   3.81164
 Alpha virt. eigenvalues --    3.81164   3.83347   3.83347   3.83347   3.86833
 Alpha virt. eigenvalues --    3.86833   3.86833   3.88109   3.95402   3.95402
 Alpha virt. eigenvalues --    3.95402   4.04128   4.04128   4.04128   4.07935
 Alpha virt. eigenvalues --    4.12994   4.12994   4.12994   4.17487   4.17487
 Alpha virt. eigenvalues --    4.17487   4.17653   4.17653   4.51688   4.52441
 Alpha virt. eigenvalues --    4.52441   4.52441   4.61286   4.61286   4.63484
 Alpha virt. eigenvalues --    4.63484   4.63484   4.64834   4.64834   4.64834
 Alpha virt. eigenvalues --    4.77306   4.77306   4.77811   4.77811   4.77811
 Alpha virt. eigenvalues --    4.78251   4.78251   4.78251   4.92008   4.96566
 Alpha virt. eigenvalues --    4.97475   4.97475   4.97475   5.00971   5.00971
 Alpha virt. eigenvalues --    5.00971   5.03327   5.03327   5.03327   5.04452
 Alpha virt. eigenvalues --    5.23677   5.23677   5.23677   5.26680   5.26680
 Alpha virt. eigenvalues --    5.26860   5.26860   5.26860   5.47602   5.47602
 Alpha virt. eigenvalues --    5.54694   5.57977   5.57977   5.57977   5.59413
 Alpha virt. eigenvalues --    5.59413   5.59413   5.60135   5.60135   5.60135
 Alpha virt. eigenvalues --    5.63434   5.63434   5.63434   5.69415   5.69415
 Alpha virt. eigenvalues --    5.73035   5.73035   5.73035   5.80430   5.80430
 Alpha virt. eigenvalues --    5.80430   5.85789   5.88236   5.88236   5.88236
 Alpha virt. eigenvalues --    5.89645   5.89645   5.89645   5.90136   5.90136
 Alpha virt. eigenvalues --    5.92693   6.05449   6.05449   6.05449   6.06370
 Alpha virt. eigenvalues --    6.06370   6.13283   6.13283   6.13283   6.14168
 Alpha virt. eigenvalues --    6.14168   6.14419   6.14419   6.14419   6.25447
 Alpha virt. eigenvalues --    6.25447   6.25447   6.34722   6.34722   6.34722
 Alpha virt. eigenvalues --    6.35229   6.35229   6.35229   6.37003   6.41618
 Alpha virt. eigenvalues --    6.41618   6.50217   6.53933   6.53933   6.53933
 Alpha virt. eigenvalues --    6.63144   6.63144   6.63144   6.77566   6.77566
 Alpha virt. eigenvalues --    6.84280   6.84280   6.84280   6.91580   7.05699
 Alpha virt. eigenvalues --    7.05699   7.05699   7.17323   7.17323   7.17323
 Alpha virt. eigenvalues --    7.54806   7.54806   7.54806   7.55352   7.78435
 Alpha virt. eigenvalues --    7.78435   7.92921   7.92921   7.92921   8.19826
 Alpha virt. eigenvalues --    8.19826   8.19826   8.37129   8.37129   8.37129
 Alpha virt. eigenvalues --    8.85513   8.85513   8.85514   8.85514   8.85514
 Alpha virt. eigenvalues --    8.85518   8.85518   8.85518   8.94538   9.12276
 Alpha virt. eigenvalues --    9.12590   9.12590   9.12590   9.12657   9.12657
 Alpha virt. eigenvalues --    9.12657   9.13399   9.68566   9.70090   9.70090
 Alpha virt. eigenvalues --    9.70090   9.96434   9.96434   9.96434   9.97602
 Alpha virt. eigenvalues --    9.97602   9.99303   9.99303   9.99303  10.27071
 Alpha virt. eigenvalues --   10.27071  10.27071  10.28375  10.50026  10.50026
 Alpha virt. eigenvalues --   10.50427  10.50427  10.50427  10.50457  10.50457
 Alpha virt. eigenvalues --   10.50457  10.89543  10.89756  10.89756  10.89756
 Alpha virt. eigenvalues --   10.89844  10.89863  10.89863  10.89863  11.30127
 Alpha virt. eigenvalues --   11.30127  11.31177  11.31177  11.31177  11.33447
 Alpha virt. eigenvalues --   11.33447  11.33447  11.90146  11.90146  11.90146
 Alpha virt. eigenvalues --   11.90847  11.90847  11.90847  11.91035  11.91035
 Alpha virt. eigenvalues --   11.95945  11.96306  11.96306  11.96306  11.96951
 Alpha virt. eigenvalues --   11.96951  11.96951  11.99210  11.99210  11.99210
 Alpha virt. eigenvalues --   11.99348  11.99348  12.53995  13.39271  13.39271
 Alpha virt. eigenvalues --   13.41762  13.41762  13.41762  13.43932  13.43932
 Alpha virt. eigenvalues --   13.43932  13.79159  13.86805  13.86805  13.86805
 Alpha virt. eigenvalues --   14.52825  14.61243  14.61243  14.61243  20.39769
 Alpha virt. eigenvalues --   20.39769  20.39769  20.40203  20.40203  20.40203
 Alpha virt. eigenvalues --   20.60944  22.16209  22.16209  22.21475  22.21475
 Alpha virt. eigenvalues --   22.21475  22.35136  22.35136  22.35136  22.42295
 Alpha virt. eigenvalues --   28.22058  28.22058  28.22058  28.22757  41.09947
 Alpha virt. eigenvalues --   47.91137  47.98624  47.98624  47.98624 137.43114
 Alpha virt. eigenvalues --  148.86377 148.88504 148.88504 148.88504 255.03081
 Alpha virt. eigenvalues --  255.11617 255.11617 255.11617 871.04104
          Condensed to atoms (all electrons):
               1          2          3          4          5          6
     1  Ni  26.911342   0.322368   0.322368   0.322368   0.322368  -0.071127
     2  C    0.322368   5.064940   0.003698   0.003698   0.003698   0.549561
     3  C    0.322368   0.003698   5.064940   0.003698   0.003698  -0.000127
     4  C    0.322368   0.003698   0.003698   5.064940   0.003698  -0.000127
     5  C    0.322368   0.003698   0.003698   0.003698   5.064940  -0.000127
     6  O   -0.071127   0.549561  -0.000127  -0.000127  -0.000127   7.594999
     7  O   -0.071127  -0.000127   0.549561  -0.000127  -0.000127   0.000097
     8  O   -0.071127  -0.000127  -0.000127   0.549561  -0.000127   0.000097
     9  O   -0.071127  -0.000127  -0.000127  -0.000127   0.549561   0.000097
               7          8          9
     1  Ni  -0.071127  -0.071127  -0.071127
     2  C   -0.000127  -0.000127  -0.000127
     3  C    0.549561  -0.000127  -0.000127
     4  C   -0.000127   0.549561  -0.000127
     5  C   -0.000127  -0.000127   0.549561
     6  O    0.000097   0.000097   0.000097
     7  O    7.594999   0.000097   0.000097
     8  O    0.000097   7.594999   0.000097
     9  O    0.000097   0.000097   7.594999
 Mulliken charges:
               1
     1  Ni   0.083695
     2  C    0.052418
     3  C    0.052418
     4  C    0.052418
     5  C    0.052418
     6  O   -0.073342
     7  O   -0.073342
     8  O   -0.073342
     9  O   -0.073342
 Sum of Mulliken charges =   0.00000
 Mulliken charges with hydrogens summed into heavy atoms:
               1
     1  Ni   0.083695
     2  C    0.052418
     3  C    0.052418
     4  C    0.052418
     5  C    0.052418
     6  O   -0.073342
     7  O   -0.073342
     8  O   -0.073342
     9  O   -0.073342
 APT charges:
               1
     1  Ni  -1.218131
     2  C    0.999802
     3  C    0.999802
     4  C    0.999802
     5  C    0.999802
     6  O   -0.695269
     7  O   -0.695269
     8  O   -0.695269
     9  O   -0.695269
 Sum of APT charges =  -0.00000
 APT charges with hydrogens summed into heavy atoms:
               1
     1  Ni  -1.218131
     2  C    0.999802
     3  C    0.999802
     4  C    0.999802
     5  C    0.999802
     6  O   -0.695269
     7  O   -0.695269
     8  O   -0.695269
     9  O   -0.695269
 Electronic spatial extent (au):  <R**2>=           1427.4976
 Charge=              0.0000 electrons
 Dipole moment (field-independent basis, Debye):
    X=             -0.0000    Y=              0.0000    Z=              0.0000  Tot=              0.0000
 Quadrupole moment (field-independent basis, Debye-Ang):
   XX=            -58.6420   YY=            -58.6420   ZZ=            -58.6420
   XY=              0.0000   XZ=             -0.0000   YZ=             -0.0000
 Traceless Quadrupole moment (field-independent basis, Debye-Ang):
   XX=             -0.0000   YY=              0.0000   ZZ=              0.0000
   XY=              0.0000   XZ=             -0.0000   YZ=             -0.0000
 Octapole moment (field-independent basis, Debye-Ang**2):
  XXX=             -0.0000  YYY=              0.0000  ZZZ=              0.0000  XYY=             -0.0000
  XXY=             -0.0000  XXZ=             -0.0000  XZZ=             -0.0000  YZZ=              0.0000
  YYZ=             -0.0000  XYZ=            -10.3150
 Hexadecapole moment (field-independent basis, Debye-Ang**3):
 XXXX=           -571.1083 YYYY=           -571.1083 ZZZZ=           -571.1083 XXXY=              0.0000
 XXXZ=             -0.0000 YYYX=              0.0000 YYYZ=             -0.0000 ZZZX=             -0.0000
 ZZZY=             -0.0000 XXYY=           -207.1368 XXZZ=           -207.1368 YYZZ=           -207.1368
 XXYZ=             -0.0000 YYXZ=             -0.0000 ZZXY=              0.0000
 N-N= 5.995078329384D+02 E-N=-5.864555669720D+03  KE= 1.958160055406D+03
 Symmetry A    KE= 1.073031286069D+03
 Symmetry B1   KE= 2.950429231122D+02
 Symmetry B2   KE= 2.950429231122D+02
 Symmetry B3   KE= 2.950429231122D+02
  Exact polarizability:      88.814      -0.000      88.814      -0.000      -0.000      88.814
 Approx polarizability:     181.455       0.000     181.455      -0.000       0.000     181.455
  24 Symmetry operations used in ECPInt.
 ECPInt:  NShTT=   13530 NPrTT=   42629 LenC2=   12113 LenP2D=   28057.
 LDataN:  DoStor=T MaxTD1=10 Len=  848
 Calling FoFJK, ICntrl=    100527 FMM=F ISym2X=1 I1Cent= 0 IOpClX= 0 NMat=1 NMatS=1 NMatT=0.
 Full mass-weighted force constant matrix:
 Low frequencies ---   -6.6112   -6.6112   -6.6112    0.0049    0.0071    0.0078
 Low frequencies ---   58.0821   58.0821   74.2643
 Diagonal vibrational polarizability:
       14.1383282      14.1383282      14.1383282
 Harmonic frequencies (cm**-1), IR intensities (KM/Mole), Raman scattering
 activities (A**4/AMU), depolarization ratios for plane and unpolarized
 incident light, reduced masses (AMU), force constants (mDyne/A),
 and normal coordinates:
                      1                      2                      3
                      E                      E                     T2
 Frequencies --     58.0821                58.0821                74.2643
 Red. masses --     15.4245                15.4245                18.2545
 Frc consts  --      0.0307                 0.0307                 0.0593
 IR Inten    --      0.0000                 0.0000                 0.0635
  Atom  AN      X      Y      Z        X      Y      Z        X      Y      Z
     1  28     0.00  -0.00   0.00     0.00   0.00   0.00     0.23   0.08   0.06
     2   6    -0.06   0.15  -0.09     0.14  -0.02  -0.13     0.11   0.14   0.14
     3   6     0.06  -0.15  -0.09    -0.14   0.02  -0.13     0.06   0.09  -0.11
     4   6    -0.06  -0.15   0.09     0.14   0.02   0.13    -0.01  -0.05  -0.05
     5   6     0.06   0.15   0.09    -0.14  -0.02   0.13     0.04  -0.10   0.07
     6   8    -0.16   0.38  -0.22     0.34  -0.04  -0.31    -0.10   0.22   0.26
     7   8     0.16  -0.38  -0.22    -0.34   0.04  -0.31    -0.22   0.10  -0.39
     8   8    -0.16  -0.38   0.22     0.34   0.04   0.31    -0.39  -0.26  -0.22
     9   8     0.16   0.38   0.22    -0.34  -0.04   0.31    -0.27  -0.39   0.10
                      4                      5                      6
                     T2                     T2                     T1
 Frequencies --     74.2643                74.2643               286.0951
 Red. masses --     18.2545                18.2545                12.7008
 Frc consts  --      0.0593                 0.0593                 0.6125
 IR Inten    --      0.0635                 0.0635                 0.0000
  Atom  AN      X      Y      Z        X      Y      Z        X      Y      Z
     1  28     0.10  -0.20  -0.11    -0.01  -0.12   0.22     0.00  -0.00   0.00
     2   6    -0.11  -0.05  -0.07     0.04   0.06  -0.01    -0.19   0.45  -0.26
     3   6    -0.02   0.04   0.02    -0.14  -0.12   0.10     0.20   0.06   0.26
     4   6     0.15  -0.13  -0.15    -0.04   0.07   0.00     0.19  -0.06   0.25
     5   6     0.06  -0.04   0.10     0.14  -0.11   0.09    -0.20  -0.45  -0.25
     6   8    -0.43   0.21   0.00     0.12   0.34  -0.38     0.09  -0.21   0.12
     7   8    -0.21   0.43   0.23    -0.34  -0.12  -0.09    -0.09  -0.03  -0.12
     8   8     0.22   0.00  -0.20    -0.09   0.37  -0.35    -0.09   0.03  -0.11
     9   8    -0.00   0.23   0.43     0.37  -0.09  -0.12     0.09   0.21   0.11
                      7                      8                      9
                     T1                     T1                     A1
 Frequencies --    286.0951               286.0951               389.8280
 Red. masses --     12.7008                12.7008                14.1316
 Frc consts  --      0.6125                 0.6125                 1.2653
 IR Inten    --      0.0000                 0.0000                 0.0000
  Atom  AN      X      Y      Z        X      Y      Z        X      Y      Z
     1  28    -0.00  -0.00   0.00     0.00  -0.00   0.00     0.00   0.00   0.00
     2   6     0.41  -0.04  -0.37    -0.05   0.05  -0.00     0.20   0.20   0.20
     3   6     0.14   0.24   0.37     0.38  -0.38   0.00    -0.20  -0.20   0.20
     4   6    -0.41  -0.24  -0.17     0.05   0.38  -0.34     0.20  -0.20  -0.20
     5   6    -0.14   0.04   0.17    -0.38  -0.05   0.34    -0.20   0.20  -0.20
     6   8    -0.19   0.02   0.17     0.02  -0.02   0.00     0.21   0.21   0.21
     7   8    -0.06  -0.11  -0.17    -0.18   0.18  -0.00    -0.21  -0.21   0.21
     8   8     0.19   0.11   0.08    -0.02  -0.18   0.16     0.21  -0.21  -0.21
     9   8     0.06  -0.02  -0.08     0.18   0.02  -0.16    -0.21   0.21  -0.21
                     10                     11                     12
                     T2                     T2                     T2
 Frequencies --    445.3591               445.3591               445.3591
 Red. masses --     20.8115                20.8115                20.8115
 Frc consts  --      2.4321                 2.4321                 2.4321
 IR Inten    --     53.7724                53.7724                53.7724
  Atom  AN      X      Y      Z        X      Y      Z        X      Y      Z
     1  28     0.39  -0.10  -0.05     0.05   0.32  -0.24     0.10   0.22   0.32
     2   6    -0.32   0.04   0.01    -0.05  -0.26   0.16    -0.16  -0.25  -0.32
     3   6    -0.33   0.03   0.08    -0.11  -0.32   0.26    -0.08  -0.17  -0.24
     4   6    -0.36   0.14   0.11    -0.03  -0.25   0.17    -0.02  -0.22  -0.30
     5   6    -0.34   0.13  -0.01     0.03  -0.31   0.24    -0.10  -0.14  -0.27
     6   8    -0.03  -0.13  -0.12    -0.05   0.01  -0.11    -0.27  -0.25  -0.23
     7   8    -0.08  -0.18   0.15    -0.27  -0.21   0.23     0.02   0.04   0.07
     8   8    -0.17   0.23   0.24     0.03   0.05  -0.06     0.22  -0.16  -0.14
     9   8    -0.12   0.18  -0.21     0.24  -0.17   0.19    -0.07   0.14  -0.03
                     13                     14                     15
                     T2                     T2                     T2
 Frequencies --    470.7543               470.7543               470.7543
 Red. masses --     12.7653                12.7653                12.7653
 Frc consts  --      1.6667                 1.6667                 1.6667
 IR Inten    --      6.0959                 6.0959                 6.0959
  Atom  AN      X      Y      Z        X      Y      Z        X      Y      Z
     1  28     0.01   0.01   0.01     0.01  -0.01   0.01     0.01   0.00  -0.01
     2   6    -0.20  -0.17  -0.10     0.23  -0.42   0.20     0.33  -0.01  -0.39
     3   6     0.16   0.19   0.44     0.42  -0.22  -0.02    -0.00  -0.34   0.07
     4   6     0.45   0.09   0.15    -0.02  -0.20   0.42     0.05   0.40   0.02
     5   6     0.09   0.45   0.19    -0.21  -0.00  -0.24     0.39   0.06  -0.34
     6   8    -0.16  -0.17  -0.19    -0.06   0.13  -0.05    -0.13  -0.03   0.08
     7   8    -0.09  -0.10  -0.08    -0.02   0.17  -0.10    -0.19  -0.09   0.18
     8   8    -0.04  -0.12  -0.14    -0.11   0.17  -0.01    -0.18   0.05   0.16
     9   8    -0.11  -0.05  -0.13    -0.15   0.21  -0.14    -0.12  -0.01   0.09
                     16                     17                     18
                      E                      E                     T2
 Frequencies --    471.2037               471.2037              2043.5824
 Red. masses --     12.3425                12.3425                13.3635
 Frc consts  --      1.6146                 1.6146                32.8818
 IR Inten    --      0.0000                 0.0000               898.9095
  Atom  AN      X      Y      Z        X      Y      Z        X      Y      Z
     1  28    -0.00   0.00  -0.00     0.00  -0.00  -0.00    -0.00  -0.00  -0.00
     2   6    -0.04   0.36  -0.32     0.39  -0.16  -0.23     0.26   0.26   0.25
     3   6     0.04  -0.36  -0.32    -0.39   0.16  -0.23    -0.21  -0.21   0.20
     4   6    -0.04  -0.36   0.32     0.39   0.16   0.23    -0.26   0.26   0.25
     5   6     0.04   0.36   0.32    -0.39  -0.16   0.23     0.22  -0.22   0.20
     6   8     0.01  -0.11   0.10    -0.12   0.05   0.07    -0.19  -0.19  -0.18
     7   8    -0.01   0.11   0.10     0.12  -0.05   0.07     0.15   0.15  -0.15
     8   8     0.01   0.11  -0.10    -0.12  -0.05  -0.07     0.18  -0.18  -0.18
     9   8    -0.01  -0.11  -0.10     0.12   0.05  -0.07    -0.15   0.15  -0.15
                     19                     20                     21
                     T2                     T2                     A1
 Frequencies --   2043.5824              2043.5824              2113.5657
 Red. masses --     13.3635                13.3635                13.3174
 Frc consts  --     32.8818                32.8818                35.0510
 IR Inten    --    898.9095               898.9095                 0.0000
  Atom  AN      X      Y      Z        X      Y      Z        X      Y      Z
     1  28    -0.00   0.00  -0.00    -0.00  -0.00   0.00     0.00   0.00   0.00
     2   6    -0.21  -0.20  -0.21     0.22   0.24   0.24     0.24   0.24   0.24
     3   6    -0.26  -0.25   0.26     0.23   0.24  -0.24    -0.24  -0.24   0.24
     4   6     0.21  -0.20  -0.21     0.23  -0.24  -0.24     0.24  -0.24  -0.24
     5   6     0.26  -0.25   0.26     0.22  -0.24   0.24    -0.24   0.24  -0.24
     6   8     0.15   0.15   0.15    -0.16  -0.17  -0.17    -0.17  -0.17  -0.17
     7   8     0.19   0.18  -0.19    -0.17  -0.17   0.17     0.17   0.17  -0.17
     8   8    -0.15   0.15   0.15    -0.17   0.17   0.17    -0.17   0.17   0.17
     9   8    -0.19   0.18  -0.19    -0.16   0.17  -0.17     0.17  -0.17   0.17

 -------------------
 - Thermochemistry -
 -------------------
 Temperature   298.150 Kelvin.  Pressure   1.00000 Atm.
 Atom     1 has atomic number 28 and mass  57.93535
 Atom     2 has atomic number  6 and mass  12.00000
 Atom     3 has atomic number  6 and mass  12.00000
 Atom     4 has atomic number  6 and mass  12.00000
 Atom     5 has atomic number  6 and mass  12.00000
 Atom     6 has atomic number  8 and mass  15.99491
 Atom     7 has atomic number  8 and mass  15.99491
 Atom     8 has atomic number  8 and mass  15.99491
 Atom     9 has atomic number  8 and mass  15.99491
 Molecular mass:   169.91501 amu.
 Principal axes and moments of inertia in atomic units:
                           1         2         3
     Eigenvalues --  1728.506581728.506581728.50658
           X           -0.00000   1.00000   0.00000
           Y            1.00000  -0.00000   0.00000
           Z           -0.00000  -0.00000   1.00000
 This molecule is a spherical top.
 Rotational symmetry number 12.
 Warning -- assumption of classical behavior for rotation
           may cause significant error
 Rotational temperatures (Kelvin)      0.05011     0.05011     0.05011
 Rotational constants (GHZ):           1.04410     1.04410     1.04410
 Zero-point vibrational energy      80880.3 (Joules/Mol)
                                   19.33086 (Kcal/Mol)
 Warning -- explicit consideration of  17 degrees of freedom as
           vibrations may cause significant error
 Vibrational temperatures:     83.57    83.57   106.85   106.85   106.85
          (Kelvin)            411.63   411.63   411.63   560.88   640.77
                              640.77   640.77   677.31   677.31   677.31
                              677.96   677.96  2940.26  2940.26  2940.26
                             3040.95
 
 Zero-point correction=                           0.030806 (Hartree/Particle)
 Thermal correction to Energy=                    0.041300
 Thermal correction to Enthalpy=                  0.042244
 Thermal correction to Gibbs Free Energy=        -0.004860
 Sum of electronic and zero-point Energies=          -1962.109102
 Sum of electronic and thermal Energies=             -1962.098607
 Sum of electronic and thermal Enthalpies=           -1962.097663
 Sum of electronic and thermal Free Energies=        -1962.144767
 
                     E (Thermal)             CV                S
                      KCal/Mol        Cal/Mol-Kelvin    Cal/Mol-Kelvin
 Total                   25.916             33.123             99.139
 Electronic               0.000              0.000              0.000
 Translational            0.889              2.981             41.298
 Rotational               0.889              2.981             25.087
 Vibrational             24.139             27.161             32.754
 Vibration     1          0.596              1.974              4.521
 Vibration     2          0.596              1.974              4.521
 Vibration     3          0.599              1.966              4.037
 Vibration     4          0.599              1.966              4.037
 Vibration     5          0.599              1.966              4.037
 Vibration     6          0.684              1.700              1.497
 Vibration     7          0.684              1.700              1.497
 Vibration     8          0.684              1.700              1.497
 Vibration     9          0.758              1.492              1.001
 Vibration    10          0.805              1.371              0.810
 Vibration    11          0.805              1.371              0.810
 Vibration    12          0.805              1.371              0.810
 Vibration    13          0.828              1.315              0.735
 Vibration    14          0.828              1.315              0.735
 Vibration    15          0.828              1.315              0.735
 Vibration    16          0.828              1.314              0.734
 Vibration    17          0.828              1.314              0.734
                       Q            Log10(Q)             Ln(Q)
 Total Bot       0.171935D+03          2.235364          5.147115
 Total V=0       0.254086D+17         16.404981         37.773865
 Vib (Bot)       0.291334D-10        -10.535609        -24.259136
 Vib (Bot)    1  0.355614D+01          0.550978          1.268675
 Vib (Bot)    2  0.355614D+01          0.550978          1.268675
 Vib (Bot)    3  0.277549D+01          0.443340          1.020827
 Vib (Bot)    4  0.277549D+01          0.443340          1.020827
 Vib (Bot)    5  0.277549D+01          0.443340          1.020827
 Vib (Bot)    6  0.669840D+00         -0.174029         -0.400716
 Vib (Bot)    7  0.669840D+00         -0.174029         -0.400716
 Vib (Bot)    8  0.669840D+00         -0.174029         -0.400716
 Vib (Bot)    9  0.460595D+00         -0.336680         -0.775235
 Vib (Bot)   10  0.386500D+00         -0.412851         -0.950624
 Vib (Bot)   11  0.386500D+00         -0.412851         -0.950624
 Vib (Bot)   12  0.386500D+00         -0.412851         -0.950624
 Vib (Bot)   13  0.358078D+00         -0.446022         -1.027004
 Vib (Bot)   14  0.358078D+00         -0.446022         -1.027004
 Vib (Bot)   15  0.358078D+00         -0.446022         -1.027004
 Vib (Bot)   16  0.357601D+00         -0.446602         -1.028338
 Vib (Bot)   17  0.357601D+00         -0.446602         -1.028338
 Vib (V=0)       0.430535D+04          3.634009          8.367614
 Vib (V=0)    1  0.409111D+01          0.611842          1.408817
 Vib (V=0)    2  0.409111D+01          0.611842          1.408817
 Vib (V=0)    3  0.332017D+01          0.521160          1.200015
 Vib (V=0)    4  0.332017D+01          0.521160          1.200015
 Vib (V=0)    5  0.332017D+01          0.521160          1.200015
 Vib (V=0)    6  0.133587D+01          0.125766          0.289586
 Vib (V=0)    7  0.133587D+01          0.125766          0.289586
 Vib (V=0)    8  0.133587D+01          0.125766          0.289586
 Vib (V=0)    9  0.117981D+01          0.071814          0.165357
 Vib (V=0)   10  0.113197D+01          0.053834          0.123957
 Vib (V=0)   11  0.113197D+01          0.053834          0.123957
 Vib (V=0)   12  0.113197D+01          0.053834          0.123957
 Vib (V=0)   13  0.111500D+01          0.047273          0.108851
 Vib (V=0)   14  0.111500D+01          0.047273          0.108851
 Vib (V=0)   15  0.111500D+01          0.047273          0.108851
 Vib (V=0)   16  0.111472D+01          0.047165          0.108602
 Vib (V=0)   17  0.111472D+01          0.047165          0.108602
 Electronic      0.100000D+01          0.000000          0.000000
 Translational   0.870566D+08          7.939801         18.282069
 Rotational      0.677908D+05          4.831171         11.124182
 ***** Axes restored to original set *****
 -------------------------------------------------------------------
 Center     Atomic                   Forces (Hartrees/Bohr)
 Number     Number              X              Y              Z
 -------------------------------------------------------------------
      1       28           0.000000000   -0.000000000   -0.000000000
      2        6           0.000014927   -0.000014927    0.000014927
      3        6          -0.000014927    0.000014927    0.000014927
      4        6          -0.000014927   -0.000014927   -0.000014927
      5        6           0.000014927    0.000014927   -0.000014927
      6        8           0.000092366   -0.000092366    0.000092366
      7        8          -0.000092366    0.000092366    0.000092366
      8        8          -0.000092366   -0.000092366   -0.000092366
      9        8           0.000092366    0.000092366   -0.000092366
 -------------------------------------------------------------------
 Cartesian Forces:  Max     0.000092366 RMS     0.000062376
 FormGI is forming the generalized inverse of G from B-inverse, IUseBI=4.

 GradGradGradGradGradGradGradGradGradGradGradGradGradGradGradGradGradGrad
 Berny optimization.
 Internal  Forces:  Max     0.000185837 RMS     0.000096181
 Search for a local minimum.
 Step number   1 out of a maximum of    2
 All quantities printed in internal units (Hartrees-Bohrs-Radians)
 Second derivative matrix not updated -- analytic derivatives used.
 ITU=  0
     Eigenvalues ---    0.01854   0.01934   0.02127   0.02357   0.02560
     Eigenvalues ---    0.02808   0.04189   0.04977   0.05793   0.06184
     Eigenvalues ---    0.06841   0.09551   0.09948   0.15226   0.15407
     Eigenvalues ---    0.15817   0.16559   1.08283   1.08283   1.08284
     Eigenvalues ---    1.12693
 Angle between quadratic step and forces=  34.40 degrees.
 Linear search not attempted -- first point.
 Iteration  1 RMS(Cart)=  0.00064763 RMS(Int)=  0.00000000
 Iteration  2 RMS(Cart)=  0.00000000 RMS(Int)=  0.00000000
 ClnCor:  largest displacement from symmetrization is 1.69D-08 for atom     9.
 Variable       Old X    -DE/DX   Delta X   Delta X   Delta X     New X
                                 (Linear)    (Quad)   (Total)
    R1        3.45452   0.00019   0.00000   0.00110   0.00110   3.45562
    R2        3.45452   0.00019   0.00000   0.00110   0.00110   3.45562
    R3        3.45452   0.00019   0.00000   0.00110   0.00110   3.45562
    R4        3.45452   0.00019   0.00000   0.00110   0.00110   3.45562
    R5        2.16435   0.00016   0.00000   0.00012   0.00012   2.16447
    R6        2.16435   0.00016   0.00000   0.00012   0.00012   2.16447
    R7        2.16435   0.00016   0.00000   0.00012   0.00012   2.16447
    R8        2.16435   0.00016   0.00000   0.00012   0.00012   2.16447
    A1        1.91063   0.00000   0.00000   0.00000  -0.00000   1.91063
    A2        1.91063   0.00000   0.00000   0.00000   0.00000   1.91063
    A3        1.91063  -0.00000   0.00000  -0.00000   0.00000   1.91063
    A4        1.91063  -0.00000   0.00000  -0.00000   0.00000   1.91063
    A5        1.91063  -0.00000   0.00000  -0.00000  -0.00000   1.91063
    A6        1.91063   0.00000   0.00000   0.00000   0.00000   1.91063
    A7        3.14159   0.00000   0.00000   0.00000   0.00000   3.14159
    A8        3.14159   0.00000   0.00000   0.00000   0.00000   3.14159
    A9        3.14159   0.00000   0.00000   0.00000   0.00000   3.14159
   A10        3.14159  -0.00000   0.00000  -0.00000  -0.00000   3.14159
   A11        3.14159   0.00000   0.00000   0.00000   0.00000   3.14159
   A12        3.14159  -0.00000   0.00000  -0.00000   0.00000   3.14159
   A13        3.14159  -0.00000   0.00000  -0.00000   0.00000   3.14159
   A14        3.14159   0.00000   0.00000   0.00000  -0.00000   3.14159
    D1        2.09440   0.00000   0.00000   0.00000  -0.00000   2.09440
    D2       -2.09440  -0.00000   0.00000  -0.00000   0.00000  -2.09440
    D3        2.09440   0.00000   0.00000   0.00000   0.00000   2.09440
    D4       -2.09440   0.00000   0.00000   0.00000   0.00000  -2.09440
         Item               Value     Threshold  Converged?
 Maximum Force            0.000186     0.000450     YES
 RMS     Force            0.000096     0.000300     YES
 Maximum Displacement     0.000708     0.001800     YES
 RMS     Displacement     0.000648     0.001200     YES
 Predicted change in Energy=-4.497586D-07
 Optimization completed.
    -- Stationary point found.
                           ----------------------------
                           !   Optimized Parameters   !
                           ! (Angstroms and Degrees)  !
 --------------------------                            --------------------------
 ! Name  Definition              Value          Derivative Info.                !
 --------------------------------------------------------------------------------
 ! R1    R(1,2)                  1.8281         -DE/DX =    0.0002              !
 ! R2    R(1,3)                  1.8281         -DE/DX =    0.0002              !
 ! R3    R(1,4)                  1.8281         -DE/DX =    0.0002              !
 ! R4    R(1,5)                  1.8281         -DE/DX =    0.0002              !
 ! R5    R(2,6)                  1.1453         -DE/DX =    0.0002              !
 ! R6    R(3,7)                  1.1453         -DE/DX =    0.0002              !
 ! R7    R(4,8)                  1.1453         -DE/DX =    0.0002              !
 ! R8    R(5,9)                  1.1453         -DE/DX =    0.0002              !
 ! A1    A(2,1,3)              109.4712         -DE/DX =    0.0                 !
 ! A2    A(2,1,4)              109.4712         -DE/DX =    0.0                 !
 ! A3    A(2,1,5)              109.4712         -DE/DX =    0.0                 !
 ! A4    A(3,1,4)              109.4712         -DE/DX =    0.0                 !
 ! A5    A(3,1,5)              109.4712         -DE/DX =    0.0                 !
 ! A6    A(4,1,5)              109.4712         -DE/DX =    0.0                 !
 ! A7    L(1,2,6,7,-1)         180.0            -DE/DX =    0.0                 !
 ! A8    L(1,3,7,6,-1)         180.0            -DE/DX =    0.0                 !
 ! A9    L(1,4,8,6,-1)         180.0            -DE/DX =    0.0                 !
 ! A10   L(1,5,9,6,-1)         180.0            -DE/DX =    0.0                 !
 ! A11   L(1,2,6,7,-2)         180.0            -DE/DX =    0.0                 !
 ! A12   L(1,3,7,6,-2)         180.0            -DE/DX =    0.0                 !
 ! A13   L(1,4,8,6,-2)         180.0            -DE/DX =    0.0                 !
 ! A14   L(1,5,9,6,-2)         180.0            -DE/DX =    0.0                 !
 ! D1    D(2,1,4,3)            120.0            -DE/DX =    0.0                 !
 ! D2    D(2,1,5,3)           -120.0            -DE/DX =    0.0                 !
 ! D3    D(2,1,5,4)            120.0            -DE/DX =    0.0                 !
 ! D4    D(3,1,5,4)           -120.0            -DE/DX =    0.0                 !
 --------------------------------------------------------------------------------
 GradGradGradGradGradGradGradGradGradGradGradGradGradGradGradGradGradGrad

 Dipole is zero, so no output in dipole orientation.

 ----------------------------------------------------------------------

 Electric dipole moment (input orientation):
 (Debye = 10**-18 statcoulomb cm , SI units = C m)
                  (au)            (Debye)         (10**-30 SI)
   Tot        0.000000D+00      0.000000D+00      0.000000D+00
   x          0.000000D+00      0.000000D+00      0.000000D+00
   y          0.000000D+00      0.000000D+00      0.000000D+00
   z          0.000000D+00      0.000000D+00      0.000000D+00

 Dipole polarizability, Alpha (input orientation).
 (esu units = cm**3 , SI units = C**2 m**2 J**-1)
 Alpha(0;0):
               (au)            (10**-24 esu)      (10**-40 SI)
   iso        0.888135D+02      0.131608D+02      0.146434D+02
   aniso      0.000000D+00      0.000000D+00      0.000000D+00
   xx         0.888135D+02      0.131608D+02      0.146434D+02
   yx         0.000000D+00      0.000000D+00      0.000000D+00
   yy         0.888135D+02      0.131608D+02      0.146434D+02
   zx         0.000000D+00      0.000000D+00      0.000000D+00
   zy         0.000000D+00      0.000000D+00      0.000000D+00
   zz         0.888135D+02      0.131608D+02      0.146434D+02

 ----------------------------------------------------------------------
 Unable to Open any file for archive entry.
 1\1\GINC-TCOPT10\Freq\RTPSSTPSS\def2QZVPP\C4Ni1O4\HUTTER\01-Aug-2021\0
 \\#N Geom=AllCheck Guess=TCheck SCRF=Check GenChk RTPSSTPSS/def2QZVPP 
 Freq\\Mol job 1\\0,1\Ni,8.5,8.5,8.5\C,9.5554263116,7.4445736884,9.5554
 263116\C,7.4445736884,9.5554263116,9.5554263116\C,7.4445736884,7.44457
 36884,7.4445736884\C,9.5554263116,9.5554263116,7.4445736884\O,10.21667
 88909,6.7833211091,10.2166788909\O,6.7833211091,10.2166788909,10.21667
 88909\O,6.7833211091,6.7833211091,6.7833211091\O,10.2166788909,10.2166
 788909,6.7833211091\\Version=ES64L-G16RevC.01\State=1-A1\HF=-1962.1399
 074\RMSD=5.245e-09\RMSF=6.238e-05\ZeroPoint=0.0308057\Thermal=0.041300
 2\ETot=-1962.0986073\HTot=-1962.0976631\GTot=-1962.1447673\Dipole=0.,0
 .,0.\DipoleDeriv=-1.218131,0.,0.,0.,-1.218131,0.,0.,0.,-1.218131,0.999
 802,-0.7147388,0.7147388,-0.7147388,0.999802,-0.7147388,0.7147388,-0.7
 147388,0.999802,0.999802,-0.7147388,-0.7147388,-0.7147388,0.999802,0.7
 147388,-0.7147388,0.7147388,0.999802,0.999802,0.7147388,0.7147388,0.71
 47388,0.999802,0.7147388,0.7147388,0.7147388,0.999802,0.999802,0.71473
 88,-0.7147388,0.7147388,0.999802,-0.7147388,-0.7147388,-0.7147388,0.99
 9802,-0.6952693,0.5713606,-0.5713606,0.5713606,-0.6952693,0.5713606,-0
 .5713606,0.5713606,-0.6952693,-0.6952693,0.5713606,0.5713606,0.5713606
 ,-0.6952693,-0.5713606,0.5713606,-0.5713606,-0.6952693,-0.6952693,-0.5
 713606,-0.5713606,-0.5713606,-0.6952693,-0.5713606,-0.5713606,-0.57136
 06,-0.6952693,-0.6952693,-0.5713606,0.5713606,-0.5713606,-0.6952693,0.
 5713606,0.5713606,0.5713606,-0.6952693\Polar=88.8135282,0.,88.8135282,
 0.,0.,88.8135282\Quadrupole=0.,0.,0.,0.,0.,0.\PG=TD [O(Ni1),4C3(.C1O1)
 ]\NImag=0\\0.20263960,0.,0.20263960,0.,0.,0.20263960,-0.04094519,0.014
 46178,-0.01446178,0.43307352,0.01446178,-0.04094519,0.01446178,-0.3696
 1280,0.43307352,-0.01446178,0.01446178,-0.04094519,0.36961280,-0.36961
 280,0.43307352,-0.04094519,0.01446178,0.01446178,-0.01960554,0.0236768
 6,0.00286215,0.43307352,0.01446178,-0.04094519,-0.01446178,0.02367686,
 -0.01960554,-0.00286215,-0.36961280,0.43307352,0.01446178,-0.01446178,
 -0.04094519,-0.00286215,0.00286215,0.00507967,-0.36961280,0.36961280,0
 .43307352,-0.04094519,-0.01446178,-0.01446178,-0.01960554,-0.00286215,
 -0.02367686,0.00507967,0.00286215,0.00286215,0.43307352,-0.01446178,-0
 .04094519,-0.01446178,0.00286215,0.00507967,0.00286215,-0.00286215,-0.
 01960554,-0.02367686,0.36961280,0.43307352,-0.01446178,-0.01446178,-0.
 04094519,-0.02367686,-0.00286215,-0.01960554,-0.00286215,-0.02367686,-
 0.01960554,0.36961280,0.36961280,0.43307352,-0.04094519,-0.01446178,0.
 01446178,0.00507967,0.00286215,-0.00286215,-0.01960554,-0.00286215,0.0
 2367686,-0.01960554,-0.02367686,0.00286215,0.43307352,-0.01446178,-0.0
 4094519,0.01446178,-0.00286215,-0.01960554,0.02367686,0.00286215,0.005
 07967,-0.00286215,-0.02367686,-0.01960554,0.00286215,0.36961280,0.4330
 7352,0.01446178,0.01446178,-0.04094519,0.00286215,0.02367686,-0.019605
 54,0.02367686,0.00286215,-0.01960554,-0.00286215,-0.00286215,0.0050796
 7,-0.36961280,-0.36961280,0.43307352,-0.00971471,0.01783937,-0.0178393
 7,-0.37075680,0.34345799,-0.34345799,0.00871347,-0.00910309,-0.0035724
 6,0.00871347,0.00357246,0.00910309,-0.00466706,-0.00069172,0.00069172,
 0.37323948,0.01783937,-0.00971471,0.01783937,0.34345799,-0.37075680,0.
 34345799,-0.00910309,0.00871347,0.00357246,-0.00069172,-0.00466706,-0.
 00069172,0.00357246,0.00871347,-0.00910309,-0.35961776,0.37323948,-0.0
 1783937,0.01783937,-0.00971471,-0.34345799,0.34345799,-0.37075680,0.00
 069172,-0.00069172,-0.00466706,0.00910309,0.00357246,0.00871347,-0.003
 57246,-0.00910309,0.00871347,0.35961776,-0.35961776,0.37323948,-0.0097
 1471,0.01783937,0.01783937,0.00871347,-0.00910309,0.00357246,-0.370756
 80,0.34345799,0.34345799,-0.00466706,-0.00069172,-0.00069172,0.0087134
 7,0.00357246,-0.00910309,-0.00473900,0.00454275,-0.00288078,0.37323948
 ,0.01783937,-0.00971471,-0.01783937,-0.00910309,0.00871347,-0.00357246
 ,0.34345799,-0.37075680,-0.34345799,0.00357246,0.00871347,0.00910309,-
 0.00069172,-0.00466706,0.00069172,0.00454275,-0.00473900,0.00288078,-0
 .35961776,0.37323948,0.01783937,-0.01783937,-0.00971471,-0.00069172,0.
 00069172,-0.00466706,0.34345799,-0.34345799,-0.37075680,0.00357246,0.0
 0910309,0.00871347,-0.00910309,-0.00357246,0.00871347,0.00288078,-0.00
 288078,0.00395016,-0.35961776,0.35961776,0.37323948,-0.00971471,-0.017
 83937,-0.01783937,0.00871347,-0.00357246,0.00910309,-0.00466706,0.0006
 9172,0.00069172,-0.37075680,-0.34345799,-0.34345799,0.00871347,0.00910
 309,-0.00357246,-0.00473900,0.00288078,-0.00454275,0.00395016,-0.00288
 078,-0.00288078,0.37323948,-0.01783937,-0.00971471,-0.01783937,0.00069
 172,-0.00466706,0.00069172,-0.00357246,0.00871347,0.00910309,-0.343457
 99,-0.37075680,-0.34345799,0.00910309,0.00871347,-0.00357246,-0.002880
 78,0.00395016,-0.00288078,0.00288078,-0.00473900,-0.00454275,0.3596177
 6,0.37323948,-0.01783937,-0.01783937,-0.00971471,0.00910309,-0.0035724
 6,0.00871347,-0.00357246,0.00910309,0.00871347,-0.34345799,-0.34345799
 ,-0.37075680,0.00069172,0.00069172,-0.00466706,-0.00454275,0.00288078,
 -0.00473900,0.00288078,-0.00454275,-0.00473900,0.35961776,0.35961776,0
 .37323948,-0.00971471,-0.01783937,0.01783937,-0.00466706,0.00069172,-0
 .00069172,0.00871347,-0.00357246,-0.00910309,0.00871347,0.00910309,0.0
 0357246,-0.37075680,-0.34345799,0.34345799,0.00395016,-0.00288078,0.00
 288078,-0.00473900,0.00288078,0.00454275,-0.00473900,-0.00454275,-0.00
 288078,0.37323948,-0.01783937,-0.00971471,0.01783937,-0.00357246,0.008
 71347,-0.00910309,0.00069172,-0.00466706,-0.00069172,0.00910309,0.0087
 1347,0.00357246,-0.34345799,-0.37075680,0.34345799,0.00288078,-0.00473
 900,0.00454275,-0.00288078,0.00395016,0.00288078,-0.00454275,-0.004739
 00,-0.00288078,0.35961776,0.37323948,0.01783937,0.01783937,-0.00971471
 ,0.00357246,-0.00910309,0.00871347,-0.00910309,0.00357246,0.00871347,-
 0.00069172,-0.00069172,-0.00466706,0.34345799,0.34345799,-0.37075680,-
 0.00288078,0.00454275,-0.00473900,0.00454275,-0.00288078,-0.00473900,0
 .00288078,0.00288078,0.00395016,-0.35961776,-0.35961776,0.37323948\\0.
 ,0.,0.,-0.00001493,0.00001493,-0.00001493,0.00001493,-0.00001493,-0.00
 001493,0.00001493,0.00001493,0.00001493,-0.00001493,-0.00001493,0.0000
 1493,-0.00009237,0.00009237,-0.00009237,0.00009237,-0.00009237,-0.0000
 9237,0.00009237,0.00009237,0.00009237,-0.00009237,-0.00009237,0.000092
 37\\\@
 The archive entry for this job was punched.


 ON A CLEAR DISK YOU CAN SEEK FOREVER.
 Job cpu time:       0 days  3 hours 22 minutes 48.4 seconds.
 Elapsed time:       0 days  0 hours 12 minutes 41.5 seconds.
 File lengths (MBytes):  RWF=    189 Int=      0 D2E=      0 Chk=     25 Scr=      1
 Normal termination of Gaussian 16 at Sun Aug  1 00:42:24 2021.
