       3
 i =        1, E =       -79.2249541136
 Ca         7.5000000014        7.5000000054        7.5000000048
  F         7.4999999992        7.4999999981        5.6484095200
  F         7.4999999993        7.4999999965        9.3515905093
       3
 i =        2, E =       -80.0359780566
 Ca         7.4999999500        7.4999998135        7.4999927788
  F         7.5000000248        7.5000000708        5.8983882247
  F         7.5000000224        7.5000001038        9.1015905093
       3
 i =        3, E =       -80.1185292407
 Ca         7.5000007131        7.5000026482        7.4999595291
  F         7.4999997222        7.4999989319        6.1446207427
  F         7.4999997199        7.4999989890        8.8552814536
       3
 i =        4, E =       -80.1914007785
 Ca         7.4420458958        7.4581392578        7.5812829705
  F         7.5268831721        7.5207957634        6.0025538750
  F         7.5310633946        7.5210596250        8.9160540731
       3
 i =        5, E =       -80.1944260683
 Ca         7.3575437443        7.3977544488        7.4786850336
  F         7.5554238113        7.5464992281        6.0367932616
  F         7.5907466181        7.5712515088        8.9665720714
       3
 i =        6, E =       -80.1962421403
 Ca         7.4444892103        7.4648645908        7.4235473992
  F         7.5075191072        7.5107607154        6.0920295122
  F         7.5518712412        7.5505689394        8.9530279055
       3
 i =        7, E =       -80.2199997525
 Ca         7.3723301686        7.4080650036        7.5079636944
  F         7.5628344084        7.5541520854        6.0692418613
  F         7.5660498180        7.5603593096        8.9022917794
       3
 i =        8, E =       -80.0916298335
 Ca         7.1223301686        7.2093951802        7.6736352772
  F         7.7225587281        7.6708765621        6.0448403092
  F         7.6540439874        7.6265100097        8.7617833907
       3
 i =        9, E =       -80.2340118699
 Ca         7.3272138219        7.3747377278        7.5321577814
  F         7.5957819615        7.5749835887        6.0753218975
  F         7.5803798334        7.5651097739        8.8619369207
       3
 i =       10, E =       -80.2489973999
 Ca         7.2889836930        7.3554973486        7.5545150781
  F         7.6063918923        7.5988070536        6.0975490891
  F         7.6090330789        7.5790076857        8.8376325405
       3
 i =       11, E =       -79.9623743855
 Ca         7.3237217375        7.3935282050        7.4586418397
  F         7.5526282374        7.5318192770        6.3475490891
  F         7.5772656414        7.5946554811        8.6921094795
       3
 i =       12, E =       -80.2896239868
 Ca         7.0737217375        7.2483573987        7.6485923177
  F         7.6819589701        7.7782834059        6.3697508036
  F         7.7995146905        7.6370090712        8.5927319132
       3
 i =       13, E =       -80.1498482142
 Ca         7.3237217375        7.3971690379        7.4616536124
  F         7.5339716517        7.5323751186        6.2478443419
  F         7.6328846437        7.6078753017        8.7929579134
       3
 i =       14, E =       -80.2466919581
 Ca         7.2266921034        7.4357300198        7.4465094870
  F         7.4737470259        7.5425695539        6.2700696997
  F         7.8797584377        7.6309828458        8.8150657331
       3
 i =       15, E =       -80.1931892834
 Ca         7.0406258348        7.5204233922        7.4981974114
  F         7.4963983070        7.5335110391        6.2934170277
  F         8.1297584377        7.6327773950        8.7700362038
       3
 i =       16, E =       -80.3146000081
 Ca         7.1954720435        7.2704233922        7.5377984011
  F         7.5553797002        7.6472857455        6.2861193418
  F         7.8865006463        7.7541830523        8.7278118997
       3
 i =       17, E =       -80.3074390130
 Ca         7.1887058803        7.3798655801        7.4868396872
  F         7.6952820412        7.6004050636        6.2910243414
  F         7.6688360242        7.6402693585        8.7559177727
       3
 i =       18, E =       -80.3391820326
 Ca         7.1304209375        7.3423483010        7.4972927700
  F         7.8114623306        7.6650955740        6.3579590532
  F         7.6219269520        7.6575356734        8.7243545486
       3
 i =       19, E =       -80.3412668340
 Ca         7.1104298534        7.3128733396        7.4969050255
  F         7.8271435076        7.6930013820        6.3925251818
  F         7.6364787555        7.6624722536        8.6960381809
       3
 i =       20, E =       -80.3421717976
 Ca         7.1204253285        7.3176953038        7.5011276873
  F         7.8108941995        7.6864253540        6.3946060228
  F         7.6596239235        7.6597454939        8.7012194281
       3
 i =       21, E =       -80.3423291658
 Ca         7.1183253665        7.3164555348        7.5061313082
  F         7.8131843899        7.6880188338        6.4038539938
  F         7.6527367502        7.6506888602        8.7049199466
       3
 i =       22, E =       -80.3423790503
 Ca         7.1196894690        7.3169577517        7.5139957080
  F         7.8181473769        7.6936796216        6.4181777179
  F         7.6563866647        7.6521291453        8.7093013894
       3
 i =       23, E =       -80.3424289553
 Ca         7.1211475124        7.3208806678        7.5123878993
  F         7.8255252515        7.6971568892        6.4175479897
  F         7.6528321838        7.6554302795        8.7090362421
       3
 i =       24, E =       -80.3420203705
 Ca         7.1404892349        7.3544102921        7.5006178088
  F         7.8903718345        7.7313839699        6.4197139352
  F         7.6387952009        7.6741069086        8.7089561361
       3
 i =       25, E =       -80.3423858592
 Ca         7.1345689011        7.3399012970        7.5026277597
  F         7.8600061635        7.7094698725        6.4138954371
  F         7.6492708761        7.6663601110        8.7079393031
       3
 i =       26, E =       -80.3406166515
 Ca         7.0747211738        7.2431701719        7.5306135733
  F         7.6378190617        7.6251797300        6.3970211270
  F         7.7076628067        7.6030411876        8.7040859914
       3
 i =       27, E =       -80.3421261593
 Ca         7.1122429706        7.2899537567        7.5190284929
  F         7.7648594725        7.6750925187        6.4083823048
  F         7.6781376324        7.6317172913        8.7057033811
       3
 i =       28, E =       -80.3390574581
 Ca         7.1732253333        7.4019538700        7.4882806842
  F         8.0148594725        7.7623754628        6.4328655475
  F         7.6071570466        7.7062165553        8.7165918682
       3
 i =       29, E =       -80.3424095257
 Ca         7.1295758558        7.3167529311        7.5145762087
  F         7.8260637402        7.6962438041        6.4162692946
  F         7.6605301740        7.6558737309        8.7090547371
       3
 i =       30, E =       -80.3423469455
 Ca         7.1401545116        7.3388139053        7.5060143192
  F         7.8628859620        7.7160943024        6.4169675620
  F         7.6502753743        7.6708434168        8.7086781070
       3
 i =       31, E =       -80.3425090511
 Ca         7.1343886114        7.3287115241        7.5063040374
  F         7.8431484357        7.7078486640        6.4132913827
  F         7.6566029509        7.6607987683        8.7077438890
       3
 i =       32, E =       -80.3425224862
 Ca         7.1292084762        7.3259134942        7.5071700126
  F         7.8328308405        7.7093336478        6.4152850432
  F         7.6568085681        7.6533771849        8.7092981057
       3
 i =       33, E =       -80.3425516786
 Ca         7.1306265756        7.3311467071        7.5044231571
  F         7.8386439225        7.7155971763        6.4153999551
  F         7.6553886091        7.6553069758        8.7088721976
       3
 i =       34, E =       -80.3425536020
 Ca         7.1303952868        7.3324781091        7.5032355280
  F         7.8402198904        7.7172888663        6.4157376588
  F         7.6543845331        7.6546594091        8.7086227560
       3
 i =       35, E =       -80.3425541814
 Ca         7.1302202377        7.3325191162        7.5026668010
  F         7.8400492452        7.7170700909        6.4153340322
  F         7.6543937317        7.6544586164        8.7081961279
       3
 i =       36, E =       -80.3425546926
 Ca         7.1300132820        7.3327270873        7.5021770560
  F         7.8401574816        7.7164950818        6.4152717505
  F         7.6543281157        7.6543668075        8.7079344730
       3
 i =       37, E =       -80.3425546926
 Ca         7.1300132820        7.3327270873        7.5021770560
  F         7.8401574816        7.7164950818        6.4152717505
  F         7.6543281157        7.6543668075        8.7079344730
