       6
 i =        1, E =       -24.0840807749
  C         5.8121300410        6.4025890685        6.5000000015
  H         5.4293678489        5.8907713141        5.6009908898
  H         5.4293678545        5.8907713133        7.3990091165
  H         5.4509201283        7.4365093233        6.5000000021
  O         7.2234574493        6.4616339781        6.5000000140
  H         7.5884595424        5.5703328247        6.4999999761
       6
 i =        2, E =       -24.0842485499
  C         5.8195530470        6.3939484057        6.5000000067
  H         5.4267852605        5.8976778263        5.6095778585
  H         5.4267852567        5.8976778234        7.3904221513
  H         5.4564992132        7.4185466352        6.5000000030
  O         7.2309282293        6.4683575371        6.5000000049
  H         7.5727251752        5.5750872940        6.4999999697
       6
 i =        3, E =       -24.0843016502
  C         5.8183679448        6.3987282305        6.5000000046
  H         5.4271331745        5.8949497870        5.6090278811
  H         5.4271331725        5.8949497859        7.3909721269
  H         5.4518390759        7.4245922406        6.5000000043
  O         7.2308385576        6.4659854145        6.5000000032
  H         7.5774823606        5.5717377698        6.4999999722
       6
 i =        4, E =       -24.0843028664
  C         5.8175294034        6.3980285915        6.5000000035
  H         5.4275095216        5.8949146322        5.6081658826
  H         5.4275095220        5.8949146312        7.3918341246
  H         5.4523103252        7.4246999823        6.5000000048
  O         7.2303881727        6.4661620821        6.5000000025
  H         7.5767162709        5.5713905652        6.4999999730
       6
 i =        5, E =       -24.0843028664
  C         5.8175294034        6.3980285915        6.5000000035
  H         5.4275095216        5.8949146322        5.6081658826
  H         5.4275095220        5.8949146312        7.3918341246
  H         5.4523103252        7.4246999823        6.5000000048
  O         7.2303881727        6.4661620821        6.5000000025
  H         7.5767162709        5.5713905652        6.4999999730
