       4
 i =        1, E =       -87.4164428020
 Cl         7.5000015869        6.6600458252        7.5000001829
  F         5.7622643345        6.7063347107        7.4999999985
  F         9.2377523957        6.7064072033        7.4999999536
  F         7.5000322780        8.3222357077        7.4999998656
       4
 i =        2, E =       -87.4183989591
 Cl         7.5000498437        6.6739161704        7.4999997499
  F         5.8004233184        6.7463315493        7.5000001998
  F         9.1996644992        6.7464561300        7.5000000013
  F         7.5000625272        8.2917114680        7.4999994223
       4
 i =        3, E =       -87.4185301449
 Cl         7.5000456204        6.6750682284        7.4999999962
  F         5.7960486055        6.7298357604        7.5000003127
  F         9.2040288544        6.7299500758        7.4999998785
  F         7.5000953707        8.2966675175        7.4999987770
       4
 i =        4, E =       -87.4185431553
 Cl         7.5000561425        6.6719386456        7.5000001074
  F         5.7972735583        6.7299359660        7.5000006972
  F         9.2028248647        6.7298593264        7.4999996499
  F         7.5001633817        8.2924679673        7.4999972629
       4
 i =        5, E =       -87.4185451350
 Cl         7.5000744174        6.6543727266        7.5000007997
  F         5.7999273045        6.7259223402        7.5000046574
  F         9.2001946618        6.7255984653        7.4999972384
  F         7.5009396894        8.2723258152        7.4999820804
       4
 i =        6, E =       -87.4185614105
 Cl         7.5001353509        6.6636139869        7.5000008109
  F         5.7979961919        6.7276061258        7.5000056662
  F         9.2022446091        6.7272955529        7.4999964422
  F         7.5009323727        8.2836154859        7.4999796875
       4
 i =        7, E =       -87.4185634808
 Cl         7.5002592671        6.6613242300        7.5000016874
  F         5.7980940465        6.7270826979        7.5000136569
  F         9.2023673830        6.7266284033        7.4999908165
  F         7.5018603544        8.2811834696        7.4999516428
       4
 i =        8, E =       -87.4185679984
 Cl         7.5008627532        6.6582361639        7.5000062312
  F         5.7984871839        6.7264893567        7.5000574233
  F         9.2030548868        6.7251202647        7.4999582224
  F         7.5059440533        8.2778304766        7.4997983553
       4
 i =        9, E =       -87.4129626262
 Cl         7.5539894823        6.7525580985        7.5004465193
  F         5.8501747489        6.7910370568        7.5048732451
  F         9.2169280968        6.7158728280        7.4960359691
  F         7.7559440533        8.4136196262        7.4833806796
       4
 i =       10, E =       -87.4185825772
 Cl         7.5089953072        6.6706686118        7.5000116648
  F         5.8061457062        6.7382994626        7.5009842877
  F         9.2079371097        6.7228985597        7.4991788979
  F         7.5276469050        8.2940381300        7.4970635518
       4
 i =       11, E =       -87.4164990242
 Cl         7.5010139954        6.5378179009        7.5001665773
  F         5.7931887862        6.6800124847        7.5010276954
  F         9.2155700347        6.6875105787        7.4990734688
  F         7.5434551428        8.1377643476        7.4962868340
       4
 i =       12, E =       -87.4184732598
 Cl         7.4920924085        6.6407796821        7.5002492519
  F         5.7897481277        6.6990147513        7.5012825709
  F         9.1998639266        6.7261722566        7.4986882864
  F         7.4727427839        8.2524632567        7.4951726030
       4
 i =       13, E =       -87.4182987820
 Cl         7.5067055928        6.7145188166        7.5001275019
  F         5.8037720230        6.7459293158        7.5046308989
  F         9.2029914322        6.7542634277        7.4954483644
  F         7.5070094397        8.3470650182        7.4837071593
       4
 i =       14, E =       -87.4186063016
 Cl         7.5020518734        6.6718891196        7.5002535703
  F         5.7990074588        6.7187750839        7.5066669880
  F         9.2036072797        6.7355647433        7.4932435760
  F         7.4982985172        8.2942610920        7.4784936126
       4
 i =       15, E =       -87.4187013775
 Cl         7.5007923993        6.6452801401        7.5007970374
  F         5.7977100215        6.7192221585        7.5180811716
  F         9.2039933142        6.7125480527        7.4809922054
  F         7.4998370930        8.2636472846        7.4614976659
       4
 i =       16, E =       -87.4188453684
 Cl         7.5029514364        6.6581336760        7.5011410502
  F         5.7998977764        6.7326940415        7.5319026450
  F         9.2044619375        6.7182011236        7.4675880419
  F         7.5089002799        8.2790060040        7.4590852977
       4
 i =       17, E =       -87.4188862264
 Cl         7.5100181870        6.6701214284        7.5012707439
  F         5.8073359002        6.7373915487        7.5310591478
  F         9.2082209801        6.7227654704        7.4689177874
  F         7.5316456052        8.2930034657        7.4709050700
       4
 i =       18, E =       -87.4187677944
 Cl         7.5008089675        6.6695173634        7.5012275921
  F         5.7987376686        6.7202604632        7.5268000625
  F         9.2024732893        6.7382356269        7.4732325114
  F         7.5002648366        8.2884226181        7.4824702389
       4
 i =       19, E =       -87.4188564196
 Cl         7.5005638969        6.6544530803        7.5010889732
  F         5.7979380612        6.7223788114        7.5340095966
  F         9.2033437200        6.7229256012        7.4661977131
  F         7.5010195612        8.2723033448        7.4689722644
       4
 i =       20, E =       -87.4188734898
 Cl         7.5027715066        6.6642296528        7.5011275954
  F         5.7999396543        6.7318810695        7.5282431308
  F         9.2042013934        6.7266446689        7.4715922674
  F         7.5062829966        8.2849115767        7.4648911044
       4
 i =       21, E =       -87.4189064333
 Cl         7.5044333352        6.6653341702        7.5013243933
  F         5.8019034669        6.7307029771        7.5308984124
  F         9.2049739924        6.7266515026        7.4689991378
  F         7.5129474603        8.2857707740        7.4697710024
       4
 i =       22, E =       -87.4183192270
 Cl         7.5222092829        6.6724900068        7.5020786544
  F         5.8197082687        6.7327226548        7.5417702424
  F         9.2156985428        6.7184046286        7.4584031743
  F         7.5777804857        8.2946164148        7.4858515180
       4
 i =       23, E =       -87.4189008853
 Cl         7.5110431626        6.6632148674        7.5012392956
  F         5.8078432946        6.7301817066        7.5332891093
  F         9.2103419622        6.7215594114        7.4668823874
  F         7.5328395845        8.2837969554        7.4736600512
       4
 i =       24, E =       -87.4153572252
 Cl         7.4340962614        6.6219508354        7.4994746491
  F         5.7315670543        6.7028650988        7.4956478119
  F         9.1599764874        6.7502867898        7.5009397555
  F         7.2828395845        8.2304441745        7.4009009596
       4
 i =       25, E =       -87.4188162267
 Cl         7.4893463146        6.6592420039        7.5006848599
  F         5.7860088864        6.7187778979        7.5210588840
  F         9.1943935200        6.7308286590        7.4771416283
  F         7.4736803601        8.2763832107        7.4512357873
       4
 i =       26, E =       -87.4189057583
 Cl         7.5059048472        6.6623703720        7.5013729923
  F         5.8023493988        6.7332096772        7.5338686238
  F         9.2070111784        6.7230263305        7.4647757296
  F         7.5185671223        8.2829267519        7.4748186988
       4
 i =       27, E =       -87.4189049308
 Cl         7.5106906480        6.6624398246        7.5008406196
  F         5.8077025387        6.7309515857        7.5360763944
  F         9.2102813125        6.7221047096        7.4649752788
  F         7.5300478060        8.2828949917        7.4743842463
       4
 i =       28, E =       -87.4188863428
 Cl         7.5076226480        6.6605240412        7.5000102956
  F         5.8055484753        6.7206875644        7.5318651225
  F         9.2075473657        6.7251043841        7.4711811112
  F         7.5192398161        8.2790178051        7.4617719192
       4
 i =       29, E =       -87.4189358340
 Cl         7.5070717181        6.6612554300        7.5017658776
  F         5.8038737792        6.7289587583        7.5297218713
  F         9.2074518741        6.7236086343        7.4677402171
  F         7.5217694484        8.2808868265        7.4703404112
       4
 i =       30, E =       -87.4189381034
 Cl         7.5078454667        6.6611153441        7.5007440336
  F         5.8042949484        6.7302281703        7.5329437104
  F         9.2081439720        6.7234091220        7.4692255509
  F         7.5245104688        8.2808367248        7.4702125331
       4
 i =       31, E =       -87.4189403853
 Cl         7.5081247839        6.6605990664        7.5012955272
  F         5.8045525467        6.7293314047        7.5312514691
  F         9.2083992088        6.7232701773        7.4685110888
  F         7.5248858575        8.2800785872        7.4692376738
       4
 i =       32, E =       -87.4189407103
 Cl         7.5079934929        6.6604158432        7.5012299207
  F         5.8042560384        6.7294224438        7.5307212002
  F         9.2084030188        6.7232178760        7.4690974935
  F         7.5244284741        8.2797798955        7.4694402402
       4
 i =       33, E =       -87.4189407103
 Cl         7.5079934929        6.6604158432        7.5012299207
  F         5.8042560384        6.7294224438        7.5307212002
  F         9.2084030188        6.7232178760        7.4690974935
  F         7.5244284741        8.2797798955        7.4694402402
