       3
 i =        1, E =       -26.0979458348
  C         6.9999999921        6.9999999771        6.9997707626
  S         7.0000000022        6.9999999534        8.5585818270
  S         7.0000000057        7.0000000696        5.4413090172
       3
 i =        2, E =       -26.0981709318
  C         7.0000000081        7.0000000232        6.9998822208
  S         6.9999999942        6.9999999340        8.5471925366
  S         6.9999999977        7.0000000427        5.4525842068
       3
 i =        3, E =       -26.0981719492
  C         6.9999999999        7.0000000004        6.9998803050
  S         6.9999999981        6.9999999450        8.5479196878
  S         7.0000000019        7.0000000546        5.4518583897
       3
 i =        4, E =       -26.0981719492
  C         6.9999999999        7.0000000004        6.9998803050
  S         6.9999999981        6.9999999450        8.5479196878
  S         7.0000000019        7.0000000546        5.4518583897
