       4
 i =        1, E =      -195.6874014162
 Fe         7.4381019663        6.9996611820        7.0316762557
  F         8.3246747125        5.4976974380        6.9900259741
  F         8.3238199495        8.5022072139        6.9889197488
  F         5.6930584263        7.0004665696        6.9899400350
       4
 i =        2, E =      -195.6886485762
 Fe         7.4467868311        6.9998899186        7.0664028389
  F         8.3223264790        5.5204548637        6.9589115815
  F         8.3219950180        8.4794531646        6.9563945666
  F         5.7290937045        7.0014052424        6.9586308981
       4
 i =        3, E =      -195.6888395308
 Fe         7.4450997042        7.0000199052        7.0665099741
  F         8.3323937156        5.5276008243        6.9670455482
  F         8.3321435443        8.4724062994        6.9656615952
  F         5.7264775529        7.0028432808        6.9663574804
       4
 i =        4, E =      -195.6887602079
 Fe         7.4410553076        7.0004010782        7.0752783197
  F         8.3505593482        5.5443184670        6.9706828234
  F         8.3511657937        8.4558669509        6.9734022706
  F         5.7231892726        7.0099787256        6.9701334721
       4
 i =        5, E =      -195.6889088057
 Fe         7.4423297323        7.0003051191        7.0727758591
  F         8.3395262468        5.5343211207        6.9693672114
  F         8.3400714679        8.4657460044        6.9697187442
  F         5.7228617707        7.0122126076        6.9690842845
       4
 i =        6, E =      -195.6889683271
 Fe         7.4415360522        7.0004716944        7.0750220512
  F         8.3353055921        5.5330338307        6.9689834239
  F         8.3356123150        8.4672454936        6.9683216052
  F         5.7225686522        7.0271096671        6.9691224726
       4
 i =        7, E =      -195.6889510762
 Fe         7.4415906789        7.0010578108        7.0783320865
  F         8.3367826243        5.5343574646        6.9692595213
  F         8.3384770505        8.4661129651        6.9693446555
  F         5.7227911949        7.0400680082        6.9691506399
       4
 i =        8, E =      -195.6889763782
 Fe         7.4417251347        7.0009453493        7.0774166997
  F         8.3372823984        5.5347701968        6.9688914113
  F         8.3385395375        8.4658323847        6.9689756079
  F         5.7232628846        7.0308970502        6.9687950773
       4
 i =        9, E =      -195.6889765287
 Fe         7.4416314000        7.0009105650        7.0776927645
  F         8.3371382657        5.5345943754        6.9691672168
  F         8.3380926028        8.4660604435        6.9692089226
  F         5.7231539801        7.0304049239        6.9690707964
       4
 i =       10, E =      -195.6889765287
 Fe         7.4416314000        7.0009105650        7.0776927645
  F         8.3371382657        5.5345943754        6.9691672168
  F         8.3380926028        8.4660604435        6.9692089226
  F         5.7231539801        7.0304049239        6.9690707964
