       2
 i =        1, E =      -138.9644028124
 Fe         5.6989834654        6.5015520339        6.5022707248
  O         7.2985866465        6.4984484013        6.4977285502
       2
 i =        2, E =      -138.9644932071
 Fe         5.6914110565        6.5014114379        6.5020639717
  O         7.3013563815        6.4991156701        6.4986998584
       2
 i =        3, E =      -138.9644944464
 Fe         5.6898662426        6.5012333691        6.5018029741
  O         7.3006345662        6.4993973949        6.4991132176
       2
 i =        4, E =      -138.9644944463
 Fe         5.6898662426        6.5012333691        6.5018029741
  O         7.3006345662        6.4993973949        6.4991132176
