       5
 i =        1, E =       -46.6600228925
  C         7.4670084572        7.0000000320        6.7359895499
  H         7.4670165199        6.9999999890        7.8221458492
 Br         8.3893100552        5.4025947856        6.1691440262
 Br         8.3893101037        8.5974052227        6.1691440183
 Br         5.6224435744        6.9999999707        6.1691500865
       5
 i =        2, E =       -46.6600608033
  C         7.4670131283        6.9999999960        6.7352370446
  H         7.4670055726        7.0000000167        7.8181056006
 Br         8.3868144886        5.4069311908        6.1707095364
 Br         8.3868144910        8.5930687968        6.1707095449
 Br         5.6274408315        6.9999999999        6.1707259880
       5
 i =        3, E =       -46.6600610997
  C         7.4670130736        7.0000000019        6.7349902654
  H         7.4670048321        7.0000000046        7.8178687636
 Br         8.3870538312        5.4065205132        6.1708480186
 Br         8.3870538396        8.5934794822        6.1708480172
 Br         5.6269629282        6.9999999983        6.1708666150
       5
 i =        4, E =       -46.6600610997
  C         7.4670130736        7.0000000019        6.7349902654
  H         7.4670048321        7.0000000046        7.8178687636
 Br         8.3870538312        5.4065205132        6.1708480186
 Br         8.3870538396        8.5934794822        6.1708480172
 Br         5.6269629282        6.9999999983        6.1708666150
