       2
 i =        1, E =       -73.3410816915
 Hf         6.4999998652        6.5000000566        7.4146195346
  F         6.5000001353        6.4999999433        5.5771223306
       2
 i =        2, E =       -73.3412092031
 Hf         6.4999998180        6.5000000574        7.4117802360
  F         6.4999999345        6.5000000465        5.5932312216
       2
 i =        3, E =       -73.3412263141
 Hf         6.4999998536        6.5000000513        7.4155963230
  F         6.5000000174        6.4999999859        5.5924046413
       2
 i =        4, E =       -73.3412340021
 Hf         6.4999998555        6.5000000588        7.4215386180
  F         6.5000000205        6.4999999795        5.5965545467
       2
 i =        5, E =       -73.3412342288
 Hf         6.4999998693        6.5000000504        7.4218959663
  F         6.4999999950        6.5000000103        5.5973173255
       2
 i =        6, E =       -73.3412342288
 Hf         6.4999998693        6.5000000504        7.4218959663
  F         6.4999999950        6.5000000103        5.5973173255
