       4
 i =        1, E =      -122.0465842243
 Hf         7.4764391268        7.0000000154        7.0000001278
  F         8.4274781616        5.3920303948        6.9999999969
  F         8.4274782097        8.6079695824        6.9999998913
  F         5.6062272463        7.0000000081        6.9999999844
       4
 i =        2, E =      -122.0466327977
 Hf         7.4722441541        7.0000000088        7.0000002098
  F         8.4226854856        5.3961961870        6.9999999990
  F         8.4226855831        8.6038037751        6.9999997649
  F         5.6029083579        7.0000000257        6.9999999646
       4
 i =        3, E =      -122.0462624410
 Hf         7.4401551774        7.0000000049        7.0000002566
  F         8.3859268500        5.4125727946        7.0000000145
  F         8.3859273206        8.5874270657        6.9999984572
  F         5.5760239215        7.0000002114        6.9999997484
       4
 i =        4, E =      -122.0466961758
 Hf         7.4611839183        7.0000000188        7.0000002615
  F         8.4136622593        5.3997494864        7.0000000093
  F         8.4136624664        8.6002504567        6.9999989609
  F         5.5921310240        7.0000001369        6.9999998424
       4
 i =        5, E =      -122.0467230780
 Hf         7.4593026646        7.0000000210        7.0000002784
  F         8.4081837863        5.3982328431        7.0000000341
  F         8.4081839486        8.6017671091        6.9999976785
  F         5.5917280483        7.0000003009        6.9999996662
       4
 i =        6, E =      -122.0467336787
 Hf         7.4582450644        7.0000000111        7.0000003571
  F         8.4019104482        5.3944243980        7.0000001550
  F         8.4019103793        8.6055756003        6.9999920451
  F         5.5920697538        7.0000010228        6.9999988675
       4
 i =        7, E =      -122.0467381091
 Hf         7.4598517075        7.0000000784        7.0000003583
  F         8.4035069780        5.3932755553        7.0000003366
  F         8.4035070638        8.6067244516        6.9999846416
  F         5.5935543773        7.0000018917        6.9999978592
       4
 i =        8, E =      -122.0467400454
 Hf         7.4611237959        7.0000002608        7.0000000063
  F         8.4035301241        5.3912921943        7.0000011994
  F         8.4035304307        8.6087078874        6.9999539954
  F         5.5942607177        7.0000054014        6.9999936834
       4
 i =        9, E =      -122.0467407166
 Hf         7.4619141444        7.0000008104        6.9999989788
  F         8.4029144128        5.3896385268        7.0000042164
  F         8.4029152068        8.6103619025        6.9998581638
  F         5.5949498700        7.0000155094        6.9999811479
       4
 i =       10, E =      -122.0467410777
 Hf         7.4629062403        7.0000029081        6.9999952047
  F         8.4022559152        5.3880098401        7.0000172279
  F         8.4022583494        8.6119921797        6.9994833300
  F         5.5957942330        7.0000519373        6.9999338636
       4
 i =       11, E =      -122.0467428110
 Hf         7.4654801208        7.0000121211        6.9999722640
  F         8.4008119973        5.3840678046        7.0001034225
  F         8.4008253069        8.6159352609        6.9974032250
  F         5.5980059897        7.0002579482        6.9996544333
       4
 i =       12, E =      -122.0379894969
 Hf         7.5580748899        7.0016086417        6.9964992838
  F         8.3405124451        5.2195152620        7.0142442463
  F         8.3417680067        8.7814753340        6.7474032250
  F         5.6676491716        7.0258124784        6.9651153690
       4
 i =       13, E =      -122.0467728533
 Hf         7.4661455058        7.0001725488        6.9993437188
  F         8.3996013445        5.3822395369        7.0009250295
  F         8.3997319145        8.6177911984        6.9868166152
  F         5.5985262465        7.0014183208        6.9982887521
       4
 i =       14, E =      -122.0467792519
 Hf         7.4678726751        7.0006803432        6.9972411243
  F         8.3956940772        5.3768492964        7.0043146407
  F         8.3961899929        8.6233035284        6.9492389096
  F         5.5999402760        7.0058994396        6.9931592102
       4
 i =       15, E =      -122.0468530208
 Hf         7.4693400974        7.0006938214        6.9977157376
  F         8.3983691856        5.3781064122        7.0065139302
  F         8.3988111219        8.6221583536        6.9625787022
  F         5.6014803978        7.0084353738        6.9901883537
       4
 i =       16, E =      -122.0466450015
 Hf         7.4808896097        7.0027899871        7.0002877933
  F         8.4137933455        5.3842785345        7.0464706363
  F         8.4155939535        8.6189386521        7.0572141052
  F         5.6123599975        7.0539004720        6.9373434504
       4
 i =       17, E =      -122.0469810636
 Hf         7.4718111813        7.0045102816        6.9995069178
  F         8.4016488886        5.3828429745        7.0245646660
  F         8.4057146462        8.6209777508        7.0149959535
  F         5.6037290389        7.0287290439        6.9587528614
       4
 i =       18, E =      -122.0470626070
 Hf         7.4648442586        7.0070000975        7.0007889513
  F         8.3967122511        5.3874536817        7.0274282697
  F         8.4009067465        8.6215336061        7.0311684524
  F         5.5967785107        7.0258941486        6.9681271719
       4
 i =       19, E =      -122.0470806161
 Hf         7.4664593698        7.0100008390        7.0012846210
  F         8.3997682918        5.3919247253        7.0331756864
  F         8.4006943658        8.6265252132        7.0392765200
  F         5.5996345217        7.0332689293        6.9659870803
       4
 i =       20, E =      -122.0471288871
 Hf         7.4689247129        7.0214172480        7.0018245763
  F         8.4055702666        5.4071088094        7.0417195682
  F         8.3954282968        8.6466705302        7.0346747017
  F         5.6047922973        7.0410632460        6.9785944365
       4
 i =       21, E =      -122.0472246546
 Hf         7.4676338505        7.0247901842        7.0027555888
  F         8.4033617233        5.4101475488        7.0369578839
  F         8.4003489905        8.6441896086        7.0329767398
  F         5.6010235486        7.0356830521        6.9725288165
       4
 i =       22, E =      -122.0472254778
 Hf         7.4691726981        7.0368452611        7.0047707030
  F         8.3984984252        5.4164963222        7.0278583603
  F         8.4007740372        8.6564429203        7.0319992062
  F         5.6007331467        7.0275477677        6.9627015128
       4
 i =       23, E =      -122.0472578960
 Hf         7.4671914218        7.0294184654        7.0046647707
  F         8.3995709844        5.4105268301        7.0289639732
  F         8.3998159635        8.6474748673        7.0284087795
  F         5.5995341608        7.0298437760        6.9689265991
       4
 i =       24, E =      -122.0472351133
 Hf         7.4651780031        7.0320954062        7.0059029561
  F         8.4030317606        5.4185896012        7.0353131389
  F         8.4003142425        8.6486919367        7.0348333132
  F         5.5980974890        7.0347293059        6.9721746971
       4
 i =       25, E =      -122.0472647315
 Hf         7.4674979102        7.0313985071        7.0056444490
  F         8.4001174244        5.4129862986        7.0317874997
  F         8.4004168097        8.6495955059        7.0315267724
  F         5.6000703669        7.0312444132        6.9685212960
       4
 i =       26, E =      -122.0472648579
 Hf         7.4666405245        7.0310624268        7.0066197228
  F         8.4003376577        5.4135431725        7.0300532984
  F         8.4000192051        8.6487278086        7.0305903213
  F         5.5990571144        7.0308883711        6.9689748498
       4
 i =       27, E =      -122.0472657897
 Hf         7.4669869800        7.0310986998        7.0072911840
  F         8.4002148452        5.4131888523        7.0309266482
  F         8.4002086312        8.6489783153        7.0309816863
  F         5.5995174585        7.0310583371        6.9689622145
       4
 i =       28, E =      -122.0472657897
 Hf         7.4669869800        7.0310986998        7.0072911840
  F         8.4002148452        5.4131888523        7.0309266482
  F         8.4002086312        8.6489783153        7.0309816863
  F         5.5995174585        7.0310583371        6.9689622145
