       2
 i =        1, E =       -72.7386944014
 In         6.4999991071        6.5000004064        5.5406457611
  O         6.5000008546        6.4999996093        7.4600948168
       2
 i =        2, E =       -72.7388959950
 In         6.4999986179        6.5000006098        5.5308696040
  O         6.5000007202        6.4999996885        7.4708902232
       2
 i =        3, E =       -72.7389017118
 In         6.4999985166        6.5000006516        5.5281226795
  O         6.5000004198        6.4999998209        7.4718293397
       2
 i =        4, E =       -72.7389023316
 In         6.4999985820        6.5000006242        5.5268211697
  O         6.5000001196        6.4999999486        7.4710886860
       2
 i =        5, E =       -72.7389023316
 In         6.4999985820        6.5000006242        5.5268211697
  O         6.5000001196        6.4999999486        7.4710886860
