       3
 i =        1, E =       -65.3175526935
  S         7.9999999697        7.9999999676        8.6436330282
  K         5.6467908666        8.0000000189        7.3299133574
  K        10.3532091637        8.0000000135        7.3299133420
       3
 i =        2, E =       -65.3208120931
  S         8.0000000331        7.9999999608        8.6668410923
  K         5.7633474299        8.0000000228        7.3183339643
  K        10.2366525370        8.0000000163        7.3183339915
       3
 i =        3, E =       -65.3261276517
  S         7.9999999803        7.9999999421        8.7796494481
  K         5.8875921390        8.0000000334        7.2619304057
  K        10.1124078807        8.0000000242        7.2619304028
       3
 i =        4, E =       -65.3352940757
  S         7.9999999063        7.9999999033        9.0133086123
  K         6.1375921390        8.0000000553        7.1451043613
  K         9.8624079546        8.0000000408        7.1451043180
       3
 i =        5, E =       -65.3365995938
  S         7.9999998296        7.9999998623        9.2544010207
  K         6.3875921390        8.0000000790        7.0245558859
  K         9.6124080315        8.0000000574        7.0245558947
       3
 i =        6, E =       -65.3374335655
  S         7.9999998745        7.9999998812        9.1497513295
  K         6.2752295682        8.0000000685        7.0768765580
  K         9.7247705574        8.0000000491        7.0768766106
       3
 i =        7, E =       -65.3374888573
  S         7.9999998717        7.9999998796        9.1616519687
  K         6.2844762792        8.0000000699        7.0709037707
  K         9.7155238490        8.0000000490        7.0709038581
       3
 i =        8, E =       -65.3375522699
  S         7.9999998860        7.9999998793        9.1712247934
  K         6.2859323356        8.0000000713        7.0660374723
  K         9.7140677777        8.0000000473        7.0660375802
       3
 i =        9, E =       -65.3376126832
  S         7.9999999045        7.9999998812        9.1716410614
  K         6.2735089272        8.0000000720        7.0657087562
  K         9.7264911668        8.0000000434        7.0657089279
       3
 i =       10, E =       -65.3376471585
  S         7.9999999060        7.9999998848        9.1630420184
  K         6.2524087982        8.0000000722        7.0698801848
  K         9.7475912934        8.0000000383        7.0698804170
       3
 i =       11, E =       -65.3376513690
  S         7.9999999066        7.9999998863        9.1576724782
  K         6.2451953633        8.0000000720        7.0725240608
  K         9.7548047277        8.0000000367        7.0725243046
       3
 i =       12, E =       -65.3376517271
  S         7.9999999042        7.9999998868        9.1561491106
  K         6.2442099681        8.0000000718        7.0732638802
  K         9.7557901256        8.0000000361        7.0732641220
       3
 i =       13, E =       -65.3376517271
  S         7.9999999042        7.9999998868        9.1561491106
  K         6.2442099681        8.0000000718        7.0732638802
  K         9.7557901256        8.0000000361        7.0732641220
