       2
 i =        1, E =       -14.8790205546
 Li         7.0000000000        7.0000000000        8.3866821114
 Li         7.0000000000        7.0000000000        5.6133178886
       2
 i =        2, E =       -14.8790971892
 Li         7.0000000000        7.0000000000        8.3577930226
 Li         7.0000000000        7.0000000000        5.6422069774
       2
 i =        3, E =       -14.8790976521
 Li         7.0000000000        7.0000000000        8.3599522975
 Li         7.0000000000        7.0000000000        5.6400477025
       2
 i =        4, E =       -14.8790976537
 Li         7.0000000000        7.0000000000        8.3598349829
 Li         7.0000000000        7.0000000000        5.6401650171
       2
 i =        5, E =       -14.8790976537
 Li         7.0000000000        7.0000000000        8.3598349829
 Li         7.0000000000        7.0000000000        5.6401650171
