       2
 i =        1, E =       -22.5215178938
 Li         6.5000000041        6.4999999977        5.4793439373
 Cl         6.4999999959        6.5000000023        7.5206594861
       2
 i =        2, E =       -22.5215336067
 Li         6.5000000040        6.4999999979        5.4845239673
 Cl         6.4999999960        6.5000000021        7.5154733374
       2
 i =        3, E =       -22.5215336337
 Li         6.5000000040        6.4999999980        5.4843110173
 Cl         6.4999999960        6.5000000020        7.5156784547
       2
 i =        4, E =       -22.5215336337
 Li         6.5000000040        6.4999999980        5.4843110173
 Cl         6.4999999960        6.5000000020        7.5156784547
