       4
 i =        1, E =       -20.9943066915
  N         5.8822173381        6.9817001877        6.5000001210
  N         7.1176859877        6.9817711416        6.5000000873
  H         5.4760921403        6.0182032552        6.4999999025
  H         7.5238881394        6.0183033255        6.4999998891
       4
 i =        2, E =       -20.9944137221
  N         5.8837447419        6.9786559314        6.5000000866
  N         7.1161287383        6.9786910414        6.5000001081
  H         5.4846796012        6.0212255008        6.4999999257
  H         7.5153296715        6.0213189240        6.4999998790
       4
 i =        3, E =       -20.9944155784
  N         5.8833875658        6.9789569039        6.5000001223
  N         7.1165322297        6.9790460498        6.5000000735
  H         5.4854591018        6.0209134195        6.4999999037
  H         7.5145032109        6.0210178835        6.4999998993
       4
 i =        4, E =       -20.9944157721
  N         5.8831870905        6.9790915261        6.5000000762
  N         7.1166536127        6.9790899393        6.5000001193
  H         5.4859607847        6.0208533890        6.4999999310
  H         7.5140795994        6.0209393836        6.4999998716
       4
 i =        5, E =       -20.9944157721
  N         5.8831870905        6.9790915261        6.5000000762
  N         7.1166536127        6.9790899393        6.5000001193
  H         5.4859607847        6.0208533890        6.4999999310
  H         7.5140795994        6.0209393836        6.4999998716
