       3
 i =        1, E =      -112.0359802774
  O         7.4999985030        7.5000000039        7.4993453473
 Na         9.4799004335        7.5000002268        7.4995502844
 Na         5.5195965630        7.4999998097        7.4995496077
       3
 i =        2, E =      -112.0359804014
  O         7.4998415216        7.5000000057        7.4992929071
 Na         9.4799249555        7.5000002170        7.4997581840
 Na         5.5199944299        7.4999998206        7.4997588436
       3
 i =        3, E =      -112.0359804014
  O         7.4998399342        7.5000000057        7.4992923925
 Na         9.4799265385        7.5000002168        7.4997603834
 Na         5.5199971697        7.4999998207        7.4997610566
