       3
 i =        1, E =      -106.3036407413
  S         8.0000000068        8.0000000008        7.9999999926
 Na         7.9999999909        8.0000000011        5.5722978007
 Na         8.0000000021        7.9999999981       10.4277202762
       3
 i =        2, E =      -106.3036407417
  S         8.0000000066        8.0000000008        8.0000001602
 Na         7.9999999982        8.0000000002        5.5725039790
 Na         8.0000000004        7.9999999996       10.4274962478
       3
 i =        3, E =      -106.3036407417
  S         8.0000000066        8.0000000008        8.0000001620
 Na         7.9999999983        8.0000000002        5.5725038856
 Na         8.0000000004        7.9999999996       10.4274961552
