       4
 i =        1, E =      -153.9128049446
  N         6.9855439035        7.5000000336        7.8410774704
 Na         5.9576896421        9.2171600436        7.1445334416
 Na         5.9576895699        5.7828239596        7.1445335055
 Na         9.0343128352        7.4999999826        7.1414302378
       4
 i =        2, E =      -153.9130204147
  N         6.9998127897        7.4999962441        7.8466173528
 Na         5.9648493626        9.2073592463        7.1390267081
 Na         5.9648506065        5.7926385528        7.1390180358
 Na         9.0212328907        7.4999998921        7.1392590824
       4
 i =        3, E =      -153.9133039590
  N         7.0205420302        7.4999944307        7.8629823782
 Na         5.9802807505        9.2137089702        7.1423851947
 Na         5.9802725547        5.7862931789        7.1423643218
 Na         9.0146408179        7.5000002631        7.1446142432
       4
 i =        4, E =      -153.9136208537
  N         7.0346484990        7.4999929848        7.8802215308
 Na         5.9934289528        9.2116389473        7.1530051926
 Na         5.9934104361        5.7883511671        7.1529721694
 Na         9.0157503217        7.5000002797        7.1509324718
       4
 i =        5, E =      -153.9138704861
  N         7.0403991875        7.4999910485        7.8914411772
 Na         5.9964700371        9.2045756757        7.1615137913
 Na         5.9964598514        5.7954072469        7.1614864594
 Na         9.0194189588        7.5000001327        7.1545658519
       4
 i =        6, E =      -153.9142043372
  N         7.0407210857        7.4999890955        7.8984509849
 Na         5.9880928408        9.1982388559        7.1632599100
 Na         5.9880967674        5.8017600086        7.1632583152
 Na         9.0232128703        7.4999999603        7.1555292294
       4
 i =        7, E =      -153.9142718834
  N         7.0396693797        7.4999901046        7.9012561318
 Na         5.9856897353        9.1996756527        7.1599969174
 Na         5.9856900060        5.8003248161        7.1599988674
 Na         9.0239979683        7.4999999650        7.1550957322
       4
 i =        8, E =      -153.9143081637
  N         7.0355414972        7.4999940209        7.9079717530
 Na         5.9882309017        9.2006805785        7.1588313314
 Na         5.9882272391        5.7993155580        7.1588272968
 Na         9.0244421906        7.5000000061        7.1533984418
       4
 i =        9, E =      -153.9143913099
  N         7.0238030040        7.5000036894        7.9293137642
 Na         5.9877332872        9.1991091447        7.1613295243
 Na         5.9877360707        5.8008911377        7.1613263583
 Na         9.0237075676        7.5000000260        7.1488204571
       4
 i =       10, E =      -153.9144193519
  N         7.0210279575        7.5000065778        7.9386370290
 Na         5.9857463309        9.1998523717        7.1600321304
 Na         5.9857466243        5.8001495851        7.1600348891
 Na         9.0216321458        7.5000000400        7.1483300898
       4
 i =       11, E =      -153.9144617565
  N         7.0208857377        7.5000083665        7.9539138528
 Na         5.9876162619        9.2001232153        7.1588866382
 Na         5.9876135468        5.7998749326        7.1588872461
 Na         9.0149947883        7.5000000425        7.1522987125
       4
 i =       12, E =      -153.9144849682
  N         7.0213449473        7.5000077457        7.9631301101
 Na         5.9874916551        9.1990562607        7.1606390357
 Na         5.9874928049        5.8009444896        7.1606379806
 Na         9.0123131629        7.5000000122        7.1565248662
       4
 i =       13, E =      -153.9144978405
  N         7.0216838585        7.5000059428        7.9665802741
 Na         5.9862775167        9.1992568824        7.1606516865
 Na         5.9862779297        5.8007445663        7.1606529909
 Na         9.0149609050        7.5000000267        7.1591017600
       4
 i =       14, E =      -153.9145020887
  N         7.0219252646        7.5000047108        7.9679509694
 Na         5.9870633397        9.1992369636        7.1603790123
 Na         5.9870633866        5.8007631843        7.1603797209
 Na         9.0164714764        7.5000000332        7.1602119986
       4
 i =       15, E =      -153.9145023269
  N         7.0222282459        7.5000038502        7.9681809071
 Na         5.9871818822        9.1990801812        7.1605250020
 Na         5.9871833299        5.8009204619        7.1605249847
 Na         9.0163256197        7.5000000214        7.1602922192
       4
 i =       16, E =      -153.9145023269
  N         7.0222252670        7.5000038586        7.9681787619
 Na         5.9871807873        9.1990817328        7.1605235278
 Na         5.9871822210        5.8009189052        7.1605235176
 Na         9.0163272139        7.5000000216        7.1602915327
