      11
 i =        1, E =      -202.3606823344
 Ru         9.2781582502        8.4999999737        8.4999999962
  C        10.2528007234        6.8115817605        8.4999999486
  C        10.2528007182       10.1884182700        8.5000000181
  C         7.3287257528        8.5000000153        8.5000000838
  C         9.2779613294        8.5000000224       10.4504218005
  C         9.2779611462        8.5000000490        6.5495781648
  O        10.8235890787        5.8222956185        8.5000000234
  O        10.8235890543       11.1777043274        8.5000000038
  O         6.1866314103        8.5000000038        8.4999999598
  O         9.2764988976        8.4999999890       11.5870375015
  O         9.2764989972        8.4999999700        5.4129624995
      11
 i =        2, E =      -202.3606927518
 Ru         9.2785871762        8.5000000200        8.5000000168
  C        10.2528282395        6.8113180294        8.4999999504
  C        10.2528282687       10.1886819934        8.4999999773
  C         7.3289158265        8.4999999878        8.5000000404
  C         9.2772397982        8.4999999369       10.4502463036
  C         9.2772397894        8.4999999542        6.5497536955
  O        10.8227880308        5.8228245670        8.5000000109
  O        10.8227880382       11.1771754597        8.5000000148
  O         6.1878858830        8.5000000117        8.4999999968
  O         9.2753377852        8.5000000215       11.5860447768
  O         9.2753377752        8.5000000168        5.4139552192
      11
 i =        3, E =      -202.3606927518
 Ru         9.2785871762        8.5000000200        8.5000000168
  C        10.2528282395        6.8113180294        8.4999999504
  C        10.2528282687       10.1886819934        8.4999999773
  C         7.3289158265        8.4999999878        8.5000000404
  C         9.2772397982        8.4999999369       10.4502463036
  C         9.2772397894        8.4999999542        6.5497536955
  O        10.8227880308        5.8228245670        8.5000000109
  O        10.8227880382       11.1771754597        8.5000000148
  O         6.1878858830        8.5000000117        8.4999999968
  O         9.2753377852        8.5000000215       11.5860447768
  O         9.2753377752        8.5000000168        5.4139552192
