       2
 i =        1, E =       -29.7051210832
 Sb         6.5000000283        6.5000000083        5.5290186542
  F         6.4999999719        6.4999999916        7.4695424888
       2
 i =        2, E =       -29.7051293846
 Sb         6.5000000290        6.5000000080        5.5224958057
  F         6.5000000507        6.5000000156        7.4632363712
       2
 i =        3, E =       -29.7051304702
 Sb         6.5000000292        6.5000000080        5.5206965752
  F         6.5000000410        6.5000000126        7.4631190698
       2
 i =        4, E =       -29.7051304704
 Sb         6.5000000283        6.5000000048        5.5207035611
  F         6.5000013965        6.5000004306        7.4631402445
       2
 i =        5, E =       -29.7051304704
 Sb         6.5000000283        6.5000000048        5.5207033145
  F         6.5000013829        6.5000004264        7.4631400261
