       4
 i =        1, E =      -114.4443604981
 Ta         6.9999999543        6.9999995359        6.5055767887
  F         6.9999999605        7.0000000661        8.4069377683
  O         8.4251017900        7.0000003229        5.5637616167
  O         5.5748982952        7.0000000752        5.5637615775
       4
 i =        2, E =      -114.4445008167
 Ta         7.0000000650        6.9999993033        6.5097624139
  F         6.9999999405        7.0000001984        8.4116265733
  O         8.4251703411        7.0000004626        5.5545999130
  O         5.5748296305        7.0000001686        5.5545998042
       4
 i =        3, E =      -114.4445265170
 Ta         6.9999999420        6.9999989633        6.5053071614
  F         6.9999998674        7.0000005170        8.4076532393
  O         8.4249172537        7.0000006614        5.5501816772
  O         5.5750828354        7.0000003110        5.5501816127
       4
 i =        4, E =      -114.4445007972
 Ta         7.0000005436        6.9999953755        6.4803630969
  F         6.9999988466        7.0000055295        8.3869963387
  O         8.4217943540        7.0000026756        5.5218249886
  O         5.5782052639        7.0000018707        5.5218247119
       4
 i =        5, E =      -114.4445581093
 Ta         6.9999998794        6.9999957446        6.4932548047
  F         6.9999988117        7.0000063746        8.3984840860
  O         8.4233382283        7.0000024134        5.5371956237
  O         5.5766618118        7.0000017456        5.5371953476
       4
 i =        6, E =      -114.4445585042
 Ta         6.9999998255        6.9999931512        6.4952472797
  F         6.9999974897        7.0000153491        8.4001782386
  O         8.4231430604        7.0000036970        5.5389579006
  O         5.5768569308        7.0000029273        5.5389575480
       4
 i =        7, E =      -114.4445586206
 Ta         6.9999996442        6.9999897092        6.4946505800
  F         6.9999955957        7.0000293510        8.3997038398
  O         8.4230592591        7.0000053330        5.5382836472
  O         5.5769407249        7.0000044537        5.5382831077
       4
 i =        8, E =      -114.4445586206
 Ta         6.9999996442        6.9999897092        6.4946505800
  F         6.9999955957        7.0000293510        8.3997038398
  O         8.4230592591        7.0000053330        5.5382836472
  O         5.5769407249        7.0000044537        5.5382831077
