       3
 i =        1, E =       -89.4223618264
 Ti         7.0000000020        6.9999999994        7.4606335512
  O         5.6439429338        7.0000000017        6.5338498003
  O         8.3560570642        6.9999999989        6.5338497862
       3
 i =        2, E =       -89.4223705659
 Ti         7.0000000201        6.9999999997        7.4636239840
  O         5.6461640130        7.0000000013        6.5322507057
  O         8.3538359676        6.9999999990        6.5322507120
       3
 i =        3, E =       -89.4223707975
 Ti         7.0000000096        6.9999999998        7.4643056429
  O         5.6463248301        7.0000000010        6.5323861187
  O         8.3536751609        6.9999999994        6.5323861145
       3
 i =        4, E =       -89.4223707975
 Ti         7.0000000096        6.9999999998        7.4643056429
  O         5.6463248301        7.0000000010        6.5323861187
  O         8.3536751609        6.9999999994        6.5323861145
