       2
 i =        1, E =       -83.9185627010
  W         6.4999999758        6.4999999869        5.6826887026
  O         6.5000000242        6.5000000131        7.3182044225
       2
 i =        2, E =       -83.9185704859
  W         6.4999999758        6.4999999876        5.6848996475
  O         6.5000000194        6.5000000098        7.3177043066
       2
 i =        3, E =       -83.9185710096
  W         6.4999999767        6.4999999876        5.6854631920
  O         6.5000000151        6.5000000081        7.3185236804
       2
 i =        4, E =       -83.9185710096
  W         6.4999999767        6.4999999876        5.6854631920
  O         6.5000000151        6.5000000081        7.3185236804
