       3
 i =        1, E =      -100.0579440792
  W         6.9999999444        6.9999998485        7.4978911382
  O         5.6467312924        7.0000002102        6.5141536124
  O         8.3532687637        6.9999999415        6.5141535700
       3
 i =        2, E =      -100.0584438609
  W         7.0000000059        6.9999998439        7.5364794463
  O         5.6971927832        7.0000002663        6.4991986218
  O         8.3028072124        6.9999999304        6.4991986737
       3
 i =        3, E =      -100.0586543232
  W         6.9999999988        6.9999998581        7.5196534000
  O         5.6832866955        7.0000002969        6.5070168800
  O         8.3167133064        6.9999999161        6.5070169192
       3
 i =        4, E =      -100.0586751478
  W         6.9999999953        6.9999998534        7.5206181288
  O         5.6790569639        7.0000003565        6.5077094711
  O         8.3209430415        6.9999999003        6.5077095250
       3
 i =        5, E =      -100.0586778852
  W         6.9999999689        6.9999998544        7.5221783327
  O         5.6802499423        7.0000004213        6.5085855313
  O         8.3197500897        6.9999998820        6.5085855502
       3
 i =        6, E =      -100.0586849367
  W         6.9999999921        6.9999998564        7.5270517080
  O         5.6816568745        7.0000006941        6.5128551006
  O         8.3183431390        6.9999998047        6.5128552377
       3
 i =        7, E =      -100.0543798121
  W         7.0000005422        6.9999999488        7.7770517080
  O         5.7499695892        7.0000148345        6.7338005892
  O         8.2500301126        6.9999958108        6.7338052165
       3
 i =        8, E =      -100.0586968790
  W         7.0000001638        6.9999998176        7.5374101685
  O         5.6843894716        7.0000014509        6.5217209066
  O         8.3156103799        6.9999995716        6.5217215767
       3
 i =        9, E =      -100.0586990137
  W         7.0000002594        6.9999998051        7.5408295269
  O         5.6850974472        7.0000018356        6.5248248527
  O         8.3149022862        6.9999994506        6.5248256686
       3
 i =       10, E =      -100.0587025559
  W         7.0000003316        6.9999997983        7.5431208711
  O         5.6851747530        7.0000024941        6.5270568594
  O         8.3148248056        6.9999992388        6.5270574128
       3
 i =       11, E =      -100.0587163319
  W         7.0000005556        6.9999997688        7.5499615932
  O         5.6838060486        7.0000065607        6.5344523737
  O         8.3161925496        6.9999979303        6.5344509317
       3
 i =       12, E =      -100.0587231469
  W         7.0000003695        6.9999997586        7.5493864810
  O         5.6818089069        7.0000098314        6.5347911098
  O         8.3181892646        6.9999968780        6.5347888986
       3
 i =       13, E =      -100.0587244482
  W         6.9999999856        6.9999997561        7.5475544797
  O         5.6806610932        7.0000135374        6.5334893348
  O         8.3193370607        6.9999957037        6.5334875491
       3
 i =       14, E =      -100.0587244495
  W         6.9999996959        6.9999997607        7.5474887465
  O         5.6806825658        7.0000164243        6.5334030152
  O         8.3193157484        6.9999947997        6.5334014166
       3
 i =       15, E =      -100.0587244495
  W         6.9999996959        6.9999997607        7.5474887465
  O         5.6806825658        7.0000164243        6.5334030152
  O         8.3193157484        6.9999947997        6.5334014166
