       8
 i =        1, E =       -79.7360754154
  C         6.4999981855        6.4999932937        7.2634113352
  C         6.4999955315        6.5000065830        5.7366027558
  H         6.4999862314        7.5232776093        7.6704361540
  H         5.6137905382        7.0116431620        5.3296138886
  H         5.6137828278        5.9883648285        7.6703734350
  H         6.5000003846        5.4767271601        5.3295621270
  H         7.3862124928        5.9883509334        7.6704082604
  H         7.3862073650        7.0116415108        5.3296261338
       8
 i =        2, E =       -79.7361258756
  C         6.4999874774        6.4999902681        7.2627342513
  C         6.5000079825        6.5000095915        5.7372654754
  H         6.4999945686        7.5205119190        7.6667490410
  H         5.6162038681        7.0102767113        5.3332765061
  H         5.6161927449        5.9897212867        7.6667358916
  H         6.4999986157        5.4794851977        5.3332574891
  H         7.3837845796        5.9897274314        7.6667440753
  H         7.3838037188        7.0102826755        5.3332713603
       8
 i =        3, E =       -79.7361266187
  C         6.4999978798        6.4999919333        7.2626959269
  C         6.4999972521        6.5000082660        5.7373182346
  H         6.4999893956        7.5208216591        7.6661296136
  H         5.6159368492        7.0104313290        5.3338885333
  H         5.6159258528        5.9895724979        7.6661069540
  H         6.5000034383        5.4791827343        5.3338735693
  H         7.3840585097        5.9895686182        7.6661244821
  H         7.3840643778        7.0104280434        5.3338967764
       8
 i =        4, E =       -79.7361266187
  C         6.4999978798        6.4999919333        7.2626959269
  C         6.4999972521        6.5000082660        5.7373182346
  H         6.4999893956        7.5208216591        7.6661296136
  H         5.6159368492        7.0104313290        5.3338885333
  H         5.6159258528        5.9895724979        7.6661069540
  H         6.5000034383        5.4791827343        5.3338735693
  H         7.3840585097        5.9895686182        7.6661244821
  H         7.3840643778        7.0104280434        5.3338967764
