       8
 i =        1, E =      -643.9003711596
  P         6.9625039787        7.5000002923        7.1119208690
  O         8.4152263474        7.5000001420        6.3953072831
  O         6.2357980725        8.7574918556        6.3952605394
  O         6.2357990248        6.2425078497        6.3952607879
  O         6.9635814977        7.5000000113        8.5980740288
  H         9.1063169219        7.4999998652        7.0802218368
  H         5.8913381752        9.3567187810        7.0800127407
  H         5.8913379392        5.6432809422        7.0800127123
       8
 i =        2, E =      -643.9009731686
  P         6.9628765067        7.4999992773        7.1119735019
  O         8.4015496445        7.5000007499        6.4019569016
  O         6.2429055117        8.7459029927        6.4026566205
  O         6.2429054647        6.2540959818        6.4026559117
  O         6.9630809980        7.5000005730        8.5837148528
  H         9.0970290850        7.4999998627        7.0778101522
  H         5.8958325313        9.3493164406        7.0778625686
  H         5.8958325217        5.6506838803        7.0778626961
       8
 i =        3, E =      -643.9009861255
  P         6.9624569301        7.5000003288        7.1102850777
  O         8.4024848197        7.5000002301        6.4025495124
  O         6.2422988124        8.7470784605        6.4027703562
  O         6.2422998948        6.2529212343        6.4027708319
  O         6.9633600118        7.4999998206        8.5839057856
  H         9.0993493731        7.4999998221        7.0779288568
  H         5.8948174783        9.3510768084        7.0781206131
  H         5.8948172024        5.6489230738        7.0781206232
       8
 i =        4, E =      -643.9009892651
  P         6.9625855794        7.4999999151        7.1102905182
  O         8.4020121101        7.5000004916        6.4023728779
  O         6.2424448291        8.7465086259        6.4027365658
  O         6.2424455747        6.2534907668        6.4027365396
  O         6.9632171710        7.5000001068        8.5849722507
  H         9.0993769746        7.4999997995        7.0775682504
  H         5.8948133631        9.3511058217        7.0778605667
  H         5.8948131321        5.6488942631        7.0778606656
       8
 i =        5, E =      -643.9009897403
  P         6.9624833114        7.5000001104        7.1102886371
  O         8.4015218284        7.5000004515        6.4025179508
  O         6.2425967758        8.7462018401        6.4028466916
  O         6.2425978085        6.2537976433        6.4028469032
  O         6.9632456472        7.4999999455        8.5852653156
  H         9.0992511023        7.4999997608        7.0772497583
  H         5.8949089882        9.3509942085        7.0776653368
  H         5.8949086671        5.6490058523        7.0776654183
       8
 i =        6, E =      -643.9009897384
  P         6.9624833114        7.5000001104        7.1102886371
  O         8.4015218284        7.5000004515        6.4025179508
  O         6.2425967758        8.7462018401        6.4028466916
  O         6.2425978085        6.2537976433        6.4028469032
  O         6.9632456472        7.4999999455        8.5852653156
  H         9.0992511023        7.4999997608        7.0772497583
  H         5.8949089882        9.3509942085        7.0776653368
  H         5.8949086671        5.6490058523        7.0776654183
