       4
 i =        1, E =     -1564.5472021241
 In         6.9211668320        7.4999997751        7.5000000570
 Cl         5.7722936880        9.4891601581        7.5000000179
 Cl         5.7722936339        5.5108399379        7.4999999397
 Cl         9.2180525112        7.5000001289        7.4999999853
       4
 i =        2, E =     -1564.5472257029
 In         6.9213024430        7.4999999269        7.5000000582
 Cl         5.7696363831        9.4937482623        7.5000000171
 Cl         5.7696362558        5.5062516957        7.4999999384
 Cl         9.2235709051        7.5000001237        7.4999999842
       4
 i =        3, E =     -1564.5472257570
 In         6.9214949253        7.4999999468        7.5000000590
 Cl         5.7697507479        9.4935204814        7.5000000160
 Cl         5.7697506266        5.5064794695        7.4999999368
 Cl         9.2236027442        7.5000001150        7.4999999830
       4
 i =        4, E =     -1564.5472257615
 In         6.9214949253        7.4999999468        7.5000000590
 Cl         5.7697507479        9.4935204814        7.5000000160
 Cl         5.7697506266        5.5064794695        7.4999999368
 Cl         9.2236027442        7.5000001150        7.4999999830
