       7
 i =        1, E =      -703.6542732323
 Ir         7.4587641704        7.5230449430        7.4429095016
  F         7.5165453236        7.4920312339        9.5019443018
  F         7.5081167455        7.4934402498        5.4643406383
  F         8.9140500411        6.0814061957        7.5277119037
  F         8.9382265086        8.9282941554        7.5239234041
  F         6.0838331005        8.9250628437        7.5175827932
  F         6.0804632062        6.0567211748        7.5215882188
       7
 i =        2, E =      -660.6839084559
 Ir         7.4867925409        7.5046672408        7.4824453993
  F         7.5021181135        7.5005982782        9.4653175469
  F         7.4989115941        7.4984900563        5.5345562833
  F         8.8838497701        6.1083638513        7.5067866475
  F         8.8875132611        8.8963180650        7.5033896931
  F         6.1254344565        8.8794136042        7.5037824767
  F         6.1153810414        6.1121485233        7.5037237919
       7
 i =        3, E =      -728.9948333591
 Ir         7.4815072527        7.5581815364        7.4853001352
  F         7.5071471556        7.4913600505        9.4143248320
  F         7.5083282327        7.4871504667        5.5516452534
  F         8.8834160516        6.1138604842        7.5135524389
  F         8.8851961833        8.8692512332        7.5095982481
  F         6.1142356525        8.8843939491        7.5100912830
  F         6.1201722186        6.0958008129        7.5154914783
       7
 i =        4, E =      -734.7669105850
 Ir         7.4958697503        7.5223814100        7.4817074312
  F         7.5025383869        7.5003739476        9.4258015911
  F         7.5033631800        7.4971051809        5.5396815211
  F         8.9117030416        6.1061789896        7.5138276526
  F         8.8805077266        8.8803471551        7.5110936696
  F         6.1113692609        8.8972551157        7.5119345226
  F         6.0946987658        6.0963804504        7.5160320772
       7
 i =        5, E =      -737.5859609342
 Ir         7.5638598529        7.2723814100        7.4990100763
  F         7.4495920506        7.5518491777        9.6706393162
  F         7.4715712374        7.5589048349        5.4472902290
  F         9.0916726355        6.0312856788        7.4683815188
  F         8.8969714755        9.0182203130        7.4659802932
  F         6.0974195562        8.9634300852        7.4746164280
  F         5.9292722413        6.1040636230        7.4745187897
       7
 i =        6, E =      -673.5987485085
 Ir         7.5120737485        7.4226736543        7.4915849768
  F         7.4841770403        7.4998841526        9.5455897239
  F         7.4928142652        7.5064004262        5.4958065732
  F         8.9748106037        6.0880064008        7.4853257171
  F         8.9062084807        8.9410454473        7.4921706877
  F         6.0848925836        8.9415599949        7.4949275547
  F         6.0452888509        6.1005510727        7.4949268312
       7
 i =        7, E =      -701.4611427576
 Ir         7.4930985790        7.3820800904        7.5208929095
  F         7.5062966265        7.5082715233        9.5771486159
  F         7.5155596388        7.5268788391        5.4595638571
  F         9.0347895196        6.1020451550        7.4713897171
  F         8.9093927331        8.9394219700        7.4890938175
  F         6.0707279431        8.9961594321        7.4936906336
  F         5.9705011081        6.0453274929        7.4886923218
       7
 i =        8, E =      -740.6957128527
 Ir         7.5185053812        7.3989447266        7.5139263795
  F         7.4998359786        7.4925506677        9.5964012146
  F         7.4966967189        7.5058518630        5.4170109323
  F         9.0800354241        6.0619064139        7.4696055281
  F         8.9202063597        8.9558521921        7.5038244192
  F         6.0130225381        9.0217902039        7.5112311604
  F         5.9721577735        6.0633544104        7.4886563882
       7
 i =        9, E =      -689.7185422050
 Ir         7.4940094101        7.4309364152        7.5051431247
  F         7.5199284551        7.4917708406        9.5576378351
  F         7.5152450750        7.5070331785        5.4259933486
  F         9.0612674840        6.0855009287        7.4782413745
  F         8.9186105972        8.9289861024        7.5145133792
  F         6.0180586438        9.0210563629        7.5188152348
  F         5.9731062666        6.0348910923        7.5001116100
       7
 i =       10, E =      -703.4733009829
 Ir         7.4884643953        7.4441057174        7.4908284447
  F         7.5275052214        7.4852306672        9.5551471232
  F         7.5148093818        7.5037334770        5.3964439455
  F         9.0625256479        6.0883472066        7.4860015400
  F         8.9294069962        8.9230693099        7.5289288902
  F         5.9962647679        9.0318520276        7.5315885198
  F         5.9811012984        6.0238124509        7.5114422043
       7
 i =       11, E =      -703.4788036318
 Ir         7.4958038247        7.4559745966        7.4968662344
  F         7.5238177086        7.4851200140        9.5538905904
  F         7.5082419077        7.5064663808        5.3915077720
  F         9.0544453610        6.0832637344        7.4898598228
  F         8.9245213120        8.9187713456        7.5264148957
  F         5.9994424522        9.0172934609        7.5313212759
  F         5.9938409963        6.0332797048        7.5105596749
       7
 i =       12, E =      -715.0045093631
 Ir         7.5540879722        7.5719896625        7.5665655189
  F         7.4781916121        7.5287557638        9.5337749637
  F         7.4257920029        7.5815114461        5.3091742963
  F         8.9358476436        6.0356428327        7.5606548618
  F         8.7798058708        8.8168140878        7.4935888455
  F         6.1362137438        8.7672934609        7.5343234830
  F         6.1911037229        6.1985733616        7.5032481927
       7
 i =       13, E =      -703.5123834361
 Ir         7.5331742782        7.4648876422        7.5305204651
  F         7.4838786767        7.4978878300        9.5610140006
  F         7.4709574073        7.5304039487        5.4266097901
  F         8.9883577994        6.0517365615        7.5076632789
  F         8.9097209621        8.9407340431        7.4766457850
  F         6.0427458114        8.9137061654        7.5121199100
  F         6.0717990762        6.1010041424        7.4862951040
       7
 i =       14, E =      -703.5300893733
 Ir         7.5225463765        7.4820613648        7.5275149907
  F         7.4831865869        7.4983216364        9.5431409243
  F         7.4696018866        7.5309770472        5.4342318233
  F         8.9508827262        6.0620043627        7.5225581363
  F         8.9066688819        8.9296744026        7.4701892080
  F         6.0548038381        8.8808248430        7.5170819198
  F         6.1132052138        6.1166019220        7.4863928923
       7
 i =       15, E =      -654.5245936656
 Ir         7.4776903891        7.5476172968        7.5233507434
  F         7.4466769584        7.5259511098        9.4490322349
  F         7.4461075928        7.5382223453        5.5581762400
  F         8.7377741697        6.1266808782        7.5738647073
  F         8.8419694925        8.8824067172        7.4182217020
  F         6.2129796327        8.6308248430        7.5133282568
  F         6.3397428172        6.2495251315        7.4669079339
       7
 i =       16, E =      -726.4195873538
 Ir         7.4828268401        7.5444641630        7.5289225488
  F         7.5021963700        7.5056630019        9.4920992117
  F         7.5022030208        7.5110695916        5.5060657393
  F         8.8806835965        6.1246294301        7.5186354077
  F         8.8886382611        8.8849519610        7.4638727161
  F         6.0610543929        8.8400451691        7.5228325348
  F         6.1839261137        6.0898696111        7.4691822343
       7
 i =       17, E =      -703.5230896113
 Ir         7.4956573777        7.4578533025        7.5034137676
  F         7.4966393903        7.5048801263        9.5365838996
  F         7.4916121931        7.5215696151        5.4467380897
  F         8.9789451983        6.0685125018        7.5087838399
  F         8.9012823386        8.9229651764        7.4900942271
  F         6.0398667634        8.9306930145        7.5113851930
  F         6.0968040330        6.0939305669        7.5039630763
       7
 i =       18, E =      -703.5497920882
 Ir         7.4876208253        7.5012560061        7.5148922888
  F         7.4981850116        7.5074380421        9.5101814978
  F         7.4985741030        7.5130147745        5.4916544621
  F         8.9258549333        6.0977660726        7.5099803744
  F         8.8937962458        8.9049599160        7.4757776342
  F         6.0500019898        8.8829391809        7.5122705651
  F         6.1472097121        6.0931925570        7.4865669126
       7
 i =       19, E =      -676.4846609933
 Ir         7.4932971898        7.5916580177        7.5376272338
  F         7.4587953846        7.5507243648        9.4231854385
  F         7.4977967581        7.5166287485        5.7008231850
  F         8.7428588946        6.1937414329        7.5110794319
  F         8.8117062775        8.8772571021        7.4147461461
  F         6.1828188579        8.6329391809        7.4938358109
  F         6.3160156324        6.1382938778        7.4215488727
       7
 i =       20, E =      -703.5682247251
 Ir         7.4905906098        7.5312716487        7.5168816741
  F         7.4972650926        7.5063242969        9.4958826326
  F         7.5345304698        7.5082415803        5.5507234269
  F         8.8870600226        6.1330188635        7.5069120509
  F         8.8852367863        8.8884501096        7.4594334900
  F         6.0015978107        8.8191695575        7.4864094784
  F         6.2053923312        6.1141962540        7.4852868424
       7
 i =       21, E =      -703.5769996414
 Ir         7.4936896769        7.5371410631        7.5149303840
  F         7.4927245747        7.5104527395        9.4844820291
  F         7.5474437856        7.5070678128        5.5834043025
  F         8.8727985149        6.1527116100        7.5077517026
  F         8.8714299955        8.8852376487        7.4548227342
  F         5.9906257400        8.7838567274        7.4721860942
  F         6.2332228893        6.1242573734        7.4840509068
       7
 i =       22, E =      -703.5927579577
 Ir         7.4965055324        7.5454850736        7.5026108285
  F         7.4719745536        7.5319994439        9.4114224350
  F         7.5800766481        7.4967312054        5.6945490838
  F         8.8361381816        6.2439322921        7.5227194347
  F         8.7939419770        8.8795463459        7.4604724358
  F         5.9978336718        8.6599643198        7.4262629064
  F         6.3265234065        6.1432544260        7.4839227912
       7
 i =       23, E =      -703.5963693730
 Ir         7.4931063627        7.5361699445        7.5091915612
  F         7.4679893233        7.5341414447        9.4015855277
  F         7.5675277741        7.4912596981        5.6603562026
  F         8.8555789945        6.2440189349        7.5310579149
  F         8.7817056462        8.8907026115        7.4761087468
  F         6.0298443692        8.6787419394        7.4352198891
  F         6.3071144524        6.1258368927        7.4883468686
       7
 i =       24, E =      -703.5981917958
 Ir         7.4962476462        7.5165342534        7.5088615670
  F         7.4538600296        7.5416163621        9.3804724604
  F         7.5495670922        7.4835435597        5.6431103489
  F         8.8805771731        6.2568993881        7.5452536029
  F         8.7464637777        8.9107061273        7.4960613713
  F         6.0816052725        8.6835007671        7.4362363926
  F         6.2945804431        6.1080408823        7.4917863029
       7
 i =       25, E =      -703.5985526757
 Ir         7.4966800909        7.5086734971        7.5058684827
  F         7.4493699139        7.5416766456        9.3761897078
  F         7.5445129183        7.4780780412        5.6408233656
  F         8.8927157368        6.2634056361        7.5500353801
  F         8.7308026198        8.9133733399        7.5020420773
  F         6.0994260135        8.6948985097        7.4343467114
  F         6.2894002489        6.1007150749        7.4924211707
       7
 i =       26, E =      -703.5989022964
 Ir         7.4970772356        7.5011758084        7.5035957751
  F         7.4446740881        7.5380876384        9.3721733963
  F         7.5424945035        7.4677210172        5.6435539264
  F         8.9049541459        6.2741568951        7.5546960123
  F         8.7137137338        8.9118908649        7.5061982978
  F         6.1150578156        8.7134479490        7.4291654355
  F         6.2849585946        6.0943110925        7.4922622205
       7
 i =       27, E =      -703.5990843364
 Ir         7.4979772015        7.4997220230        7.5022808243
  F         7.4428634398        7.5339986208        9.3684304031
  F         7.5450984900        7.4599860524        5.6458186403
  F         8.9077770661        6.2810308166        7.5581033197
  F         8.7097019497        8.9083707648        7.5073291387
  F         6.1161923551        8.7237137526        7.4268046335
  F         6.2833347645        6.0939486769        7.4928177591
       7
 i =       28, E =      -703.5992057801
 Ir         7.4994852885        7.5003191249        7.5013904323
  F         7.4425877075        7.5315427629        9.3635966980
  F         7.5501383061        7.4549818365        5.6459134452
  F         8.9061359543        6.2843716904        7.5620795600
  F         8.7132190791        8.9046077196        7.5073414298
  F         6.1092725981        8.7277218569        7.4274097766
  F         6.2821117671        6.0972061327        7.4937976851
       7
 i =       29, E =      -703.5992426468
 Ir         7.5002055534        7.5010598671        7.5006768112
  F         7.4435738494        7.5330615844        9.3601157241
  F         7.5536822379        7.4555273828        5.6438302058
  F         8.9037425467        6.2832455895        7.5650325489
  F         8.7179711239        8.9025193610        7.5072514766
  F         6.1024013212        8.7254156535        7.4301555544
  F         6.2813693033        6.0999128690        7.4944417801
       7
 i =       30, E =      -703.5992511241
 Ir         7.5005192153        7.5008282385        7.5003438021
  F         7.4443732233        7.5359186033        9.3587679481
  F         7.5550647148        7.4579558064        5.6422500151
  F         8.9024806204        6.2812533586        7.5665920965
  F         8.7199816237        8.9016648106        7.5071263459
  F         6.0994998278        8.7223730490        7.4320895236
  F         6.2810229316        6.1007459812        7.4943277472
       7
 i =       31, E =      -703.5992530748
 Ir         7.5004798318        7.5004696137        7.5001585436
  F         7.4449207544        7.5380491804        9.3583298005
  F         7.5554970590        7.4598163614        5.6416768403
  F         8.9020585490        6.2801639389        7.5673226247
  F         8.7201655535        8.9010651895        7.5070897333
  F         6.0988497783        8.7207870417        7.4329058562
  F         6.2809697743        6.1003881438        7.4940131562
       7
 i =       32, E =      -703.5992534866
 Ir         7.5004853032        7.5001402025        7.5001752832
  F         7.4451462991        7.5390851277        9.3584294533
  F         7.5555283308        7.4607171897        5.6417218302
  F         8.9019235536        6.2797216615        7.5675199752
  F         8.7199126552        8.9008203810        7.5069658046
  F         6.0989699765        8.7203503755        7.4329952761
  F         6.2809753695        6.0999043712        7.4936888758
       7
 i =       33, E =      -703.5992534882
 Ir         7.5004853032        7.5001402025        7.5001752832
  F         7.4451462991        7.5390851277        9.3584294533
  F         7.5555283308        7.4607171897        5.6417218302
  F         8.9019235536        6.2797216615        7.5675199752
  F         8.7199126552        8.9008203810        7.5069658046
  F         6.0989699765        8.7203503755        7.4329952761
  F         6.2809753695        6.0999043712        7.4936888758
