       4
 i =        1, E =      -799.8667922324
 Mg         7.5832778038        5.4167221952        7.5832778038
 Mg         5.4167221962        7.5832778048        7.5832778048
 Mg         5.4167221952        5.4167221962        5.4167221962
 Mg         7.5832778048        7.5832778038        5.4167221952
       4
 i =        2, E =      -799.8667922373
 Mg         7.5826888737        5.4173111193        7.5826888724
 Mg         5.4173111217        7.5826888733        7.5826888706
 Mg         5.4173111352        5.4173111377        5.4173111350
 Mg         7.5826888694        7.5826888697        5.4173111220
       4
 i =        3, E =      -799.8667922364
 Mg         7.5826888737        5.4173111193        7.5826888724
 Mg         5.4173111217        7.5826888733        7.5826888706
 Mg         5.4173111352        5.4173111377        5.4173111350
 Mg         7.5826888694        7.5826888697        5.4173111220
