       3
 i =        1, E =      -217.9766796908
 Mo         7.0000605178        7.0074395547        7.4003491892
  O         8.4855699065        6.9961757774        6.5610819635
  O         5.5143695763        6.9963874849        6.5610838100
       3
 i =        2, E =      -235.3351366477
 Mo         7.0000113424        7.0075320063        7.4008176469
  O         8.4862589903        6.9961090855        6.5608642271
  O         5.5137297133        6.9963266283        6.5608428188
       3
 i =        3, E =      -217.9766772091
 Mo         7.0007074230        7.0076260289        7.4036603272
  O         8.4844225215        6.9957574017        6.5582405067
  O         5.5148700535        6.9965118607        6.5606443525
       3
 i =        4, E =      -217.9766721130
 Mo         7.0000671672        7.0073113913        7.3983568390
  O         8.4862401430        6.9961456766        6.5617937363
  O         5.5136935971        6.9965099953        6.5623423020
       3
 i =        5, E =      -217.9766814512
 Mo         7.0005716297        7.0074901252        7.4014676439
  O         8.4851877468        6.9958167776        6.5593602727
  O         5.5142415728        6.9965797166        6.5616947608
       3
 i =        6, E =      -217.9766815392
 Mo         7.0006784479        7.0074841231        7.4014305879
  O         8.4852135546        6.9957239511        6.5590652533
  O         5.5141097082        6.9966404731        6.5620259586
       3
 i =        7, E =      -217.9766815404
 Mo         7.0006784479        7.0074841231        7.4014305879
  O         8.4852135546        6.9957239511        6.5590652533
  O         5.5141097082        6.9966404731        6.5620259586
