       2
 i =        1, E =      -266.0408399475
 Pb         6.5000000283        6.4999999703        5.5272246355
  O         6.4999999717        6.5000000297        7.4728512212
       2
 i =        2, E =      -266.0408445056
 Pb         6.5000000292        6.4999999694        5.5285938866
  O         6.4999999721        6.5000000292        7.4715028051
       2
 i =        3, E =      -266.0408445056
 Pb         6.5000000292        6.4999999694        5.5285938866
  O         6.4999999721        6.5000000292        7.4715028051
