       2
 i =        1, E =      -182.7215129857
 Rh         6.4901484965        6.4894965998        5.7911012407
  O         6.5098510690        6.5104952399        7.2090752498
       2
 i =        2, E =      -182.6484735337
 Rh         6.4720583318        6.3785321663        5.7070115213
  O         6.5279556210        6.6214839897        7.2931255143
       2
 i =        3, E =      -182.6565243240
 Rh         6.4541477517        6.3140607152        5.6861235227
  O         6.5458970149        6.6859725227        7.3142103483
       2
 i =        4, E =      -182.6575394477
 Rh         6.4408914041        6.2672898714        5.6775200658
  O         6.5591039167        6.7327901650        7.3227646499
       2
 i =        5, E =      -182.6575464629
 Rh         6.4420057515        6.2712063788        5.6780156607
  O         6.5579855688        6.7288166275        7.3220546066
       2
 i =        6, E =      -182.6575464822
 Rh         6.4419491871        6.2709758857        5.6779043560
  O         6.5580316301        6.7289702525        7.3219734657
       2
 i =        7, E =      -182.6575464785
 Rh         6.4419491871        6.2709758857        5.6779043560
  O         6.5580316301        6.7289702525        7.3219734657
