       4
 i =        1, E =      -762.1936846663
 Sc         7.4533662981        6.9999999567        6.9999999252
  H         8.3640513218        5.4226485835        6.9999999889
  H         8.3640513126        8.5773514687        7.0000000220
  H         5.6319921622        6.9999999911        7.0000000639
       4
 i =        2, E =      -762.1936847000
 Sc         7.4533648667        7.0000000201        6.9999999234
  H         8.3641783584        5.4224319697        6.9999999895
  H         8.3641783297        8.5775680290        7.0000000225
  H         5.6317398341        6.9999999813        7.0000000645
       4
 i =        3, E =      -762.1936846979
 Sc         7.4533648667        7.0000000201        6.9999999234
  H         8.3641783584        5.4224319697        6.9999999895
  H         8.3641783297        8.5775680290        7.0000000225
  H         5.6317398341        6.9999999813        7.0000000645
