       3
 i =        1, E =      -597.6004621656
  S         6.9999999906        6.9999999216        7.5258731004
  F         8.2486438679        7.0000000343        6.4745925685
  F         5.7513561416        7.0000000440        6.4745925853
       3
 i =        2, E =      -597.6006544271
  S         7.0000000082        6.9999999289        7.5232525551
  F         8.2336836790        7.0000000306        6.4759041484
  F         5.7663163128        7.0000000405        6.4759041545
       3
 i =        3, E =      -597.6006552962
  S         6.9999999944        6.9999999275        7.5226215969
  F         8.2351107157        7.0000000312        6.4762199692
  F         5.7648892899        7.0000000413        6.4762199838
       3
 i =        4, E =      -597.6006552960
  S         6.9999999944        6.9999999275        7.5226215969
  F         8.2351107157        7.0000000312        6.4762199692
  F         5.7648892899        7.0000000413        6.4762199838
