       4
 i =        1, E =      -505.5338628323
 Sn         7.4530919071        6.9999999897        7.3439367613
  F         8.3611563891        5.4271873369        6.6326210460
  F         8.3611564819        8.5728129717        6.6326209659
  F         5.6369637264        6.9999997016        6.6326223283
       4
 i =        2, E =      -505.5341770195
 Sn         7.4531012085        7.0000001787        7.3087786810
  F         8.3681474159        5.4150845221        6.6443428068
  F         8.3681474330        8.5849156749        6.6443427683
  F         5.6229953740        6.9999996243        6.6443490133
       4
 i =        3, E =      -505.5343817230
 Sn         7.4531077395        7.0000003370        7.2688230934
  F         8.3794314938        5.3955507739        6.6576590433
  F         8.3794314689        8.6044494006        6.6576590002
  F         5.6004469554        6.9999994890        6.6576714184
       4
 i =        4, E =      -505.5344023873
 Sn         7.4531153172        7.0000003892        7.2585928184
  F         8.3834020772        5.3886806054        6.6610584608
  F         8.3834020442        8.6113195712        6.6610583901
  F         5.5925205480        6.9999994363        6.6610755276
       4
 i =        5, E =      -505.5344035886
 Sn         7.4531177558        7.0000000190        7.2597913505
  F         8.3834990403        5.3885172310        6.6606495124
  F         8.3834991316        8.6114832667        6.6606494825
  F         5.5923345115        6.9999994862        6.6606686909
       4
 i =        6, E =      -505.5344035945
 Sn         7.4531177558        7.0000000190        7.2597913505
  F         8.3834990403        5.3885172310        6.6606495124
  F         8.3834991316        8.6114832667        6.6606494825
  F         5.5923345115        6.9999994862        6.6606686909
