       4
 i =        1, E =      -172.7145934758
 Tl         6.5646528279        7.0000001615        6.9999999900
  H         5.6860158374        8.5218424669        6.9999999892
  H         5.6860158040        5.4781574206        7.0000000261
  H         8.3219282409        6.9999999510        6.9999999947
       4
 i =        2, E =      -172.7145960919
 Tl         6.5646525206        7.0000000456        6.9999999954
  H         5.6870298769        8.5200833177        6.9999999874
  H         5.6870299208        5.4799166917        7.0000000243
  H         8.3198972716        6.9999999450        6.9999999929
       4
 i =        3, E =      -172.7145960945
 Tl         6.5646521924        7.0000000263        6.9999999983
  H         5.6870614756        8.5200255510        6.9999999865
  H         5.6870615206        5.4799744719        7.0000000233
  H         8.3198307189        6.9999999508        6.9999999919
       4
 i =        4, E =      -172.7145960946
 Tl         6.5646521924        7.0000000263        6.9999999983
  H         5.6870614756        8.5200255510        6.9999999865
  H         5.6870615206        5.4799744719        7.0000000233
  H         8.3198307189        6.9999999508        6.9999999919
