       4
 i =        1, E =       -47.1745254579
 Al         8.0239085938        7.4999999713        7.5000000071
 Cl         9.0636785010        5.6990980252        7.5000000012
 Cl         9.0636785033        9.3009019936        7.4999999966
 Cl         5.9443907963        7.5000000100        7.4999999951
       4
 i =        2, E =       -47.1745366784
 Al         8.0239031468        7.4999999953        7.5000000033
 Cl         9.0619224603        5.7021577282        7.5000000024
 Cl         9.0619224564        9.2978422709        7.4999999979
 Cl         5.9479088072        7.5000000055        7.4999999964
       4
 i =        3, E =       -47.1745366997
 Al         8.0239002035        7.4999999976        7.5000000020
 Cl         9.0619994925        5.7020336204        7.5000000029
 Cl         9.0619994895        9.2979663778        7.4999999983
 Cl         5.9477581292        7.5000000042        7.4999999968
       4
 i =        4, E =       -47.1745366997
 Al         8.0239002035        7.4999999976        7.5000000020
 Cl         9.0619994925        5.7020336204        7.5000000029
 Cl         9.0619994895        9.2979663778        7.4999999983
 Cl         5.9477581292        7.5000000042        7.4999999968
