       7
 i =        1, E =       -95.5623334855
 Bi         8.0000003933        7.9999999158        7.9999999776
 Cl         7.9999998653       10.5370721868        8.0000000390
 Cl         7.9999998555        8.0000000125       10.5370724592
 Cl         7.9999998895        5.4629277338        7.9999999888
 Cl         7.9999998814        8.0000000716        5.4629275420
 Cl        10.5370723589        8.0000000563        8.0000000147
 Cl         5.4629277562        8.0000000232        7.9999999787
       7
 i =        2, E =       -95.5623354788
 Bi         7.9999998743        8.0000000037        8.0000000088
 Cl         7.9999999419       10.5356197851        8.0000000355
 Cl         7.9999999329        7.9999999926       10.5356195818
 Cl         7.9999999679        5.4643801268        7.9999999831
 Cl         7.9999999607        8.0000000520        5.4643804035
 Cl        10.5356197585        8.0000000366        8.0000000115
 Cl         5.4643805606        8.0000000038        7.9999999760
       7
 i =        3, E =       -95.5623354788
 Bi         7.9999998743        8.0000000037        8.0000000088
 Cl         7.9999999419       10.5356197851        8.0000000355
 Cl         7.9999999329        7.9999999926       10.5356195818
 Cl         7.9999999679        5.4643801268        7.9999999831
 Cl         7.9999999607        8.0000000520        5.4643804035
 Cl        10.5356197585        8.0000000366        8.0000000115
 Cl         5.4643805606        8.0000000038        7.9999999760
