       4
 i =        1, E =       -12.4746676713
  C         7.0000000060        7.0000000007        7.6045793831
  C         6.9999999996        7.0000000044        6.3954753693
  H         6.9999999955        6.9999999962        8.6774262423
  H         6.9999999989        6.9999999987        5.3226086201
       4
 i =        2, E =       -12.4746787164
  C         7.0000000020        7.0000000006        7.6042443244
  C         7.0000000012        7.0000000023        6.3958005795
  H         6.9999999978        6.9999999969        8.6744733696
  H         6.9999999991        7.0000000002        5.3255712200
       4
 i =        3, E =       -12.4746787899
  C         7.0000000009        7.0000000002        7.6043169874
  C         7.0000000010        7.0000000016        6.3957276414
  H         6.9999999985        6.9999999974        8.6744073038
  H         6.9999999996        7.0000000008        5.3256374589
       4
 i =        4, E =       -12.4746787899
  C         7.0000000009        7.0000000002        7.6043169874
  C         7.0000000010        7.0000000016        6.3957276414
  H         6.9999999985        6.9999999974        8.6744073038
  H         6.9999999996        7.0000000008        5.3256374589
