       6
 i =        1, E =       -13.7242108857
  C         7.0000086937        6.3319423033        7.0000000430
  C         7.0000021710        7.6680496603        6.9999999657
  H         7.9300987663        5.7555846006        6.9999999848
  H         6.0699310472        5.7555777201        6.9999999924
  H         7.9300871478        8.2444275013        7.0000000082
  H         6.0699133089        8.2444217221        7.0000000059
       6
 i =        2, E =       -13.7242424848
  C         7.0000098071        6.3327909145        6.9999999491
  C         7.0000038207        7.6672147010        7.0000000490
  H         7.9281288598        5.7595981967        7.0000000128
  H         6.0718970248        5.7595875444        7.0000000176
  H         7.9281203093        8.2404106992        6.9999999855
  H         6.0718814083        8.2404014705        6.9999999860
       6
 i =        3, E =       -13.7242426864
  C         7.0000103352        6.3327445813        7.0000000331
  C         7.0000033018        7.6672552042        6.9999999667
  H         7.9284297183        5.7599139315        6.9999999904
  H         6.0715966526        5.7599044732        6.9999999944
  H         7.9284157948        8.2400969110        7.0000000070
  H         6.0715855112        8.2400884134        7.0000000084
       6
 i =        4, E =       -13.7242426864
  C         7.0000103352        6.3327445813        7.0000000331
  C         7.0000033018        7.6672552042        6.9999999667
  H         7.9284297183        5.7599139315        6.9999999904
  H         6.0715966526        5.7599044732        6.9999999944
  H         7.9284157948        8.2400969110        7.0000000070
  H         6.0715855112        8.2400884134        7.0000000084
