       4
 i =        1, E =       -76.6889643556
 Ge         7.4042064506        7.0000000069        7.3257931199
  F         8.2117736790        5.6002429078        6.6542854885
  F         8.2117737286        8.3997571194        6.6542854955
  F         5.7865610249        6.9999999671        6.6574022974
       4
 i =        2, E =       -76.6890219501
 Ge         7.4037996453        6.9999999891        7.3171636233
  F         8.2147153658        5.5981651960        6.6587049466
  F         8.2147153549        8.4018348168        6.6587049402
  F         5.7842968206        6.9999999275        6.6578300728
       4
 i =        3, E =       -76.6890270849
 Ge         7.4035027918        6.9999999795        7.3129974200
  F         8.2137706727        5.5980517619        6.6575172733
  F         8.2137706684        8.4019482203        6.6575172780
  F         5.7836545407        6.9999997923        6.6581535617
       4
 i =        4, E =       -76.6890273180
 Ge         7.4033992129        6.9999999749        7.3129588999
  F         8.2143550854        5.5987494457        6.6576148755
  F         8.2143550517        8.4012505436        6.6576148723
  F         5.7842052679        6.9999994629        6.6574285307
       4
 i =        5, E =       -76.6890273180
 Ge         7.4033992129        6.9999999749        7.3129588999
  F         8.2143550854        5.5987494457        6.6576148755
  F         8.2143550517        8.4012505436        6.6576148723
  F         5.7842052679        6.9999994629        6.6574285307
