       2
 i =        1, E =       -68.1199147439
 Mo         6.5025694968        6.5030734036        5.6505895726
  H         6.4974301192        6.4969265452        7.3494145293
       2
 i =        2, E =       -68.1199164962
 Mo         6.5026013557        6.5031106751        5.6547193429
  H         6.4973964901        6.4968871718        7.3452903516
       2
 i =        3, E =       -68.1199195956
 Mo         6.5025850951        6.5030926814        5.6528747374
  H         6.4974122415        6.4969045556        7.3471353111
       2
 i =        4, E =       -68.1199195960
 Mo         6.5025838308        6.5030908523        5.6528933808
  H         6.4974121991        6.4969048270        7.3471196072
       2
 i =        5, E =       -68.1199195960
 Mo         6.5025838308        6.5030908523        5.6528933808
  H         6.4974121991        6.4969048270        7.3471196072
