       4
 i =        1, E =       -11.7384519094
  N         6.2652749841        6.6939556204        6.5000000024
  H         7.2100795718        6.2932497285        6.4999999958
  H         5.7928041307        6.2932994034        7.3182262288
  H         5.7928041366        6.2932994001        5.6817737730
       4
 i =        2, E =       -11.7384882001
  N         6.2652129550        6.6890856111        6.4999999978
  H         7.2083765233        6.2947104945        6.5000000032
  H         5.7936574309        6.2947555682        7.3168291295
  H         5.7936574267        6.2947555665        5.6831708695
       4
 i =        3, E =       -11.7384883216
  N         6.2651806503        6.6884923865        6.5000000001
  H         7.2084799730        6.2948079757        6.4999999992
  H         5.7935597853        6.2948137056        7.3169229326
  H         5.7935597868        6.2948137028        5.6830770681
       4
 i =        4, E =       -11.7384883216
  N         6.2651806503        6.6884923865        6.5000000001
  H         7.2084799730        6.2948079757        6.4999999992
  H         5.7935597853        6.2948137056        7.3169229326
  H         5.7935597868        6.2948137028        5.6830770681
