       2
 i =        1, E =       -29.7193726324
 Sb         6.4999999893        6.5000000120        5.5102907229
  F         6.5000000106        6.4999999881        7.4826643096
       2
 i =        2, E =       -29.7185296887
 Sb         6.5000001626        6.4999998174        5.3069015874
  F         6.4999988237        6.5000013189        7.2326643096
       2
 i =        3, E =       -29.7190841768
 Sb         6.5000001348        6.4999998482        5.2532300601
  F         6.4999998298        6.5000001910        7.1995975816
       2
 i =        4, E =       -29.7173892326
 Sb         6.4999998115        6.5000002101        5.3939177066
  F         6.5000029100        6.4999967374        7.4495975816
       2
 i =        5, E =       -29.7193119785
 Sb         6.5000000997        6.4999998875        5.3520419300
  F         6.4999997356        6.5000002963        7.3453290219
       2
 i =        6, E =       -29.7189074290
 Sb         6.5000001712        6.4999998075        5.2517951312
  F         6.5000005984        6.4999993293        7.1911068067
       2
 i =        7, E =       -29.7194145794
 Sb         6.5000001183        6.4999998666        5.3012392430
  F         6.4999997305        6.5000003022        7.2731243059
       2
 i =        8, E =       -29.7188726822
 Sb         6.5000000611        6.4999999308        5.4319228372
  F         6.5000021258        6.4999976166        7.4459779237
       2
 i =        9, E =       -29.7191624106
 Sb         6.5000001219        6.4999998627        5.4215489851
  F         6.4999998830        6.5000001311        7.4213169139
       2
 i =       10, E =       -29.6891807106
 Sb         6.5000012715        6.4999985749        5.6715489851
  F         6.4999497682        6.5000563177        7.4056867686
       2
 i =       11, E =       -29.7166682597
 Sb         6.5000015291        6.4999982860        5.4215489851
  F         6.4999802631        6.5000221281        7.3135063854
       2
 i =       12, E =       -29.7189537487
 Sb         6.4999968748        6.5000035039        5.3988243740
  F         6.5000034738        6.4999961053        7.3371038503
       2
 i =       13, E =       -29.7193634133
 Sb         6.4999906805        6.5000104474        5.5637614687
  F         6.4999980254        6.5000022138        7.5432175463
       2
 i =       14, E =       -29.7193642643
 Sb         6.4999915892        6.5000094292        5.4679366584
  F         6.4999954998        6.5000050455        7.4401809323
       2
 i =       15, E =       -29.7193628562
 Sb         6.4999913321        6.5000097172        5.5118624475
  F         6.5000022124        6.4999975196        7.4864340612
       2
 i =       16, E =       -29.7194343255
 Sb         6.4999913474        6.5000097002        5.4909211479
  F         6.5000003183        6.4999996431        7.4650343948
       2
 i =       17, E =       -29.7193658679
 Sb         6.4999912870        6.5000097680        5.4661604519
  F         6.5000004876        6.4999994533        7.4402457400
       2
 i =       18, E =       -29.7194277933
 Sb         6.4999913060        6.5000097466        5.4829771524
  F         6.4999996202        6.5000004259        7.4572052221
       2
 i =       19, E =       -29.7194320132
 Sb         6.4999916426        6.5000093680        5.7328546512
  F         6.5000098320        6.4999889768        7.7072052221
       2
 i =       20, E =       -29.7193784208
 Sb         6.4999914971        6.5000095316        5.6274855996
  F         6.4999941434        6.5000065663        7.6017492005
       2
 i =       21, E =       -29.7194133539
 Sb         6.4999914415        6.5000095952        5.3798992206
  F         6.5000273784        6.4999693044        7.3517492005
       2
 i =       22, E =       -29.7194332673
 Sb         6.4999903646        6.5000108038        5.1298992206
  F         6.4998903490        6.5001229366        7.1046076379
       2
 i =       23, E =       -29.7194203367
 Sb         6.4999906260        6.5000105117        4.9431779044
  F         6.5003480332        6.4996097999        6.9142242414
       2
 i =       24, E =       -29.7194338050
 Sb         6.4999897826        6.5000114566        5.0638353429
  F         6.4999424926        6.5000644641        7.0390372707
       2
 i =       25, E =       -29.7193647170
 Sb         6.4999914132        6.5000096279        5.1713557419
  F         6.5004702487        6.4994728203        7.1412230323
       2
 i =       26, E =       -29.7191411386
 Sb         6.4999810504        6.5000212444        5.3886468183
  F         6.4982950442        6.5019111283        7.3912230323
       2
 i =       27, E =       -29.7189302916
 Sb         6.4999624629        6.5000420788        5.6277071222
  F         6.4977733069        6.5024971469        7.6412230323
       2
 i =       28, E =       -29.7192811316
 Sb         6.4999238468        6.5000854042        5.6953064901
  F         6.4997235311        6.5003141554        7.6874719219
       2
 i =       29, E =       -29.7190839471
 Sb         6.4998291730        6.5001916508        5.9453064901
  F         6.5038845332        6.4956548985        7.8892604388
       2
 i =       30, E =       -29.7193543431
 Sb         6.4997932687        6.5002317235        5.8187663357
  F         6.4999688987        6.5000134520        7.7896675974
       2
 i =       31, E =       -29.7193555431
 Sb         6.4998537050        6.5001641250        5.7614435303
  F         6.4995239978        6.5005618892        7.7411839550
       2
 i =       32, E =       -29.7194192005
 Sb         6.4998141187        6.5002085089        5.7977023527
  F         6.5001354449        6.4998498570        7.7719745944
       2
 i =       33, E =       -29.7194196502
 Sb         6.4998375262        6.5001823426        5.7798832916
  F         6.4995944257        6.5004419999        7.7558001059
       2
 i =       34, E =       -29.7194356909
 Sb         6.4998267719        6.5001943432        5.7890613757
  F         6.4999635350        6.5000444550        7.7638341100
       2
 i =       35, E =       -29.7194357564
 Sb         6.4998275895        6.5001934287        5.7891429625
  F         6.4999562726        6.5000439575        7.7637083698
       2
 i =       36, E =       -29.7194357564
 Sb         6.4998275895        6.5001934287        5.7891429625
  F         6.4999562726        6.5000439575        7.7637083698
