       2
 i =        1, E =       -65.8241636636
 Tl         6.4999999514        6.4999999864        5.4947892087
  O         6.5000000478        6.5000000144        7.5055805950
       2
 i =        2, E =       -65.8245865521
 Tl         6.4999999400        6.4999999899        5.4813449488
  O         6.5000000266        6.5000000014        7.5221841432
       2
 i =        3, E =       -65.8246183121
 Tl         6.4999999377        6.4999999903        5.4765300133
  O         6.5000000013        6.4999999988        7.5277639766
       2
 i =        4, E =       -65.8246188691
 Tl         6.4999999393        6.4999999892        5.4753572843
  O         6.4999999978        6.5000000007        7.5274327659
       2
 i =        5, E =       -65.8246188691
 Tl         6.4999999393        6.4999999892        5.4753572843
  O         6.4999999978        6.5000000007        7.5274327659
