       3
 i =        1, E =       -90.5939536274
 Zn         7.4999999931        7.5000000063        7.5000000105
 Cl         7.5000000055        7.5000000015        9.5840634132
 Cl         7.5000000014        7.4999999922        5.4159365764
       3
 i =        2, E =       -90.5939731532
 Zn         7.4999999938        7.5000000056        7.5000000002
 Cl         7.5000000045        7.5000000024        9.5780123550
 Cl         7.5000000003        7.4999999932        5.4219876456
       3
 i =        3, E =       -90.5939732200
 Zn         7.4999999941        7.5000000053        7.5000000004
 Cl         7.5000000039        7.5000000029        9.5783490199
 Cl         7.4999999997        7.4999999937        5.4216509805
       3
 i =        4, E =       -90.5939732200
 Zn         7.4999999941        7.5000000053        7.5000000004
 Cl         7.5000000039        7.5000000029        9.5783490199
 Cl         7.4999999997        7.4999999937        5.4216509805
