       9
 i =        1, E =       -97.7485322850
 Be         7.5000001063        7.5000004352        7.2552016251
  F         7.4999995804        6.1365301804        6.6895203362
  F         7.4999909676        8.8634706931        6.6895199862
  O         8.9365587939        7.4999993444        8.3275095235
  O         6.0634419539        7.5000000754        8.3275114320
  H         9.4432730174        8.2894605695        8.0613551825
  H         5.5567276985        6.7105378354        8.0613546805
  H         9.4432732729        6.7105388482        8.0613535572
  H         5.5567276551        8.2894598469        8.0613583731
       9
 i =        2, E =       -97.7490039191
 Be         7.4999992171        7.5000009492        7.2495764558
  F         7.4999988080        6.1347343009        6.6767096225
  F         7.4999701126        8.8652674136        6.6767087178
  O         8.9351763800        7.4999996659        8.3312152794
  O         6.0648236705        7.4999989302        8.3312175811
  H         9.4457625041        8.2841420731        8.0615884732
  H         5.5542383851        6.7158566153        8.0615877730
  H         9.4457622397        6.7158575660        8.0615866367
  H         5.5542383945        8.2841416236        8.0615911129
       9
 i =        3, E =       -97.7454219742
 Be         7.4999737480        7.5000059385        7.1696040184
  F         7.4999870883        6.1233140723        6.5232134326
  F         7.4995198156        8.8767021690        6.5232213328
  O         8.9283475042        7.5000083753        8.3316460614
  O         6.0716332653        7.4999850633        8.3316731819
  H         9.4639282041        8.2600483713        8.0685287915
  H         5.5360756738        6.7399519759        8.0685229490
  H         9.4639148411        6.7399583574        8.0685222484
  H         5.5360834615        8.2600446067        8.0685210673
       9
 i =        4, E =       -97.7486351381
 Be         7.4999674378        7.5000000858        7.2123935530
  F         7.4999908830        6.1251096752        6.6287481284
  F         7.4994130874        8.8748910609        6.6287495224
  O         8.9317467762        7.5000087158        8.3263056410
  O         6.0682290388        7.4999886986        8.3263377377
  H         9.4514180760        8.2793464185        8.0655764324
  H         5.5485830295        6.7206507005        8.0655695536
  H         9.4514041671        6.7206606025        8.0655693587
  H         5.5485955974        8.2793412710        8.0655680018
       9
 i =        5, E =       -97.7487472026
 Be         7.4998763740        7.4999961833        7.2000507500
  F         7.4999918541        6.1203381872        6.6212045536
  F         7.4976505075        8.8796562957        6.6212119319
  O         8.9295248257        7.5000377740        8.3237376534
  O         6.0703808592        7.4999592298        8.3238723240
  H         9.4512059181        8.2802741195        8.0676521641
  H         5.5487958893        6.7197193322        8.0676306941
  H         9.4511514876        6.7197580013        8.0676302941
  H         5.5488499935        8.2802465511        8.0676143464
       9
 i =        6, E =       -97.7394612986
 Be         7.4973479432        7.4998455346        6.9500507500
  F         7.5002049743        6.0394189723        6.4399062286
  F         7.4519071277        8.9603522270        6.4401868445
  O         8.8821587095        7.5008304498        8.2746329593
  O         6.1157933974        7.4991532692        8.2776193328
  H         9.4467854182        8.2967352626        8.1110179869
  H         5.5532389952        6.7031482577        8.1106028106
  H         9.4456212832        6.7039880904        8.1105903765
  H         5.5544296036        8.2961034620        8.1101789495
       9
 i =        7, E =       -97.7483628397
 Be         7.4985394107        7.5000882507        7.1578237256
  F         7.5002980661        6.1098655508        6.5902879343
  F         7.4957630483        8.8905074526        6.5907243161
  O         8.9212784704        7.5003632708        8.3119116930
  O         6.0777933197        7.4996191033        8.3132846825
  H         9.4493789504        8.2838454996        8.0746970886
  H         5.5505454049        6.7160996769        8.0745550955
  H         9.4488460060        6.7165215310        8.0744655575
  H         5.5511023711        8.2835144992        8.0743196731
       9
 i =        8, E =       -97.7459530024
 Be         7.5042408617        7.4993201233        7.4078237256
  F         7.4996172561        6.1887049410        6.7906946799
  F         7.4904706551        8.8089503424        6.7887234615
  O         8.9590460940        7.4992415826        8.3729050465
  O         6.0433005461        7.5007948608        8.3695941190
  H         9.4486446729        8.2723548679        8.0399690752
  H         5.5512266978        6.7279094855        8.0405292073
  H         9.4498540095        6.7268740497        8.0405625832
  H         5.5499433571        8.2729119968        8.0411801338
       9
 i =        9, E =       -97.7486516224
 Be         7.4979322161        7.4989393863        7.2832432545
  F         7.5009277762        6.1469416497        6.6901586571
  F         7.4795926576        8.8515665100        6.6922929558
  O         8.9416305407        7.5004221668        8.3451671710
  O         6.0561900251        7.4995419856        8.3475421709
  H         9.4449541939        8.2817827581        8.0615707257
  H         5.5551330585        6.7177489292        8.0610811823
  H         9.4443610295        6.7185406821        8.0613894921
  H         5.5557759162        8.2819152447        8.0608685329
       9
 i =       10, E =       -97.7487382856
 Be         7.4942364898        7.4983121920        7.1649490204
  F         7.5070842747        6.1146533894        6.5959597181
  F         7.4465839225        8.8883273582        6.6118667565
  O         8.9223168208        7.5020636881        8.3008457586
  O         6.0744662107        7.4968729388        8.3087151246
  H         9.4526287141        8.2887642810        8.0767125148
  H         5.5461136896        6.7120201264        8.0761429707
  H         9.4497700282        6.7133539205        8.0756844860
  H         5.5506844347        8.2850350162        8.0747665568
       9
 i =       11, E =       -97.7489507510
 Be         7.4907084823        7.5008011232        7.2021228550
  F         7.5152509840        6.1238912480        6.6386989202
  F         7.4609420069        8.8728226893        6.6283933755
  O         8.9245675016        7.5028044482        8.3080191663
  O         6.0687747057        7.4950975415        8.3233988347
  H         9.4524223414        8.2859757641        8.0719186844
  H         5.5461508542        6.7138178240        8.0717793307
  H         9.4487506245        6.7170110858        8.0704935009
  H         5.5533066788        8.2813884243        8.0698676915
       9
 i =       12, E =       -97.7485538177
 Be         7.4906544282        7.5035957395        7.2257196170
  F         7.5664022328        6.1245083256        6.6841990090
  F         7.5035180988        8.8551815085        6.6189816504
  O         8.9221054466        7.5086561425        8.3176699755
  O         6.0681755248        7.4908556436        8.3359010416
  H         9.4540493566        8.2839039044        8.0690423421
  H         5.5434258897        6.7147667442        8.0712900278
  H         9.4424213712        6.7250459272        8.0657500864
  H         5.5553717991        8.2750474251        8.0687730672
       9
 i =       13, E =       -97.7488274780
 Be         7.5031519106        7.4945214525        7.1938722523
  F         7.5868667034        6.0996514385        6.6810089375
  F         7.5272147407        8.8423654951        6.5737676072
  O         8.9164637535        7.5162651627        8.3197235281
  O         6.0791782859        7.4876411421        8.3168605856
  H         9.4564207532        8.2866878610        8.0727558673
  H         5.5396127132        6.7116025104        8.0775978187
  H         9.4345837705        6.7301748761        8.0680214834
  H         5.5541299557        8.2735176230        8.0748649310
       9
 i =       14, E =       -97.7487851198
 Be         7.5333152925        7.4762115067        7.2112199773
  F         7.5954594386        6.0924723731        6.6803863782
  F         7.5480292937        8.8177749683        6.5866513117
  O         8.9310368083        7.5260819882        8.3525940332
  O         6.0844702967        7.4885645592        8.3046332571
  H         9.4533374902        8.2970974586        8.0720521036
  H         5.5450783207        6.7069050106        8.0799746818
  H         9.4190387977        6.7300859474        8.0684461171
  H         5.5539946207        8.2763981256        8.0788634845
       9
 i =       15, E =       -97.7484489897
 Be         7.5558969311        7.4785230430        7.1910175134
  F         7.5659858241        6.1090927700        6.6284199762
  F         7.5225104546        8.8396031262        6.6186109070
  O         8.9413434666        7.5275221516        8.3610782085
  O         6.0965243588        7.4915665977        8.2902864273
  H         9.4490471916        8.3072486423        8.0746502560
  H         5.5567161016        6.7060264585        8.0831103354
  H         9.4153563849        6.7228212801        8.0764416977
  H         5.5580793405        8.2783346327        8.0832822555
       9
 i =       16, E =       -97.7490896843
 Be         7.5343814767        7.4874140641        7.1702278918
  F         7.5898695073        6.1069291007        6.6299462111
  F         7.5438584852        8.8458775182        6.5889895253
  O         8.9245062756        7.5222930743        8.3371911334
  O         6.0987545910        7.4856700886        8.2939738572
  H         9.4551504161        8.2980686684        8.0779176936
  H         5.5545960450        6.7050703390        8.0837305640
  H         9.4320208818        6.7292437169        8.0831035658
  H         5.5644668802        8.2735773880        8.0821827789
       9
 i =       17, E =       -97.7493635271
 Be         7.5245572689        7.4894708091        7.1865959389
  F         7.5933308063        6.1124189404        6.6324736282
  F         7.5235304364        8.8481323367        6.6062235773
  O         8.9258350051        7.5161942486        8.3283701646
  O         6.0941697977        7.4830002585        8.2926818957
  H         9.4581646513        8.2920750028        8.0766185351
  H         5.5552860305        6.7030009098        8.0785802346
  H         9.4471734633        6.7305654255        8.0857378050
  H         5.5682635334        8.2729994958        8.0768958533
       9
 i =       18, E =       -97.7495431364
 Be         7.5418990788        7.4846329526        7.1878420054
  F         7.5895796398        6.1122366321        6.6265453926
  F         7.5307938505        8.8432748737        6.6128729022
  O         8.9349011288        7.5190382609        8.3388737328
  O         6.1062373520        7.4798313102        8.2787843491
  H         9.4572213607        8.2971126060        8.0771187133
  H         5.5575845813        6.7021425891        8.0776970271
  H         9.4463425850        6.7292228021        8.0899365668
  H         5.5715728786        8.2682960125        8.0764615443
       9
 i =       19, E =       -97.7496733548
 Be         7.5480278377        7.4787861895        7.1799771869
  F         7.5980079823        6.1074670497        6.6159650633
  F         7.5339296556        8.8387322784        6.6070720691
  O         8.9403766083        7.5211244656        8.3332500650
  O         6.1151153192        7.4740621753        8.2682779540
  H         9.4604165640        8.3026614409        8.0786196283
  H         5.5615215083        6.6975923956        8.0755574470
  H         9.4526273284        6.7271399962        8.0968611915
  H         5.5789469018        8.2639836012        8.0748098990
       9
 i =       20, E =       -97.7496772019
 Be         7.5449473317        7.4715373847        7.1745105172
  F         7.5876655265        6.1052253703        6.5974480789
  F         7.5348970937        8.8361713054        6.6043920342
  O         8.9443671454        7.5202353446        8.3233325548
  O         6.1159096401        7.4665978644        8.2667289945
  H         9.4669771840        8.3046391013        8.0792581938
  H         5.5681403941        6.6881718233        8.0697846356
  H         9.4683334146        6.7269826935        8.1052852788
  H         5.5907928664        8.2620717082        8.0693662970
       9
 i =       21, E =       -97.7498285297
 Be         7.5436331524        7.4756910206        7.1851800256
  F         7.5883036022        6.1083752604        6.6143593978
  F         7.5304250971        8.8347699524        6.6012472041
  O         8.9461121716        7.5176241413        8.3253919999
  O         6.1104574852        7.4650600140        8.2741158072
  H         9.4690931119        8.2998416197        8.0762030922
  H         5.5683929432        6.6865326104        8.0648684668
  H         9.4758409842        6.7304926307        8.1038024254
  H         5.5932937906        8.2613552701        8.0639501757
       9
 i =       22, E =       -97.7498881477
 Be         7.5499016723        7.4717662901        7.1869754675
  F         7.5978451367        6.1098910524        6.6087585117
  F         7.5320055728        8.8319193272        6.6101545183
  O         8.9490862713        7.5173861345        8.3315898710
  O         6.1150620033        7.4646442106        8.2719420093
  H         9.4701867928        8.2983465622        8.0746738433
  H         5.5709995927        6.6874337516        8.0599289389
  H         9.4815822285        6.7342227790        8.1065459752
  H         5.5948975413        8.2578849093        8.0587600511
       9
 i =       23, E =       -97.7499324809
 Be         7.5492472215        7.4705015973        7.1862268806
  F         7.5938492791        6.1094551579        6.6077349643
  F         7.5313453770        8.8304747208        6.6062237050
  O         8.9509789276        7.5174034221        8.3292776379
  O         6.1160715582        7.4638700059        8.2742040253
  H         9.4703915136        8.3003714901        8.0743312275
  H         5.5725831588        6.6875851181        8.0557368033
  H         9.4859361809        6.7336591495        8.1096815944
  H         5.5965062953        8.2557167238        8.0541360719
       9
 i =       24, E =       -97.7499521658
 Be         7.5485813823        7.4698704769        7.1849979086
  F         7.5919569747        6.1105306334        6.6066871245
  F         7.5314873281        8.8296519764        6.6031839762
  O         8.9501948210        7.5180440719        8.3300675196
  O         6.1149750028        7.4636105230        8.2739419812
  H         9.4696205623        8.3005707453        8.0737064099
  H         5.5752587251        6.6859995212        8.0493164109
  H         9.4905019381        6.7367141479        8.1139285643
  H         5.5982562556        8.2558173593        8.0468046386
       9
 i =       25, E =       -97.7499653863
 Be         7.5483579392        7.4688297806        7.1850864669
  F         7.5918486981        6.1111994504        6.6063816578
  F         7.5311081430        8.8284991421        6.6036380922
  O         8.9501851744        7.5192313262        8.3303881529
  O         6.1143853622        7.4642910536        8.2742182915
  H         9.4673076321        8.3027309805        8.0731650310
  H         5.5768943597        6.6870829061        8.0430004602
  H         9.4923745093        6.7385730716        8.1176345197
  H         5.5982704848        8.2547680990        8.0393666753
       9
 i =       26, E =       -97.7499768407
 Be         7.5490707124        7.4688492634        7.1849884461
  F         7.5924481777        6.1123345487        6.6061836425
  F         7.5311262264        8.8282405700        6.6041465014
  O         8.9490705031        7.5217042336        8.3312639053
  O         6.1130118590        7.4652946827        8.2720002276
  H         9.4630492482        8.3063624024        8.0726734704
  H         5.5782081073        6.6878742795        8.0358722115
  H         9.4926626356        6.7417515117        8.1222421045
  H         5.5980325431        8.2547320052        8.0303382465
       9
 i =       27, E =       -97.7499815074
 Be         7.5492329601        7.4690830022        7.1847264987
  F         7.5929301908        6.1120575453        6.6066729107
  F         7.5311140775        8.8281897169        6.6043307917
  O         8.9471929196        7.5237992995        8.3309076683
  O         6.1120926253        7.4661012663        8.2712964598
  H         9.4599534093        8.3091343963        8.0723504891
  H         5.5785838868        6.6886326832        8.0323248247
  H         9.4922155464        6.7444730386        8.1245881799
  H         5.5980599479        8.2548878877        8.0250534378
       9
 i =       28, E =       -97.7499850553
 Be         7.5508826631        7.4693750573        7.1849630993
  F         7.5928589655        6.1118797511        6.6062527189
  F         7.5311325026        8.8283672475        6.6043384106
  O         8.9467146883        7.5256523312        8.3307307538
  O         6.1118560697        7.4661109848        8.2700419017
  H         9.4570395654        8.3126058266        8.0719238612
  H         5.5792087461        6.6884971457        8.0292039226
  H         9.4935306706        6.7471518369        8.1270882657
  H         5.5995245462        8.2548731263        8.0197174610
       9
 i =       29, E =       -97.7499877458
 Be         7.5518912275        7.4696735186        7.1851451406
  F         7.5929945477        6.1115541057        6.6063796512
  F         7.5312316718        8.8288046652        6.6042273080
  O         8.9463267697        7.5266974523        8.3304552402
  O         6.1119056084        7.4660709413        8.2703571727
  H         9.4549390362        8.3150371094        8.0716285783
  H         5.5798858377        6.6883806097        8.0275923591
  H         9.4957641733        6.7496320882        8.1282968579
  H         5.6012725886        8.2547375268        8.0159268199
       9
 i =       30, E =       -97.7499897249
 Be         7.5531962822        7.4692324905        7.1853666073
  F         7.5927278545        6.1108361752        6.6065115804
  F         7.5310734684        8.8288552194        6.6043442114
  O         8.9468579437        7.5272342902        8.3305574300
  O         6.1123249909        7.4659813396        8.2706025921
  H         9.4534153621        8.3170888061        8.0716537532
  H         5.5810465674        6.6879709240        8.0268010472
  H         9.4992663188        6.7520689408        8.1288015674
  H         5.6033584449        8.2546387093        8.0128617912
       9
 i =       31, E =       -97.7499908166
 Be         7.5537879424        7.4690524716        7.1852297786
  F         7.5928585176        6.1108490703        6.6065194732
  F         7.5314275056        8.8293086137        6.6044171848
  O         8.9475292767        7.5273492172        8.3306252245
  O         6.1127063959        7.4661261125        8.2709301465
  H         9.4524747228        8.3184841650        8.0722202077
  H         5.5818693782        6.6878912040        8.0268539175
  H         9.5018808429        6.7535018557        8.1286043486
  H         5.6043680846        8.2545473511        8.0112445282
       9
 i =       32, E =       -97.7499917566
 Be         7.5540294379        7.4685054841        7.1847615439
  F         7.5928805262        6.1105928026        6.6066301230
  F         7.5314081338        8.8293758434        6.6045269958
  O         8.9480210998        7.5274273730        8.3307768451
  O         6.1129506971        7.4664695856        8.2708385540
  H         9.4515800813        8.3197294842        8.0733577556
  H         5.5825265071        6.6878760621        8.0272724167
  H         9.5039486633        6.7548821886        8.1279643414
  H         5.6047054564        8.2545873187        8.0100290240
       9
 i =       33, E =       -97.7499927774
 Be         7.5539609614        7.4680202014        7.1838837664
  F         7.5929372164        6.1104465447        6.6066285062
  F         7.5315128970        8.8295166800        6.6046286762
  O         8.9482718447        7.5274677876        8.3308143140
  O         6.1130710944        7.4669236488        8.2705447909
  H         9.4501936665        8.3214660905        8.0755723728
  H         5.5828651075        6.6878783866        8.0282892085
  H         9.5059852946        6.7565768188        8.1266785687
  H         5.6045040458        8.2545793431        8.0087558447
       9
 i =       34, E =       -97.7499938660
 Be         7.5538203390        7.4676988343        7.1829847312
  F         7.5930099690        6.1102992259        6.6065743069
  F         7.5315076707        8.8295778100        6.6046824452
  O         8.9483030342        7.5274490310        8.3308099848
  O         6.1130282590        7.4672745756        8.2702097661
  H         9.4483592042        8.3236256618        8.0787454478
  H         5.5827902816        6.6876920258        8.0299141522
  H         9.5080025207        6.7585784543        8.1247338430
  H         5.6040002195        8.2544058473        8.0074763849
       9
 i =       35, E =       -97.7499955303
 Be         7.5537124203        7.4674715143        7.1818613495
  F         7.5930624639        6.1101622213        6.6064337726
  F         7.5314726008        8.8296056540        6.6047479836
  O         8.9481685775        7.5273623599        8.3307889161
  O         6.1128385282        7.4676538598        8.2698376153
  H         9.4449919371        8.3275316510        8.0849731430
  H         5.5823541256        6.6871096582        8.0331997761
  H         9.5114917546        6.7622783598        8.1207751604
  H         5.6029740263        8.2537728642        8.0053662816
       9
 i =       36, E =       -97.7499970825
 Be         7.5538688901        7.4676024652        7.1816833411
  F         7.5930991063        6.1102270421        6.6063091062
  F         7.5313571604        8.8294746918        6.6047338234
  O         8.9479907444        7.5272858531        8.3307982687
  O         6.1125810877        7.4677189574        8.2698049838
  H         9.4423435380        8.3306151881        8.0903765160
  H         5.5820038237        6.6863517728        8.0359041766
  H         9.5142476399        6.7653723916        8.1172934988
  H         5.6020557374        8.2528928309        8.0037237750
       9
 i =       37, E =       -97.7499985270
 Be         7.5542505038        7.4680716523        7.1824636688
  F         7.5930804876        6.1105331374        6.6062219433
  F         7.5311969371        8.8292411407        6.6045837699
  O         8.9477060283        7.5273080575        8.3308730230
  O         6.1123359194        7.4675932198        8.2701638705
  H         9.4404710725        8.3327349784        8.0945827948
  H         5.5821970480        6.6854870090        8.0375589810
  H         9.5161433751        6.7678119005        8.1146701396
  H         5.6012492784        8.2517583976        8.0024054042
       9
 i =       38, E =       -97.7499989977
 Be         7.5544634302        7.4682957162        7.1831493349
  F         7.5930613485        6.1107155429        6.6062405312
  F         7.5311591013        8.8291678346        6.6044655289
  O         8.9476056371        7.5273532886        8.3309710104
  O         6.1124057203        7.4675558755        8.2704961638
  H         9.4402894283        8.3328880910        8.0951366060
  H         5.5830417385        6.6851128787        8.0373984846
  H         9.5162943704        6.7681693562        8.1143961177
  H         5.6010660593        8.2512632835        8.0021861054
       9
 i =       39, E =       -97.7499989977
 Be         7.5544634302        7.4682957162        7.1831493349
  F         7.5930613485        6.1107155429        6.6062405312
  F         7.5311591013        8.8291678346        6.6044655289
  O         8.9476056371        7.5273532886        8.3309710104
  O         6.1124057203        7.4675558755        8.2704961638
  H         9.4402894283        8.3328880910        8.0951366060
  H         5.5830417385        6.6851128787        8.0373984846
  H         9.5162943704        6.7681693562        8.1143961177
  H         5.6010660593        8.2512632835        8.0021861054
