       2
 i =        1, E =       -48.2803553464
  F         5.9999999426        6.0000001091        5.2890601561
  F         6.0000002790        6.0000000573        6.7109397346
       2
 i =        2, E =       -48.2803727429
  F         6.0000007163        5.9999990840        5.2865918615
  F         5.9999990894        5.9999997769        6.7134078689
       2
 i =        3, E =       -48.2803727430
  F         5.9999973316        6.0000029438        5.2865979879
  F         6.0000029071        6.0000008628        6.7134021003
       2
 i =        4, E =       -48.2803727430
  F         5.9999973316        6.0000029438        5.2865979879
  F         6.0000029071        6.0000008628        6.7134021003
