      11
 i =        1, E =      -232.0552710151
 Fe         9.2393818980        8.5000000022        8.4999999932
  C        10.1427467893        6.9378195145        8.4999999805
  C        10.1427467420       10.0621805091        8.5000000072
  C         7.4347065802        8.4999999597        8.5000000293
  C         9.2406780117        8.5000000392       10.3054551240
  C         9.2406780313        8.4999999899        6.6945448572
  O        10.7238258805        5.9388192710        8.5000000434
  O        10.7238259245       11.0611807031        8.4999999781
  O         6.2788028167        8.5000000231        8.4999999941
  O         9.2421766025        8.4999999854       11.4573634428
  O         9.2421766094        8.5000000044        5.5426365518
      11
 i =        2, E =      -232.0553202847
 Fe         9.2376476494        8.5000000076        8.5000000019
  C        10.1436914120        6.9383263049        8.5000000237
  C        10.1436914074       10.0616737024        8.4999999729
  C         7.4316451601        8.4999999893        8.4999999858
  C         9.2405795281        8.4999999807       10.3074421516
  C         9.2405795097        8.5000000120        6.6925578439
  O        10.7290728856        5.9429070239        8.5000000127
  O        10.7290729293       11.0570929548        8.4999999964
  O         6.2765144522        8.4999999911        8.5000000126
  O         9.2451475801        8.5000000193       11.4584372771
  O         9.2451476047        8.4999999947        5.5415627186
      11
 i =        3, E =      -232.0550145202
 Fe         9.2238072588        8.4999999962        8.5000000137
  C        10.1516298086        6.9458088636        8.5000001156
  C        10.1516299902       10.0541910278        8.4999999436
  C         7.4094100397        8.5000001308        8.4999999096
  C         9.2408875853        8.4999999150       10.3182683908
  C         9.2408875438        8.5000000420        6.6817316348
  O        10.7712734054        5.9752474256        8.4999999139
  O        10.7712734312       11.0247525424        8.5000000312
  O         6.2573522898        8.4999998679        8.5000000339
  O         9.2712171724        8.5000000596       11.4651090764
  O         9.2712172574        8.4999999906        5.5348909015
      11
 i =        4, E =      -232.0554122250
 Fe         9.2331866341        8.5000000082        8.5000000052
  C        10.1475270208        6.9415237013        8.5000000400
  C        10.1475270804       10.0584762735        8.4999999659
  C         7.4242643768        8.5000000203        8.4999999643
  C         9.2407682840        8.4999999580       10.3104682602
  C         9.2407682729        8.5000000116        6.6895317450
  O        10.7438359097        5.9532972457        8.4999999845
  O        10.7438359666       11.0467027289        8.5000000083
  O         6.2696280071        8.4999999806        8.5000000134
  O         9.2536795743        8.5000000306       11.4607486932
  O         9.2536795989        8.4999999959        5.5392513025
      11
 i =        5, E =      -232.0554356019
 Fe         9.2321776525        8.5000000019        8.5000000048
  C        10.1479707786        6.9435273612        8.5000000334
  C        10.1479708291       10.0564726107        8.4999999740
  C         7.4232329938        8.5000000248        8.4999999659
  C         9.2408453083        8.4999999714       10.3099110251
  C         9.2408452927        8.5000000172        6.6900889809
  O        10.7430617989        5.9545811575        8.4999999887
  O        10.7430618270       11.0454188259        8.5000000057
  O         6.2682533843        8.4999999851        8.5000000090
  O         9.2572748173        8.5000000205       11.4604932243
  O         9.2572748342        8.4999999915        5.5395067748
      11
 i =        6, E =      -232.0554450905
 Fe         9.2291434651        8.4999999994        8.5000000005
  C        10.1467653513        6.9477809919        8.5000000067
  C        10.1467653814       10.0522189848        8.5000000006
  C         7.4192298251        8.5000000126        8.4999999897
  C         9.2427274644        8.4999999786       10.3082287500
  C         9.2427274629        8.4999999869        6.6917712536
  O        10.7462993725        5.9609683097        8.5000000023
  O        10.7462993606       11.0390316886        8.4999999988
  O         6.2634548963        8.5000000071        8.4999999828
  O         9.2705738701        8.5000000059       11.4592477677
  O         9.2705738477        8.5000000083        5.5407522351
      11
 i =        7, E =      -232.0554605353
 Fe         9.2304242788        8.4999999905        8.4999999991
  C        10.1457813816        6.9461209370        8.4999999991
  C        10.1457813816       10.0538790455        8.5000000065
  C         7.4213624454        8.5000000106        8.4999999999
  C         9.2439043303        8.5000000097       10.3077176701
  C         9.2439043318        8.4999999981        6.6922823297
  O        10.7422102808        5.9571129273        8.5000000077
  O        10.7422102810       11.0428870556        8.4999999951
  O         6.2656770466        8.5000000018        8.4999999890
  O         9.2643357091        8.4999999904       11.4588565299
  O         9.2643357020        8.5000000009        5.5411434703
      11
 i =        8, E =      -232.0554617936
 Fe         9.2309177103        8.4999999977        8.5000000016
  C        10.1457211126        6.9456036139        8.5000000055
  C        10.1457211269       10.0543963730        8.4999999953
  C         7.4213820614        8.5000000022        8.4999999910
  C         9.2433990851        8.4999999904       10.3079477095
  C         9.2433990802        8.4999999993        6.6920522937
  O        10.7438611049        5.9576875873        8.4999999994
  O        10.7438611055       11.0423124080        8.5000000031
  O         6.2658330035        8.5000000037        8.4999999996
  O         9.2644304442        8.5000000032       11.4590165607
  O         9.2644304462        8.4999999977        5.5409834416
      11
 i =        9, E =      -232.0554620522
 Fe         9.2306617241        8.4999999964        8.4999999999
  C        10.1457737030        6.9459369949        8.5000000019
  C        10.1457737095       10.0540629952        8.5000000008
  C         7.4210415613        8.5000000022        8.4999999987
  C         9.2439842207        8.4999999973       10.3077814758
  C         9.2439842232        8.4999999972        6.6922185250
  O        10.7438665524        5.9579414676        8.4999999987
  O        10.7438665514       11.0420585277        8.5000000001
  O         6.2655055504        8.5000000023        8.4999999977
  O         9.2650209945        8.4999999993       11.4588737632
  O         9.2650209934        8.4999999996        5.5411262375
      11
 i =       10, E =      -232.0554620522
 Fe         9.2306617241        8.4999999964        8.4999999999
  C        10.1457737030        6.9459369949        8.5000000019
  C        10.1457737095       10.0540629952        8.5000000008
  C         7.4210415613        8.5000000022        8.4999999987
  C         9.2439842207        8.4999999973       10.3077814758
  C         9.2439842232        8.4999999972        6.6922185250
  O        10.7438665524        5.9579414676        8.4999999987
  O        10.7438665514       11.0420585277        8.5000000001
  O         6.2655055504        8.5000000023        8.4999999977
  O         9.2650209945        8.4999999993       11.4588737632
  O         9.2650209934        8.4999999996        5.5411262375
