       7
 i =        1, E =      -252.6043242802
 Ir         7.4690758941        7.4712796789        7.5160652837
  F         7.4903447716        7.4939331963        9.3497434228
  F         7.5271795627        7.5167719975        5.6244905417
  F         8.8496393395        6.1769760857        7.4942072921
  F         8.8348831240        8.8224210937        7.5152931411
  F         6.1719957985        8.8569166572        7.5041947400
  F         6.1568677353        6.1617475451        7.4959551220
       7
 i =        2, E =      -250.1221208671
 Ir         7.4859845353        7.4991677706        7.4846218010
  F         7.4589259342        7.4624356103        9.3512485600
  F         7.5361728608        7.5188954580        5.6163243656
  F         8.8328433434        6.1643953574        7.4976799151
  F         8.8306744234        8.8330724996        7.5330086450
  F         6.1754548727        8.8568921569        7.5231294578
  F         6.1714082980        6.1737895781        7.4904836897
       7
 i =        3, E =      -250.1235689838
 Ir         7.5010270114        7.5198962902        7.4869738720
  F         7.4723401216        7.4709004278        9.3536049328
  F         7.5160209289        7.5460216681        5.6393734996
  F         8.7947952159        6.1869218010        7.4867890525
  F         8.8085117890        8.8144900232        7.5294129832
  F         6.1848762989        8.8251226193        7.5397417292
  F         6.1942850097        6.1973008622        7.4507884941
       7
 i =        4, E =      -250.1245939746
 Ir         7.4991983067        7.5119856657        7.4942146793
  F         7.4739517324        7.4729403802        9.3610173168
  F         7.5331320800        7.5289455039        5.6337824798
  F         8.7909999049        6.1734692031        7.4603838808
  F         8.8129013392        8.8216615599        7.5289055872
  F         6.1773425514        8.8210319182        7.5166851192
  F         6.1792953872        6.1930412794        7.4705496484
       7
 i =        5, E =      -250.1246362244
 Ir         7.4897804548        7.5051622052        7.4942151465
  F         7.4647076953        7.4634805060        9.3605592213
  F         7.5277591658        7.5335135204        5.6277890987
  F         8.7895363648        6.1718513719        7.4821684114
  F         8.8189753640        8.8199490298        7.5354543495
  F         6.1766190581        8.8303390607        7.5279829746
  F         6.1698204228        6.1868701053        7.4716679939
       7
 i =        6, E =      -250.1248588256
 Ir         7.4907006781        7.5080922153        7.4946235417
  F         7.4698274125        7.4694571312        9.3620826212
  F         7.5266041247        7.5328109670        5.6300663069
  F         8.7830679027        6.1728850645        7.4716527042
  F         8.8182125912        8.8182649675        7.5303662676
  F         6.1750184697        8.8245149491        7.5317280310
  F         6.1789918202        6.1839832397        7.4630752778
       7
 i =        7, E =      -250.1248756339
 Ir         7.4887573720        7.5090560143        7.4953850454
  F         7.4707258375        7.4689840305        9.3617885208
  F         7.5283256998        7.5343281114        5.6331487217
  F         8.7716967975        6.1723677389        7.4670819538
  F         8.8136270552        8.8160211113        7.5316308099
  F         6.1774306842        8.8244269640        7.5242232258
  F         6.1789338599        6.1843964424        7.4721105958
       7
 i =        8, E =      -250.1249221646
 Ir         7.4873955703        7.5077864422        7.4965771862
  F         7.4698831913        7.4705904441        9.3623215643
  F         7.5277592911        7.5308607899        5.6327513553
  F         8.7718191812        6.1708345916        7.4712748036
  F         8.8141620772        8.8171712804        7.5304358524
  F         6.1752093229        8.8256220059        7.5276836017
  F         6.1750998216        6.1841464703        7.4676379290
       7
 i =        9, E =      -250.1249207619
 Ir         7.4873273684        7.5077332227        7.4970457384
  F         7.4688578586        7.4675469588        9.3620135554
  F         7.5271563202        7.5347651010        5.6327409553
  F         8.7740551237        6.1719511310        7.4704427993
  F         8.8153279428        8.8177635202        7.5321613624
  F         6.1744522273        8.8258479605        7.5305712313
  F         6.1767095358        6.1839654185        7.4673905665
       7
 i =       10, E =      -250.1249304962
 Ir         7.4872894683        7.5078307991        7.4972000322
  F         7.4699690564        7.4694378799        9.3621532790
  F         7.5267613760        7.5331725708        5.6330194985
  F         8.7728617656        6.1718049973        7.4714822090
  F         8.8151569986        8.8173126472        7.5313251704
  F         6.1751865299        8.8259042138        7.5281869366
  F         6.1766039375        6.1842802115        7.4683146409
       7
 i =       11, E =      -250.1249302739
 Ir         7.4869820751        7.5074301342        7.4975879508
  F         7.4690696228        7.4694484257        9.3618084869
  F         7.5281164491        7.5319889463        5.6336408627
  F         8.7716480671        6.1715300253        7.4706013466
  F         8.8147125561        8.8166185102        7.5311831643
  F         6.1755243280        8.8255221498        7.5288044359
  F         6.1755666282        6.1849685328        7.4680966896
       7
 i =       12, E =      -250.1249326521
 Ir         7.4870969863        7.5073197557        7.4977561007
  F         7.4699455780        7.4694244576        9.3617701590
  F         7.5272379774        7.5327653504        5.6336402682
  F         8.7725115659        6.1716037270        7.4708971063
  F         8.8149830806        8.8167984995        7.5312269283
  F         6.1751707315        8.8255296144        7.5284698979
  F         6.1757830949        6.1847905541        7.4681104860
       7
 i =       13, E =      -250.1249328445
 Ir         7.4870712162        7.5073963342        7.4978496237
  F         7.4696073803        7.4695828857        9.3613808318
  F         7.5271622114        7.5327499979        5.6336960196
  F         8.7727614597        6.1718835065        7.4713315644
  F         8.8152183269        8.8169188814        7.5313238307
  F         6.1752691465        8.8258745726        7.5285152376
  F         6.1767029172        6.1843993678        7.4682746753
       7
 i =       14, E =      -250.1249328443
 Ir         7.4870712162        7.5073963342        7.4978496237
  F         7.4696073803        7.4695828857        9.3613808318
  F         7.5271622114        7.5327499979        5.6336960196
  F         8.7727614597        6.1718835065        7.4713315644
  F         8.8152183269        8.8169188814        7.5313238307
  F         6.1752691465        8.8258745726        7.5285152376
  F         6.1767029172        6.1843993678        7.4682746753
