       3
 i =        1, E =       -66.6378137962
  S         7.9999999764        8.0000000047        8.6393794283
  K         5.5595776742        8.0000000005        7.3320567728
  K        10.4404223480        7.9999999942        7.3320567613
       3
 i =        2, E =       -66.6383448560
  S         8.0000000239        8.0000000043        8.5825062593
  K         5.5887327545        8.0000000019        7.3604953454
  K        10.4112672207        7.9999999884        7.3604953625
       3
 i =        3, E =       -66.6384269157
  S         7.9999999911        8.0000000044        8.5816957561
  K         5.5777416639        8.0000000038        7.3608995261
  K        10.4222583430        7.9999999893        7.3608995211
       3
 i =        4, E =       -66.6386627398
  S         7.9999999646        8.0000000046        8.5535165869
  K         5.5400518178        8.0000000067        7.3749817488
  K        10.4599482074        7.9999999908        7.3749817255
       3
 i =        5, E =       -66.6389995557
  S         7.9999999088        8.0000000050        8.4739368871
  K         5.4694742179        8.0000000125        7.4147648598
  K        10.5305258462        7.9999999923        7.4147647783
       3
 i =        6, E =       -66.6392742118
  S         7.9999999179        8.0000000058        8.3894422322
  K         5.4179835673        8.0000000226        7.4570125220
  K        10.5820164693        7.9999999957        7.4570123962
       3
 i =        7, E =       -66.6396643360
  S         7.9999999616        8.0000000067        8.2702477527
  K         5.3715492627        8.0000000447        7.5166059565
  K        10.6284507097        8.0000000071        7.5166057544
       3
 i =        8, E =       -66.6399614662
  S         7.9999999866        8.0000000081        8.1645975899
  K         5.3522097723        8.0000000667        7.5694317123
  K        10.6477901623        8.0000000175        7.5694314183
       3
 i =        9, E =       -66.6400918920
  S         7.9999999965        8.0000000100        8.0348322296
  K         5.3132736167        8.0000000924        7.6343136693
  K        10.6867262899        8.0000000231        7.6343132728
       3
 i =       10, E =       -66.6401816282
  S         7.9999999739        8.0000000120        7.9485500942
  K         5.3076682478        8.0000001121        7.6774573645
  K        10.6923316712        8.0000000223        7.6774568862
       3
 i =       11, E =       -66.6402070328
  S         7.9999999786        8.0000000141        7.8525269028
  K         5.2927104814        8.0000001309        7.7254707483
  K        10.7072894242        8.0000000235        7.7254701858
       3
 i =       12, E =       -66.6402283440
  S         7.9999999817        8.0000000155        7.8206748800
  K         5.3000405103        8.0000001357        7.7413999357
  K        10.6999593932        8.0000000202        7.7413993466
       3
 i =       13, E =       -66.6402317052
  S         7.9999999549        8.0000000169        7.7790833570
  K         5.2972633333        8.0000001435        7.7621958596
  K        10.7027365903        8.0000000196        7.7621952359
       3
 i =       14, E =       -66.6402321667
  S         7.9999999606        8.0000000174        7.7726404158
  K         5.2982157683        8.0000001462        7.7654164394
  K        10.7017841499        8.0000000191        7.7654158095
       3
 i =       15, E =       -66.6402322190
  S         7.9999999587        8.0000000179        7.7680481272
  K         5.2985069745        8.0000001474        7.7677111847
  K        10.7014929406        8.0000000152        7.7677105519
       3
 i =       16, E =       -66.6402322181
  S         7.9999999575        8.0000000182        7.7679335748
  K         5.2985456673        8.0000001481        7.7677674135
  K        10.7014542474        8.0000000135        7.7677667892
       3
 i =       17, E =       -66.6402322181
  S         7.9999999575        8.0000000182        7.7679335748
  K         5.2985456673        8.0000001481        7.7677674135
  K        10.7014542474        8.0000000135        7.7677667892
