       3
 i =        1, E =      -111.8161186166
  O         7.5000001691        7.4999999905        7.4994475261
 Na         9.4766432225        7.5000010136        7.4998684739
 Na         5.5233552386        7.5000008044        7.4998674014
       3
 i =        2, E =      -111.8161186858
  O         7.4999999684        7.4999999825        7.4993938079
 Na         9.4766351309        7.5000002352        7.5000054340
 Na         5.5233648790        7.5000035818        7.5000007794
       3
 i =        3, E =      -111.8161186858
  O         7.4999999704        7.4999999826        7.4993943412
 Na         9.4766352112        7.5000002430        7.5000040744
 Na         5.5233647833        7.5000035543        7.4999994553
