       3
 i =        1, E =       -88.5766467276
 Nb         6.9999999992        7.0000003592        7.5221884214
  O         8.3778089006        6.9999998244        6.4792263805
  O         5.6221911001        6.9999998160        6.4792263673
       3
 i =        2, E =       -88.5766870457
 Nb         6.9999999789        7.0000003802        7.5226992582
  O         8.3744322003        6.9999997210        6.4725166851
  O         5.6255678233        6.9999997080        6.4725166994
       3
 i =        3, E =       -88.5766879994
 Nb         6.9999999981        7.0000003745        7.5217799375
  O         8.3738356748        6.9999995152        6.4713224113
  O         5.6261643496        6.9999994925        6.4713223976
       3
 i =        4, E =       -88.5766879994
 Nb         6.9999999981        7.0000003745        7.5217799375
  O         8.3738356748        6.9999995152        6.4713224113
  O         5.6261643496        6.9999994925        6.4713223976
