       4
 i =        1, E =       -82.4307283331
  N         6.1871159250        6.8225158494        6.4999999538
  F         7.4427224609        6.2035131205        6.5000000615
  F         5.5536676385        6.2026839556        7.5827965223
  F         5.5536678221        6.2026836322        5.4172034560
       4
 i =        2, E =       -82.4302284986
  N         6.1792468086        6.8392643471        6.4999999914
  F         7.4467869166        6.1957905616        6.4999999875
  F         5.5170212128        6.1995767322        7.5824788548
  F         5.5170216999        6.1995772879        5.4175205721
       4
 i =        3, E =       -82.4309710818
  N         6.1759734226        6.8230438748        6.5000000781
  F         7.4427142105        6.1975840986        6.5000000455
  F         5.5407588824        6.1994028254        7.5941957470
  F         5.5407596086        6.1994026907        5.4058041199
       4
 i =        4, E =       -82.4309467601
  N         6.1810963695        6.8283366766        6.4999997594
  F         7.4418911780        6.2014008459        6.4999999754
  F         5.5450203996        6.1959277037        7.5814990319
  F         5.5450193144        6.1959277065        5.4185011310
       4
 i =        5, E =       -82.4310171455
  N         6.1787638889        6.8243324770        6.4999999151
  F         7.4435860473        6.2004358229        6.4999997027
  F         5.5365490995        6.2015634913        7.5856889891
  F         5.5365487360        6.2015634111        5.4143111087
       4
 i =        6, E =       -82.4310170427
  N         6.1757528216        6.8269405746        6.5000001146
  F         7.4401123439        6.1951384604        6.5000002153
  F         5.5407258676        6.1987925935        7.5898498950
  F         5.5407266981        6.1987925424        5.4101499328
       4
 i =        7, E =       -82.4310453268
  N         6.1763171959        6.8255261112        6.4999999813
  F         7.4418524264        6.2003515643        6.5000000100
  F         5.5398422632        6.1982687306        7.5868901759
  F         5.5398419698        6.1982691581        5.4131097577
       4
 i =        8, E =       -82.4310453131
  N         6.1770386082        6.8260869660        6.4999999951
  F         7.4411075415        6.1979285406        6.4999998401
  F         5.5390616461        6.2001731982        7.5859232506
  F         5.5390621204        6.2001724224        5.4140769041
       4
 i =        9, E =       -82.4310481289
  N         6.1757753352        6.8258996888        6.4999999167
  F         7.4409786994        6.1989358916        6.5000003013
  F         5.5390480303        6.1991576819        7.5866883377
  F         5.5390477119        6.1991580949        5.4133114737
       4
 i =       10, E =       -82.4310481289
  N         6.1757753352        6.8258996888        6.4999999167
  F         7.4409786994        6.1989358916        6.5000003013
  F         5.5390480303        6.1991576819        7.5866883377
  F         5.5390477119        6.1991580949        5.4133114737
