       3
 i =        1, E =      -199.8142356193
 Ni         7.4999982610        7.4999607751        7.4957198389
 Cl         5.4285854723        7.4999922785        7.4989645136
 Cl         9.5714125480        7.5000075752        7.4993871749
       3
 i =        2, E =      -199.8138805197
 Ni         7.4999764439        7.5004631221        7.5262503478
 Cl         5.4495668204        7.4999769338        7.4984113428
 Cl         9.5504034551        7.5000181939        7.4995133015
       3
 i =        3, E =      -199.8142194938
 Ni         7.5000253855        7.4991184532        7.5103452852
 Cl         5.4390630869        7.4999852291        7.4990475103
 Cl         9.5609647173        7.5000268745        7.4998376557
       3
 i =        4, E =      -199.8002709978
 Ni         7.5006656597        7.4838181499        7.2603452852
 Cl         5.2851055045        7.5000749874        7.5081352309
 Cl         9.7156789393        7.5001218349        7.5046345782
       3
 i =        5, E =      -199.8135651488
 Ni         7.4999723866        7.4979539874        7.4691443546
 Cl         5.4145629345        7.4997562306        7.4976037434
 Cl         9.5853831512        7.4998166867        7.4970764979
       3
 i =        6, E =      -199.8139368926
 Ni         7.5004823027        7.5007431147        7.5228464720
 Cl         5.4486377255        7.5000230818        7.5002730737
 Cl         9.5519475388        7.5000655124        7.4998481281
       3
 i =        7, E =      -199.8142326000
 Ni         7.4996342953        7.4982087417        7.4934990008
 Cl         5.4305193472        7.4998799249        7.4990733027
 Cl         9.5690749672        7.4999225063        7.4978464853
       3
 i =        8, E =      -199.8142629927
 Ni         7.4999439423        7.5026728555        7.5070829652
 Cl         5.4382120887        7.4999240077        7.4998921585
 Cl         9.5617401111        7.4999505815        7.4990456762
       3
 i =        9, E =      -199.8142769119
 Ni         7.5005211727        7.4943682030        7.5027245975
 Cl         5.4378125383        7.4999689761        7.4997637029
 Cl         9.5627933936        7.4999866286        7.4990154662
       3
 i =       10, E =      -199.8142458504
 Ni         7.5000541203        7.5025316382        7.4945512263
 Cl         5.4312368070        7.4998619487        7.4996418068
 Cl         9.5688218466        7.4998740796        7.4988384761
       3
 i =       11, E =      -199.8143114922
 Ni         7.4993807258        7.4999616267        7.5015295859
 Cl         5.4356352985        7.4999252996        7.4999524761
 Cl         9.5636590406        7.4999373523        7.4993928078
       3
 i =       12, E =      -199.8143100581
 Ni         7.5015081862        7.4995677418        7.5013139298
 Cl         5.4370762506        7.4999362816        7.5000485818
 Cl         9.5646555426        7.4999395851        7.4997346438
       3
 i =       13, E =      -199.8143139381
 Ni         7.5001394474        7.4994376267        7.5009727377
 Cl         5.4362828109        7.4999423837        7.5000982499
 Cl         9.5638844683        7.4999393892        7.4999746299
       3
 i =       14, E =      -199.8143152785
 Ni         7.4998720270        7.4996182678        7.5009065921
 Cl         5.4364103670        7.4999516216        7.5001919869
 Cl         9.5634468741        7.4999375170        7.5005076130
       3
 i =       15, E =      -199.8143195417
 Ni         7.4994046657        7.5000028711        7.5003495295
 Cl         5.4377115925        7.5000110085        7.5006023273
 Cl         9.5616096331        7.4999292898        7.5034162767
       3
 i =       16, E =      -199.8143209065
 Ni         7.4996423956        7.5000935494        7.5001175293
 Cl         5.4388271980        7.5000522010        7.5005848818
 Cl         9.5607604954        7.4999224168        7.5051565332
       3
 i =       17, E =      -199.8143212313
 Ni         7.4999315958        7.5000349654        7.4999953686
 Cl         5.4392874645        7.5000737890        7.5001935160
 Cl         9.5606223398        7.4999147417        7.5058223006
       3
 i =       18, E =      -199.8143212812
 Ni         7.4999315958        7.5000349654        7.4999953686
 Cl         5.4392874645        7.5000737890        7.5001935160
 Cl         9.5606223398        7.4999147417        7.5058223006
