       2
 i =        1, E =      -185.6867658745
 Ni         6.5269930577        6.5114398009        5.6733035342
  O         6.4635242946        6.4975669032        7.2815294108
       2
 i =        2, E =      -185.6867347183
 Ni         6.5798215528        6.5730228940        5.6696740024
  O         6.4103259717        6.4956741295        7.2831603488
       2
 i =        3, E =      -185.6858183614
 Ni         6.8298215528        6.6324624911        5.6971997732
  O         6.4404092993        6.5115346151        7.2257474138
       2
 i =        4, E =      -185.6838192362
 Ni         7.0798215528        6.8153339038        5.7026426781
  O         6.3282585777        6.5084540399        7.1903429412
       2
 i =        5, E =      -185.6866424433
 Ni         6.8691713907        6.7478472021        5.6798707592
  O         6.3882473356        6.5127492256        7.2111747284
       2
 i =        6, E =      -185.6867096026
 Ni         6.9628957705        6.8069254148        5.6836856708
  O         6.3905406700        6.5163846508        7.1843677051
       2
 i =        7, E =      -185.6867726292
 Ni         6.9250674749        6.8354191775        5.6862105100
  O         6.3745779401        6.5127511937        7.1924741804
       2
 i =        8, E =      -185.6865819260
 Ni         6.9193414145        6.8056091026        5.6891118718
  O         6.3917068335        6.5101721833        7.1946133682
       2
 i =        9, E =      -185.6868196639
 Ni         6.9237214852        6.8210890882        5.6878170599
  O         6.3899703026        6.5084655891        7.1900947279
       2
 i =       10, E =      -185.6857117537
 Ni         7.1216205660        7.0710890882        5.7093987383
  O         6.4042693793        6.5204230085        7.1080704894
       2
 i =       11, E =      -185.6863181149
 Ni         7.2203629513        7.1291288299        5.7091076536
  O         6.4673988237        6.5572093264        7.0559075324
       2
 i =       12, E =      -185.6856341260
 Ni         7.1787264685        7.0912499712        5.6863578905
  O         6.5267118931        6.5894377647        7.0374359262
       2
 i =       13, E =      -185.6866907577
 Ni         7.2101149570        7.1068348306        5.6948185691
  O         6.4913798427        6.5730184628        7.0452197775
       2
 i =       14, E =      -185.6864463883
 Ni         7.1644304847        7.1013737741        5.6892329416
  O         6.4677721624        6.5440339572        7.0597310264
       2
 i =       15, E =      -185.6868251243
 Ni         7.1811227001        7.1062435481        5.6858993203
  O         6.4852797795        6.5595114887        7.0471617832
       2
 i =       16, E =      -185.6768770065
 Ni         7.4311227001        7.2384396961        5.6088260549
  O         6.5996894712        6.6299035265        7.0398700542
       2
 i =       17, E =      -185.6796970725
 Ni         7.6811227001        7.3327936424        5.5442411667
  O         6.7957255320        6.7896482731        6.9369147057
       2
 i =       18, E =      -185.6777187149
 Ni         7.5789810346        7.2255859943        5.5892598804
  O         6.8314385738        6.8314079556        6.8516220354
       2
 i =       19, E =      -185.6859519380
 Ni         7.5258025427        7.2486568173        5.5948521861
  O         6.7184215704        6.7489759018        6.9500480580
       2
 i =       20, E =      -185.6868378196
 Ni         7.6108603976        7.2751667927        5.5684991896
  O         6.7976867224        6.8034474983        6.9038804373
       2
 i =       21, E =      -185.6868931964
 Ni         7.6306868895        7.2590107402        5.5670580162
  O         6.8212000446        6.8120262704        6.8918736500
       2
 i =       22, E =      -185.6842480831
 Ni         7.5541412097        7.1704839039        5.5982671653
  O         6.7891729014        6.7645660189        6.9025447261
       2
 i =       23, E =      -185.6863721672
 Ni         7.5823476416        7.2256094483        5.5836999820
  O         6.7872957413        6.7768993462        6.9127402528
       2
 i =       24, E =      -185.6869507612
 Ni         7.6082958500        7.2645123702        5.5590765065
  O         6.8060944538        6.7941102653        6.8978709927
       2
 i =       25, E =      -185.6870227775
 Ni         7.6027896007        7.2424236354        5.5698199738
  O         6.8004298766        6.7888632765        6.9047487852
       2
 i =       26, E =      -185.6870048267
 Ni         7.6289651768        7.2488384027        5.5674091779
  O         6.8132787378        6.8075327647        6.9001652374
       2
 i =       27, E =      -185.6871650148
 Ni         7.6132851972        7.2556740780        5.5686549615
  O         6.8044350118        6.8035242131        6.9029947081
       2
 i =       28, E =      -185.6871743266
 Ni         7.6110193979        7.2505236854        5.5691391902
  O         6.8039333171        6.8001713208        6.9038672980
       2
 i =       29, E =      -185.6871782876
 Ni         7.6130166422        7.2516730017        5.5689260320
  O         6.8049296712        6.8023312362        6.9037037119
       2
 i =       30, E =      -185.6871787832
 Ni         7.6124499759        7.2520289974        5.5689013222
  O         6.8048152437        6.8026648597        6.9040842764
       2
 i =       31, E =      -185.6871787831
 Ni         7.6124499759        7.2520289974        5.5689013222
  O         6.8048152437        6.8026648597        6.9040842764
