       6
 i =        1, E =      -127.8349822986
  P         6.5982548599        6.9999990647        6.9999998951
  F         6.5758173877        5.3958151865        6.9999999086
  F         6.5758168808        8.6041794145        7.0000001117
  F         8.1827717826        6.9999952415        6.9999999287
  F         5.7944854937        6.9999964258        8.3647865474
  F         5.7944854395        6.9999964929        5.6352133412
       6
 i =        2, E =      -127.8345361342
  P         6.5568380051        6.9999813502        6.9999996254
  F         6.5573068827        5.4315217612        6.9999991855
  F         6.5573020182        8.5684444780        7.0000007204
  F         8.1104389096        6.9999656064        6.9999994901
  F         5.7369496843        6.9999778875        8.3159480127
  F         5.7369499529        6.9999779926        5.6840513386
       6
 i =        3, E =      -127.8366930870
  P         6.5355010018        6.9999687402        6.9999994550
  F         6.5581365055        5.4171685509        6.9999978203
  F         6.5581278713        8.5827715162        7.0000017437
  F         8.0962162741        6.9999043948        6.9999983445
  F         5.7332494587        6.9999409647        8.3372553787
  F         5.7332497743        6.9999421322        5.6627435151
       6
 i =        4, E =      -127.8366594024
  P         6.5102969815        6.9999596515        7.0000002157
  F         6.5418224242        5.4089618561        6.9999899238
  F         6.5418355959        8.5909812014        7.0000079468
  F         8.0693725824        6.9995774499        6.9999918978
  F         5.7005733814        6.9997694109        8.3319593162
  F         5.7005719007        6.9997780446        5.6680425360
       6
 i =        5, E =      -127.8371885299
  P         6.5229746610        6.9997583111        6.9999972695
  F         6.5361661227        5.3982269578        6.9999715987
  F         6.5363244129        8.6013455614        7.0000248578
  F         8.0892444036        6.9985979794        6.9999699825
  F         5.7142830837        6.9993513124        8.3398175694
  F         5.7142763542        6.9993872435        5.6601820491
       6
 i =        6, E =      -127.8372873323
  P         6.5262382631        6.9989237621        6.9999918619
  F         6.5313869204        5.4019030293        6.9999081730
  F         6.5317014940        8.5960568218        7.0000866582
  F         8.0898944063        6.9956165929        6.9998967581
  F         5.7365116224        6.9982570449        8.3468042691
  F         5.7365039280        6.9983911350        5.6531887352
       6
 i =        7, E =      -127.8375261173
  P         6.5229167500        6.9979381475        6.9999777436
  F         6.5299971396        5.4063342526        6.9997747620
  F         6.5310513620        8.5898513861        7.0002252197
  F         8.0848599815        6.9894618863        6.9997305834
  F         5.7249384480        6.9958864291        8.3387654322
  F         5.7249074219        6.9962719800        5.6612200919
       6
 i =        8, E =      -127.8376206027
  P         6.5271994601        6.9945899595        6.9999381554
  F         6.5340710814        5.4042022792        6.9992041180
  F         6.5375605954        8.5861362807        7.0008379087
  F         8.0903980844        6.9683569763        6.9990037306
  F         5.7227387502        6.9882208070        8.3357295224
  F         5.7226884111        6.9896150532        5.6642249375
       6
 i =        9, E =      -127.8378253896
  P         6.5256403903        6.9884591961        6.9998193424
  F         6.5320596264        5.3964388762        6.9978475708
  F         6.5402808515        8.5826009284        7.0023419348
  F         8.0898450029        6.9720282416        6.9974766044
  F         5.7230831533        6.9751375738        8.3383501478
  F         5.7229511669        6.9780633305        5.6614870625
       6
 i =       10, E =      -127.8376081685
  P         6.5190652787        6.9745839885        6.9992119947
  F         6.5423007131        5.3794927969        6.9891989021
  F         6.5194983251        8.5748586060        7.0115811625
  F         8.0837994420        6.9745236079        6.9886898102
  F         5.7253230193        6.9568299002        8.3444424640
  F         5.7244082199        6.9556793591        5.6550508455
       6
 i =       11, E =      -127.8380821139
  P         6.5180516816        6.9690635938        6.9983341815
  F         6.5362548955        5.3709834881        6.9779779313
  F         6.5173646971        8.5725906333        7.0232737346
  F         8.0822858346        6.9806090944        6.9773115039
  F         5.7281540690        6.9683594832        8.3455980841
  F         5.7263422319        6.9716084577        5.6532107576
       6
 i =       12, E =      -127.8376282876
  P         6.5235797173        6.9616824067        6.9950865962
  F         6.5164337093        5.3612794169        6.9573101960
  F         6.5374895413        8.5680698634        7.0463842259
  F         8.0870656259        6.9584635208        6.9478672971
  F         5.7273601991        6.9489991807        8.3371802345
  F         5.7228024626        6.9789862787        5.6584322858
       6
 i =       13, E =      -127.8379780407
  P         6.5284774251        6.9743971403        6.9957902157
  F         6.5259056326        5.3760174075        6.9869728551
  F         6.5418233752        8.5756804749        7.0170530231
  F         8.0916785629        6.9631799654        6.9685032194
  F         5.7256405110        6.9581286600        8.3335055549
  F         5.7219840669        6.9864301575        5.6626547395
       6
 i =       14, E =      -127.8376237127
  P         6.5222459201        6.9717801885        6.9980868115
  F         6.5537390164        5.3687248118        6.9813238809
  F         6.5179106364        8.5767484302        7.0203131402
  F         8.0863890059        6.9896671697        6.9830384805
  F         5.7270790309        6.9773911012        8.3438175884
  F         5.7264199935        6.9637798941        5.6554528818
       6
 i =       15, E =      -127.8382203513
  P         6.5228705342        6.9666892452        6.9966889999
  F         6.5407514726        5.3629836940        6.9707045537
  F         6.5250428395        8.5728828281        7.0291901680
  F         8.0860325352        6.9777482335        6.9652737334
  F         5.7274135256        6.9554722621        8.3406445430
  F         5.7248120527        6.9796445730        5.6577029758
       6
 i =       16, E =      -127.8376896894
  P         6.5249386640        6.9727645939        6.9945244802
  F         6.5079405643        5.3734266623        6.9724909655
  F         6.5536314018        8.5737465579        7.0306953150
  F         8.0858394472        6.9464053971        6.9727190131
  F         5.7251140887        6.9620138847        8.3313799189
  F         5.7200544142        6.9760026647        5.6636046920
       6
 i =       17, E =      -127.8382910112
  P         6.5227069440        6.9668074447        6.9965770588
  F         6.5235294654        5.3637011356        6.9724669038
  F         6.5383654372        8.5715194594        7.0240849736
  F         8.0849764131        6.9604865401        6.9679553521
  F         5.7256627333        6.9635597805        8.3380745400
  F         5.7241088980        6.9747129991        5.6595695251
       6
 i =       18, E =      -127.8373955184
  P         6.5279759269        6.9638127040        6.9940102135
  F         6.5869948419        5.3533687874        6.9840120699
  F         6.4951772126        8.5744140506        7.0344913825
  F         8.0939224700        7.0203326131        6.9771964799
  F         5.7360259307        6.9609732980        8.3446481678
  F         5.7277978213        6.9752170129        5.6511816955
       6
 i =       19, E =      -127.8365404000
  P         6.5358867923        6.9920755499        7.0010922886
  F         6.6669507706        5.3798815516        6.9793842828
  F         6.4417937326        8.6014914257        7.0169777460
  F         8.1030965360        7.1088711071        6.9788170275
  F         5.7374353705        6.9665641174        8.3516818353
  F         5.7385723817        6.9722416612        5.6531019043
       6
 i =       20, E =      -127.8379845616
  P         6.5279263497        6.9912353699        6.9990509747
  F         6.6069918348        5.3883797634        6.9725782316
  F         6.4765930202        8.5922272895        7.0195157525
  F         8.0901066843        7.0529915732        6.9670998223
  F         5.7306411004        6.9646726645        8.3428163771
  F         5.7313477492        6.9694563070        5.6584478421
       6
 i =       21, E =      -127.8376616196
  P         6.5098254731        6.9946372255        6.9912957184
  F         6.5279623940        5.4005346646        6.9744445119
  F         6.4991445269        8.5895644138        7.0251153289
  F         8.0690905287        6.9861408454        6.9799482696
  F         5.7233212053        6.9625708724        8.3341007302
  F         5.7138985655        6.9875304828        5.6560928010
       6
 i =       22, E =      -127.8379627134
  P         6.5177252494        6.9841457361        6.9970539945
  F         6.5337734810        5.3902050486        6.9762862718
  F         6.5022321217        8.5798622905        7.0301953977
  F         8.0791117209        6.9846435342        6.9667251331
  F         5.7230238454        6.9650975523        8.3375943502
  F         5.7206742083        6.9794531802        5.6615787133
       6
 i =       23, E =      -127.8380830465
  P         6.5230366716        6.9752119816        6.9986017646
  F         6.5226169423        5.3801362026        6.9686818130
  F         6.5194131644        8.5743791968        7.0263452336
  F         8.0872756605        6.9640078772        6.9696755670
  F         5.7249593711        6.9661606731        8.3398329062
  F         5.7240445262        6.9754489941        5.6618369954
       6
 i =       24, E =      -127.8380457321
  P         6.5325247609        6.9673680259        6.9958447794
  F         6.5379954288        5.3671364104        6.9635946169
  F         6.5403636463        8.5737389113        7.0192405606
  F         8.1007395028        6.9647373683        6.9750279599
  F         5.7323201738        6.9669691706        8.3416938347
  F         5.7290907168        6.9700812533        5.6552544071
       6
 i =       25, E =      -127.8382781941
  P         6.5218815883        6.9743257614        6.9936667133
  F         6.5365218333        5.3742075574        6.9775545162
  F         6.5248813759        8.5788007636        7.0262365385
  F         8.0867066271        6.9742953533        6.9695751068
  F         5.7290389545        6.9651216265        8.3403577845
  F         5.7240844942        6.9761231712        5.6530708950
       6
 i =       26, E =      -127.8381290089
  P         6.5214522901        6.9684637898        6.9961596204
  F         6.5187203171        5.3685731335        6.9817904921
  F         6.5416552788        8.5721126022        7.0304887759
  F         8.0847508081        6.9583232692        6.9660275275
  F         5.7229139149        6.9652057474        8.3374311083
  F         5.7226623911        6.9783574722        5.6589697857
       6
 i =       27, E =      -127.8383639987
  P         6.5238156437        6.9671775282        6.9979999497
  F         6.5301458957        5.3661279498        6.9703182427
  F         6.5327139975        8.5707631307        7.0254814905
  F         8.0867604685        6.9692281593        6.9736205839
  F         5.7250103272        6.9621130055        8.3387717912
  F         5.7237071826        6.9748212583        5.6618213923
       6
 i =       28, E =      -127.8383787003
  P         6.5241656014        6.9678623276        6.9938804219
  F         6.5352396145        5.3645139870        6.9748917514
  F         6.5319879882        8.5735168623        7.0261007531
  F         8.0877475261        6.9695807591        6.9682832274
  F         5.7293505436        6.9640908560        8.3381384920
  F         5.7237838707        6.9726115812        5.6561779572
       6
 i =       29, E =      -127.8383988562
  P         6.5237079750        6.9683733210        6.9964181751
  F         6.5330054801        5.3652445115        6.9747269672
  F         6.5331035850        8.5730038631        7.0268852904
  F         8.0864855470        6.9685984562        6.9704257213
  F         5.7263831122        6.9634447966        8.3384177214
  F         5.7247533137        6.9747987329        5.6590678557
       6
 i =       30, E =      -127.8383996729
  P         6.5240182358        6.9684201361        6.9961299577
  F         6.5324362854        5.3649121270        6.9737617834
  F         6.5332696443        8.5728440281        7.0265685927
  F         8.0864987197        6.9690960972        6.9697678807
  F         5.7272722722        6.9635795256        8.3380400636
  F         5.7234002564        6.9741698028        5.6601133295
       6
 i =       31, E =      -127.8384007763
  P         6.5240025192        6.9685472781        6.9960950652
  F         6.5330824008        5.3647179084        6.9739457236
  F         6.5331404862        8.5729955110        7.0266972690
  F         8.0864322384        6.9690658411        6.9699761511
  F         5.7267827561        6.9634496751        8.3377845339
  F         5.7242115113        6.9742019445        5.6595600458
       6
 i =       32, E =      -127.8384007763
  P         6.5240025192        6.9685472781        6.9960950652
  F         6.5330824008        5.3647179084        6.9739457236
  F         6.5331404862        8.5729955110        7.0266972690
  F         8.0864322384        6.9690658411        6.9699761511
  F         5.7267827561        6.9634496751        8.3377845339
  F         5.7242115113        6.9742019445        5.6595600458
