      11
 i =        1, E =      -200.7857878218
 Ru         9.2784835319        8.5000000996        8.5000000626
  C        10.2661423939        6.7885064547        8.4999999813
  C        10.2661425069       10.2114934815        8.4999998924
  C         7.3027614183        8.4999999334        8.4999999767
  C         9.2778994544        8.4999999427       10.4794939614
  C         9.2778994439        8.4999999237        6.5205060627
  O        10.8434334683        5.7864369689        8.4999999833
  O        10.8434335575       11.2135632001        8.5000000393
  O         6.1464406343        8.5000000122        8.4999999781
  O         9.2738504456        8.4999999824       11.6305651288
  O         9.2738504409        8.5000000032        5.3694349347
      11
 i =        2, E =      -200.7858559652
 Ru         9.2792095192        8.4999999545        8.4999999830
  C        10.2685649499        6.7837611076        8.5000000577
  C        10.2685648935       10.2162388251        8.5000000279
  C         7.2976910001        8.5000000496        8.5000000525
  C         9.2760106683        8.5000001426       10.4787095574
  C         9.2760106517        8.5000001210        6.5212903995
  O        10.8504582041        5.7855182530        8.4999999693
  O        10.8504582962       11.2144816299        8.4999999707
  O         6.1420730560        8.4999999563        8.4999999699
  O         9.2703104456        8.4999999251       11.6279783138
  O         9.2703104410        8.4999999246        5.3720216528
      11
 i =        3, E =      -200.7858714405
 Ru         9.2782242650        8.5000001160        8.5000000192
  C        10.2712064005        6.7847845027        8.4999999898
  C        10.2712065391       10.2152155242        8.4999999826
  C         7.2965640179        8.4999999344        8.4999999892
  C         9.2756149675        8.4999999128       10.4788020971
  C         9.2756149595        8.4999999002        6.5211979158
  O        10.8550812641        5.7879738614        8.5000000123
  O        10.8550813155       11.2120261700        8.4999999980
  O         6.1415197879        8.5000000394        8.5000000174
  O         9.2678676489        8.5000000825       11.6281510881
  O         9.2678676414        8.5000000704        5.3718489174
      11
 i =        4, E =      -200.7858775220
 Ru         9.2788572870        8.4999998854        8.4999999965
  C        10.2743714428        6.7867066865        8.5000000016
  C        10.2743713546       10.2132932793        8.5000000054
  C         7.2972964250        8.5000000971        8.5000000051
  C         9.2728200406        8.5000001653       10.4786990671
  C         9.2728200394        8.5000001618        6.5213009358
  O        10.8588790991        5.7902421699        8.5000000081
  O        10.8588791114       11.2097577316        8.4999999952
  O         6.1423061315        8.4999999495        8.5000000112
  O         9.2676243700        8.4999999345       11.6283877698
  O         9.2676243663        8.4999999236        5.3716122289
      11
 i =        5, E =      -200.7858795921
 Ru         9.2784349283        8.5000000452        8.4999999912
  C        10.2756927867        6.7880535866        8.5000000096
  C        10.2756928544       10.2119464407        8.5000000088
  C         7.2977016793        8.4999999810        8.5000000124
  C         9.2732729158        8.4999999524       10.4785105260
  C         9.2732729145        8.4999999499        6.5214894695
  O        10.8578176790        5.7900003102        8.4999999984
  O        10.8578176922       11.2099997378        8.4999999976
  O         6.1424567680        8.5000000201        8.4999999994
  O         9.2675580388        8.5000000424       11.6282716672
  O         9.2675580389        8.5000000411        5.3717283291
      11
 i =        6, E =      -200.7858795921
 Ru         9.2784349283        8.5000000452        8.4999999912
  C        10.2756927867        6.7880535866        8.5000000096
  C        10.2756928544       10.2119464407        8.5000000088
  C         7.2977016793        8.4999999810        8.5000000124
  C         9.2732729158        8.4999999524       10.4785105260
  C         9.2732729145        8.4999999499        6.5214894695
  O        10.8578176790        5.7900003102        8.4999999984
  O        10.8578176922       11.2099997378        8.4999999976
  O         6.1424567680        8.5000000201        8.4999999994
  O         9.2675580388        8.5000000424       11.6282716672
  O         9.2675580389        8.5000000411        5.3717283291
