       4
 i =        1, E =        -7.2967683267
 Sb         6.8570259430        6.5000000007        6.9411034932
  H         7.5584401215        5.2848194755        6.0230088386
  H         7.5584401220        7.7151805245        6.0230088387
  H         5.4541989439        6.4999999999        6.0228249548
       4
 i =        2, E =        -7.2970553273
 Sb         6.8569996702        6.5000000004        6.9630164448
  H         7.5590211774        5.2838299771        6.0157746141
  H         7.5590211779        7.7161700233        6.0157746138
  H         5.4525386626        6.5000000000        6.0158653364
       4
 i =        3, E =        -7.2970695636
 Sb         6.8568051044        6.5000000006        6.9659741630
  H         7.5568750234        5.2874188882        6.0148025027
  H         7.5568750236        7.7125811121        6.0148025023
  H         5.4560625361        6.5000000002        6.0151601108
       4
 i =        4, E =        -7.2970729473
 Sb         6.8562466586        6.4999999999        6.9681046155
  H         7.5551020177        5.2903800064        6.0140595859
  H         7.5551020175        7.7096199940        6.0140595853
  H         5.4578409475        6.5000000004        6.0150907009
       4
 i =        5, E =        -7.2970733040
 Sb         6.8557763921        6.5000000001        6.9683068146
  H         7.5547294126        5.2907602651        6.0139398548
  H         7.5547294122        7.7092397349        6.0139398546
  H         5.4572578437        6.5000000003        6.0155379682
       4
 i =        6, E =        -7.2970733040
 Sb         6.8557763921        6.5000000001        6.9683068146
  H         7.5547294126        5.2907602651        6.0139398548
  H         7.5547294122        7.7092397349        6.0139398546
  H         5.4572578437        6.5000000003        6.0155379682
