       4
 i =        1, E =       -48.2753894111
 Sc         7.4551660144        7.0000000013        6.9999999686
  H         8.3602170476        5.4293125351        7.0000000107
  H         8.3602170303        8.5706874701        7.0000000079
  H         5.6402886514        7.0000000002        7.0000000176
       4
 i =        2, E =       -48.2753905460
 Sc         7.4569102636        6.9999999963        6.9999999410
  H         8.3609556817        5.4287806163        7.0000000188
  H         8.3609556535        8.5712193947        7.0000000141
  H         5.6419017636        6.9999999997        7.0000000307
       4
 i =        3, E =       -48.2753928957
 Sc         7.4710480911        7.0000000296        6.9999995882
  H         8.3687452930        5.4245090705        7.0000001005
  H         8.3687451595        8.5754909794        7.0000000760
  H         5.6569675668        6.9999999846        7.0000001616
       4
 i =        4, E =       -48.2753954202
 Sc         7.4651817925        6.9999999875        6.9999996522
  H         8.3665697042        5.4263830974        7.0000000752
  H         8.3665696134        8.5736169603        7.0000000572
  H         5.6516484034        6.9999999917        7.0000001194
       4
 i =        5, E =       -48.2753962694
 Sc         7.4660014511        6.9999999894        6.9999995097
  H         8.3680919141        5.4265792908        7.0000000865
  H         8.3680918129        8.5734207645        7.0000000663
  H         5.6528877073        6.9999999850        7.0000001353
       4
 i =        6, E =       -48.2753962694
 Sc         7.4660014511        6.9999999894        6.9999995097
  H         8.3680919141        5.4265792908        7.0000000865
  H         8.3680918129        8.5734207645        7.0000000663
  H         5.6528877073        6.9999999850        7.0000001353
