       2
 i =        1, E =       -95.4829788478
 Tc         6.4995091719        6.4998143779        5.6485370298
  O         6.5005032287        6.5001875566        7.3524492885
       2
 i =        2, E =       -95.4832468090
 Tc         6.4995798740        6.4998436145        5.6555052378
  O         6.4998418749        6.4999646772        7.3349422265
       2
 i =        3, E =       -95.4832756296
 Tc         6.4995739582        6.4998418110        5.6552655928
  O         6.4999997962        6.4999991298        7.3404558691
       2
 i =        4, E =       -95.4832762694
 Tc         6.4995772813        6.4998438335        5.6563570230
  O         6.5000074156        6.4999953703        7.3412486118
       2
 i =        5, E =       -95.4832762702
 Tc         6.4995772813        6.4998438335        5.6563570230
  O         6.5000074156        6.4999953703        7.3412486118
