       2
 i =        1, E =       -24.0718279353
 Te         6.5000196553        6.5000683243        5.5686798389
  O         6.4999801023        6.4999315551        7.4319471791
       2
 i =        2, E =       -24.0718442375
 Te         6.5000221481        6.5000676181        5.5471316827
  O         6.5059951444        6.5010283436        7.4090421588
       2
 i =        3, E =       -24.0718510194
 Te         6.5000221481        6.5000676181        5.5471316805
  O         6.5059951396        6.5010283435        7.4090421596
       2
 i =        4, E =       -24.0718441956
 Te         6.5000221481        6.5000676181        5.5471316827
  O         6.5059951444        6.5010283436        7.4090421588
       2
 i =        5, E =       -24.0718442408
 Te         6.5000221481        6.5000676181        5.5471316827
  O         6.5059951444        6.5010283436        7.4090421588
       2
 i =        6, E =       -24.0718442397
 Te         6.5000221481        6.5000676181        5.5471316827
  O         6.5059951444        6.5010283436        7.4090421588
       2
 i =        7, E =       -24.0718442097
 Te         6.5000221481        6.5000676181        5.5471316827
  O         6.5059951444        6.5010283436        7.4090421588
       2
 i =        8, E =       -24.0718442386
 Te         6.5000221481        6.5000676181        5.5471316827
  O         6.5059951444        6.5010283436        7.4090421588
       2
 i =        9, E =       -24.0718442387
 Te         6.5000221481        6.5000676181        5.5471316827
  O         6.5059951444        6.5010283436        7.4090421588
       2
 i =       10, E =       -24.0718442289
 Te         6.5000221481        6.5000676181        5.5471316827
  O         6.5059951444        6.5010283436        7.4090421588
       2
 i =       11, E =       -24.0718442416
 Te         6.5000221481        6.5000676181        5.5471316827
  O         6.5059951444        6.5010283436        7.4090421588
       2
 i =       12, E =       -24.0718442418
 Te         6.5000221481        6.5000676181        5.5471316827
  O         6.5059951444        6.5010283436        7.4090421588
       2
 i =       13, E =       -24.0718442405
 Te         6.5000221481        6.5000676181        5.5471316827
  O         6.5059951444        6.5010283436        7.4090421588
       2
 i =       14, E =       -24.0718442242
 Te         6.5000221481        6.5000676181        5.5471316827
  O         6.5059951444        6.5010283436        7.4090421588
       2
 i =       15, E =       -24.0718442332
 Te         6.5000221481        6.5000676181        5.5471316827
  O         6.5059951444        6.5010283436        7.4090421588
       2
 i =       16, E =       -24.0718442291
 Te         6.5000221481        6.5000676181        5.5471316827
  O         6.5059951444        6.5010283436        7.4090421588
       2
 i =       17, E =       -24.0718442362
 Te         6.5000221481        6.5000676181        5.5471316827
  O         6.5059951444        6.5010283436        7.4090421588
       2
 i =       18, E =       -24.0718442417
 Te         6.5000221481        6.5000676181        5.5471316827
  O         6.5059951444        6.5010283436        7.4090421588
       2
 i =       19, E =       -24.0718442208
 Te         6.5000221481        6.5000676181        5.5471316827
  O         6.5059951444        6.5010283436        7.4090421588
       2
 i =       20, E =       -24.0718442352
 Te         6.5000221481        6.5000676181        5.5471316827
  O         6.5059951444        6.5010283436        7.4090421588
       2
 i =       21, E =       -24.0718442403
 Te         6.5000221481        6.5000676181        5.5471316827
  O         6.5059951444        6.5010283436        7.4090421588
       2
 i =       22, E =       -24.0718442207
 Te         6.5000221481        6.5000676181        5.5471316827
  O         6.5059951444        6.5010283436        7.4090421588
       2
 i =       23, E =       -24.0718442417
 Te         6.5000221481        6.5000676181        5.5471316827
  O         6.5059951444        6.5010283436        7.4090421588
       2
 i =       24, E =       -24.0718442416
 Te         6.5000221481        6.5000676181        5.5471316827
  O         6.5059951444        6.5010283436        7.4090421588
       2
 i =       25, E =       -24.0718442230
 Te         6.5000221481        6.5000676181        5.5471316827
  O         6.5059951444        6.5010283436        7.4090421588
       2
 i =       26, E =       -24.0718442411
 Te         6.5000221481        6.5000676181        5.5471316827
  O         6.5059951444        6.5010283436        7.4090421588
       2
 i =       27, E =       -24.0718442344
 Te         6.5000221481        6.5000676181        5.5471316827
  O         6.5059951444        6.5010283436        7.4090421588
       2
 i =       28, E =       -24.0718442403
 Te         6.5000221481        6.5000676181        5.5471316827
  O         6.5059951444        6.5010283436        7.4090421588
       2
 i =       29, E =       -24.0718442203
 Te         6.5000221481        6.5000676181        5.5471316827
  O         6.5059951444        6.5010283436        7.4090421588
       2
 i =       30, E =       -24.0718442358
 Te         6.5000221481        6.5000676181        5.5471316827
  O         6.5059951444        6.5010283436        7.4090421588
       2
 i =       31, E =       -24.0718442375
 Te         6.5000221481        6.5000676181        5.5471316827
  O         6.5059951444        6.5010283436        7.4090421588
       2
 i =       32, E =       -24.0718441629
 Te         6.5000221481        6.5000676181        5.5471316827
  O         6.5059951444        6.5010283436        7.4090421588
       2
 i =       33, E =       -24.0718442409
 Te         6.5000221481        6.5000676181        5.5471316827
  O         6.5059951444        6.5010283436        7.4090421588
       2
 i =       34, E =       -24.0718442289
 Te         6.5000221481        6.5000676181        5.5471316827
  O         6.5059951444        6.5010283436        7.4090421588
       2
 i =       35, E =       -24.0718442353
 Te         6.5000221481        6.5000676181        5.5471316827
  O         6.5059951444        6.5010283436        7.4090421588
       2
 i =       36, E =       -24.0718442395
 Te         6.5000221481        6.5000676181        5.5471316827
  O         6.5059951444        6.5010283436        7.4090421588
       2
 i =       37, E =       -24.0718442121
 Te         6.5000221481        6.5000676181        5.5471316827
  O         6.5059951444        6.5010283436        7.4090421588
       2
 i =       38, E =       -24.0718442236
 Te         6.5000221481        6.5000676181        5.5471316827
  O         6.5059951444        6.5010283436        7.4090421588
       2
 i =       39, E =       -24.0718442230
 Te         6.5000221481        6.5000676181        5.5471316827
  O         6.5059951444        6.5010283436        7.4090421588
       2
 i =       40, E =       -24.0718442415
 Te         6.5000221481        6.5000676181        5.5471316827
  O         6.5059951444        6.5010283436        7.4090421588
       2
 i =       41, E =       -24.0718442119
 Te         6.5000221481        6.5000676181        5.5471316827
  O         6.5059951444        6.5010283436        7.4090421588
       2
 i =       42, E =       -24.0718442393
 Te         6.5000221481        6.5000676181        5.5471316827
  O         6.5059951444        6.5010283436        7.4090421588
       2
 i =       43, E =       -24.0718442337
 Te         6.5000221481        6.5000676181        5.5471316827
  O         6.5059951444        6.5010283436        7.4090421588
       2
 i =       44, E =       -24.0718442297
 Te         6.5000221481        6.5000676181        5.5471316827
  O         6.5059951444        6.5010283436        7.4090421588
       2
 i =       45, E =       -24.0718442166
 Te         6.5000221481        6.5000676181        5.5471316827
  O         6.5059951444        6.5010283436        7.4090421588
       2
 i =       46, E =       -24.0718442381
 Te         6.5000221481        6.5000676181        5.5471316827
  O         6.5059951444        6.5010283436        7.4090421588
       2
 i =       47, E =       -24.0718442220
 Te         6.5000221481        6.5000676181        5.5471316827
  O         6.5059951444        6.5010283436        7.4090421588
       2
 i =       48, E =       -24.0718442319
 Te         6.5000221481        6.5000676181        5.5471316827
  O         6.5059951444        6.5010283436        7.4090421588
       2
 i =       49, E =       -24.0718442405
 Te         6.5000221481        6.5000676181        5.5471316827
  O         6.5059951444        6.5010283436        7.4090421588
       2
 i =       50, E =       -24.0718442351
 Te         6.5000221481        6.5000676181        5.5471316827
  O         6.5059951444        6.5010283436        7.4090421588
