       2
 i =        1, E =       -86.9633248252
  V         6.5000302856        6.5000292184        5.7018306392
  O         6.4999697409        6.4999701315        7.2970499535
       2
 i =        2, E =       -86.9633399731
  V         6.5000507841        6.5000496568        5.6972901934
  O         6.4999596530        6.4999594936        7.2936779143
       2
 i =        3, E =       -86.9633504246
  V         6.5000526915        6.5000666005        5.6973454135
  O         6.4999633683        6.4999481245        7.2908431294
       2
 i =        4, E =       -86.9633734272
  V         6.5000882854        6.5000738779        5.6872301342
  O         6.4999700276        6.4999941933        7.2814119080
       2
 i =        5, E =       -86.9633735510
  V         6.5000874121        6.5000733690        5.6872281947
  O         6.4999722623        6.4999940703        7.2817162006
       2
 i =        6, E =       -86.9633735383
  V         6.5000874068        6.5000733646        5.6872271612
  O         6.4999722856        6.4999940737        7.2817183358
