       3
 i =        1, E =       -99.8707932420
  W         7.0000000312        7.0000003173        7.5210371988
  O         5.6438156096        6.9999998679        6.5107187438
  O         8.3561843731        6.9999998104        6.5107185651
       3
 i =        2, E =       -99.8715221575
  W         7.0000000595        7.0000002693        7.5520025587
  O         5.6947094071        6.9999997427        6.5093505879
  O         8.3052905317        6.9999996270        6.5093503627
       3
 i =        3, E =       -99.8717521051
  W         7.0000000782        7.0000002750        7.5456861872
  O         5.6801916402        6.9999996066        6.5179704268
  O         8.3198082357        6.9999994273        6.5179700334
       3
 i =        4, E =       -99.8715186183
  W         7.0000000815        7.0000003181        7.5528385146
  O         5.6554182060        6.9999989247        6.5428575864
  O         8.3445815828        6.9999984001        6.5428571461
       3
 i =        5, E =       -99.8718552942
  W         7.0000000828        7.0000002951        7.5545744014
  O         5.6746320988        6.9999989686        6.5275839955
  O         8.3253677629        6.9999984831        6.5275835971
       3
 i =        6, E =       -99.8718667566
  W         7.0000000466        7.0000002879        7.5575624889
  O         5.6746215795        6.9999982086        6.5328950850
  O         8.3253783914        6.9999973284        6.5328949814
       3
 i =        7, E =       -99.8718705461
  W         7.0000000263        7.0000003081        7.5603460279
  O         5.6745890836        6.9999969199        6.5337653550
  O         8.3254109544        6.9999954133        6.5337654000
       3
 i =        8, E =       -99.8718707791
  W         7.0000000235        7.0000003034        7.5603745730
  O         5.6750192502        6.9999948323        6.5335238981
  O         8.3249807697        6.9999922837        6.5335238510
       3
 i =        9, E =       -99.8718707791
  W         7.0000000235        7.0000003034        7.5603745730
  O         5.6750192502        6.9999948323        6.5335238981
  O         8.3249807697        6.9999922837        6.5335238510
