       4
 i =        1, E =      -119.4229584899
 Zr         6.5183232823        6.9999999650        7.0014778502
  F         5.5459386814        8.6479006673        6.9966026169
  F         5.5459385496        5.3520994097        6.9966036324
  F         8.4495957132        6.9999999626        6.9964686767
       4
 i =        2, E =      -119.4230874033
 Zr         6.5265601608        6.9999999921        7.0014095546
  F         5.5380914974        8.6451665951        6.9944491510
  F         5.5380913568        5.3548334117        6.9944509474
  F         8.4520718289        6.9999999227        6.9935448236
       4
 i =        3, E =      -119.4232799136
 Zr         6.5343667118        6.9999999359        7.0010526281
  F         5.5372356908        8.6479362857        6.9835261930
  F         5.5372359181        5.3520636382        6.9835313582
  F         8.4664301908        6.9999997041        6.9765333720
       4
 i =        4, E =      -119.4234992890
 Zr         6.5336172672        7.0000000196        7.0006560194
  F         5.5421374681        8.6435893178        6.9782544442
  F         5.5421375111        5.3564105443        6.9782595431
  F         8.4548920178        6.9999995505        6.9718193157
       4
 i =        5, E =      -119.4235813942
 Zr         6.5296475244        6.9999999554        7.0001306523
  F         5.5430213073        8.6450900828        6.9697618886
  F         5.5430211814        5.3549098255        6.9697647023
  F         8.4552759638        6.9999991649        6.9671588446
       4
 i =        6, E =      -119.4235898471
 Zr         6.5303952490        6.9999999098        6.9998099287
  F         5.5417771361        8.6464849518        6.9690980818
  F         5.5417770623        5.3535150318        6.9690994190
  F         8.4554402513        6.9999988063        6.9681103204
       4
 i =        7, E =      -119.4235911065
 Zr         6.5296868031        6.9999999045        6.9992394123
  F         5.5413946120        8.6463154277        6.9690041672
  F         5.5413945479        5.3536845469        6.9690042395
  F         8.4557923960        6.9999979883        6.9691211572
       4
 i =        8, E =      -119.4235916794
 Zr         6.5295954452        6.9999998098        6.9982863674
  F         5.5411346666        8.6461380762        6.9690600017
  F         5.5411345956        5.3538619321        6.9690594030
  F         8.4551011674        6.9999959045        6.9695489907
       4
 i =        9, E =      -119.4235940303
 Zr         6.5277542274        6.9999987752        6.9913425823
  F         5.5407394339        8.6463714121        6.9694417785
  F         5.5407388216        5.3536285809        6.9694414132
  F         8.4541567609        6.9999709578        6.9684969200
       4
 i =       10, E =      -119.4235951691
 Zr         6.5287535955        6.9999978999        6.9910235991
  F         5.5408073389        8.6467350221        6.9691206702
  F         5.5408063446        5.3532650103        6.9691205972
  F         8.4544719914        6.9999527843        6.9689873818
       4
 i =       11, E =      -119.4235959132
 Zr         6.5292129982        6.9999957532        6.9903017723
  F         5.5412724287        8.6465046448        6.9688346392
  F         5.5412703329        5.3534952877        6.9688348440
  F         8.4553485148        6.9999045557        6.9693419957
       4
 i =       12, E =      -119.4235964203
 Zr         6.5300379445        6.9999890718        6.9890665908
  F         5.5414927319        8.6461227087        6.9689375278
  F         5.5414872525        5.3538771219        6.9689376770
  F         8.4554580357        6.9997551252        6.9690352588
       4
 i =       13, E =      -119.4235964201
 Zr         6.5300297281        6.9999891382        6.9890788954
  F         5.5414905043        8.6461265137        6.9689365371
  F         5.5414850585        5.3538733179        6.9689366869
  F         8.4554568647        6.9997566099        6.9690382615
