      12
 i =        1, E =       -42.0255385247
  B         9.3401971576        7.9999993859        8.0000000058
  N         8.5877057963        9.2236048510        7.9999999428
  B         7.1516486969        9.2634530336        7.9999999841
  N         6.4681127051        8.0000000839        7.9999999791
  B         7.1516465476        6.7365466724        7.9999999637
  N         8.5877040705        6.7763944809        8.0000000205
  H        10.5435721455        7.9999950012        8.0000000573
  H         9.0938523892       10.1003018435        8.0000000021
  H         6.5501459977       10.3057271724        8.0000000305
  H         5.4557609077        8.0000034517        8.0000000124
  H         6.5501396959        5.6942751603        7.9999999812
  H         9.0938483734        5.8996966059        8.0000000204
      12
 i =        2, E =       -42.0256020690
  B         9.3380999154        7.9999973931        8.0000000072
  N         8.5887013312        9.2254593495        7.9999999726
  B         7.1527010249        9.2617037437        7.9999999806
  N         6.4660311552        8.0000023074        7.9999999724
  B         7.1526955393        6.7382979988        8.0000000084
  N         8.5886961138        6.7745385954        7.9999999896
  H        10.5357290492        7.9999965361        8.0000000550
  H         9.0933937675       10.0996354654        7.9999999886
  H         6.5539969087       10.2989308611        8.0000000277
  H         5.4566365307        8.0000020786        8.0000000052
  H         6.5539927691        5.7010697958        7.9999999673
  H         9.0933907624        5.9003636137        8.0000000264
      12
 i =        3, E =       -42.0256067006
  B         9.3397000806        7.9999987029        8.0000000039
  N         8.5878118952        9.2239641722        7.9999999796
  B         7.1518808508        9.2631153499        7.9999999877
  N         6.4677732656        8.0000009307        7.9999999880
  B         7.1518781219        6.7368851125        7.9999999769
  N         8.5878092810        6.7760348956        8.0000000034
  H        10.5371382294        7.9999960824        8.0000000509
  H         9.0926916791       10.0984478061        7.9999999877
  H         6.5532608546       10.3001724746        8.0000000202
  H         5.4580174823        8.0000030406        8.0000000009
  H         6.5532555704        5.6998290678        7.9999999792
  H         9.0926870429        5.9015500235        8.0000000240
      12
 i =        4, E =       -42.0256073310
  B         9.3392912662        7.9999984594        8.0000000103
  N         8.5880403754        9.2243755177        7.9999999769
  B         7.1520704268        9.2627654177        7.9999999946
  N         6.4672830856        8.0000011515        7.9999999843
  B         7.1520674879        6.7372353351        7.9999999841
  N         8.5880375603        6.7756231452        8.0000000006
  H        10.5371252907        7.9999963494        8.0000000473
  H         9.0930401732       10.0990684571        7.9999999885
  H         6.5532472333       10.3001676124        8.0000000165
  H         5.4572848253        8.0000029524        7.9999999993
  H         6.5532422105        5.6998339556        7.9999999779
  H         9.0930357177        5.9009292782        8.0000000225
      12
 i =        5, E =       -42.0256073310
  B         9.3392912662        7.9999984594        8.0000000103
  N         8.5880403754        9.2243755177        7.9999999769
  B         7.1520704268        9.2627654177        7.9999999946
  N         6.4672830856        8.0000011515        7.9999999843
  B         7.1520674879        6.7372353351        7.9999999841
  N         8.5880375603        6.7756231452        8.0000000006
  H        10.5371252907        7.9999963494        8.0000000473
  H         9.0930401732       10.0990684571        7.9999999885
  H         6.5532472333       10.3001676124        8.0000000165
  H         5.4572848253        8.0000029524        7.9999999993
  H         6.5532422105        5.6998339556        7.9999999779
  H         9.0930357177        5.9009292782        8.0000000225
