       6
 i =        1, E =       -24.0564972719
  C         5.8104440452        6.4016900407        6.5000000304
  H         5.4285858792        5.8894065564        5.5984361511
  H         5.4285858338        5.8894065475        7.4015638772
  H         5.4515003186        7.4394115164        6.4999999952
  O         7.2255713815        6.4634935482        6.4999999747
  H         7.5887532142        5.5693803333        6.4999999715
       6
 i =        2, E =       -24.0566989117
  C         5.8159054363        6.3941526946        6.5000000052
  H         5.4258387241        5.8950904200        5.6056415052
  H         5.4258387236        5.8950904355        7.3943585175
  H         5.4559538987        7.4246906172        6.5000000082
  O         7.2339183371        6.4697350289        6.5000000133
  H         7.5752365098        5.5727441612        6.4999999635
       6
 i =        3, E =       -24.0567270730
  C         5.8156335556        6.3985860034        6.5000000071
  H         5.4257832809        5.8931837775        5.6062693002
  H         5.4257832821        5.8931837875        7.3937307221
  H         5.4511682477        7.4289002363        6.5000000048
  O         7.2346550645        6.4676846794        6.5000000075
  H         7.5788225227        5.5696939166        6.4999999662
       6
 i =        4, E =       -24.0567302612
  C         5.8145885239        6.3978981823        6.5000000089
  H         5.4260424372        5.8931845746        5.6051769958
  H         5.4260424381        5.8931845812        7.3948230267
  H         5.4515655138        7.4292226928        6.5000000033
  O         7.2342262513        6.4678648825        6.5000000013
  H         7.5781108978        5.5691897872        6.4999999675
       6
 i =        5, E =       -24.0567320900
  C         5.8141688492        6.3978945197        6.5000000068
  H         5.4258949301        5.8932359873        5.6052762081
  H         5.4258949363        5.8932359945        7.3947238130
  H         5.4511768488        7.4291583388        6.5000000041
  O         7.2343774044        6.4675883844        6.5000000011
  H         7.5774342499        5.5685817607        6.4999999687
       6
 i =        6, E =       -24.0567320900
  C         5.8141688492        6.3978945197        6.5000000068
  H         5.4258949301        5.8932359873        5.6052762081
  H         5.4258949363        5.8932359945        7.3947238130
  H         5.4511768488        7.4291583388        6.5000000041
  O         7.2343774044        6.4675883844        6.5000000011
  H         7.5774342499        5.5685817607        6.4999999687
