       2
 i =        1, E =       -44.4188298840
  F         7.0000000016        6.9999999979        5.7938009297
 Cs         6.9999999983        7.0000000021        8.2153972719
       2
 i =        2, E =       -44.4188494137
  F         7.0000000070        6.9999999909        5.7861330720
 Cs         6.9999999985        7.0000000019        8.2040206176
       2
 i =        3, E =       -44.4188526870
  F         7.0000000152        6.9999999802        5.7869647520
 Cs         6.9999999986        7.0000000018        8.1992263130
       2
 i =        4, E =       -44.4188526901
  F         7.0000000302        6.9999999610        5.7868225157
 Cs         6.9999999987        7.0000000017        8.1990971963
       2
 i =        5, E =       -44.4188526901
  F         7.0000000299        6.9999999613        5.7868245241
 Cs         6.9999999987        7.0000000017        8.1990998439
