       2
 i =        1, E =       -96.4573278834
 Cu         6.5000000040        6.4999999997        5.3912361553
 Cu         6.4999999960        6.5000000003        7.6087638449
       2
 i =        2, E =       -96.4572651924
 Cu         6.5000000006        6.5000000000        5.3812831097
 Cu         6.4999999994        6.5000000000        7.6187168906
       2
 i =        3, E =       -96.4572311836
 Cu         6.4999999998        6.5000000000        5.3785046939
 Cu         6.5000000002        6.5000000000        7.6214953064
       2
 i =        4, E =       -96.4572305744
 Cu         6.4999999999        6.5000000000        5.3784597848
 Cu         6.5000000001        6.5000000000        7.6215402156
       2
 i =        5, E =       -96.4572305744
 Cu         6.4999999999        6.5000000000        5.3784597848
 Cu         6.5000000001        6.5000000000        7.6215402156
