       7
 i =        1, E =      -228.4190331348
 Os         7.5000000875        7.4999997409        7.5895397211
  O         7.5000000290        7.5000004379        9.2472798896
  F         7.5000000358        7.5000001831        5.7423207003
  F         6.2058341048        8.7941657749        7.4376027505
  F         6.2058339577        6.2058339726        7.4376026277
  F         8.7941659851        6.2058338982        7.4376026619
  F         8.7941658034        8.7941659916        7.4376026984
       7
 i =        2, E =      -228.4191743896
 Os         7.4999999936        7.4999998660        7.5959975994
  O         7.5000000729        7.5000003076        9.2529733877
  F         7.5000001045        7.5000003578        5.7447946095
  F         6.2023091213        8.7976904272        7.4333891711
  F         6.2023092575        6.2023090403        7.4333889908
  F         8.7976906697        6.2023089653        7.4333890609
  F         8.7976905879        8.7976907663        7.4333890683
       7
 i =        3, E =      -228.4192873869
 Os         7.4999999377        7.4999998290        7.5923842466
  O         7.5000001346        7.5000001945        9.2499059072
  F         7.5000002907        7.5000009066        5.7413920558
  F         6.1998345146        8.8001642834        7.4258098102
  F         6.1998352251        6.1998345727        7.4258093742
  F         8.8001646433        6.1998344446        7.4258095652
  F         8.8001647046        8.8001650059        7.4258095827
       7
 i =        4, E =      -227.5786423476
 Os         7.4999994249        7.4999891926        7.3841718318
  O         7.5000017651        7.5000033360        9.0232090036
  F         7.5000104161        7.5000315022        5.8949577251
  F         6.4497931929        8.5501642834        7.2182349327
  F         6.4498228440        6.4498001415        7.2182322742
  F         8.5501722796        6.4498042584        7.2182321520
  F         8.5501781035        8.5501861259        7.2182410982
       7
 i =        5, E =      -228.3833584875
 Os         7.4999978119        7.4999937672        7.3280864436
  O         7.5000033686        7.4999962442        9.0080578765
  F         7.5000117680        7.5000350459        5.6584926309
  F         6.1997964358        8.8001559998        7.0294504176
  F         6.1998321426        6.1998052696        7.0294376260
  F         8.8001634429        6.1998042584        7.0294432413
  F         8.8001720412        8.8001804048        7.0294465143
       7
 i =        6, E =      -228.4157829768
 Os         7.4999987420        7.4999967731        7.4864885591
  O         7.5000015203        7.4999991322        9.1518717992
  F         7.5000058670        7.5000175317        5.6975867489
  F         6.2075640996        8.7924134535        7.2794426568
  F         6.2075804512        6.2075678441        7.2794376260
  F         8.7924173914        6.2075677907        7.2794396303
  F         8.7924210560        8.7924249715        7.2794419748
       7
 i =        7, E =      -228.4186623022
 Os         7.4999960208        7.4999977053        7.5327803285
  O         7.5000010104        7.5000006144        9.1894923613
  F         7.5000067628        7.5000197550        5.7066144407
  F         6.2059000723        8.7940584804        7.3844218244
  F         6.2059299202        6.2059055122        7.3844236244
  F         8.7940687097        6.2059127863        7.3844223991
  F         8.7940698824        8.7940786374        7.3844214108
       7
 i =        8, E =      -228.4184020774
 Os         7.4999880640        7.4999891806        7.6165801242
  O         7.5000005398        7.5000069188        9.2671157162
  F         7.5000128325        7.5000402600        5.7540911444
  F         6.2051006639        8.7947831802        7.4949578362
  F         6.2051859390        6.2051129093        7.4949561738
  F         8.7948229835        6.2051454290        7.4949552720
  F         8.7948127589        8.7948447969        7.4949584927
       7
 i =        9, E =      -228.4190179200
 Os         7.4999828661        7.4999820156        7.5812156755
  O         7.5000011401        7.5000082629        9.2373992016
  F         7.5000196116        7.5000647315        5.7303692327
  F         6.2050677470        8.7947480828        7.4338298321
  F         6.2052008056        6.2050870998        7.4338222391
  F         8.7948159123        6.2051387974        7.4338226694
  F         8.7947946273        8.7948499033        7.4338321812
       7
 i =       10, E =      -228.4191840067
 Os         7.4999531465        7.4999450997        7.5636789103
  O         7.5000048871        7.5000154275        9.2207892297
  F         7.5000497912        7.5001792209        5.7201403123
  F         6.2042348184        8.7952133145        7.3932721047
  F         6.2046301327        6.2042891008        7.3932255943
  F         8.7954480827        6.2044625715        7.3932367785
  F         8.7953505710        8.7955334063        7.3932865443
       7
 i =       11, E =      -228.4193150214
 Os         7.4999385236        7.4999270846        7.5820742473
  O         7.5000039964        7.5000192226        9.2381524426
  F         7.5000644507        7.5002380161        5.7335039409
  F         6.2034581625        8.7957850694        7.4231383190
  F         6.2040013595        6.2035338602        7.4230871724
  F         8.7961166684        6.2037781860        7.4230992555
  F         8.7959740751        8.7962314245        7.4231540223
       7
 i =       12, E =      -228.4195018712
 Os         7.4998822850        7.4998592573        7.5729896815
  O         7.5000041519        7.5000318667        9.2300345042
  F         7.5001234543        7.5004763700        5.7272660110
  F         6.2022349523        8.7962231325        7.4108136217
  F         6.2033512934        6.2023968571        7.4107216177
  F         8.7969267133        6.2029142026        7.4107434781
  F         8.7966056051        8.7971535184        7.4108411868
       7
 i =       13, E =      -228.4195173266
 Os         7.4997130338        7.4996659413        7.5708247900
  O         7.5000116760        7.5000819656        9.2275355359
  F         7.5002930675        7.5011891429        5.7261759850
  F         6.2000888013        8.7959222024        7.4078862089
  F         6.2030145112        6.2005169901        7.4078385758
  F         8.7978347424        6.2019427575        7.4078524402
  F         8.7968771116        8.7983873534        7.4078959030
       7
 i =       14, E =      -228.4195485733
 Os         7.4992477609        7.4991037867        7.5703714844
  O         7.5000467149        7.5002890701        9.2268383566
  F         7.5007466933        7.5031748161        5.7263396270
  F         6.1952792153        8.7936216911        7.4078218264
  F         6.2035282071        6.1964641049        7.4075139304
  F         8.7992073525        6.2006763039        7.4075878052
  F         8.7961731651        8.8006737430        7.4078982949
       7
 i =       15, E =      -228.3916414947
 Os         7.4847010138        7.4681240711        7.5594583565
  O         7.5021744953        7.5095170216        9.2414535519
  F         7.5234111762        7.6033368469        5.6822219714
  F         6.1106030827        8.5436216911        7.4120908575
  F         6.3737995605        6.1329541602        7.4120598628
  F         8.7598955371        6.2844666038        7.4129312612
  F         8.6245570939        8.8029600560        7.4123725842
       7
 i =       16, E =      -228.4197082287
 Os         7.4917224468        7.4888275929        7.5642312374
  O         7.5008161705        7.5039756841        9.2234231189
  F         7.5088272008        7.5371884807        5.7202012728
  F         6.1368245779        8.7274119950        7.4118064323
  F         6.2393167576        6.1491788394        7.4080344649
  F         8.8038381188        6.2058304923        7.4089359584
  F         8.7587195159        8.8207984745        7.4130457361
       7
 i =       17, E =      -228.4196880265
 Os         7.5007924867        7.4973843820        7.5742654903
  O         7.5009180676        7.5042451867        9.2275035654
  F         7.5105571887        7.4873731235        5.7289204423
  F         6.1847609431        8.7810043503        7.4091846343
  F         6.1991035897        6.2015164666        7.4055317801
  F         8.8133430152        6.2110729950        7.4067204580
  F         8.7944777911        8.8071389265        7.4098245728
       7
 i =       18, E =      -228.4199840496
 Os         7.4986243381        7.4940753221        7.5707647018
  O         7.5029738186        7.5052559968        9.2261854472
  F         7.5243048606        7.4865193402        5.7251436970
  F         6.1545985492        8.7435803890        7.4063010310
  F         6.2130229147        6.1853280693        7.4079394068
  F         8.8255427921        6.2247793446        7.4102821443
  F         8.7737047641        8.8209458527        7.4092836422
       7
 i =       19, E =      -228.4196057076
 Os         7.4928903122        7.4923746255        7.5677101202
  O         7.5097974301        7.5041445893        9.2270050349
  F         7.5460274741        7.4681615051        5.7210097711
  F         6.1388229075        8.7207677168        7.4006275567
  F         6.2469531651        6.1479472581        7.4128787663
  F         8.8455718608        6.2542897772        7.4179576481
  F         8.7314585746        8.8479245125        7.4078344171
       7
 i =       20, E =      -228.4199798767
 Os         7.4959005989        7.4899642921        7.5694614798
  O         7.5089924382        7.5022688904        9.2267658229
  F         7.5233303122        7.4800061870        5.7236033055
  F         6.1438272106        8.7273954512        7.4048410298
  F         6.2385636442        6.1538634197        7.4088917114
  F         8.8341816492        6.2344490735        7.4152283818
  F         8.7383365106        8.8409201867        7.4096675669
       7
 i =       21, E =      -228.4196564801
 Os         7.5045592832        7.4948132006        7.5779514511
  O         7.5064907906        7.4946205951        9.2306701164
  F         7.5022565723        7.4646699046        5.7326671432
  F         6.1814152725        8.7734933674        7.4110215254
  F         6.1911843204        6.2067702130        7.4094352891
  F         8.8123974418        6.2016414241        7.4052412045
  F         8.7908563483        8.8042059679        7.4070716652
       7
 i =       22, E =      -228.4201139818
 Os         7.4968506266        7.4895985489        7.5726747739
  O         7.5102746729        7.4944742305        9.2288284465
  F         7.5158238588        7.4749308121        5.7273126670
  F         6.1630769105        8.7497619305        7.4060446086
  F         6.2095858252        6.1811092950        7.4110064783
  F         8.8232245217        6.2170281733        7.4114144140
  F         8.7636469440        8.8193952336        7.4071173156
       7
 i =       23, E =      -228.4195060758
 Os         7.4902430986        7.4879429982        7.5639984102
  O         7.5164372107        7.4920709891        9.2257833363
  F         7.5475820588        7.4816972179        5.7187447646
  F         6.1372453125        8.7156479522        7.4013740707
  F         6.2599967528        6.1271539617        7.4100531803
  F         8.8509123782        6.2587997699        7.4223854270
  F         8.7156329574        8.8603150424        7.4114799437
       7
 i =       24, E =      -228.4198408374
 Os         7.4923300827        7.4850770067        7.5651526290
  O         7.5163270175        7.4894942135        9.2249315524
  F         7.5449317129        7.4682238080        5.7191694299
  F         6.1219248431        8.6959096042        7.4059414690
  F         6.2782522807        6.1079618411        7.4098885836
  F         8.8573705554        6.2629940304        7.4171049643
  F         8.6947427454        8.8751245904        7.4116300453
       7
 i =       25, E =      -228.4195745046
 Os         7.5092709457        7.4929545162        7.5736854531
  O         7.5115295028        7.4773760899        9.2237553586
  F         7.4982956170        7.4487673144        5.7275654872
  F         6.1090042480        8.6967102307        7.4153325230
  F         6.2904317865        6.1223925059        7.4124501833
  F         8.8561358555        6.2428374129        7.3977976681
  F         8.7085160893        8.8791575111        7.4042649503
       7
 i =       26, E =      -228.4199556200
 Os         7.4998352116        7.4870825386        7.5687875413
  O         7.5162129077        7.4792539366        9.2235921500
  F         7.5114110089        7.4663274532        5.7233381781
  F         6.1065419684        8.6878937971        7.4074754769
  F         6.3041137276        6.0948833489        7.4108596853
  F         8.8662330401        6.2587046862        7.4095180827
  F         8.6912013440        8.8878519285        7.4068929168
       7
 i =       27, E =      -228.4178688671
 Os         7.4759408730        7.4627339567        7.5633330216
  O         7.5230616368        7.4941170224        9.2309640399
  F         7.5437530034        7.5176653737        5.7206701553
  F         6.1912419051        8.7491703272        7.3890857771
  F         6.2077188894        6.1285730507        7.4032411715
  F         8.8587884323        6.2469499745        7.4418140149
  F         8.7294887249        8.8258276035        7.4157473453
       7
 i =       28, E =      -228.4197212391
 Os         7.4954656888        7.4801493220        7.5716315961
  O         7.5127086385        7.4813790714        9.2287282064
  F         7.5153415157        7.4914936929        5.7272191188
  F         6.1483435025        8.7253404765        7.4057756023
  F         6.2566447827        6.1213782199        7.4091264715
  F         8.8522093279        6.2362999934        7.4235488863
  F         8.7205748054        8.8508254696        7.4088858815
       7
 i =       29, E =      -228.4200146184
 Os         7.4981131050        7.4809051535        7.5719870699
  O         7.5108985302        7.4788158940        9.2279410008
  F         7.5216563692        7.4773129830        5.7261135291
  F         6.1304318715        8.7060976221        7.4132995608
  F         6.2725767238        6.1141971966        7.4088651656
  F         8.8528721786        6.2417004129        7.4039327376
  F         8.7115465531        8.8568750068        7.4130430894
       7
 i =       30, E =      -228.4190577333
 Os         7.5034803634        7.4823196254        7.5721022199
  O         7.5135720937        7.4713266125        9.2259577355
  F         7.5423629281        7.4388303411        5.7243586903
  F         6.0844882229        8.6604170411        7.4144917251
  F         6.3158699236        6.0920320728        7.4060459243
  F         8.8655731489        6.2574992630        7.3903888422
  F         8.6858564488        8.8789716434        7.4125066398
       7
 i =       31, E =      -228.4200461071
 Os         7.5015659207        7.4777906699        7.5727143932
  O         7.5143892835        7.4732367915        9.2279463318
  F         7.5291335003        7.4559880145        5.7265827600
  F         6.1169067467        8.6855274930        7.4074884831
  F         6.2861439418        6.1052361684        7.4083081622
  F         8.8635039463        6.2471152849        7.4089209131
  F         8.7029958693        8.8647224211        7.4089980034
       7
 i =       32, E =      -228.4197658013
 Os         7.4980245359        7.4749293125        7.5716760038
  O         7.5141531496        7.4789044313        9.2296949749
  F         7.5281322346        7.5030571394        5.7277702168
  F         6.1444737986        8.7169327929        7.4122737609
  F         6.2668609908        6.1135094027        7.4088514804
  F         8.8580818686        6.2309830306        7.4165931028
  F         8.7165409815        8.8507235204        7.4110589940
       7
 i =       33, E =      -228.4200453820
 Os         7.5026756840        7.4755762409        7.5724153627
  O         7.5162322616        7.4755952739        9.2287971829
  F         7.5270723168        7.4889521432        5.7271177543
  F         6.1311750170        8.6958907276        7.4097791725
  F         6.2824322184        6.1064132334        7.4071803252
  F         8.8674523621        6.2434403933        7.4095561336
  F         8.7093932197        8.8588209263        7.4127049180
       7
 i =       34, E =      -228.4154168019
 Os         7.5438708571        7.4802745828        7.5730689487
  O         7.5368964908        7.4449897182        9.2202915133
  F         7.5182555360        7.3140806191        5.7201105421
  F         6.0095740792        8.5299812099        7.3955302668
  F         6.4146299998        6.0555051476        7.4020541244
  F         8.9630950408        6.3353409069        7.3636945684
  F         8.6336866782        8.9465191040        7.4097205060
       7
 i =       35, E =      -228.4196146955
 Os         7.5139855167        7.4737859051        7.5677979504
  O         7.5247726755        7.4650522422        9.2225131872
  F         7.5305753843        7.4371797517        5.7222257350
  F         6.0879563644        8.6349984054        7.4090444957
  F         6.3323093367        6.0759335052        7.4119282041
  F         8.9124854240        6.2835379592        7.3927170203
  F         8.6792720877        8.8890426573        7.4044235533
       7
 i =       36, E =      -228.4193013562
 Os         7.4879115540        7.4763317903        7.5761183709
  O         7.5154559109        7.4876917230        9.2375164470
  F         7.5215569955        7.5430455230        5.7312340504
  F         6.1806484504        8.7614759938        7.4095504319
  F         6.2369100637        6.1234827416        7.3971312058
  F         8.8390706244        6.2239065999        7.4487403858
  F         8.7437286044        8.8193268175        7.4227479628
       7
 i =       37, E =      -228.4199454097
 Os         7.5008253209        7.4791628405        7.5743597710
  O         7.5165889233        7.4769589007        9.2315625587
  F         7.5289003587        7.4781169035        5.7286087189
  F         6.1275084624        8.6916218165        7.4094953219
  F         6.2896605582        6.0955641800        7.4090982873
  F         8.8740415778        6.2638083130        7.4286492703
  F         8.7143535172        8.8571843743        7.4117499356
       7
 i =       38, E =      -228.4183843448
 Os         7.5289253206        7.4705751336        7.5682809296
  O         7.5276167801        7.4555281544        9.2191864790
  F         7.5254367433        7.3705582177        5.7209488038
  F         6.0385657549        8.5677951469        7.4032091962
  F         6.3880929431        6.0509522095        7.4191008818
  F         8.9784591643        6.3413543667        7.3707717980
  F         8.6331262777        8.9317057226        7.4000265401
       7
 i =       39, E =      -228.4198762656
 Os         7.5104582603        7.4771996109        7.5703356366
  O         7.5207866279        7.4696034102        9.2262758881
  F         7.5263540575        7.4402995389        5.7248974357
  F         6.0982813786        8.6510634740        7.4066722045
  F         6.3229248361        6.0808172479        7.4120489709
  F         8.9172808355        6.2981494698        7.4071274728
  F         8.6808099351        8.8886048523        7.4077024343
       7
 i =       40, E =      -228.4196800379
 Os         7.5032579971        7.4745482613        7.5808564233
  O         7.5104031004        7.4818441179        9.2388029186
  F         7.5314057924        7.5147298791        5.7352178907
  F         6.1652510105        8.7238615089        7.4112204133
  F         6.2607873806        6.1148599829        7.4060508801
  F         8.8535707379        6.2280660534        7.4438950050
  F         8.7424957329        8.8373078315        7.4143199086
       7
 i =       41, E =      -228.4197618674
 Os         7.5023303675        7.4749589071        7.5823235640
  O         7.5079357630        7.4855798085        9.2409713489
  F         7.5272076386        7.5229259615        5.7363885625
  F         6.1728783350        8.7334446832        7.4112757676
  F         6.2548735827        6.1211139976        7.4065014417
  F         8.8442455753        6.2182154683        7.4500913895
  F         8.7609069311        8.8157053597        7.4164158550
       7
 i =       42, E =      -228.4198495770
 Os         7.5051175883        7.4777840183        7.5803406046
  O         7.5069362980        7.4865378021        9.2385565277
  F         7.5283748468        7.5062007295        5.7341960240
  F         6.1564577222        8.7171561242        7.4106331015
  F         6.2675204984        6.1183905239        7.4080008893
  F         8.8555688089        6.2355819203        7.4458888680
  F         8.7528168905        8.8246840619        7.4155841097
       7
 i =       43, E =      -228.4199306221
 Os         7.5180993826        7.4779483378        7.5780396486
  O         7.5036651891        7.4886521708        9.2352169000
  F         7.5313701704        7.4796853156        5.7312501354
  F         6.1364638535        8.6813789391        7.4099086937
  F         6.2979575458        6.1089091412        7.4094751362
  F         8.8785272360        6.2538543300        7.4394917293
  F         8.7466567279        8.8406420930        7.4134081885
       7
 i =       44, E =      -228.4200685132
 Os         7.5145619271        7.4771233710        7.5801596189
  O         7.5014099113        7.4901019238        9.2367281646
  F         7.5296664894        7.4834680358        5.7336792727
  F         6.1441813741        8.6951222375        7.4083554081
  F         6.2848102572        6.1148641557        7.4091112453
  F         8.8677599481        6.2415944809        7.4435046173
  F         8.7582117579        8.8286638091        7.4139687059
       7
 i =       45, E =      -228.4199346739
 Os         7.5164981859        7.4722362691        7.5820895108
  O         7.4971522003        7.4895267078        9.2360301387
  F         7.5234008157        7.4454513973        5.7357181918
  F         6.1363092311        8.6872938747        7.4013174151
  F         6.2913072999        6.1085510139        7.4103837854
  F         8.8786808432        6.2380464703        7.4423554733
  F         8.7694623775        8.8142179925        7.4101588459
       7
 i =       46, E =      -228.4202557666
 Os         7.5156066711        7.4708358084        7.5824319235
  O         7.4992801222        7.4865686486        9.2383459613
  F         7.5299187217        7.4637189712        5.7355393976
  F         6.1477120971        8.6967115158        7.4062669555
  F         6.2860421440        6.1091136885        7.4089852375
  F         8.8789367666        6.2357996467        7.4467165002
  F         8.7583201603        8.8217458495        7.4103721179
       7
 i =       47, E =      -228.4199313723
 Os         7.5194585093        7.4722424689        7.5864452357
  O         7.4967096668        7.4868219786        9.2459159620
  F         7.5376404221        7.5006497740        5.7383186856
  F         6.1815648324        8.7241252115        7.4133772808
  F         6.2735830467        6.1219960412        7.4087082959
  F         8.8727935161        6.2271272719        7.4689665515
  F         8.7613269266        8.8242661054        7.4154870291
       7
 i =       48, E =      -228.4203380573
 Os         7.5214429214        7.4727242772        7.5838234014
  O         7.4992168394        7.4850815225        9.2412720359
  F         7.5333268774        7.4805605484        5.7364990037
  F         6.1588173464        8.7010254282        7.4107011829
  F         6.2897305756        6.1122129508        7.4090466799
  F         8.8895173606        6.2436297196        7.4571700787
  F         8.7564228313        8.8304466157        7.4151315224
       7
 i =       49, E =      -228.4202932010
 Os         7.5209325693        7.4699551093        7.5829269496
  O         7.4970388678        7.4839490539        9.2388606301
  F         7.5301014315        7.4505989564        5.7358212917
  F         6.1532918998        8.6964435352        7.4041545301
  F         6.2917667833        6.1090069659        7.4086490675
  F         8.8858946937        6.2342139464        7.4553763267
  F         8.7636099775        8.8197024529        7.4087008877
       7
 i =       50, E =      -228.4205084561
 Os         7.5228371172        7.4710858005        7.5850003620
  O         7.4968697155        7.4837733941        9.2418534087
  F         7.5325768207        7.4651597686        5.7372726290
  F         6.1644886248        8.7042881173        7.4073178132
  F         6.2899165135        6.1124041077        7.4091872107
  F         8.8870361835        6.2355485426        7.4642121395
  F         8.7624702304        8.8238087389        7.4119397196
