       9
 i =        1, E =      -212.9697126818
 Pd         7.5000054685        7.5000053244        7.4999903309
  C         8.6603751107        8.6603752048        8.6603760956
  C         6.3396350366        6.3396387396        8.6603763271
  C         8.6603775563        6.3396329939        6.3396137499
  C         6.3396324570        8.6603770900        6.3396142946
  O         9.3230548918        9.3230550699        9.3230567593
  O         5.6769515969        5.6769556721        9.3230513413
  O         9.3230569831        5.6769416664        5.6769441969
  O         5.6769418667        9.3230569329        5.6769444521
       9
 i =        2, E =      -212.9697174787
 Pd         7.5000048431        7.5000051040        7.4999928001
  C         8.6621686254        8.6621684960        8.6621620874
  C         6.3378404086        6.3378427881        8.6621622070
  C         8.6621686813        6.3378393105        6.3378283882
  C         6.3378392640        8.6621687717        6.3378281573
  O         9.3245699851        9.3245700850        9.3245821280
  O         5.6754362431        5.6754380838        9.3245768502
  O         9.3245712468        5.6754293867        5.6754179238
  O         5.6754290086        9.3245712730        5.6754180043
       9
 i =        3, E =      -212.9697169580
 Pd         7.5000044406        7.5000047784        7.4999938654
  C         8.6623006716        8.6623005835        8.6622950031
  C         6.3377074826        6.3377092983        8.6622950967
  C         8.6623003796        6.3377064228        6.3376963988
  C         6.3377065594        8.6623006747        6.3376960066
  O         9.3247023616        9.3247023737        9.3247147885
  O         5.6753034093        5.6753045279        9.3247099695
  O         9.3247031720        5.6752976865        5.6752845733
  O         5.6752973052        9.3247032554        5.6752845039
       9
 i =        4, E =      -212.9697169580
 Pd         7.5000044406        7.5000047784        7.4999938654
  C         8.6623006716        8.6623005835        8.6622950031
  C         6.3377074826        6.3377092983        8.6622950967
  C         8.6623003796        6.3377064228        6.3376963988
  C         6.3377065594        8.6623006747        6.3376960066
  O         9.3247023616        9.3247023737        9.3247147885
  O         5.6753034093        5.6753045279        9.3247099695
  O         9.3247031720        5.6752976865        5.6752845733
  O         5.6752973052        9.3247032554        5.6752845039
