       5
 i =        1, E =       -51.0576827217
  S         6.6100388230        7.5593802834        8.4603363165
  S         8.4681691530        6.9621590672        8.1461623359
  S         8.4681754221        6.9621582495        5.8538487240
  S         6.6100482009        7.5593755040        5.5396625203
  S         5.5556033233        6.4546022923        7.0000030646
       5
 i =        2, E =       -51.0594045516
  S         6.6013852884        7.5508438336        8.4516651452
  S         8.4594286325        6.9605901264        8.0917792147
  S         8.4594331654        6.9605864773        5.9082332685
  S         6.6013924439        7.5508399797        5.5483348590
  S         5.5904918438        6.4747092782        7.0000004731
       5
 i =        3, E =       -51.0598365326
  S         6.5952095369        7.5486494416        8.4606395974
  S         8.4673862260        6.9606648652        8.0891925230
  S         8.4673908660        6.9606605975        5.9108196363
  S         6.5952169808        7.5486456135        5.5393611987
  S         5.5869435367        6.4789461611        7.0000000042
       5
 i =        4, E =       -51.0600084030
  S         6.5874571343        7.5444305960        8.4689385822
  S         8.4765824261        6.9612015551        8.0824388084
  S         8.4765871328        6.9611967833        5.9175731992
  S         6.5874646553        7.5444267770        5.5310629278
  S         5.5840781196        6.4862993308        6.9999994411
       5
 i =        5, E =       -51.0600106707
  S         6.5868558089        7.5445874130        8.4690180051
  S         8.4773592365        6.9610879788        8.0842162669
  S         8.4773639938        6.9610834821        5.9157958744
  S         6.5868632310        7.5445835323        5.5309832108
  S         5.5837222932        6.4862156830        6.9999996018
       5
 i =        6, E =       -51.0600109129
  S         6.5866828156        7.5446599093        8.4689706715
  S         8.4772741782        6.9609905765        8.0837427310
  S         8.4772789824        6.9609861974        5.9162694245
  S         6.5866902135        7.5446559664        5.5310304955
  S         5.5842393970        6.4862647630        6.9999996366
       5
 i =        7, E =       -51.0600109128
  S         6.5866828156        7.5446599093        8.4689706715
  S         8.4772741782        6.9609905765        8.0837427310
  S         8.4772789824        6.9609861974        5.9162694245
  S         6.5866902135        7.5446559664        5.5310304955
  S         5.5842393970        6.4862647630        6.9999996366
