       5
 i =        1, E =        -6.2782647192
 Si         6.4999999989        6.4999999984        6.4999999982
  H         7.3558164093        5.6441835917        7.3558164154
  H         5.6441835825        7.3558164082        7.3558164073
  H         5.6441835957        5.6441835868        5.6441835832
  H         7.3558164137        7.3558164149        5.6441835959
       5
 i =        2, E =        -6.2783277080
 Si         6.5000000002        6.5000000003        6.5000000004
  H         7.3517697201        5.6482302792        7.3517697260
  H         5.6482302702        7.3517697190        7.3517697182
  H         5.6482302850        5.6482302760        5.6482302722
  H         7.3517697245        7.3517697254        5.6482302832
       5
 i =        3, E =        -6.2783278229
 Si         6.5000000000        6.5000000000        6.5000000000
  H         7.3519962758        5.6480037237        7.3519962819
  H         5.6480037147        7.3519962747        7.3519962740
  H         5.6480037292        5.6480037203        5.6480037165
  H         7.3519962803        7.3519962813        5.6480037277
       5
 i =        4, E =        -6.2783278229
 Si         6.5000000000        6.5000000000        6.5000000000
  H         7.3519962758        5.6480037237        7.3519962819
  H         5.6480037147        7.3519962747        7.3519962740
  H         5.6480037292        5.6480037203        5.6480037165
  H         7.3519962803        7.3519962813        5.6480037277
