       3
 i =        1, E =      -224.6143808387
 Ba         7.4999999890        7.4999999993        8.0897839550
  F         9.3463405408        7.5000000002        6.8958591502
  F         5.6536594701        7.5000000005        6.8958591566
       3
 i =        2, E =      -224.6145368146
 Ba         7.4999999985        7.4999999993        8.0967571319
  F         9.3569423867        7.5000000002        6.8924654932
  F         5.6430576148        7.5000000006        6.8924654936
       3
 i =        3, E =      -224.6145819815
 Ba         7.5000000024        7.4999999992        8.0914691857
  F         9.3656210586        7.5000000002        6.8952909525
  F         5.6343789391        7.5000000006        6.8952909504
       3
 i =        4, E =      -224.6146864381
 Ba         7.4999999987        7.4999999989        8.0589777395
  F         9.4059952319        7.5000000003        6.9127139193
  F         5.5940047696        7.5000000009        6.9127139193
       3
 i =        5, E =      -224.6146989537
 Ba         7.5000000070        7.4999999989        8.0556717945
  F         9.4056176184        7.5000000003        6.9143467488
  F         5.5943823749        7.5000000010        6.9143467439
       3
 i =        6, E =      -224.6147017902
 Ba         7.4999999910        7.4999999989        8.0518348769
  F         9.4069609319        7.5000000003        6.9162197148
  F         5.5930390773        7.5000000010        6.9162197170
       3
 i =        7, E =      -224.6147018030
 Ba         7.5000000057        7.4999999989        8.0514486009
  F         9.4073201225        7.5000000003        6.9163418169
  F         5.5926798721        7.5000000010        6.9163418114
       3
 i =        8, E =      -224.6147018030
 Ba         7.5000000057        7.4999999989        8.0514486009
  F         9.4073201225        7.5000000003        6.9163418169
  F         5.5926798721        7.5000000010        6.9163418114
