       4
 i =        1, E =     -3632.0711714936
 Ga         7.9937954519        7.2500000000        7.4189785615
 Cl         8.9971502670        5.7277306817        7.5178408097
 Cl         9.2641272712        9.5945838716        7.5393944750
 Cl         5.8866563460        7.4276960488        7.5237859135
       4
 i =        2, E =     -3679.2792509783
 Ga         7.9294381545        7.0000000000        7.3530489786
 Cl         8.8978673849        5.9731519714        7.5650751769
 Cl         9.2989226641        9.6066486711        7.5280617140
 Cl         6.0155043858        7.4202192704        7.5538138392
       4
 i =        3, E =     -2610.2696901117
 Ga         7.7633885851        7.0204402827        7.2513946718
 Cl         9.1478673849        5.9824496221        7.6856900379
 Cl         9.2631227552        9.5278063115        7.5031374490
 Cl         5.9673503275        7.4693280993        7.5597799066
       4
 i =        4, E =     -3303.9730765041
 Ga         7.7748552009        7.2704402827        7.3961952827
 Cl         9.1630848839        5.7427207785        7.5811004988
 Cl         9.2302566350        9.4614976291        7.4637782516
 Cl         5.9735259427        7.5253656892        7.5589306909
       4
 i =        5, E =     -3167.7723634841
 Ga         7.9771137642        7.2921112908        7.3236628231
 Cl         9.3019633958        5.6867980726        7.6239944616
 Cl         9.1391163469        9.3606875013        7.4350296598
 Cl         5.7235259427        7.6604224294        7.6173176935
       4
 i =        6, E =     -2957.8666810821
 Ga         8.0033602618        7.3089159313        7.3433402112
 Cl         9.3952154361        5.7630698341        7.5168338689
 Cl         9.2696164674        9.1825926462        7.4882353783
 Cl         5.4735259427        7.7454383535        7.6515955236
       4
 i =        7, E =     -2780.0491935657
 Ga         8.0023068988        7.3821205538        7.4051169338
 Cl         9.5222415801        5.8450496901        7.3692994932
 Cl         9.3936450379        9.0014809535        7.5564858922
 Cl         5.2235259427        7.7713604357        7.6691021432
       4
 i =        8, E =     -2879.2480711638
 Ga         7.8936614475        7.5659116096        7.4310906423
 Cl         9.5999680855        5.9037242058        7.3275139700
 Cl         9.4898900255        8.7514809535        7.5898767193
 Cl         5.1582001055        7.7788951915        7.6515230912
       4
 i =        9, E =     -3303.9152685067
 Ga         7.8564777895        7.5576296278        7.6810906423
 Cl         9.7990871726        6.0110409875        7.2074006305
 Cl         9.4124416429        8.7446906295        7.4057733968
 Cl         5.0737127951        7.6866512344        7.7057398891
       4
 i =        1, E =     -3304.0535787874
 Ga         8.0154672755        7.4540903816        7.5116358297
 Cl         9.1134955320        5.6816487285        7.4953751826
 Cl         9.0869552333        9.3276115194        7.4976791905
 Cl         5.9258113842        7.5366602692        7.4953097548
       4
 i =        2, E =     -3304.0547742130
 Ga         8.0215221721        7.4679851101        7.5098395224
 Cl         9.1208862147        5.6650501986        7.4957762602
 Cl         9.0908324277        9.3326025473        7.4986263857
 Cl         5.9084882891        7.5343725386        7.4957580050
       4
 i =        3, E =     -3304.0551889140
 Ga         8.0303736261        7.4868277439        7.5047468196
 Cl         9.1191409603        5.6520254518        7.4973485695
 Cl         9.0951964794        9.3363596386        7.5005627336
 Cl         5.8970171849        7.5247961650        7.4973424204
       4
 i =        4, E =     -3304.0552143575
 Ga         8.0322878778        7.4916541280        7.5023756478
 Cl         9.1143826313        5.6502397250        7.4981410023
 Cl         9.0982012666        9.3394535618        7.5013499577
 Cl         5.8968558654        7.5186610094        7.4981340834
       4
 i =        5, E =     -3304.0552372032
 Ga         8.0348494093        7.4985054763        7.4989012690
 Cl         9.1044652865        5.6490691718        7.4993102580
 Cl         9.1036299315        9.3450415842        7.5024876506
 Cl         5.8987817875        7.5073913759        7.4993017232
       4
 i =        6, E =     -3304.0552409248
 Ga         8.0353554009        7.4999680093        7.4985961926
 Cl         9.1007910044        5.6496297424        7.4994138554
 Cl         9.1052109780        9.3465945238        7.5025847362
 Cl         5.9003684278        7.5038150785        7.4994061692
       4
 i =        7, E =     -3304.0552413944
 Ga         8.0353679583        7.4999982927        7.4991911393
 Cl         9.0999448216        5.6500605449        7.4992155347
 Cl         9.1054131565        9.3467629579        7.5023858115
 Cl         5.9009993004        7.5031855598        7.4992084580
       4
 i =        8, E =     -3304.0552414066
 Ga         8.0353679583        7.4999982927        7.4991911393
 Cl         9.0999448216        5.6500605449        7.4992155347
 Cl         9.1054131565        9.3467629579        7.5023858115
 Cl         5.9009993004        7.5031855598        7.4992084580
