       2
 i =        1, E =     -1999.3308900934
 Ga         6.5000004248        6.4999996422        5.6460088719
  O         6.4999995747        6.5000003588        7.3540061949
       2
 i =        2, E =     -1999.3308977272
 Ga         6.5000005590        6.4999994858        5.6479968699
  O         6.4999994652        6.5000004944        7.3520585198
       2
 i =        3, E =     -1999.3308977236
 Ga         6.5000005102        6.4999995410        5.6479638322
  O         6.4999995279        6.5000004263        7.3521130271
       2
 i =        4, E =     -1999.3308977357
 Ga         6.5000005102        6.4999995410        5.6479638322
  O         6.4999995279        6.5000004263        7.3521130271
