       2
 i =        1, E =      -100.1444581642
  H         5.9999999927        6.0000000164        6.4610402698
  F         6.0000000073        5.9999999834        5.5390676247
       2
 i =        2, E =      -100.1444626418
  H         5.9999999930        6.0000000159        6.4601756000
  F         6.0000000066        5.9999999850        5.5402357238
       2
 i =        3, E =      -100.1444626418
  H         5.9999999930        6.0000000159        6.4601756000
  F         6.0000000066        5.9999999850        5.5402357238
