       2
 i =        1, E =      -566.5089768357
  I         7.0000000164        7.0000000066        5.6057557174
  I         6.9999999836        6.9999999934        8.3942442826
       2
 i =        2, E =      -566.5090130881
  I         7.0000000163        7.0000000066        5.6138392593
  I         6.9999999837        6.9999999934        8.3861607407
       2
 i =        3, E =      -566.5090131696
  I         7.0000000162        7.0000000066        5.6142475650
  I         6.9999999837        6.9999999934        8.3857524350
       2
 i =        4, E =      -566.5090131696
  I         7.0000000162        7.0000000066        5.6142475650
  I         6.9999999837        6.9999999934        8.3857524350
       2
 i =        1, E =      -566.5089768357
  I         7.0000000164        7.0000000066        5.6057557174
  I         6.9999999836        6.9999999934        8.3942442826
       2
 i =        2, E =      -566.5090130881
  I         7.0000000163        7.0000000066        5.6138392593
  I         6.9999999837        6.9999999934        8.3861607407
       2
 i =        3, E =      -566.5090131696
  I         7.0000000162        7.0000000066        5.6142475650
  I         6.9999999837        6.9999999934        8.3857524350
       2
 i =        4, E =      -566.5090131696
  I         7.0000000162        7.0000000066        5.6142475650
  I         6.9999999837        6.9999999934        8.3857524350
