       2
 i =        1, E =      -107.0876179278
 Li         6.4999999994        6.4999999989        5.7153730829
  F         6.5000000006        6.5000000011        7.2846615980
       2
 i =        2, E =      -107.0876265068
 Li         6.4999999995        6.4999999989        5.7182081560
  F         6.5000000005        6.5000000010        7.2821747723
       2
 i =        3, E =      -107.0876265261
 Li         6.4999999995        6.4999999989        5.7182860109
  F         6.5000000005        6.5000000009        7.2823752554
       2
 i =        4, E =      -107.0876265261
 Li         6.4999999995        6.4999999989        5.7182860109
  F         6.5000000005        6.5000000009        7.2823752554
