       3
 i =        1, E =      -217.7135657972
 Mo         6.9999999990        7.0000000101        7.5172256198
  O         8.3748268549        6.9999999619        6.5026721409
  O         5.6251731460        7.0000000280        6.5026721579
       3
 i =        2, E =      -217.7142295807
 Mo         7.0000000024        7.0000000124        7.5341002753
  O         8.3320439270        6.9999999584        6.4943910692
  O         5.6679560706        7.0000000292        6.4943910806
       3
 i =        3, E =      -217.7142528122
 Mo         7.0000000026        7.0000000116        7.5304867923
  O         8.3394487977        6.9999999587        6.4961824283
  O         5.6605511997        7.0000000296        6.4961824395
       3
 i =        4, E =      -217.7142529407
 Mo         7.0000000027        7.0000000120        7.5309910220
  O         8.3389350647        6.9999999584        6.4959538634
  O         5.6610649327        7.0000000295        6.4959538746
       3
 i =        5, E =      -217.7142529412
 Mo         7.0000000027        7.0000000120        7.5309910220
  O         8.3389350647        6.9999999584        6.4959538634
  O         5.6610649327        7.0000000295        6.4959538746
