       3
 i =        1, E =      -722.1148094120
  S         7.9999999093        7.9999999821        7.9999999516
 Na         8.0000000375        8.0000000113        5.5891131201
 Na         8.0000000532        8.0000000067       10.4108869284
       3
 i =        2, E =      -722.1148094128
  S         7.9999999070        7.9999999816        7.9999999905
 Na         8.0000000383        8.0000000114        5.5890635557
 Na         8.0000000541        8.0000000068       10.4109364539
       3
 i =        3, E =      -722.1148094119
  S         7.9999999068        7.9999999816        7.9999999953
 Na         8.0000000384        8.0000000115        5.5890635534
 Na         8.0000000541        8.0000000068       10.4109364515
