       4
 i =        1, E =      -306.2632112319
 Nb         6.9862074069        7.4014484516        6.5999776255
  O         8.3840148266        6.9774664027        5.6784388373
  O         5.6153017781        6.8934987018        5.6809154021
  F         7.0117080772        6.5855059749        8.3220403505
       4
 i =        2, E =      -306.2632304909
 Nb         6.9861477143        7.4039159605        6.6024989478
  O         8.3790327292        6.9763389050        5.6761060404
  O         5.6202216878        6.8928123136        5.6784003942
  F         7.0121282243        6.5849731049        8.3243480159
       4
 i =        3, E =      -306.2632323732
 Nb         6.9861415348        7.4043917631        6.6026530416
  O         8.3776728682        6.9761037385        5.6753353324
  O         5.6215179418        6.8928109490        5.6775510117
  F         7.0126223204        6.5849258733        8.3258074959
       4
 i =        4, E =      -306.2632323730
 Nb         6.9861415348        7.4043917631        6.6026530416
  O         8.3776728682        6.9761037385        5.6753353324
  O         5.6215179418        6.8928109490        5.6775510117
  F         7.0126223204        6.5849258733        8.3258074959
