       9
 i =        1, E =     -1959.9725452859
 Ni         6.9999999692        6.9999999645        6.9999999282
  C         8.0424902304        5.9575097752        8.0424902455
  C         5.9575096991        8.0424903258        8.0424904059
  C         5.9575096230        5.9575096181        5.9575096497
  C         8.0424903727        8.0424903285        5.9575097154
  O         8.7105522841        5.2894478053        8.7105522447
  O         5.2894477426        8.7105523503        8.7105524248
  O         5.2894476705        5.2894475439        5.2894476247
  O         8.7105524084        8.7105522883        5.2894477610
       9
 i =        2, E =     -1959.9727973412
 Ni         6.9999999742        6.9999999791        7.0000000169
  C         8.0348798234        5.9651201492        8.0348797560
  C         5.9651200984        8.0348798974        8.0348798212
  C         5.9651201450        5.9651201566        5.9651200818
  C         8.0348798001        8.0348798143        5.9651201164
  O         8.7033156648        5.2966844436        8.7033156505
  O         5.2966843687        8.7033157460        8.7033158948
  O         5.2966842680        5.2966841233        5.2966842523
  O         8.7033158514        8.7033156915        5.2966844062
       9
 i =        3, E =     -1959.9727983002
 Ni         6.9999999151        7.0000000049        6.9999999208
  C         8.0351103651        5.9648896433        8.0351103842
  C         5.9648895722        8.0351104432        8.0351105061
  C         5.9648895040        5.9648894772        5.9648895246
  C         8.0351104814        8.0351104422        5.9648895921
  O         8.7033893357        5.2966107550        8.7033892886
  O         5.2966107135        8.7033893905        8.7033894822
  O         5.2966106300        5.2966105042        5.2966105829
  O         8.7033894759        8.7033893409        5.2966107145
       9
 i =        4, E =     -1959.9727983025
 Ni         6.9999999151        7.0000000049        6.9999999208
  C         8.0351103651        5.9648896433        8.0351103842
  C         5.9648895722        8.0351104432        8.0351105061
  C         5.9648895040        5.9648894772        5.9648895246
  C         8.0351104814        8.0351104422        5.9648895921
  O         8.7033893357        5.2966107550        8.7033892886
  O         5.2966107135        8.7033893905        8.7033894822
  O         5.2966106300        5.2966105042        5.2966105829
  O         8.7033894759        8.7033893409        5.2966107145
