       3
 i =        1, E =      -241.2868200286
 Os         7.0000000644        6.9999986714        6.6796193174
  O         8.5551650413        7.0000007686        7.3389427895
  O         5.4448348943        7.0000005601        7.3389424290
       3
 i =        2, E =      -241.2868802728
 Os         7.0000000528        6.9999985776        6.6695650345
  O         8.5497032178        7.0000008236        7.3440501831
  O         5.4502967287        7.0000006104        7.3440498194
       3
 i =        3, E =      -241.2868863457
 Os         7.0000000103        6.9999985790        6.6653928521
  O         8.5463357000        7.0000008364        7.3461719572
  O         5.4536642887        7.0000006190        7.3461715342
       3
 i =        4, E =      -241.2868863552
 Os         7.0000000543        6.9999985712        6.6655444127
  O         8.5463944261        7.0000008506        7.3460879956
  O         5.4536055185        7.0000006305        7.3460875883
       3
 i =        5, E =      -241.2868863564
 Os         7.0000000543        6.9999985712        6.6655444127
  O         8.5463944261        7.0000008506        7.3460879956
  O         5.4536055185        7.0000006305        7.3460875883
