       2
 i =        1, E =      -123.5178540050
  F         6.5000000015        6.4999999994        5.4023772363
 Rb         6.4999999985        6.5000000006        7.5906889466
       2
 i =        2, E =      -123.5187434814
  F         6.5000000015        6.4999999994        5.3526524462
 Rb         6.4999999987        6.5000000005        7.6312842958
       2
 i =        3, E =      -123.5187944047
  F         6.5000000015        6.4999999994        5.3633891519
 Rb         6.4999999983        6.5000000007        7.6281362499
       2
 i =        4, E =      -123.5188105966
  F         6.5000000013        6.4999999994        5.3704008959
 Rb         6.4999999943        6.5000000022        7.6319169044
       2
 i =        5, E =      -123.5162650384
  F         6.4999999977        6.5000000010        5.6204008959
 Rb         6.4999998520        6.5000000586        7.7672921351
       2
 i =        6, E =      -123.5188499864
  F         6.5000000017        6.4999999993        5.3911878711
 Rb         6.5000000115        6.4999999955        7.6432215798
       2
 i =        7, E =      -123.5188058284
  F         6.5000000012        6.4999999995        5.3683552317
 Rb         6.4999999116        6.5000000349        7.6308267258
       2
 i =        8, E =      -123.5188372747
  F         6.5000000013        6.4999999995        5.3794707978
 Rb         6.4999998979        6.5000000403        7.6368680552
       2
 i =        9, E =      -123.5160853015
  F         6.5000000033        6.4999999988        5.6294707978
 Rb         6.5000077957        6.4999969192        7.7735294336
       2
 i =       10, E =      -123.5187694672
  F         6.4999999387        6.5000000242        5.4082407039
 Rb         6.5000020539        6.4999991884        7.6526868159
       2
 i =       11, E =      -123.5187907448
  F         6.5000000215        6.4999999915        5.3619349586
 Rb         6.5000004260        6.4999998317        7.6273258902
       2
 i =       12, E =      -123.5188370143
  F         6.4999999851        6.5000000059        5.3792466261
 Rb         6.5000020068        6.4999992070        7.6368145137
       2
 i =       13, E =      -123.5161440983
  F         6.4999995594        6.5000001742        5.6292466261
 Rb         6.4999104285        6.5000353952        7.7745213844
       2
 i =       14, E =      -123.5187654787
  F         6.5000006787        6.4999997318        5.4092527884
 Rb         6.4999693592        6.5000121087        7.6534376806
       2
 i =       15, E =      -123.5187966338
  F         6.4999999329        6.5000000265        5.3643235107
 Rb         6.4999767320        6.5000091950        7.6286479191
       2
 i =       16, E =      -123.5188420497
  F         6.5000002588        6.4999998977        5.3806264287
 Rb         6.4999404535        6.5000235316        7.6376535016
       2
 i =       17, E =      -123.5161717756
  F         6.5000037740        6.4999985088        5.6306264287
 Rb         6.5036409397        6.4985611913        7.7764575530
       2
 i =       18, E =      -123.5187593958
  F         6.4999704352        6.5000116986        5.4109965341
 Rb         6.5013296322        6.4994494409        7.6546142365
       2
 i =       19, E =      -123.5188045594
  F         6.4999999642        6.5000002895        5.3675519108
 Rb         6.5016649738        6.4993086524        7.6304607574
       2
 i =       20, E =      -123.5188409447
  F         6.4999877086        6.5000050709        5.3831195021
 Rb         6.5029251966        6.4987802758        7.6391323868
       2
 i =       21, E =      -123.5161534831
  F         6.4997911640        6.5000820073        5.6331195021
 Rb         6.4931987381        6.5024281720        7.7784415654
       2
 i =       22, E =      -123.5187884158
  F         6.5000126408        6.4999964742        5.4040610932
 Rb         6.5005361176        6.4997898435        7.6508506840
       2
 i =       23, E =      -123.5187455604
  F         6.4999460137        6.5000189464        5.3435032660
 Rb         6.5026047348        6.4987742147        7.6170030991
       2
 i =       24, E =      -123.5187931174
  F         6.4999755704        6.5000079573        5.3616787999
 Rb         6.5024027657        6.4985119762        7.6271367725
       2
 i =       25, E =      -123.5166500528
  F         6.5002465059        6.4999005621        5.6116787999
 Rb         6.4944230789        6.4892981283        7.7672090196
       2
 i =       26, E =      -123.5188383355
  F         6.5000483839        6.5000610470        5.3884382403
 Rb         6.5017362626        6.4962538352        7.6421803301
       2
 i =       27, E =      -123.5188199859
  F         6.5000156087        6.5000392935        5.3726696959
 Rb         6.5059379412        6.5107638353        7.6332994211
       2
 i =       28, E =      -123.5187274793
  F         6.4998875218        6.4999425346        5.3072031544
 Rb         6.5221983089        6.5490231186        7.5963784037
       2
 i =       29, E =      -123.5188936710
  F         6.5000598100        6.5001648932        5.3624752739
 Rb         6.5119234106        6.5224867723        7.6275037954
       2
 i =       30, E =      -123.5190004981
  F         6.5001456963        6.5003841091        5.3519267417
 Rb         6.5204400120        6.5380487128        7.6214765566
       2
 i =       31, E =      -123.5190154454
  F         6.5002364960        6.5006352949        5.3341500726
 Rb         6.5240434672        6.5384722864        7.6113991642
       2
 i =       32, E =      -123.5190647965
  F         6.5003703725        6.5008677186        5.3348959838
 Rb         6.5244238298        6.5296792077        7.6117637055
       2
 i =       33, E =      -123.5190894720
  F         6.5006492114        6.5012229738        5.3489546608
 Rb         6.5295893735        6.5304736778        7.6195437663
       2
 i =       34, E =      -123.5190935105
  F         6.5007834666        6.5013864264        5.3425494200
 Rb         6.5304239448        6.5301513359        7.6158577614
       2
 i =       35, E =      -123.5190963050
  F         6.5009020214        6.5014703793        5.3448699034
 Rb         6.5303607227        6.5299888503        7.6171016164
       2
 i =       36, E =      -123.5190973724
  F         6.5011114904        6.5016237866        5.3459729721
 Rb         6.5301506850        6.5298710177        7.6176011546
       2
 i =       37, E =      -123.5190997732
  F         6.5017211025        6.5020878294        5.3474265895
 Rb         6.5299385062        6.5297771111        7.6180504042
       2
 i =       38, E =      -123.5191079298
  F         6.5042057940        6.5040007685        5.3513751140
 Rb         6.5296594319        6.5296721705        7.6187097301
       2
 i =       39, E =      -123.5191190835
  F         6.5081697659        6.5070636538        5.3557578315
 Rb         6.5296145231        6.5296872355        7.6185372648
       2
 i =       40, E =      -123.5191284087
  F         6.5119981449        6.5100130910        5.3582452709
 Rb         6.5296847543        6.5297834040        7.6171477413
       2
 i =       41, E =      -123.5191314418
  F         6.5128445189        6.5106340361        5.3575953466
 Rb         6.5297928365        6.5298743101        7.6158661730
       2
 i =       42, E =      -123.5191324106
  F         6.5123340475        6.5101844743        5.3563027896
 Rb         6.5298678474        6.5299366822        7.6150362726
       2
 i =       43, E =      -123.5191324105
  F         6.5123340475        6.5101844743        5.3563027896
 Rb         6.5298678474        6.5299366822        7.6150362726
