       4
 i =        1, E =     -2140.1872575647
 Sc         8.0699509708        7.4999999770        7.5000000080
 Cl         9.2123695938        5.5213790605        7.4999999899
 Cl         9.2123696069        9.4786209639        7.4999999992
 Cl         5.7851820576        7.4999999987        7.5000000029
       4
 i =        2, E =     -2140.1872582612
 Sc         8.0699327752        7.4999999989        7.5000000076
 Cl         9.2119349750        5.5221905738        7.4999999900
 Cl         9.2119349801        9.4778094313        7.4999999994
 Cl         5.7860697881        7.4999999960        7.5000000030
       4
 i =        3, E =     -2140.1872582623
 Sc         8.0699327752        7.4999999989        7.5000000076
 Cl         9.2119349750        5.5221905738        7.4999999900
 Cl         9.2119349801        9.4778094313        7.4999999994
 Cl         5.7860697881        7.4999999960        7.5000000030
