       3
 i =        1, E =     -2402.0745842555
 Se         6.5000000098        6.4999999973        7.0240226010
  H         5.4477246172        6.4999999922        5.9771496965
  H         7.5522753729        6.5000000105        5.9771497560
       3
 i =        2, E =     -2402.0745856521
 Se         6.4999999829        6.4999999972        7.0252649016
  H         5.4499812110        6.4999999919        5.9765283785
  H         7.5500188060        6.5000000109        5.9765284123
       3
 i =        3, E =     -2402.0745856836
 Se         6.4999999882        6.4999999972        7.0252272533
  H         5.4501093927        6.4999999918        5.9765472118
  H         7.5498906192        6.5000000110        5.9765472527
       3
 i =        4, E =     -2402.0745856670
 Se         6.4999999882        6.4999999972        7.0252272533
  H         5.4501093927        6.4999999918        5.9765472118
  H         7.5498906192        6.5000000110        5.9765472527
