       3
 i =        1, E =     -1570.7833926282
 Ti         7.0497948362        6.9700186182        7.8350399500
  S         5.2236995044        7.0132315123        6.2499192528
  S         8.7265047039        7.0167497973        6.3299994445
       3
 i =        2, E =     -1574.5536941105
 Ti         7.2377125487        6.9567728075        8.0488905763
  S         5.1529031544        7.0332259947        5.9999192528
  S         8.6093808144        7.0100009955        6.3661482037
       3
 i =        3, E =     -1528.7384787277
 Ti         7.3334340082        6.9845994162        8.0731076045
  S         4.9774633571        7.0469614889        5.7499192528
  S         8.6890970897        6.9684387667        6.5919307357
       3
 i =        4, E =     -1648.8987834302
 Ti         7.3227805407        6.9903584198        7.9863870813
  S         4.9280358602        7.0553813199        5.5866403029
  S         8.7491770849        6.9542598532        6.8419307357
       3
 i =        5, E =     -1726.2815958395
 Ti         7.3137289394        7.0386522716        7.9641717965
  S         4.9229929027        7.0470986480        5.7263644181
  S         8.7632714773        6.9142487430        6.7244227987
       3
 i =        6, E =     -1608.5959276803
 Ti         7.2970170157        7.1365693942        7.9264363837
  S         4.9171029989        7.0294015475        5.9763644181
  S         8.7858730437        6.8340288754        6.5121598298
       3
 i =        7, E =     -1248.0368421787
 Ti         7.2874267546        7.0853295971        7.9985109011
  S         4.9617324118        6.9347614343        5.7263644181
  S         8.7508335085        6.9799089374        6.6900850940
       3
 i =        8, E =     -1828.8364137341
 Ti         7.2978281516        7.0576207410        8.0099761962
  S         4.9371593891        6.8992945628        5.4763644181
  S         8.7650043854        7.0430846631        6.9286193731
       3
 i =        9, E =     -1801.1805643866
 Ti         7.2779107457        7.1395078126        8.0049432303
  S         4.9319244355        6.7856742137        5.4960062682
  S         8.7901567115        7.0748183343        6.9140112427
       3
 i =       10, E =     -1639.9100301903
 Ti         7.3127581778        7.0721166770        7.9841158846
  S         4.9163217620        6.8567263088        5.5453378484
  S         8.7709120739        7.0711574027        6.8855068869
       3
 i =       11, E =     -1618.0026839351
 Ti         7.3393085857        6.9623943939        8.0136638053
  S         4.9463755311        7.1067263088        5.5339357164
  S         8.7143039937        6.9308759219        6.8673593441
       3
 i =       12, E =     -1365.6873241279
 Ti         7.3633130382        6.9526748950        7.9906241481
  S         4.9286992897        7.1104140221        5.6035880690
  S         8.7079752192        6.9369071579        6.8207471583
       3
 i =       13, E =     -1487.1147488144
 Ti         7.3407566546        6.9625612502        8.0150838365
  S         4.9470694918        7.1078213035        5.5234830674
  S         8.7121613650        6.9296136152        6.8763926337
       3
 i =       14, E =     -1650.3961841987
 Ti         7.3079013084        6.8457415970        8.0844137076
  S         5.0148694817        7.3578213035        5.3647647425
  S         8.6772175229        6.7964337444        6.9657820731
       3
 i =       15, E =     -1316.4593038733
 Ti         7.2920946420        6.7960268219        8.1055085105
  S         5.0413687717        7.4588814131        5.3169276632
  S         8.6665261575        6.7450895248        6.9925252948
       3
 i =       16, E =     -1615.9026026796
 Ti         7.2526771655        6.6713227702        8.1562870211
  S         5.1055830913        7.7088814131        5.2169295651
  S         8.6417329242        6.6197970505        7.0417472595
       3
 i =       17, E =     -1637.7486065388
 Ti         7.2544363532        6.6947617421        8.1444040645
  S         5.0997405493        7.6605786953        5.2444946380
  S         8.6458162097        6.6446609960        7.0260648552
       3
 i =       18, E =     -1780.8495094055
 Ti         7.2467271817        6.7629295823        8.0937857464
  S         5.0911332973        7.5120677857        5.3741046140
  S         8.6621350751        6.7250068089        6.9470740179
       3
 i =       19, E =     -1799.1124684222
 Ti         7.2436415104        6.7316286329        8.0744644276
  S         5.0895518048        7.5470338626        5.4296556087
  S         8.6668050993        6.7213449735        6.9108448878
       3
 i =       20, E =     -1641.9658263927
 Ti         7.2342736205        6.7007253536        7.9822765572
  S         5.0721865848        7.5230733950        5.6796556087
  S         8.6935475304        6.7762193784        6.7530347804
       3
 i =       21, E =     -1273.9255469044
 Ti         7.1768182869        6.6146583950        7.8954294168
  S         5.1127187630        7.5873389488        5.9296556087
  S         8.7104730462        6.7980233003        6.5898828623
       3
 i =       22, E =     -1433.0675839468
 Ti         7.1386679652        6.5851923067        7.8044694555
  S         5.1308165290        7.5553628611        6.1796556087
  S         8.7305253682        6.8594643236        6.4308435806
       3
 i =       23, E =     -1596.7542802053
 Ti         7.1442338194        6.6457739000        7.7023282223
  S         5.0864189124        7.3525582716        6.4296556087
  S         8.7693547821        7.0016836000        6.2829854132
       3
 i =       24, E =     -1570.0723799729
 Ti         7.0433809273        6.6551828030        7.6025350790
  S         5.1674435135        7.2168522235        6.6796556087
  S         8.7891832315        7.1279808418        6.1327788463
       3
 i =       25, E =     -1642.2640965306
 Ti         6.8663608977        6.5038528297        7.5231462723
  S         5.3635158827        7.3744823479        6.9296556087
  S         8.7701310542        7.1216808977        5.9621677766
       3
 i =       26, E =     -1420.0764384726
 Ti         6.7044442620        6.6318054045        7.4929819037
  S         5.5582101283        7.1244823479        7.0191220209
  S         8.7373534531        7.2437283243        5.9028657679
       3
 i =       27, E =     -1624.7157979702
 Ti         6.5891371859        6.4526054425        7.4457698351
  S         5.6911419665        7.3744823479        7.1862670626
  S         8.7197293803        7.1729292780        5.7829327172
       3
 i =       28, E =     -1740.8270793802
 Ti         6.5197177489        6.2815029255        7.4061349530
  S         5.7686429237        7.6244823479        7.3232796996
  S         8.7116481048        7.0940318914        5.6855543002
       3
 i =       29, E =     -1816.1621734508
 Ti         6.6059297476        6.3361457704        7.3470835639
  S         5.6372663953        7.5428327408        7.4291678786
  S         8.7568050663        7.1210288237        5.6387101138
       3
 i =       30, E =     -1200.0666787051
 Ti         6.6357834198        6.2498898984        7.2453736241
  S         5.5642369351        7.6618853534        7.6715881118
  S         8.7999725738        7.0882218249        5.4979902791
       3
 i =       31, E =     -1391.7010665324
 Ti         6.6196940003        6.3090384252        7.3149706331
  S         5.6090548002        7.5794373626        7.5046509369
  S         8.7712495956        7.1115274774        5.5953367571
       3
 i =       32, E =     -1644.0415853096
 Ti         6.5880716837        6.3962368503        7.4166816890
  S         5.6809788733        7.4394432571        7.2546509369
  S         8.7309561835        7.1643341984        5.7436369499
       3
 i =       33, E =     -1402.6525632875
 Ti         6.6110690230        6.3360537651        7.3447103993
  S         5.6283468201        7.5262175326        7.4284456580
  S         8.7605851787        7.1377343979        5.6418060324
       3
 i =       34, E =     -1467.6891813978
 Ti         6.6164079201        6.3165389546        7.3263332851
  S         5.6153529368        7.5565424147        7.4724288242
  S         8.7682374749        7.1269230330        5.6161980540
       3
 i =       35, E =     -1515.9767225629
 Ti         6.6781394164        6.2228143882        7.2155749760
  S         5.5028305333        7.7186884144        7.7224288242
  S         8.8190279205        7.0585009788        5.4769559308
       3
 i =       36, E =     -1790.1159546143
 Ti         6.7061425528        6.1800438422        7.1648536817
  S         5.4515957309        7.7914087103        7.8371113550
  S         8.8422594870        7.0285510268        5.4129956142
       3
 i =       37, E =     -1622.5985922780
 Ti         6.7151181294        6.1688863160        7.1503700007
  S         5.4359916068        7.8114522883        7.8692773874
  S         8.8488877698        7.0196641405        5.3953134407
       3
 i =       38, E =     -1599.5310558525
 Ti         6.7332448104        6.1629624463        7.1328509046
  S         5.4087572059        7.8273100735        7.9051227357
  S         8.8579947032        7.0097280458        5.3769871274
       3
 i =       39, E =     -1697.0727972598
 Ti         6.8806609789        6.0678762938        7.0032264658
  S         5.1899377560        8.0082114679        8.1551227357
  S         8.9293979167        6.9239126626        5.2566116000
       3
 i =       40, E =     -1587.6749385444
 Ti         6.8826378307        6.0678884072        7.0021143428
  S         5.1873794759        8.0093345390        8.1567824688
  S         8.9299789302        6.9227769538        5.2560640399
       3
 i =       41, E =     -1571.0647753042
 Ti         7.1326378307        5.8938091428        6.8983400692
  S         4.9615629955        8.2520623968        8.3178017062
  S         8.9057954054        6.8541283609        5.1988190974
       3
 i =       42, E =     -1533.4163600581
 Ti         7.1125321041        5.9189499049        6.9092269839
  S         4.9792026424        8.2215693791        8.2976508704
  S         8.9082590120        6.8594771413        5.2080833795
       3
 i =       43, E =     -1320.5269062852
 Ti         7.1393767218        5.9065833762        6.8996937980
  S         4.9546576921        8.2410575904        8.3107482889
  S         8.9059579563        6.8523535781        5.2045192823
       3
 i =       44, E =     -1613.0865418266
 Ti         7.2283355050        5.9523756155        6.8901482793
  S         4.8691748896        8.2155481175        8.2899670409
  S         8.9024645905        6.8320390978        5.2348516005
       3
 i =       45, E =     -1603.8293918444
 Ti         7.4783355050        5.9527029607        6.8285566570
  S         4.6345205234        8.2785795658        8.3072263436
  S         8.8871176561        6.7686785494        5.2791841169
       3
 i =       46, E =     -1681.6447201667
 Ti         7.7283355050        6.0095308301        6.7820849981
  S         4.4085942833        8.3062710999        8.2885025323
  S         8.8630431612        6.6841580766        5.3443797830
       3
 i =       47, E =     -1663.1556493287
 Ti         7.7339904649        6.0155823974        6.7821406320
  S         4.4036057691        8.3034141869        8.2850568855
  S         8.8623753849        6.6809616643        5.3477701024
       3
 i =       48, E =     -1620.6291688462
 Ti         7.9839904649        6.1863208107        6.5923039520
  S         4.3430851686        8.3223681335        8.2603047740
  S         8.6728959654        6.4912692716        5.5623589074
       3
 i =       49, E =     -1789.9981645758
 Ti         7.9382343248        6.1629315980        6.6278518510
  S         4.3571716022        8.3134362758        8.2615853182
  S         8.7045639432        6.5235880484        5.5255308084
       3
 i =       50, E =     -1536.7683880728
 Ti         7.6882343248        6.0035622800        6.8247471231
  S         4.4238506537        8.2831708884        8.2843586608
  S         8.8878848371        6.7132225805        5.3058621268
       3
 i =        1, E =     -1644.8970605378
 Ti         6.9248112869        7.0047398676        7.6021896954
  S         5.3550717637        6.9975794991        6.4297668573
  S         8.7201175960        6.9976806276        6.3830040163
       3
 i =        2, E =     -1353.8206265947
 Ti         6.9606961350        7.0052744511        7.6173578777
  S         5.3212905874        6.9968599258        6.4051645932
  S         8.7180135478        6.9978657660        6.3924380771
       3
 i =        3, E =     -1329.6480632221
 Ti         7.1779127261        7.0011226468        7.5147980959
  S         5.2031042243        6.9966075906        6.3799377986
  S         8.6189811307        7.0022707762        6.5202262084
       3
 i =        4, E =     -1349.2975916452
 Ti         6.9365195282        7.0105748153        7.6272006705
  S         5.4531042243        6.9895128502        6.2648319309
  S         8.6103757524        6.9999131671        6.5229293325
       3
 i =        5, E =     -1243.4439124378
 Ti         6.7111061873        7.0239524545        7.5066012672
  S         5.4285186928        6.9806359385        6.2470652931
  S         8.8603757524        6.9954122750        6.6612951294
       3
 i =        6, E =     -1339.7659012990
 Ti         6.5229451759        7.0308525303        7.3863829326
  S         5.3666812652        6.9787502401        6.3851667179
  S         9.1103757524        6.9903976564        6.6434116047
       3
 i =        7, E =     -1374.2460211491
 Ti         6.2729451759        7.0203575433        7.3702003443
  S         5.4770748271        6.9821350882        6.4114520513
  S         9.2499822138        6.9975077879        6.6333088191
       3
 i =        8, E =     -1395.8356649181
 Ti         6.0229451759        6.9865159939        7.1944845690
  S         5.6122290915        7.0115865289        6.6560782404
  S         9.3648279334        7.0018979086        6.5643984043
       3
 i =        9, E =    -15045.5089811777
 Ti         5.8532960537        6.9987053154        6.9488275063
  S         5.7776446959        6.9996467735        6.9060782404
  S         9.3690614534        7.0016483349        6.5600554702
       3
 i =       10, E =     -1559.6143367359
 Ti         5.6269051637        7.0773260134        6.6988275063
  S         6.0041114707        6.9210065471        7.1560512592
  S         9.3689855686        7.0016678632        6.5600824515
       3
 i =       11, E =     -1217.5809697329
 Ti         5.5505099370        6.8273260134        6.6966144336
  S         6.1069090024        7.1518942125        7.1427550071
  S         9.3425836899        7.0207802604        6.5755921108
       3
 i =       12, E =     -1514.4230432036
 Ti         5.5321893825        6.5773260134        6.6359728740
  S         6.1268815824        7.3949834489        7.2024500302
  S         9.3409314224        7.0276910151        6.5765385431
       3
 i =       13, E =     -1686.8209916339
 Ti         5.5357935189        6.4654349874        6.6448955671
  S         6.1311270666        7.2568743625        7.2025176820
  S         9.3330816095        7.2776910151        6.5675480968
       3
 i =       14, E =     -1780.8709818815
 Ti         5.5139852076        6.5281318497        6.6166014153
  S         6.1098398565        7.2851496743        7.1629740315
  S         9.3761779806        7.1867181657        6.6353867257
       3
 i =       15, E =     -1572.1555991104
 Ti         5.5248486283        6.4542238594        6.6304751719
  S         6.1232721755        7.2316293910        7.1809045794
  S         9.3518818109        7.3141459832        6.6035822375
       3
 i =       16, E =     -1480.8962704313
 Ti         5.5320928944        6.4232617217        6.6359267824
  S         6.1274510712        7.2128929904        7.1929440171
  S         9.3404583709        7.3638455237        6.5860909417
       3
 i =       17, E =     -1572.8508837153
 Ti         5.5337913443        6.3759503308        6.6351360577
  S         6.1286545080        7.1695969418        7.1938398549
  S         9.3375567481        7.4544529409        6.5859854665
       3
 i =       18, E =     -1628.4864061534
 Ti         5.4838204302        6.1267513125        6.6015301132
  S         6.1771561140        7.4195969418        7.2296517600
  S         9.3390260610        7.4536519674        6.5837795121
       3
 i =       19, E =     -1383.4335046682
 Ti         5.4899920733        6.2455791558        6.6160932111
  S         6.1860440896        7.5507694890        7.2457284082
  S         9.3239654090        7.2036519674        6.5531406441
       3
 i =       20, E =     -1356.5773468441
 Ti         5.4935251963        6.2393250449        6.6214225250
  S         6.1968608320        7.5811853138        7.2561147810
  S         9.3096149682        7.1794897806        6.5374247051
       3
 i =       21, E =     -1619.5132791318
 Ti         5.4814517661        6.1126884574        6.6017429665
  S         6.1863943281        7.4581041366        7.2360661751
  S         9.3321556540        7.4292067396        6.5771518001
       3
 i =       22, E =     -1464.4003115685
 Ti         5.4919036181        6.1328677483        6.6105748861
  S         6.1901182467        7.4476923647        7.2412678722
  S         9.3179794311        7.4194389993        6.5631181998
       3
 i =       23, E =     -1658.8386071141
 Ti         5.5817557176        6.3828677483        6.6636220447
  S         6.1877621536        7.2481963459        7.2349646445
  S         9.2304834151        7.3689350209        6.5163742451
       3
 i =       24, E =     -1731.5686596488
 Ti         5.4999601125        6.2514299111        6.6155958571
  S         6.1837417213        7.4921576086        7.2358467867
  S         9.3162996264        7.2564119222        6.5635182811
       3
 i =       25, E =     -1620.2903828174
 Ti         5.5304837302        6.1540150218        6.6343216121
  S         6.2015297530        7.3395713160        7.2485082182
  S         9.2679872080        7.5064119222        6.5321302669
       3
 i =        1, E =     -1936.3350257884
 Ti         6.9548259136        7.0039030391        7.8082230116
  S         5.1887376004        6.9990395216        6.3182727669
  S         8.8564368874        6.9970574316        6.2884624392
       3
 i =        2, E =     -1269.8644073534
 Ti         7.0242990572        6.9825698903        8.0582230116
  S         5.1059418696        6.9949024432        6.2315603514
  S         8.8697582769        7.0225280536        6.1251728312
       3
 i =        3, E =     -1640.9223604840
 Ti         7.0345854793        6.9787573720        7.8610313992
  S         5.1160832719        6.9950576405        6.3227602673
  S         8.8493309075        7.0261853534        6.2311667692
       3
 i =        1, E =     -1644.9083183662
 Ti         7.0000014511        6.9999968598        7.5819082467
  S         5.2655652826        7.0000027976        6.4163913337
  S         8.7344332649        7.0000003425        6.4163867846
       3
 i =        2, E =     -1644.9083349943
 Ti         7.0000020759        6.9999957862        7.5747996295
  S         5.2573082321        7.0000038201        6.4196260429
  S         8.7426896582        7.0000004926        6.4196186483
       3
 i =        3, E =     -1644.9083350269
 Ti         7.0000013897        6.9999957712        7.5744429648
  S         5.2570606283        7.0000039172        6.4196039712
  S         8.7429379086        7.0000004887        6.4195965986
       3
 i =        4, E =     -1644.9083350258
 Ti         7.0000013897        6.9999957712        7.5744429648
  S         5.2570606283        7.0000039172        6.4196039712
  S         8.7429379086        7.0000004887        6.4195965986
