       2
 i =        1, E =      -630.9066098793
 Tl         6.9999999995        6.9999999995        5.7074363930
 Cl         7.0000000005        7.0000000005        8.2925646720
       2
 i =        2, E =      -630.9066735424
 Tl         6.9999999995        6.9999999995        5.7171025489
 Cl         7.0000000005        7.0000000005        8.2828985161
       2
 i =        3, E =      -630.9066739467
 Tl         6.9999999995        6.9999999995        5.7179597301
 Cl         7.0000000005        7.0000000005        8.2820415423
       2
 i =        4, E =      -630.9066739460
 Tl         6.9999999995        6.9999999995        5.7179597301
 Cl         7.0000000005        7.0000000005        8.2820415423
