       4
 i =        1, E =     -1550.6280085649
 Tl         6.9017360810        7.4999999718        7.4961998352
 Cl         5.6833900305        9.6100748203        7.5046624982
 Cl         5.6833900410        5.3899251989        7.5046624977
 Cl         9.3383543409        7.5000000091        7.5046624355
       4
 i =        2, E =     -1550.6280590430
 Tl         6.9017789089        7.4999999946        7.4974140650
 Cl         5.6874882891        9.6028440814        7.5042578394
 Cl         5.6874882859        5.3971559146        7.5042578390
 Cl         9.3301140385        7.5000000094        7.5042575913
       4
 i =        3, E =     -1550.6280599954
 Tl         6.9018381519        7.4999999970        7.4986666805
 Cl         5.6878376278        9.6020836605        7.5038404366
 Cl         5.6878376241        5.3979163337        7.5038404362
 Cl         9.3293550053        7.5000000089        7.5038400064
       4
 i =        4, E =     -1550.6280599951
 Tl         6.9018381519        7.4999999970        7.4986666805
 Cl         5.6878376278        9.6020836605        7.5038404366
 Cl         5.6878376241        5.3979163337        7.5038404362
 Cl         9.3293550053        7.5000000089        7.5038400064
