      13
 i =        1, E =      -746.5420915544
  W         8.4999999412        8.4999999663        8.5000000110
  C         8.4999999965       10.5379053922        8.5000000327
  C         8.4999998885        8.5000000350       10.5379052545
  C        10.5379052986        8.4999999602        8.5000000776
  C         8.5000000356        8.5000000286        6.4620947241
  C         6.4620946563        8.4999999750        8.5000000335
  C         8.4999999461        6.4620945859        8.4999999598
  O         8.4999999556       11.6998267367        8.4999999668
  O         8.5000000302        8.4999999564       11.6998264897
  O        11.6998266585        8.4999999880        8.4999999657
  O         8.4999999384        8.4999999686        5.3001734806
  O         5.3001736649        8.4999999644        8.4999999898
  O         8.4999999894        5.3001734425        8.5000000142
      13
 i =        2, E =      -746.5421080610
  W         8.5000000720        8.5000000629        8.5000000272
  C         8.4999998964       10.5406501548        8.4999999980
  C         8.4999998839        8.4999998679       10.5406501601
  C        10.5406501701        8.4999998826        8.5000000085
  C         8.4999999130        8.4999998895        6.4593498362
  C         6.4593498219        8.4999998934        8.4999999625
  C         8.4999998874        6.4593498179        8.4999999921
  O         8.4999999862       11.7022636595        8.4999999827
  O         8.5000000103        8.5000000085       11.7022634549
  O        11.7022636290        8.4999999988        8.5000000028
  O         8.4999999821        8.5000000131        5.2977365657
  O         5.2977367468        8.4999999825        8.5000000142
  O         8.4999999976        5.2977367678        8.4999999969
      13
 i =        3, E =      -746.5421082532
  W         8.4999999604        8.4999999627        8.4999999785
  C         8.5000000679       10.5403845504        8.5000000172
  C         8.5000000627        8.5000000648       10.5403845781
  C        10.5403845590        8.5000000608        8.5000000345
  C         8.5000000744        8.5000000757        6.4596154117
  C         6.4596154029        8.5000000620        8.5000000144
  C         8.5000000653        6.4596153986        8.5000000151
  O         8.4999999212       11.7019911318        8.4999999772
  O         8.4999999384        8.4999999304       11.7019910888
  O        11.7019911268        8.4999999293        8.4999999943
  O         8.4999999232        8.4999999405        5.2980089135
  O         5.2980089602        8.4999999191        8.4999999905
  O         8.4999999280        5.2980089657        8.4999999875
      13
 i =        4, E =      -746.5421082532
  W         8.4999999604        8.4999999627        8.4999999785
  C         8.5000000679       10.5403845504        8.5000000172
  C         8.5000000627        8.5000000648       10.5403845781
  C        10.5403845590        8.5000000608        8.5000000345
  C         8.5000000744        8.5000000757        6.4596154117
  C         6.4596154029        8.5000000620        8.5000000144
  C         8.5000000653        6.4596153986        8.5000000151
  O         8.4999999212       11.7019911318        8.4999999772
  O         8.4999999384        8.4999999304       11.7019910888
  O        11.7019911268        8.4999999293        8.4999999943
  O         8.4999999232        8.4999999405        5.2980089135
  O         5.2980089602        8.4999999191        8.4999999905
  O         8.4999999280        5.2980089657        8.4999999875
