       2
 i =        1, E =       -70.2043958631
  W         6.5179167066        6.4957261592        5.6021406829
  H         6.4820834121        6.5042746527        7.3978593538
       2
 i =        2, E =       -68.4169948913
  W         6.5114733114        6.5039316698        5.6265677330
  H         6.4885275249        6.4960848995        7.3734371365
       2
 i =        3, E =       -70.7002940416
  W         6.5260403575        6.4979342194        5.6902866912
  H         6.4739596814        6.5020415665        7.3097057310
       2
 i =        4, E =       -69.1990336969
  W         6.5211365199        6.5061548115        5.6400078456
  H         6.4788645399        6.4938550843        7.3599950009
       2
 i =        5, E =       -69.3123769881
  W         6.5302111545        6.4951833992        5.6434352723
  H         6.4697903392        6.5048324399        7.3565691395
       2
 i =        6, E =       -69.6641813780
  W         6.5561250858        6.4953978301        5.6471697073
  H         6.4438624337        6.5046280053        7.3528230408
       2
 i =        7, E =       -70.1007620544
  W         6.5556906232        6.4937352558        5.6435544765
  H         6.4442958358        6.5062938121        7.3564380613
       2
 i =        8, E =       -68.4946490074
  W         6.3523098457        6.4743143955        5.3935580653
  H         6.6476656944        6.5257254546        7.6064380613
       2
 i =        9, E =       -69.4701592473
  W         6.4966942754        6.4991207805        5.6000875213
  H         6.5032944939        6.5008910713        7.3999065717
       2
 i =       10, E =       -69.5721093163
  W         6.5121957513        6.5479639677        5.7283403500
  H         6.4878170635        6.4519694590        7.2716520259
       2
 i =       11, E =       -70.6943180117
  W         6.4821317218        6.5222231742        5.6269237274
  H         6.5178701942        6.4777558169        7.3730728178
       2
 i =       12, E =       -69.6144965470
  W         6.5311142076        6.4968531971        5.6183454095
  H         6.4688471743        6.5031462092        7.3816431854
       2
 i =       13, E =       -70.3903675925
  W         6.7600290404        6.3911269475        5.6061854177
  H         6.2397843706        6.6089869666        7.3937691768
       2
 i =       14, E =       -70.8139486450
  W         6.5772767587        6.4775500403        5.6214724201
  H         6.4226423460        6.5224524963        7.3785091953
       2
 i =       15, E =       -70.5277194090
  W         6.5958720870        6.4664581883        5.6205479625
  H         6.4040306070        6.5335535485        7.3794277583
       2
 i =       16, E =       -69.1497905114
  W         6.5826560437        6.4707158182        5.6218785029
  H         6.4172502562        6.5292873004        7.3780966241
       2
 i =       17, E =       -68.2354797428
  W         6.5855372337        6.4681714300        5.6268380263
  H         6.4143294779        6.5318153149        7.3731325267
       2
 i =       18, E =       -68.0713822239
  W         6.5388435056        6.4950501987        5.8768286951
  H         6.4609831163        6.5048682767        7.1231325267
       2
 i =       19, E =       -70.5919383611
  W         6.5762711506        6.4752629034        5.6369697429
  H         6.4236160544        6.5247250065        7.3630055302
       2
 i =       20, E =       -70.0716724628
  W         6.5755021082        6.4701851107        5.6317579984
  H         6.4243735765        6.5298034417        7.3682103984
       2
 i =       21, E =       -70.7553965709
  W         6.5690553244        6.4766153455        5.6285430393
  H         6.4308451208        6.5233778212        7.3714317528
       2
 i =       22, E =       -68.3232963839
  W         6.7632867375        6.7266153455        5.6216879644
  H         6.2366573888        6.2733788842        7.3783066356
       2
 i =       23, E =       -70.8508765464
  W         6.7363790960        6.5405039356        5.6639168287
  H         6.2633052388        6.4594400357        7.3360135913
       2
 i =       24, E =       -70.1246505437
  W         6.9857945713        6.4725960596        5.7434150672
  H         6.0133052388        6.5272270887        7.2563853390
       2
 i =       25, E =       -68.2359787481
  W         6.8169638092        6.5217765387        5.6896288177
  H         6.1825381612        6.4781277720        7.3102606231
       2
 i =       26, E =       -69.3876809777
  W         6.7555590676        6.4978076089        5.6867407353
  H         6.2440151677        6.5021113704        7.3131634432
       2
 i =       27, E =       -70.8161223681
  W         6.7762519956        6.4824533394        5.6888724465
  H         6.2232621013        6.5174517199        7.3110175678
       2
 i =       28, E =       -70.6758988211
  W         7.0257093424        6.4129593451        5.6994127777
  H         5.9732621013        6.5868207501        7.3003523207
       2
 i =       29, E =       -68.2355550535
  W         6.7975285284        6.4678839435        5.6758202224
  H         6.2019341291        6.5320065791        7.3240569048
       2
 i =       30, E =       -69.8313822807
  W         6.7413876347        6.5038553699        5.6930563019
  H         6.2582167897        6.4960680991        7.3068551166
       2
 i =       31, E =       -68.5717144842
  W         6.7980465068        6.4840011949        5.6932015930
  H         6.2014253788        6.5158933114        7.3066802094
       2
 i =       32, E =       -70.8546999531
  W         6.7826700190        6.4755128068        5.6878159865
  H         6.2168182817        6.5243882105        7.3120692397
       2
 i =       33, E =       -68.5164651721
  W         6.8644163496        6.3642601894        5.4378159865
  H         6.1350686389        6.6356390114        7.5620677635
       2
 i =       34, E =       -67.3707206107
  W         6.6847217115        6.3992854522        5.5917787341
  H         6.3149161462        6.6006715960        7.4081407612
       2
 i =       35, E =       -69.1758147483
  W         6.7610000520        6.5071443019        5.8416124161
  H         6.2383837141        6.4927038508        7.1581407612
       2
 i =       36, E =       -70.3147709970
  W         6.9558981144        6.5118359661        5.7290607614
  H         6.0433245291        6.4879620259        7.2707007930
       2
 i =       37, E =       -69.5414708030
  W         6.9071000840        6.5132884251        5.7249934284
  H         6.0922006729        6.4865202393        7.2747632556
       2
 i =       38, E =       -70.7439178370
  W         6.6574766982        6.4855164750        5.6804252232
  H         6.3422006729        6.5143504908        7.3193001460
       2
 i =       39, E =       -68.9482763662
  W         6.6269637262        6.4763732779        5.6565915169
  H         6.3727719005        6.5235010163        7.3431289806
       2
 i =       40, E =       -70.7384776879
  W         6.7294183463        6.4793766352        5.6775277687
  H         6.2701489878        6.5204758183        7.3222044015
       2
 i =       41, E =       -69.0366380804
  W         6.9790264111        6.4962397806        5.7233087449
  H         6.0201489878        6.5035569198        7.2764533395
       2
 i =       42, E =       -69.0449151364
  W         6.7635220517        6.4817752439        5.6820312769
  H         6.2359938550        6.5180694837        7.3177050232
       2
 i =       43, E =       -70.1528225486
  W         6.7614453516        6.4813582379        5.6815519774
  H         6.2380737669        6.5184869448        7.3181841461
       2
 i =       44, E =       -70.4162850455
  W         6.5118297200        6.4278450423        5.6216006363
  H         6.4880737669        6.5720557024        7.3781140449
       2
 i =       45, E =       -68.2325063559
  W         6.7107907221        6.4695338370        5.6692956382
  H         6.2888074566        6.5303246031        7.3304362378
       2
 i =       46, E =       -68.2304479992
  W         6.9604047692        6.5264424058        5.7295155464
  H         6.0388074566        6.4733547737        7.2702380938
       2
 i =       47, E =       -68.8783312878
  W         6.7262280129        6.4739154307        5.6731022811
  H         6.2733481790        6.5259402300        7.3266312533
       2
 i =       48, E =       -68.4167078432
  W         6.8455210577        6.5031331086        5.7020531651
  H         6.1538753357        6.4966955262        7.2976914212
       2
 i =       49, E =       -69.9876643192
  W         6.8233986847        6.5010439787        5.6969585299
  H         6.1760387675        6.4987935115        7.3027847012
       2
 i =       50, E =       -70.6287106188
  W         6.8360396497        6.5065437791        5.7002117858
  H         6.1633844536        6.4932935263        7.2995328332
       2
 i =        1, E =       -68.2369977349
  W         6.5045111936        6.4979330948        5.6673388252
  H         6.4954888143        6.5020669032        7.3326612685
       2
 i =        2, E =       -68.2370263161
  W         6.5045829338        6.4978986290        5.6615193611
  H         6.4954172383        6.5021013661        7.3384807515
       2
 i =        3, E =       -68.2370268085
  W         6.5045751424        6.4979028872        5.6621809497
  H         6.4954249867        6.5020970053        7.3378191153
       2
 i =        4, E =       -68.2370268088
  W         6.5045751424        6.4979028872        5.6621809497
  H         6.4954249867        6.5020970053        7.3378191153
