       3
 i =        1, E =      -511.1646707919
 Xe         7.5000000023        7.4999999945        7.5000000147
  F         7.4999999967        7.5000000008        9.3266892702
  F         7.5000000011        7.5000000048        5.6733107151
       3
 i =        2, E =      -511.1664300147
 Xe         7.5000000010        7.4999999975        7.4999999999
  F         7.4999999971        7.4999999992        9.3993274667
  F         7.5000000018        7.5000000035        5.6006725334
       3
 i =        3, E =      -511.1672383897
 Xe         7.5000000002        7.4999999996        7.5000000221
  F         7.4999999975        7.4999999981        9.3752081521
  F         7.5000000023        7.5000000024        5.6247918259
       3
 i =        4, E =      -511.1672495628
 Xe         7.5000000000        7.5000000000        7.4999999495
  F         7.4999999976        7.4999999979        9.3718589513
  F         7.5000000024        7.5000000023        5.6281410992
       3
 i =        5, E =      -511.1672496206
 Xe         7.5000000000        7.5000000001        7.4999999456
  F         7.4999999975        7.4999999978        9.3720843178
  F         7.5000000025        7.5000000023        5.6279157369
       3
 i =        6, E =      -511.1672496218
 Xe         7.5000000000        7.5000000001        7.4999999456
  F         7.4999999975        7.4999999978        9.3720843178
  F         7.5000000025        7.5000000023        5.6279157369
