       2
 i =        1, E =      -121.5644644717
 Zr         6.4999999879        6.5000000786        5.6463112618
  O         6.5000000104        6.4999999232        7.3712504768
       2
 i =        2, E =      -121.5644686085
 Zr         6.5000000025        6.4999999757        5.6465835030
  O         6.5000000115        6.4999999238        7.3693872190
       2
 i =        3, E =      -121.5644689821
 Zr         6.5000000021        6.4999999946        5.6453436212
  O         6.5000000104        6.4999999255        7.3680588917
       2
 i =        4, E =      -121.5644689818
 Zr         6.5000000021        6.4999999946        5.6453436212
  O         6.5000000104        6.4999999255        7.3680588917
