       3
 i =        1, E =       -37.3698714146
 Bi         6.9895658381        6.9981499201        7.6364958847
  O         5.3674270410        7.0008154969        6.4183809177
  O         8.6429047962        7.0010174959        6.4082571752
       3
 i =        2, E =       -37.3715847516
 Bi         6.9823524897        6.9977166231        7.6793372819
  O         5.4219516394        7.0013817331        6.3974933233
  O         8.5943926858        7.0018842092        6.3845508080
       3
 i =        3, E =       -37.3735958289
 Bi         6.9699030809        6.9968576486        7.7538017701
  O         5.5418170434        7.0034661268        6.3774681123
  O         8.4771560490        7.0051309357        6.3480486115
       3
 i =        4, E =       -37.3739289615
 Bi         6.9731456714        6.9968099679        7.7617836639
  O         5.5618623716        7.0052957341        6.3669430666
  O         8.4487612169        7.0083192291        6.3516689692
       3
 i =        5, E =       -37.3741995642
 Bi         6.9846581278        6.9969131438        7.7624485349
  O         5.5746894175        7.0108623219        6.3410993671
  O         8.4226025987        7.0177964889        6.3669588146
       3
 i =        6, E =       -37.3742352737
 Bi         6.9855790932        6.9967360090        7.7697851043
  O         5.5793028314        7.0148836520        6.3389117371
  O         8.4158282239        7.0223573547        6.3613635533
       3
 i =        7, E =       -37.3742602924
 Bi         6.9877183591        6.9966853871        7.7722132517
  O         5.5805131989        7.0231949411        6.3409904760
  O         8.4114204807        7.0296634093        6.3544447136
       3
 i =        8, E =       -37.3742716734
 Bi         6.9909044366        6.9968475728        7.7699876432
  O         5.5777650654        7.0338524333        6.3461205650
  O         8.4102033534        7.0359628628        6.3476430981
       3
 i =        9, E =       -37.3742777299
 Bi         6.9908943044        6.9969671110        7.7673837494
  O         5.5754618818        7.0316727002        6.3466367670
  O         8.4123358047        7.0332175518        6.3496113374
       3
 i =       10, E =       -37.3742797674
 Bi         6.9914656932        6.9970421228        7.7659732481
  O         5.5740135507        7.0317414908        6.3466860113
  O         8.4112138678        7.0318821357        6.3487547445
       3
 i =       11, E =       -37.3742822664
 Bi         6.9917177742        6.9971309068        7.7631914842
  O         5.5694414216        7.0315726759        6.3482937931
  O         8.4106999489        7.0296402867        6.3461367616
       3
 i =       12, E =       -37.3742891664
 Bi         6.9909904869        6.9973175857        7.7560265891
  O         5.5551332191        7.0312656039        6.3518408554
  O         8.4083986217        7.0258034654        6.3401172691
       3
 i =       13, E =       -37.3742351952
 Bi         6.9864657339        6.9976561332        7.7413991942
  O         5.5229320926        7.0299213378        6.3586078234
  O         8.4040021379        7.0195198827        6.3294415518
       3
 i =       14, E =       -37.3742961994
 Bi         6.9886553129        6.9973175357        7.7550801541
  O         5.5503876612        7.0306788894        6.3516505712
  O         8.4058694147        7.0261113756        6.3386961555
       3
 i =       15, E =       -37.3743011039
 Bi         6.9867559353        6.9973064394        7.7549705254
  O         5.5486735922        7.0304523805        6.3513333020
  O         8.4054810459        7.0269930146        6.3393343634
       3
 i =       16, E =       -37.3743066992
 Bi         6.9628085937        6.9972191494        7.7541822976
  O         5.5288363921        7.0292847118        6.3447597819
  O         8.3946546167        7.0364715888        6.3477249203
       3
 i =       17, E =       -37.3743208845
 Bi         6.9717030561        6.9972153742        7.7562315504
  O         5.5406212231        7.0301531455        6.3471779484
  O         8.4012226098        7.0327825869        6.3470345076
       3
 i =       18, E =       -37.3743218047
 Bi         6.9709167080        6.9972597036        7.7555325527
  O         5.5388160616        7.0306325476        6.3473718130
  O         8.3991992159        7.0313210789        6.3454780403
       3
 i =       19, E =       -37.3743222009
 Bi         6.9692744880        6.9972577650        7.7557322059
  O         5.5385463193        7.0308806769        6.3468606708
  O         8.3989554322        7.0313634568        6.3466029021
       3
 i =       20, E =       -37.3743222700
 Bi         6.9689945088        6.9972669036        7.7557669883
  O         5.5389114690        7.0311614236        6.3467892316
  O         8.3989950412        7.0310740755        6.3467874194
       3
 i =       21, E =       -37.3743222700
 Bi         6.9689945088        6.9972669036        7.7557669883
  O         5.5389114690        7.0311614236        6.3467892316
  O         8.3989950412        7.0310740755        6.3467874194
