       5
 i =        1, E =       -77.2821983260
 Br         6.4999999879        6.4999999851        6.5000000095
  O         7.4615986898        5.5384013227        7.4615986598
  O         5.5384013381        7.4615986899        7.4615986738
  O         5.5384013238        5.5384013354        5.5384013183
  O         7.4615986602        7.4615986666        5.5384013387
       5
 i =        2, E =       -77.2825322689
 Br         6.5000001150        6.4999998869        6.5000005022
  O         7.4678815302        5.5321184523        7.4678812752
  O         5.5321184973        7.4678814825        7.4678810740
  O         5.5321188488        5.5321190109        5.5321185919
  O         7.4678809952        7.4678811514        5.5321185683
       5
 i =        3, E =       -77.2825328881
 Br         6.4999999350        6.5000000517        6.4999997447
  O         7.4681522989        5.5318477023        7.4681525521
  O         5.5318476622        7.4681523390        7.4681527427
  O         5.5318473364        5.5318471889        5.5318475902
  O         7.4681528089        7.4681526598        5.5318475934
       5
 i =        4, E =       -77.2825328881
 Br         6.4999999350        6.5000000517        6.4999997447
  O         7.4681522989        5.5318477023        7.4681525521
  O         5.5318476622        7.4681523390        7.4681527427
  O         5.5318473364        5.5318471889        5.5318475902
  O         7.4681528089        7.4681526598        5.5318475934
