       6
 i =        1, E =       -13.7213994884
  C         7.0000087219        6.3317161349        6.9999999959
  C         7.0000021737        7.6682755923        6.9999999948
  H         7.9305666502        5.7553864675        7.0000000024
  H         6.0694631281        5.7553795533        7.0000000048
  H         7.9305546961        8.2446257714        7.0000000054
  H         6.0694457647        8.2446199890        6.9999999967
       6
 i =        2, E =       -13.7214274112
  C         7.0000097953        6.3324868798        7.0000000018
  C         7.0000038278        7.6675190480        7.0000000002
  H         7.9287579304        5.7591950269        7.0000000011
  H         6.0712679441        5.7591843523        7.0000000003
  H         7.9287496833        8.2408137335        7.0000000011
  H         6.0712520460        8.2408044829        6.9999999955
       6
 i =        3, E =       -13.7214275726
  C         7.0000103422        6.3324485690        7.0000000007
  C         7.0000032926        7.6675511866        6.9999999995
  H         7.9290311966        5.7594782541        7.0000000021
  H         6.0709951792        5.7594688113        7.0000000004
  H         7.9290171387        8.2405325906        7.0000000010
  H         6.0709841611        8.2405241018        6.9999999963
       6
 i =        4, E =       -13.7214275726
  C         7.0000103422        6.3324485690        7.0000000007
  C         7.0000032926        7.6675511866        6.9999999995
  H         7.9290311966        5.7594782541        7.0000000021
  H         6.0709951792        5.7594688113        7.0000000004
  H         7.9290171387        8.2405325906        7.0000000010
  H         6.0709841611        8.2405241018        6.9999999963
