       3
 i =        1, E =      -197.1897960068
 Co         7.0118617174        6.9527124812        6.9861892550
  F         8.8660548034        6.9788048008        7.1238920846
  F         5.1176161909        7.0707591030        6.9155386555
       3
 i =        2, E =      -195.7667794513
 Co         7.0097380895        7.0251795756        7.0456467394
  F         8.8514205223        6.9328661916        7.0773852083
  F         5.1206653866        7.0429465233        6.8944315839
       3
 i =        3, E =      -196.4561833991
 Co         7.0059089729        6.9813192095        7.1121652068
  F         8.8193146581        6.9273451708        7.0349766000
  F         5.1278116586        7.0752444188        6.8883848341
       3
 i =        4, E =      -161.1776190397
 Co         7.0026125188        6.9816000522        7.0793624349
  F         8.8310818194        6.9143520457        7.0471009074
  F         5.1234505795        7.0903873282        6.9224685282
       3
 i =        5, E =      -190.3514577508
 Co         6.7848100550        6.9445313681        7.0372124994
  F         9.0810818194        6.8921282285        7.0329645893
  F         5.0912471549        7.1496610131        6.9782622771
       3
 i =        6, E =      -196.4482756164
 Co         6.7468278421        6.8628733705        7.2872124994
  F         9.1631371830        6.8929357114        6.9657127355
  F         5.0458954939        7.2391267443        6.7392906677
       3
 i =        7, E =      -198.9252076234
 Co         6.7613320644        6.8645500024        7.2405197436
  F         9.1503521440        6.8786939526        7.0154313321
  F         5.0333105528        7.2691418142        6.7261274550
       3
 i =        8, E =      -196.5720822500
 Co         6.8048777908        6.9195969847        7.1118532521
  F         9.1568987910        6.8600824231        7.2218106337
  F         4.9585381108        7.3012754800        6.6332059691
       3
 i =        9, E =      -194.5676428935
 Co         6.8124441402        6.9321684847        7.1147307579
  F         9.1506600064        6.8315061714        7.2179057235
  F         4.9559902052        7.2958774374        6.6405842129
       3
 i =       10, E =      -195.6947896808
 Co         6.8111981325        6.9420552246        7.2056053926
  F         9.1276600686        6.7981080097        7.0866485684
  F         5.0017682723        7.2358805585        6.7357961915
       3
 i =       11, E =      -195.1038660311
 Co         6.8308291459        6.9610092649        7.1927592736
  F         9.1117338972        6.7898813875        7.0969874168
  F         5.0353437189        7.1594413331        6.7857819293
       3
 i =       12, E =      -197.9078902182
 Co         6.9010784429        7.0078760843        7.1895621566
  F         9.0423050643        6.7512247717        7.0546480680
  F         5.1491873075        6.9094413331        6.9642304985
       3
 i =       13, E =      -195.6354608265
 Co         6.9738032499        7.0763677553        7.1589499470
  F         8.9191789948        6.7121023911        6.9818584119
  F         5.3197654516        6.6594413331        7.1762260125
       3
 i =       14, E =      -195.2696402582
 Co         7.0721780656        7.1539584696        7.0573642914
  F         8.8284986652        6.7815534767        6.9920517011
  F         5.3972322304        6.4094413331        7.3487740641
       3
 i =       15, E =      -195.4100503404
 Co         7.0508040892        7.1409756877        7.0845014538
  F         8.8584810487        6.7687900375        6.9738296903
  F         5.3729434221        6.4687179052        7.3026352742
       3
 i =       16, E =      -196.3923774838
 Co         6.9618369154        7.0735750314        7.1755988322
  F         8.9841399649        6.7342850252        6.9221503779
  F         5.2651527956        6.7187179052        7.0988387872
       3
 i =       17, E =      -196.3196140691
 Co         7.0131498494        7.0996073813        7.1248885741
  F         8.9183478802        6.7454031358        6.9415907096
  F         5.3264561323        6.5997277671        7.1947440297
       3
 i =       18, E =      -194.4531823601
 Co         7.1121195509        7.1560130379        7.0435197079
  F         8.8017285715        6.7891337376        6.9778460496
  F         5.4246336969        6.3497277671        7.4031314948
       3
 i =       19, E =      -195.8999528447
 Co         7.0455689260        7.1062160596        7.1143711659
  F         8.8822556864        6.7490518872        6.9459125143
  F         5.3500973543        6.5355893831        7.2607104017
       3
 i =       20, E =      -195.7184750016
 Co         6.9711689296        7.0610542226        7.1809286015
  F         9.0010176504        6.6820136614        7.0039968562
  F         5.2684849184        6.7855893831        7.0588583468
       3
 i =       21, E =      -198.1411548610
 Co         7.0253276728        7.0926818561        7.1355398335
  F         8.9365174374        6.7026711732        7.0179328725
  F         5.3182623525        6.6581942177        7.1654371325
       3
 i =       22, E =      -197.0806536857
 Co         7.0319600631        7.1381705524        7.0717377383
  F         8.8232676377        6.8357430013        6.9657099693
  F         5.4232176659        6.4081942177        7.3065460166
       3
 i =       23, E =      -196.1945846677
 Co         7.0457084172        7.1473601952        7.0539200812
  F         8.8166738481        6.8369125886        6.9942341690
  F         5.4344883813        6.3975382959        7.3073333256
       3
 i =       24, E =      -195.8008352920
 Co         7.1712849450        7.2204415422        6.9379428831
  F         8.8175370483        6.7837685466        7.2261002479
  F         5.4565544393        6.4372088514        7.2683492903
       3
 i =       25, E =      -196.5226968314
 Co         7.1576348947        7.1958438386        6.9642124768
  F         8.8541958097        6.7562386441        7.2295501226
  F         5.4371803007        6.4938184710        7.2239325582
       3
 i =       26, E =      -197.0799899405
 Co         6.9076348947        7.4127672701        6.8416847226
  F         8.9950001681        6.5347965428        7.4006019348
  F         5.4735379251        6.5122218222        7.1453994039
       3
 i =       27, E =      -193.5350197665
 Co         6.7571856385        7.2246633830        7.0693132786
  F         9.1884660710        6.4500208752        7.2187888834
  F         5.3665567041        6.7622218222        6.9612680056
       3
 i =       28, E =      -196.7692497384
 Co         6.9738798145        7.1404943206        7.1174141266
  F         9.1487520093        6.4812556582        7.2383755399
  F         5.3747209994        6.8173096478        7.0206402071
       3
 i =       29, E =      -193.0395244130
 Co         7.1752436332        6.9209764534        7.2914629006
  F         9.1746608451        6.4852835587        7.1706275514
  F         5.3232006550        6.9809258455        6.9989024907
       3
 i =       30, E =      -196.6086872183
 Co         7.2833670520        6.7289355166        7.4372146159
  F         9.1561669116        6.5421790727        7.0337876508
  F         5.2615546264        7.0666183740        6.9750423634
       3
 i =       31, E =      -197.9042113103
 Co         7.2495051873        6.8173203914        7.3389969297
  F         9.0567286413        6.6045037366        7.0438884193
  F         5.2879733763        6.9233143949        7.0392561503
       3
 i =       32, E =      -195.6872749747
 Co         7.1862823682        6.8530873962        7.2875838310
  F         9.0694510350        6.6071227402        7.0486710725
  F         5.3008683041        6.8640149486        7.0135035174
       3
 i =       33, E =      -196.4009074865
 Co         7.1665010381        6.8642309675        7.2453489163
  F         9.0284525918        6.6403097696        7.0298022218
  F         5.3090314266        6.7806259976        7.0263169017
       3
 i =       34, E =      -196.1866419314
 Co         7.1177392160        6.9180876742        7.1693137995
  F         8.9671860188        6.7118805297        7.0226091083
  F         5.3234012122        6.6568770452        7.0472355717
       3
 i =       35, E =      -199.3176214898
 Co         7.1303121282        6.9117560926        7.1742866882
  F         8.9481811338        6.7539290733        7.0077723583
  F         5.3184978598        6.6493142223        7.0508961890
       3
 i =       36, E =      -195.5316185831
 Co         7.3803121282        6.8343088657        7.1315779134
  F         8.7624739259        6.9128655344        6.9454637848
  F         5.2875579693        6.6030475319        7.1744728038
       3
 i =       37, E =      -195.7018050163
 Co         7.1471161870        6.9026136802        7.1509710106
  F         8.9265110466        6.7938146916        6.9870150538
  F         5.3202534801        6.6075650598        7.0592106250
       3
 i =       38, E =      -197.7612672881
 Co         7.1328135577        6.8997835007        7.1642750943
  F         8.9501340005        6.7504564539        6.9883705384
  F         5.3189034716        6.6372479262        7.0517268673
       3
 i =       39, E =      -194.4393391923
 Co         7.1233037453        6.8390879851        7.3026229780
  F         9.0979905131        6.5346115706        6.9927698855
  F         5.2948565714        6.8872479262        7.0020334677
       3
 i =       40, E =      -193.7036027660
 Co         7.0140434054        6.7597920892        7.5139894228
  F         9.1881705204        6.3745177702        6.8790626025
  F         5.2116284463        7.1372479262        6.9288941489
       3
 i =       41, E =      -195.5657273177
 Co         7.0325474717        6.8040944621        7.4356467436
  F         9.1240019152        6.4583242237        6.8968315397
  F         5.2311818638        7.0353515981        6.9633027187
       3
 i =       42, E =      -196.5198716623
 Co         7.1303850238        6.9180692578        7.2427319979
  F         8.9785993890        6.6320147251        7.0256725693
  F         5.2967160773        6.7853515981        7.0928228448
       3
 i =       43, E =      -195.3383921689
 Co         7.2114444217        7.0319764505        7.0622182336
  F         8.8593241644        6.7671460182        7.1554051836
  F         5.3560536025        6.5743019283        7.2062863374
       3
 i =       44, E =      -198.8748407942
 Co         7.2845160213        7.1100502660        6.9637723514
  F         8.9215652365        6.7450086449        7.2918517412
  F         5.4343175930        6.5595034333        7.2141294972
       3
 i =       45, E =      -196.8726093764
 Co         7.1621992519        7.0051021557        7.1641881879
  F         9.0221941268        6.5781010253        7.1235646758
  F         5.3500404388        6.7991271772        7.1184585132
       3
 i =       46, E =      -194.8878266561
 Co         7.1779467429        7.0036319858        7.1436857787
  F         9.0225831144        6.5898715180        7.1328951373
  F         5.3606266803        6.7781996830        7.1207395607
       3
 i =       47, E =      -194.0646451831
 Co         7.0437627699        7.2392707635        7.2181892944
  F         8.8989302903        6.6926865696        7.0678404143
  F         5.5262443796        6.5281996830        7.1420918808
       3
 i =       48, E =      -196.5133755449
 Co         7.0351634659        7.3696058153        7.1852980619
  F         8.8402066393        6.7949124031        7.0576969381
  F         5.6923370134        6.2781996830        7.1544232680
       3
 i =       49, E =      -196.4984741494
 Co         7.0520022918        7.4651375273        7.1185915601
  F         8.8023772139        6.8871787875        7.0539482725
  F         5.8503667443        6.0281996830        7.1524815265
       3
 i =       50, E =      -197.0985717275
 Co         7.0509839146        7.5418234459        7.0867859857
  F         8.7767277918        7.0161355977        7.0104167735
  F         6.0162458565        5.7781996830        7.1272466763
