       2
 i =        1, E =       -48.3224771469
  F         5.9999999609        6.0000000090        5.2893940248
  F         6.0000000390        5.9999999909        6.7106059753
       2
 i =        2, E =       -48.3224955420
  F         6.0000001211        5.9999999720        5.2868279691
  F         5.9999998790        6.0000000281        6.7131720271
       2
 i =        3, E =       -48.3224955487
  F         5.9999997896        6.0000000486        5.2867782139
  F         6.0000002101        5.9999999513        6.7132217836
       2
 i =        4, E =       -48.3224955487
  F         5.9999997896        6.0000000486        5.2867782139
  F         6.0000002101        5.9999999513        6.7132217836
