       2
 i =        1, E =       -65.2444478179
 Hf         6.4999999896        6.5000000031        5.6461634627
  O         6.5000000104        6.4999999969        7.3553789223
       2
 i =        2, E =       -65.2444888889
 Hf         6.4999999908        6.5000000019        5.6472043584
  O         6.5000000071        6.4999999987        7.3488639773
       2
 i =        3, E =       -65.2444923987
 Hf         6.4999999924        6.5000000021        5.6450154992
  O         6.5000000043        6.4999999987        7.3477579975
       2
 i =        4, E =       -65.2444947916
 Hf         6.4999999945        6.5000000020        5.6416091197
  O         6.5000000001        6.4999999995        7.3448429318
       2
 i =        5, E =       -65.2444953809
 Hf         6.4999999965        6.5000000018        5.6383546883
  O         6.4999999974        6.5000000002        7.3416881325
       2
 i =        6, E =       -65.2444954414
 Hf         6.4999999963        6.5000000017        5.6391307860
  O         6.4999999989        6.5000000000        7.3423653027
       2
 i =        7, E =       -65.2444954414
 Hf         6.4999999963        6.5000000017        5.6391307860
  O         6.4999999989        6.5000000000        7.3423653027
