       2
 i =        1, E =       -72.2364158235
 In         6.5000001601        6.4999997487        5.5398242373
  O         6.4999998442        6.5000002397        7.4611487845
       2
 i =        2, E =       -72.2365815427
 In         6.5000002045        6.4999996393        5.5311600345
  O         6.4999999398        6.5000001318        7.4707352863
       2
 i =        3, E =       -72.2365865396
 In         6.5000001945        6.4999996690        5.5283427205
  O         6.4999999962        6.5000000053        7.4711251056
       2
 i =        4, E =       -72.2365875977
 In         6.5000001741        6.4999997259        5.5265295817
  O         6.5000000261        6.4999999315        7.4700113433
       2
 i =        5, E =       -72.2365898472
 In         6.5000001343        6.4999998372        5.5203316481
  O         6.5000000461        6.4999998906        7.4649262681
       2
 i =        6, E =       -72.2365902982
 In         6.5000001294        6.4999998513        5.5188961887
  O         6.5000000227        6.4999999468        7.4630984032
       2
 i =        7, E =       -72.2365904126
 In         6.5000001363        6.4999998325        5.5193438403
  O         6.4999999987        6.5000000030        7.4629811879
       2
 i =        8, E =       -72.2365904126
 In         6.5000001363        6.4999998325        5.5193438403
  O         6.4999999987        6.5000000030        7.4629811879
