       3
 i =        1, E =      -135.4496391668
 Mn         6.9999304756        7.0001709975        7.3654894068
  O         8.4154280573        6.9999072306        6.6375342195
  O         5.5846383182        6.9999267626        6.6375903452
       3
 i =        2, E =      -135.4496127937
 Mn         7.0013380107        7.0004061327        7.3639409297
  O         8.4269486990        6.9997841345        6.6461215871
  O         5.5716757838        6.9998478590        6.6455012096
       3
 i =        3, E =      -135.4496683664
 Mn         6.9990723979        7.0004101780        7.3600338183
  O         8.4247602483        6.9997826235        6.6479331096
  O         5.5760937840        6.9998504520        6.6484817746
       3
 i =        4, E =      -135.4496692683
 Mn         6.9992116984        7.0004056919        7.3599160030
  O         8.4245550697        6.9997850628        6.6480820224
  O         5.5761598466        6.9998534147        6.6485575286
       3
 i =        5, E =      -135.4496694163
 Mn         6.9993192335        7.0004089331        7.3597047698
  O         8.4245624909        6.9997834847        6.6482538812
  O         5.5760455270        6.9998520820        6.6486735523
       3
 i =        6, E =      -135.4496694099
 Mn         6.9993563265        7.0004095814        7.3596238060
  O         8.4245706958        6.9997831865        6.6483191665
  O         5.5760005137        6.9998518676        6.6487195532
       3
 i =        7, E =      -135.4496693690
 Mn         6.9994211878        7.0004109882        7.3594756625
  O         8.4245894649        6.9997825424        6.6484379321
  O         5.5759173632        6.9998513861        6.6488046054
       3
 i =        8, E =      -135.4496689877
 Mn         6.9995251110        7.0004126737        7.3592183902
  O         8.4246337840        6.9997817842        6.6486427710
  O         5.5757698833        6.9998509039        6.6489553966
       3
 i =        9, E =      -135.4496689810
 Mn         6.9995620118        7.0004129090        7.3591128225
  O         8.4246601139        6.9997816812        6.6487260637
  O         5.5757068728        6.9998509221        6.6490194645
       3
 i =       10, E =      -135.4496692408
 Mn         6.9996025549        7.0004113317        7.3591226487
  O         8.4246812133        6.9997824852        6.6487447946
  O         5.5756455169        6.9998518758        6.6490170178
       3
 i =       11, E =      -135.4496698141
 Mn         6.9996566501        7.0004119837        7.3592149024
  O         8.4247085912        6.9997821781        6.6487257906
  O         5.5755644712        6.9998517956        6.6489697165
       3
 i =       12, E =      -135.4496695002
 Mn         6.9996960817        7.0004116198        7.3590514492
  O         8.4247520705        6.9997823596        6.6488489974
  O         5.5754817804        6.9998521449        6.6490723233
       3
 i =       13, E =      -135.4496709041
 Mn         7.0000048152        7.0004048210        7.3591436548
  O         8.4250243887        6.9997858858        6.6490233867
  O         5.5749026138        6.9998572563        6.6490848825
       3
 i =       14, E =      -135.4496685018
 Mn         6.9999942794        7.0004012077        7.3582934855
  O         8.4252668428        6.9997874865        6.6495926457
  O         5.5746694097        6.9998597256        6.6496586271
       3
 i =       15, E =      -135.4496693310
 Mn         6.9999863982        7.0003982715        7.3582657991
  O         8.4256680515        6.9997888350        6.6497334635
  O         5.5742742449        6.9998626995        6.6498018290
       3
 i =       16, E =      -135.4496621394
 Mn         6.9999808874        7.0003941482        7.3571554193
  O         8.4252549517        6.9997909635        6.6502148764
  O         5.5746944043        6.9998620585        6.6502888580
       3
 i =       17, E =      -135.4496666569
 Mn         6.9999840697        7.0004037033        7.3576691586
  O         8.4255859416        6.9997859286        6.6499817420
  O         5.5743594933        6.9998578994        6.6500532095
       3
 i =       18, E =      -135.4496700159
 Mn         6.9999921075        7.0004326095        7.3580220180
  O         8.4265783730        6.9997711558        6.6499780076
  O         5.5733570070        6.9998458617        6.6500425508
       3
 i =       19, E =      -135.4496707619
 Mn         6.9999858003        7.0004086802        7.3585202408
  O         8.4267076859        6.9997833471        6.6498002367
  O         5.5732324636        6.9998600619        6.6498657995
       3
 i =       20, E =      -135.4496693322
 Mn         6.9999859501        7.0004104415        7.3577756364
  O         8.4267616249        6.9997825593        6.6502735871
  O         5.5731778101        6.9998600352        6.6503384005
       3
 i =       21, E =      -135.4496693113
 Mn         6.9999856455        7.0004527897        7.3577545580
  O         8.4269962475        6.9997607798        6.6504342997
  O         5.5729407883        6.9998414962        6.6504962127
       3
 i =       22, E =      -135.4496693015
 Mn         6.9999856424        7.0004532178        7.3577544209
  O         8.4269986151        6.9997605596        6.6504358768
  O         5.5729383966        6.9998413087        6.6504977605
