       5
 i =        1, E =      -175.7858996196
 Mn         7.3722794433        7.0000002354        6.4020068100
  F         7.3720962175        7.0000000235        8.1139877143
  O         8.1214551054        5.7026788778        5.8862746636
  O         8.1214549196        8.2973208442        5.8862747918
  O         5.8738617683        7.0000000198        5.8862801526
       5
 i =        2, E =      -175.7859610267
 Mn         7.3719804553        6.9999996504        6.3972086860
  F         7.3717071634        7.0000000416        8.1198150660
  O         8.1227862730        5.7010725567        5.8858827054
  O         8.1227863645        8.2989277088        5.8858826275
  O         5.8712789811        7.0000000457        5.8859522408
       5
 i =        3, E =      -175.7859988302
 Mn         7.3672942513        7.0000055283        6.4071311626
  F         7.3620746214        6.9999989319        8.1350655484
  O         8.1258432892        5.7090561479        5.8850492697
  O         8.1258438389        8.2909415099        5.8850494550
  O         5.8679844000        6.9999984061        5.8859103546
       5
 i =        4, E =      -175.7860341555
 Mn         7.3687318466        6.9999854346        6.4053610660
  F         7.3566574060        6.9999992172        8.1346009959
  O         8.1236312947        5.7091976312        5.8883421974
  O         8.1236398421        8.2908173752        5.8883359129
  O         5.8710332222        7.0000000548        5.8881848822
       5
 i =        5, E =      -175.7860939767
 Mn         7.3692406684        7.0000069015        6.4088710059
  F         7.3442981392        6.9999977578        8.1331281599
  O         8.1215419245        5.7058419499        5.8937337414
  O         8.1215388990        8.2941515112        5.8937356184
  O         5.8740234662        6.9999996979        5.8914113416
       5
 i =        6, E =      -175.7861182403
 Mn         7.3691560482        6.9999927360        6.4113277988
  F         7.3433835718        6.9999974740        8.1351008922
  O         8.1222931437        5.7038246040        5.8948802942
  O         8.1222961790        8.2961813683        5.8948775567
  O         5.8712175162        7.0000006112        5.8906422182
       5
 i =        7, E =      -175.7861401455
 Mn         7.3669765421        7.0000081406        6.4112401496
  F         7.3435969604        6.9999951112        8.1405788642
  O         8.1226100755        5.7029344497        5.8985306085
  O         8.1226059910        8.2970572195        5.8985338044
  O         5.8693998395        6.9999997548        5.8904480473
       5
 i =        8, E =      -175.7861868610
 Mn         7.3633312134        6.9999697336        6.4183525577
  F         7.3453049915        6.9999875693        8.1469538875
  O         8.1205470639        5.7055580554        5.9106864756
  O         8.1205594498        8.2944666356        5.9106786607
  O         5.8668501215        7.0000019966        5.8904491691
       5
 i =        9, E =      -175.7862019704
 Mn         7.3606835129        7.0000034983        6.4224097292
  F         7.3452008327        6.9999816331        8.1474646513
  O         8.1202140312        5.7054836679        5.9137344964
  O         8.1202109743        8.2945097323        5.9137396991
  O         5.8668395483        6.9999999614        5.8909707196
       5
 i =       10, E =      -175.7862076962
 Mn         7.3612908428        6.9999820359        6.4243041780
  F         7.3425881482        6.9999675447        8.1477073192
  O         8.1189109264        5.7050288990        5.9147127404
  O         8.1189168845        8.2949822092        5.9147129128
  O         5.8662975435        7.0000009577        5.8927118709
       5
 i =       11, E =      -175.7862129142
 Mn         7.3604743541        6.9999996164        6.4248521748
  F         7.3401680020        6.9999427402        8.1488759098
  O         8.1174502122        5.7042671053        5.9154746041
  O         8.1174471482        8.2957253511        5.9154851989
  O         5.8666398801        6.9999995340        5.8954533145
       5
 i =       12, E =      -175.7862228114
 Mn         7.3599641233        6.9999677922        6.4258217849
  F         7.3405355738        6.9998078755        8.1523644835
  O         8.1127920144        5.7023788979        5.9162296214
  O         8.1127955529        8.2976262624        5.9162533447
  O         5.8628899009        6.9999996370        5.9023623411
       5
 i =       13, E =      -175.7862308863
 Mn         7.3585233035        6.9999906195        6.4270506431
  F         7.3412151756        6.9997688782        8.1509813466
  O         8.1126765514        5.7023435469        5.9159166712
  O         8.1126673425        8.2976362492        5.9159555782
  O         5.8631061003        6.9999978969        5.9025714502
       5
 i =       14, E =      -175.7862365064
 Mn         7.3581115042        6.9999594695        6.4274374552
  F         7.3427716241        6.9996243534        8.1497064926
  O         8.1111165105        5.7034368608        5.9157414785
  O         8.1111120041        8.2965526475        5.9157962802
  O         5.8617715593        6.9999981361        5.9030455250
       5
 i =       15, E =      -175.7862471322
 Mn         7.3539471903        6.9999314068        6.4261607961
  F         7.3458312188        6.9990888968        8.1499682166
  O         8.1075002282        5.7046352082        5.9145830036
  O         8.1074745235        8.2953128784        5.9147271310
  O         5.8586934665        6.9999938050        5.9049978536
       5
 i =       16, E =      -175.7862556755
 Mn         7.3542818907        6.9998988450        6.4272659732
  F         7.3449234016        6.9988643040        8.1501890265
  O         8.1072218227        5.7037803508        5.9140128685
  O         8.1071971491        8.2961692246        5.9141874106
  O         5.8569320106        6.9999930153        5.9047745152
       5
 i =       17, E =      -175.7862636695
 Mn         7.3524009909        6.9998442690        6.4267428477
  F         7.3425412230        6.9980012931        8.1516055204
  O         8.1056984292        5.7025254308        5.9130812118
  O         8.1056461381        8.2973664846        5.9133960564
  O         5.8556736952        6.9999858221        5.9056943819
       5
 i =       18, E =      -175.7862769269
 Mn         7.3510047965        6.9996050411        6.4257387623
  F         7.3388379015        6.9954165344        8.1521162149
  O         8.1005910063        5.7021824581        5.9120393733
  O         8.1004894663        8.2975977063        5.9127502483
  O         5.8525118573        6.9999684907        5.9075348677
       5
 i =       19, E =      -175.7862881860
 Mn         7.3491982627        6.9995324578        6.4271533843
  F         7.3400491098        6.9943223758        8.1506685599
  O         8.1004185897        5.7019658177        5.9117457245
  O         8.1002844827        8.2977333017        5.9126391097
  O         5.8526656996        6.9999588996        5.9076767209
       5
 i =       20, E =      -175.7863140542
 Mn         7.3479616483        6.9988869239        6.4282486668
  F         7.3456746369        6.9871071759        8.1479889474
  O         8.0973582519        5.7036351232        5.9116971253
  O         8.0970917097        8.2956817711        5.9137359203
  O         5.8496886364        6.9999059554        5.9076342301
       5
 i =       21, E =      -175.7863414384
 Mn         7.3457696290        6.9986473987        6.4261971514
  F         7.3445411282        6.9845065858        8.1507514555
  O         8.0976963760        5.7026330075        5.9110184441
  O         8.0973580029        8.2964858633        5.9135856875
  O         5.8501641083        6.9998791156        5.9083182388
       5
 i =       22, E =      -175.7863790782
 Mn         7.3466315465        6.9976964925        6.4255144283
  F         7.3416476229        6.9760949258        8.1535655414
  O         8.0971847176        5.7012679907        5.9093421343
  O         8.0966415944        8.2972257460        5.9136982228
  O         5.8469312042        6.9997887362        5.9083648386
       5
 i =       23, E =      -175.7864012482
 Mn         7.3456551511        6.9967325113        6.4270516468
  F         7.3405213973        6.9699656715        8.1518481044
  O         8.0964396235        5.7007992288        5.9080039550
  O         8.0956622766        8.2969335328        5.9142624639
  O         5.8465572245        6.9996698923        5.9088798086
       5
 i =       24, E =      -175.7864100349
 Mn         7.3449150233        6.9960923402        6.4265728714
  F         7.3414746551        6.9700224570        8.1505538644
  O         8.0955803461        5.7014477512        5.9076941474
  O         8.0946334383        8.2955653436        5.9153924585
  O         5.8477020595        6.9995269354        5.9094849928
       5
 i =       25, E =      -175.7864135202
 Mn         7.3451518564        6.9952595755        6.4270885866
  F         7.3424224028        6.9705680341        8.1500370052
  O         8.0950513902        5.7011713438        5.9067643098
  O         8.0939431656        8.2947571042        5.9163650710
  O         5.8467890412        6.9992449746        5.9094308453
       5
 i =       26, E =      -175.7864184771
 Mn         7.3434427255        6.9933537425        6.4273232028
  F         7.3437546098        6.9714118717        8.1505616393
  O         8.0944479790        5.6996069245        5.9044401967
  O         8.0931813993        8.2938124347        5.9180368689
  O         5.8456370584        6.9984270545        5.9097746124
       5
 i =       27, E =      -175.7864221821
 Mn         7.3429775323        6.9915773009        6.4265120339
  F         7.3434751595        6.9711132893        8.1515509588
  O         8.0932886945        5.6984086773        5.9027944327
  O         8.0922281392        8.2923381674        5.9194853461
  O         5.8443396188        6.9972327258        5.9102614461
       5
 i =       28, E =      -175.7864316988
 Mn         7.3404366404        6.9864516728        6.4270824175
  F         7.3408540894        6.9685183083        8.1511254453
  O         8.0899902934        5.6938561571        5.8984709249
  O         8.0901818774        8.2883549778        5.9222425272
  O         5.8414255384        6.9926635427        5.9119410248
       5
 i =       29, E =      -175.7864476761
 Mn         7.3375415124        6.9783884483        6.4264974829
  F         7.3417231262        6.9667424345        8.1489023278
  O         8.0846352777        5.6860248146        5.8966022255
  O         8.0873458571        8.2800970369        5.9231413648
  O         5.8393995585        6.9814327110        5.9143546903
       5
 i =       30, E =      -175.7864605631
 Mn         7.3388211756        6.9784843461        6.4266477774
  F         7.3419359108        6.9675998732        8.1507213077
  O         8.0859050098        5.6843072689        5.8972698159
  O         8.0878350117        8.2807607619        5.9217065836
  O         5.8379380419        6.9807203444        5.9134615617
       5
 i =       31, E =      -175.7864696098
 Mn         7.3382998113        6.9776427244        6.4259615725
  F         7.3423202415        6.9687931751        8.1517848823
  O         8.0873262981        5.6824893625        5.8992500872
  O         8.0882880888        8.2807777860        5.9193703495
  O         5.8392003738        6.9791686912        5.9132649835
       5
 i =       32, E =      -175.7865031094
 Mn         7.3424953077        6.9751897499        6.4247103160
  F         7.3432769672        6.9724643552        8.1509205124
  O         8.0914586634        5.6767549456        5.9095290597
  O         8.0875664092        8.2760984292        5.9103517732
  O         5.8435376339        6.9717997301        5.9117691231
       5
 i =       33, E =      -175.7865094924
 Mn         7.3430660297        6.9744621871        6.4260395296
  F         7.3430185950        6.9716255500        8.1496340335
  O         8.0920962150        5.6754630015        5.9107935716
  O         8.0879045717        8.2754188682        5.9091877287
  O         5.8438440230        6.9706640612        5.9113574442
       5
 i =       34, E =      -175.7865148371
 Mn         7.3430530798        6.9731435663        6.4257120201
  F         7.3422560266        6.9689379000        8.1496502810
  O         8.0923911012        5.6739511223        5.9120107918
  O         8.0885353738        8.2737795858        5.9091826208
  O         5.8448776837        6.9695266733        5.9113138281
       5
 i =       35, E =      -175.7865164951
 Mn         7.3437098030        6.9723629514        6.4256913696
  F         7.3420942453        6.9684390776        8.1500783209
  O         8.0923753844        5.6731019251        5.9121653746
  O         8.0888532603        8.2730147451        5.9096632266
  O         5.8445178511        6.9692177989        5.9110339123
       5
 i =       36, E =      -175.7865193943
 Mn         7.3434405257        6.9703593260        6.4261257938
  F         7.3421390153        6.9684761999        8.1508034216
  O         8.0924992196        5.6704696770        5.9118763618
  O         8.0899682993        8.2715509764        5.9110960059
  O         5.8445869248        6.9687269959        5.9106873461
       5
 i =       37, E =      -175.7865210985
 Mn         7.3435996004        6.9690886370        6.4262216478
  F         7.3423002495        6.9689725900        8.1505111067
  O         8.0919139600        5.6693514155        5.9118244945
  O         8.0902372239        8.2699034294        5.9123544700
  O         5.8451291122        6.9685024659        5.9106933024
       5
 i =       38, E =      -175.7865211938
 Mn         7.3436373357        6.9689853079        6.4264045687
  F         7.3423031187        6.9689470238        8.1503710969
  O         8.0916980856        5.6691955821        5.9117897704
  O         8.0903211558        8.2698237745        5.9123286725
  O         5.8451030260        6.9685150137        5.9107173219
       5
 i =       39, E =      -175.7865211938
 Mn         7.3436369772        6.9689862031        6.4264027651
  F         7.3423031065        6.9689473270        8.1503724565
  O         8.0917001675        5.6691970126        5.9117901092
  O         8.0903203517        8.2698243978        5.9123290558
  O         5.8451033391        6.9685148663        5.9107170840
