       2
 i =        1, E =       -19.9025341876
  N         5.9999999991        6.0000000033        5.4464376071
  N         6.0000000009        5.9999999967        6.5535623929
       2
 i =        2, E =       -19.9025344897
  N         5.9999999991        6.0000000033        5.4462629363
  N         6.0000000009        5.9999999967        6.5537370637
       2
 i =        3, E =       -19.9025344897
  N         5.9999999991        6.0000000033        5.4462629363
  N         6.0000000009        5.9999999967        6.5537370637
