       4
 i =        1, E =       -21.0069856215
  N         5.8760979076        6.9865080106        6.5000000050
  N         7.1238037031        6.9865786588        6.5000000075
  H         5.4667914449        6.0133552715        6.4999999927
  H         7.5331900438        6.0134558664        6.4999999948
       4
 i =        2, E =       -21.0070064670
  N         5.8752183662        6.9853627743        6.5000000064
  N         7.1246544091        6.9853990598        6.5000000064
  H         5.4705508525        6.0144288901        6.4999999917
  H         7.5294580338        6.0145236673        6.4999999956
       4
 i =        3, E =       -21.0070067478
  N         5.8752165255        6.9855001628        6.5000000049
  N         7.1246994146        6.9855873792        6.5000000081
  H         5.4712687845        6.0142196202        6.4999999926
  H         7.5286950514        6.0143246759        6.4999999945
       4
 i =        4, E =       -21.0070067478
  N         5.8752165255        6.9855001628        6.5000000049
  N         7.1246994146        6.9855873792        6.5000000081
  H         5.4712687845        6.0142196202        6.4999999926
  H         7.5286950514        6.0143246759        6.4999999945
