       9
 i =        1, E =      -256.6238269998
 Ni         7.0000000071        7.0000000320        7.0000000103
  C         8.0474225573        5.9525774712        8.0474225846
  C         5.9525774761        8.0474225920        8.0474225087
  C         5.9525774597        5.9525775350        5.9525774187
  C         8.0474225311        8.0474225209        5.9525774682
  O         8.7139386930        5.2860612927        8.7139386654
  O         5.2860613189        8.7139386727        8.7139386831
  O         5.2860613262        5.2860612814        5.2860613016
  O         8.7139386308        8.7139386020        5.2860613590
       9
 i =        2, E =      -256.6238457152
 Ni         6.9999999730        7.0000000169        6.9999999776
  C         8.0453586264        5.9546413135        8.0453586787
  C         5.9546413303        8.0453586618        8.0453587025
  C         5.9546413177        5.9546412785        5.9546413733
  C         8.0453587134        8.0453586757        5.9546413533
  O         8.7120785812        5.2879214364        8.7120786121
  O         5.2879214287        8.7120785915        8.7120785536
  O         5.2879213993        5.2879214674        5.2879213958
  O         8.7120786452        8.7120786686        5.2879213363
       9
 i =        3, E =      -256.6238458270
 Ni         7.0000000128        6.9999999953        6.9999999996
  C         8.0454910332        5.9545089428        8.0454910883
  C         5.9545089479        8.0454910460        8.0454910356
  C         5.9545089281        5.9545089772        5.9545089628
  C         8.0454910340        8.0454910534        5.9545089589
  O         8.7122358316        5.2877641513        8.7122358606
  O         5.2877641895        8.7122358093        8.7122358228
  O         5.2877641555        5.2877641558        5.2877641805
  O         8.7122358696        8.7122358651        5.2877641521
       9
 i =        4, E =      -256.6238458270
 Ni         7.0000000128        6.9999999953        6.9999999996
  C         8.0454910332        5.9545089428        8.0454910883
  C         5.9545089479        8.0454910460        8.0454910356
  C         5.9545089281        5.9545089772        5.9545089628
  C         8.0454910340        8.0454910534        5.9545089589
  O         8.7122358316        5.2877641513        8.7122358606
  O         5.2877641895        8.7122358093        8.7122358228
  O         5.2877641555        5.2877641558        5.2877641805
  O         8.7122358696        8.7122358651        5.2877641521
