       3
 i =        1, E =      -218.2319300752
 Ni         7.0000008009        7.0000001047        7.0000000094
  F         7.0000093822        7.0000095001        5.2849713119
  F         6.9999898340        6.9999903872        8.7150286707
       3
 i =        2, E =      -218.2320352086
 Ni         6.9999983838        6.9999997653        6.9999999505
  F         7.0000409465        7.0000380027        5.2968665591
  F         6.9999563267        6.9999616008        8.7031335119
       3
 i =        3, E =      -218.2320471653
 Ni         6.9999998192        6.9999999833        6.9999999413
  F         7.0000927994        7.0000885031        5.2940220904
  F         6.9999011798        6.9999106096        8.7059779593
       3
 i =        4, E =      -218.2320472620
 Ni         6.9999995101        6.9999999106        6.9999999247
  F         7.0002583052        7.0002511642        5.2939423408
  F         6.9997260961        6.9997465433        8.7060577047
       3
 i =        5, E =      -218.2320472437
 Ni         6.9999995101        6.9999999106        6.9999999247
  F         7.0002583052        7.0002511642        5.2939423408
  F         6.9997260961        6.9997465433        8.7060577047
