       7
 i =        1, E =      -228.7893826976
 Os         7.5000000121        7.4999999869        7.5891709607
  O         7.5000000927        7.4999999507        9.2756511136
  F         7.4999999943        7.5000000026        5.7140817018
  F         6.1880280462        8.8119719335        7.4377760361
  F         6.1880279391        6.1880281217        7.4377760506
  F         8.8119719582        6.1880279616        7.4377760578
  F         8.8119719654        8.8119720422        7.4377760613
       7
 i =        2, E =      -228.7895930065
 Os         7.4999999981        7.5000000028        7.5886736122
  O         7.5000001066        7.4999999448        9.2716707668
  F         7.5000000135        7.4999999942        5.7192393377
  F         6.1827567762        8.8172432229        7.4369492366
  F         6.1827567072        6.1827568372        7.4369492587
  F         8.8172432027        6.1827567275        7.4369492497
  F         8.8172432231        8.8172432585        7.4369492727
       7
 i =        3, E =      -228.7896044271
 Os         7.4999999938        7.4999999989        7.5886926539
  O         7.5000001089        7.4999999446        9.2711990970
  F         7.5000000527        7.4999999803        5.7223339203
  F         6.1819241001        8.8180759142        7.4354605940
  F         6.1819240932        6.1819240849        7.4354606348
  F         8.8180759065        6.1819240939        7.4354605828
  F         8.8180759125        8.8180759015        7.4354606567
       7
 i =        4, E =      -228.7896342089
 Os         7.5000000336        7.4999999797        7.5885382399
  O         7.5000001021        7.4999999399        9.2709129495
  F         7.5000001849        7.4999999358        5.7259627179
  F         6.1813253275        8.8186746684        7.4301581394
  F         6.1813253669        6.1813252562        7.4301582596
  F         8.8186747287        6.1813253296        7.4301580491
  F         8.8186747017        8.8186746821        7.4301583186
       7
 i =        5, E =      -228.7757138105
 Os         7.4999982464        7.5000004325        7.5032372704
  O         7.5000010972        7.4999991131        9.2243767460
  F         7.5000054586        7.4999986372        5.4759627179
  F         6.2216834915        8.7783176356        7.2673320194
  F         6.2216819744        6.2216836460        7.2673341386
  F         8.7783162373        6.2216827344        7.2673317185
  F         8.7783175092        8.7783167451        7.2673357732
       7
 i =        6, E =      -228.7891776911
 Os         7.5000003505        7.4999998475        7.5765397097
  O         7.5000000969        7.4999998183        9.2620207300
  F         7.5000019187        7.4999994735        5.7112099851
  F         6.1844248063        8.8155750436        7.3877704057
  F         6.1844247078        6.1844247141        7.3877711961
  F         8.8155755417        6.1844244619        7.3877700561
  F         8.8155754151        8.8155755643        7.3877717377
       7
 i =        7, E =      -228.7761332099
 Os         7.4999996327        7.5000002941        7.5844068159
  O         7.5000002571        7.5000001061        9.2499257848
  F         7.4999978361        7.5000008438        5.7299050470
  F         6.1684409153        8.8315594817        7.6377676594
  F         6.1684406673        6.1684415753        7.6377657797
  F         8.8315580032        6.1684414356        7.6377700561
  F         8.8315585335        8.8315584048        7.6377651418
       7
 i =        8, E =      -228.7892717772
 Os         7.5000001042        7.4999999635        7.6055980710
  O         7.5000000712        7.5000000496        9.2834070175
  F         7.5000008727        7.4999999675        5.7406698531
  F         6.1783743600        8.8216256975        7.4913776957
  F         6.1783744121        6.1783741243        7.4913775845
  F         8.8216258152        6.1783743389        7.4913786366
  F         8.8216258226        8.8216257106        7.4913779392
       7
 i =        9, E =      -228.7866771671
 Os         7.5000004893        7.4999998357        7.5580476639
  O         7.5000002280        7.4999995147        9.2537908091
  F         7.5000084563        7.4999981404        5.6692735462
  F         6.1926424425        8.8073573113        7.3171847467
  F         6.1926419999        6.1926427250        7.3171867230
  F         8.8073580549        6.1926415046        7.3171861561
  F         8.8073580026        8.8073583154        7.3171892370
       7
 i =       10, E =      -228.7898965354
 Os         7.5000006175        7.4999997930        7.5789028203
  O         7.5000001907        7.4999997605        9.2644772680
  F         7.5000087120        7.4999983657        5.7075124486
  F         6.1846460928        8.8153536850        7.4147508470
  F         6.1846456179        6.1846461419        7.4147527833
  F         8.8153547077        6.1846449701        7.4147543738
  F         8.8153546393        8.8153549260        7.4147563789
       7
 i =       11, E =      -228.7897972266
 Os         7.5000010553        7.4999996946        7.5644927653
  O         7.5000001713        7.4999995364        9.2514026929
  F         7.5000196973        7.4999963954        5.6915458284
  F         6.1847484801        8.8152513563        7.3953521626
  F         6.1847480939        6.1847483320        7.3953523046
  F         8.8152528517        6.1847469651        7.3953532725
  F         8.8152525635        8.8152527407        7.3953531137
       7
 i =       12, E =      -228.7900887681
 Os         7.5000017900        7.4999995996        7.5628636309
  O         7.5000006846        7.4999993619        9.2487142295
  F         7.5000347933        7.4999937302        5.6881740663
  F         6.1828164410        8.8171834390        7.4058961163
  F         6.1828161801        6.1828161577        7.4058944817
  F         8.8171856828        6.1828142490        7.4058971123
  F         8.8171851164        8.8171852237        7.4058938326
       7
 i =       13, E =      -228.7901202325
 Os         7.5000050255        7.4999989497        7.5580719749
  O         7.5000044847        7.4999989146        9.2429571890
  F         7.5000895234        7.4999835418        5.6841161331
  F         6.1816219061        8.8183775002        7.4082889564
  F         6.1816207514        6.1816215461        7.4082927044
  F         8.8183837537        6.1816157357        7.4082999875
  F         8.8183825840        8.8183834447        7.4083024507
       7
 i =       14, E =      -228.7901240798
 Os         7.5000108068        7.4999980150        7.5564733447
  O         7.5000097764        7.4999975790        9.2408468349
  F         7.5001964934        7.4999641605        5.6842163011
  F         6.1815286785        8.8184702572        7.4074255850
  F         6.1815265797        6.1815280089        7.4074256499
  F         8.8184828482        6.1815160971        7.4074399587
  F         8.8184805504        8.8184819988        7.4074332712
       7
 i =       15, E =      -228.7901241925
 Os         7.5000262445        7.4999950289        7.5554971467
  O         7.5000276982        7.4999947954        9.2396749943
  F         7.5004811689        7.4999116996        5.6832211414
  F         6.1816249304        8.8183723338        7.4069805724
  F         6.1816192335        6.1816233462        7.4069910085
  F         8.8184036752        6.1815935840        7.4070294876
  F         8.8183982312        8.8184023313        7.4070288293
       7
 i =       16, E =      -228.7901241924
 Os         7.5000262445        7.4999950289        7.5554971467
  O         7.5000276982        7.4999947954        9.2396749943
  F         7.5004811689        7.4999116996        5.6832211414
  F         6.1816249304        8.8183723338        7.4069805724
  F         6.1816192335        6.1816233462        7.4069910085
  F         8.8184036752        6.1815935840        7.4070294876
  F         8.8183982312        8.8184023313        7.4070288293
