       4
 i =        1, E =       -79.4071246242
  P         6.1535284786        6.5000051379        6.1066402721
  F         7.5521872895        6.4999953150        6.9088431131
  F         5.4433831086        7.7053511000        6.9061457536
  F         5.4433747897        5.2946516365        6.9061444556
       4
 i =        2, E =       -79.4072813546
  P         6.1496293440        6.4999939223        6.1539808832
  F         7.5379154634        6.4999990658        6.9397201928
  F         5.4393582194        7.6951304148        6.9330332948
  F         5.4393212811        5.3048747252        6.9330246640
       4
 i =        3, E =       -79.4075481314
  P         6.1442326465        6.4999957503        6.1372913085
  F         7.5355772151        6.4999923097        6.9281096437
  F         5.4384779754        7.7044221757        6.9186159855
  F         5.4384361099        5.2955865105        6.9186102129
       4
 i =        4, E =       -79.4076674023
  P         6.1314800465        6.4999888462        6.1279217707
  F         7.5226511192        6.4999967263        6.9204819638
  F         5.4309927115        7.7045228942        6.9184806709
  F         5.4309182877        5.2954907953        6.9184802479
       4
 i =        5, E =       -79.4074820077
  P         6.1024288474        6.4999799157        6.1252001618
  F         7.4985552185        6.4999864025        6.9086696030
  F         5.3979506257        7.7042925008        6.9177332240
  F         5.3978447926        5.2957278639        6.9177501646
       4
 i =        6, E =       -79.4077353486
  P         6.1166404768        6.4999838773        6.1330085451
  F         7.5086260561        6.4999863572        6.9213115746
  F         5.4158370744        7.7045550380        6.9212440195
  F         5.4157379169        5.2954600570        6.9212415809
       4
 i =        7, E =       -79.4076533133
  P         6.1336042041        6.5000253429        6.1359886717
  F         7.5299787426        6.4999973985        6.9207716730
  F         5.4312007372        7.7045611216        6.9218376097
  F         5.4314075196        5.2953912898        6.9218649257
       4
 i =        8, E =       -79.4077565163
  P         6.1217943906        6.5000145515        6.1339833951
  F         7.5160196695        6.5000090982        6.9209683023
  F         5.4198638512        7.7044393751        6.9213211901
  F         5.4199819528        5.2955301161        6.9213312889
       4
 i =        9, E =       -79.4077600778
  P         6.1212470440        6.4999855941        6.1342619907
  F         7.5167276891        6.5000179876        6.9204722955
  F         5.4177615435        7.7040407469        6.9212973096
  F         5.4176240115        5.2959853590        6.9212644512
       4
 i =       10, E =       -79.4077614263
  P         6.1224268457        6.5000111676        6.1347812358
  F         7.5182829041        6.4999631752        6.9212593048
  F         5.4183789214        7.7040172643        6.9212423932
  F         5.4184756293        5.2959772305        6.9212821604
       4
 i =       11, E =       -79.4077614263
  P         6.1224268457        6.5000111676        6.1347812358
  F         7.5182829041        6.4999631752        6.9212593048
  F         5.4183789214        7.7040172643        6.9212423932
  F         5.4184756293        5.2959772305        6.9212821604
