       2
 i =        1, E =       -48.3440671097
  F         6.4999999977        6.4999999986        5.3722908686
 Rb         6.5000000017        6.5000000009        7.6419098732
       2
 i =        2, E =       -48.3443344494
  F         6.4999999997        6.4999999998        5.3380685466
 Rb         6.5000000018        6.5000000009        7.6668868635
       2
 i =        3, E =       -48.3444212063
  F         6.5000000004        6.5000000002        5.3498557301
 Rb         6.5000000018        6.5000000009        7.6631561925
       2
 i =        4, E =       -48.3444197701
  F         6.4999999997        6.4999999998        5.3606652689
 Rb         6.5000000018        6.5000000009        7.6672940721
       2
 i =        5, E =       -48.3444338364
  F         6.5000000000        6.5000000000        5.3553927686
 Rb         6.5000000018        6.5000000009        7.6674556323
       2
 i =        6, E =       -48.3444347044
  F         6.5000000000        6.5000000000        5.3559147903
 Rb         6.5000000018        6.5000000009        7.6690965099
       2
 i =        7, E =       -48.3444350180
  F         6.4999999999        6.5000000000        5.3563792817
 Rb         6.5000000017        6.5000000009        7.6708459464
       2
 i =        8, E =       -48.3444350003
  F         6.4999999874        6.4999999921        5.3565870604
 Rb         6.5000000017        6.5000000009        7.6710882474
       2
 i =        9, E =       -48.3444350003
  F         6.4999999874        6.4999999921        5.3565870604
 Rb         6.5000000017        6.5000000009        7.6710882474
