       2
 i =        1, E =      -108.6192810880
 Ru         6.4999995290        6.4999993585        5.6427725583
  O         6.4999988017        6.4999973858        7.3569298024
       2
 i =        2, E =      -108.6192918473
 Ru         6.5000411890        6.5000564675        5.6286792820
  O         6.5001187190        6.5002469308        7.3427178836
       2
 i =        3, E =      -108.6192921606
 Ru         6.5000430529        6.5000590372        5.6279116779
  O         6.5001129008        6.5002362678        7.3426427570
       2
 i =        4, E =      -108.6192922027
 Ru         6.5000512504        6.5000694530        5.6278951698
  O         6.4999929834        6.5000049374        7.3426257456
       2
 i =        5, E =      -108.6192922070
 Ru         6.5000512504        6.5000694530        5.6278951698
  O         6.4999929834        6.5000049374        7.3426257456
