       5
 i =        1, E =      -107.1377474789
  S         6.9999998731        6.9999712541        7.5006703567
  F         5.3099993009        6.9999645753        7.4146310268
  F         8.6900012583        6.9999645806        7.4146399298
  F         7.0000052867        8.2421415277        6.4874071880
  F         7.0000052893        5.7578590244        6.4873364103
       5
 i =        2, E =      -107.1379356605
  S         7.0000007389        6.9999676931        7.4909608815
  F         5.2987047954        6.9999182642        7.4047199713
  F         8.7012978947        6.9999182814        7.4047238407
  F         7.0000125885        8.2373826331        6.4757636967
  F         7.0000125980        5.7626174516        6.4756882908
       5
 i =        3, E =      -107.1379824869
  S         7.0000075783        6.9999532850        7.4886489511
  F         5.3007864814        6.9998501999        7.4052842443
  F         8.6992181958        6.9998502329        7.4052888880
  F         7.0000221716        8.2351643331        6.4672345539
  F         7.0000221928        5.7648283469        6.4671976857
       5
 i =        4, E =      -107.1379936762
  S         7.0000089848        6.9999537799        7.4860982479
  F         5.3021518888        6.9997921033        7.4061845215
  F         8.6978582989        6.9997921509        7.4061906169
  F         7.0000308814        8.2331930689        6.4663321056
  F         7.0000309133        5.7667746746        6.4662950820
       5
 i =        5, E =      -107.1379997297
  S         7.0000195513        6.9999056141        7.4887589372
  F         5.3025134743        6.9995106455        7.4071119628
  F         8.6975202717        6.9995107678        7.4071282703
  F         7.0000745227        8.2295836922        6.4660550177
  F         7.0000745978        5.7702859893        6.4660028922
       5
 i =        6, E =      -107.1380004967
  S         7.0000551495        6.9997450842        7.4891494846
  F         5.3016919580        6.9990062208        7.4078161182
  F         8.6983681226        6.9990064734        7.4078508984
  F         7.0001564511        8.2294295002        6.4664404994
  F         7.0001565494        5.7703451660        6.4663757629
       5
 i =        7, E =      -107.1380004967
  S         7.0000547959        6.9997466788        7.4891453582
  F         5.3017000574        6.9990112442        7.4078090526
  F         8.6983597601        6.9990114954        7.4078436488
  F         7.0001556354        8.2294313831        6.4664367097
  F         7.0001557335        5.7703442337        6.4663720995
