       4
 i =        1, E =       -76.2278576057
 Sn         7.4575326983        7.0000000169        7.3601896563
  F         8.3445891452        5.4208355658        6.6197241787
  F         8.3445889902        8.5791644022        6.6197240387
  F         5.6498761200        7.0000000206        6.6180998971
       4
 i =        2, E =       -76.2278082919
 Sn         7.4657402175        7.0000001070        7.3345989105
  F         8.3180362602        5.4039750006        6.6048379812
  F         8.3180363668        8.5960249510        6.6048374326
  F         5.6684328911        7.0000000834        6.5979819557
       4
 i =        3, E =       -76.2281534652
 Sn         7.4622570503        7.0000000809        7.3370197688
  F         8.3320592602        5.4134442123        6.6014966582
  F         8.3320593774        8.5865557610        6.6014964068
  F         5.6590388168        7.0000001407        6.6007986911
       4
 i =        4, E =       -76.2280262318
 Sn         7.4649226595        6.9999999959        7.3228581568
  F         8.3549573401        5.4208505668        6.5865326882
  F         8.3549571854        8.5791495830        6.5865330433
  F         5.6567975365        7.0000005931        6.5904963519
       4
 i =        5, E =       -76.2282173500
 Sn         7.4645359322        7.0000000235        7.3268850157
  F         8.3438011659        5.4148721504        6.5950908820
  F         8.3438011043        8.5851279171        6.5950909499
  F         5.6565218975        7.0000009483        6.5956242506
       4
 i =        6, E =       -76.2281151594
 Sn         7.4627072539        7.0000001200        7.3268407533
  F         8.3274430091        5.4111376910        6.5939887971
  F         8.3274433430        8.5888622107        6.5939886160
  F         5.6573539233        7.0000030658        6.5946788701
       4
 i =        7, E =       -76.2282335593
 Sn         7.4634086299        7.0000001176        7.3273921578
  F         8.3390383124        5.4139380862        6.5959800319
  F         8.3390385298        8.5860619343        6.5959800537
  F         5.6563916860        7.0000042240        6.5955009908
       4
 i =        8, E =       -76.2282335997
 Sn         7.4636325066        7.0000002554        7.3265620481
  F         8.3394398842        5.4139371848        6.5950615971
  F         8.3394400317        8.5860629551        6.5950616244
  F         5.6563363307        7.0000112998        6.5955603464
       4
 i =        9, E =       -76.2282335997
 Sn         7.4636325066        7.0000002554        7.3265620481
  F         8.3394398842        5.4139371848        6.5950615971
  F         8.3394400317        8.5860629551        6.5950616244
  F         5.6563363307        7.0000112998        6.5955603464
