       4
 i =        1, E =      -114.5228351268
 Ta         6.9999999917        6.9999999739        6.5109773238
  F         6.9999999946        6.9999999961        8.4326607767
  O         8.4387059092        7.0000000262        5.5478827292
  O         5.5612941043        7.0000000038        5.5478827905
       4
 i =        2, E =      -114.5228740211
 Ta         7.0000000235        6.9999999603        6.5136626409
  F         7.0000000412        6.9999999959        8.4360647934
  O         8.4369690738        7.0000000368        5.5422052442
  O         5.5630308561        7.0000000093        5.5422051917
       4
 i =        3, E =      -114.5228804755
 Ta         6.9999999521        6.9999999376        6.5144029116
  F         7.0000000988        6.9999999980        8.4390633522
  O         8.4359439660        7.0000000540        5.5415272398
  O         5.5640560167        7.0000000192        5.5415272477
       4
 i =        4, E =      -114.5217483948
 Ta         6.9999990630        6.9999992860        6.5430191805
  F         7.0000020998        7.0000000981        8.5162891792
  O         8.4080274004        7.0000005383        5.5327388019
  O         5.5919732049        7.0000003123        5.5327399200
       4
 i =        5, E =      -114.5228943092
 Ta         6.9999998706        6.9999998481        6.5170481030
  F         7.0000004845        7.0000000229        8.4455261268
  O         8.4334740721        7.0000001240        5.5417543618
  O         5.5665259854        7.0000000633        5.5417545129
       4
 i =        6, E =      -114.5229011507
 Ta         6.9999998579        6.9999997444        6.5196039835
  F         7.0000011841        7.0000000828        8.4500353453
  O         8.4317359396        7.0000002001        5.5420755099
  O         5.5682642072        7.0000001162        5.5420758250
       4
 i =        7, E =      -114.5229064537
 Ta         7.0000000600        6.9999994610        6.5231959243
  F         7.0000041747        7.0000003784        8.4541867042
  O         8.4298297807        7.0000003929        5.5433293004
  O         5.5701705961        7.0000002636        5.5433300080
       4
 i =        8, E =      -114.5229121639
 Ta         7.0000007548        6.9999989637        6.5252440766
  F         7.0000123511        7.0000012476        8.4546728130
  O         8.4294813096        7.0000007068        5.5451305131
  O         5.5705193639        7.0000005242        5.5451319319
       4
 i =        9, E =      -114.5229165086
 Ta         7.0000037775        6.9999971139        6.5274979091
  F         7.0000563119        7.0000061144        8.4549685298
  O         8.4303726660        7.0000017915        5.5486847787
  O         5.5696292134        7.0000014769        5.5486898991
       4
 i =       10, E =      -114.5229169803
 Ta         7.0000103020        6.9999939386        6.5281545837
  F         7.0001641346        7.0000185040        8.4553983725
  O         8.4309938232        7.0000034738        5.5499579992
  O         5.5690110195        7.0000030395        5.5499737744
       4
 i =       11, E =      -114.5229169803
 Ta         7.0000103020        6.9999939386        6.5281545837
  F         7.0001641346        7.0000185040        8.4553983725
  O         8.4309938232        7.0000034738        5.5499579992
  O         5.5690110195        7.0000030395        5.5499737744
