       2
 i =        1, E =       -87.2070334274
  V         6.4999964929        6.5000013677        5.7059019382
  O         6.5000035151        6.4999986277        7.2937300802
       2
 i =        2, E =       -87.2070416529
  V         6.5000118339        6.5005160484        5.7024095201
  O         6.4999874517        6.4994840900        7.2903472452
       2
 i =        3, E =       -87.2070434689
  V         6.5000014783        6.5005170125        5.7011175731
  O         6.5000014479        6.4996248214        7.2889221950
       2
 i =        4, E =       -87.2070427311
  V         6.4999985832        6.5005084122        5.7005148236
  O         6.5000041056        6.4996758122        7.2884011489
       2
 i =        5, E =       -87.2070431272
  V         6.4999985832        6.5005084122        5.7005148236
  O         6.5000041056        6.4996758122        7.2884011489
