       3
 i =        1, E =       -63.9075854266
 Xe         7.5000000021        7.4999999982        7.5000000193
  F         7.4999999979        7.5000000015        9.5795311900
  F         7.5000000001        7.5000000003        5.4204687907
       3
 i =        2, E =       -63.9075987895
 Xe         7.5000000012        7.4999999989        7.5000000103
  F         7.4999999959        7.5000000030        9.5757871075
  F         7.5000000005        7.5000000002        5.4242128868
       3
 i =        3, E =       -63.9075989500
 Xe         7.5000000000        7.5000000001        7.4999999934
  F         7.4999999885        7.5000000083        9.5752987902
  F         7.5000000022        7.5000000001        5.4247012253
       3
 i =        4, E =       -63.9075989500
 Xe         7.5000000000        7.5000000001        7.4999999934
  F         7.4999999885        7.5000000083        9.5752987902
  F         7.5000000022        7.5000000001        5.4247012253
