 Entering Gaussian System, Link 0=g16
 Initial command:
 /sw-ng/spack/opt/spack/linux-opensuse_leap15-sandybridge/pgi-18.10/gaussian-src-16-C.01-zldqaomctopxhethwccpmxmwefdscg3m/g16/l1.exe "/data/hutter/SMG16/PBE/Gau-18940.inp" -scrdir="/data/hutter/SMG16/PBE/"
 Entering Link 1 = /sw-ng/spack/opt/spack/linux-opensuse_leap15-sandybridge/pgi-18.10/gaussian-src-16-C.01-zldqaomctopxhethwccpmxmwefdscg3m/g16/l1.exe PID=     18950.
  
 Copyright (c) 1988-2019, Gaussian, Inc.  All Rights Reserved.
  
 This is part of the Gaussian(R) 16 program.  It is based on
 the Gaussian(R) 09 system (copyright 2009, Gaussian, Inc.),
 the Gaussian(R) 03 system (copyright 2003, Gaussian, Inc.),
 the Gaussian(R) 98 system (copyright 1998, Gaussian, Inc.),
 the Gaussian(R) 94 system (copyright 1995, Gaussian, Inc.),
 the Gaussian 92(TM) system (copyright 1992, Gaussian, Inc.),
 the Gaussian 90(TM) system (copyright 1990, Gaussian, Inc.),
 the Gaussian 88(TM) system (copyright 1988, Gaussian, Inc.),
 the Gaussian 86(TM) system (copyright 1986, Carnegie Mellon
 University), and the Gaussian 82(TM) system (copyright 1983,
 Carnegie Mellon University). Gaussian is a federally registered
 trademark of Gaussian, Inc.
  
 This software contains proprietary and confidential information,
 including trade secrets, belonging to Gaussian, Inc.
  
 This software is provided under written license and may be
 used, copied, transmitted, or stored only in accord with that
 written license.
  
 The following legend is applicable only to US Government
 contracts under FAR:
  
                    RESTRICTED RIGHTS LEGEND
  
 Use, reproduction and disclosure by the US Government is
 subject to restrictions as set forth in subparagraphs (a)
 and (c) of the Commercial Computer Software - Restricted
 Rights clause in FAR 52.227-19.
  
 Gaussian, Inc.
 340 Quinnipiac St., Bldg. 40, Wallingford CT 06492
  
  
 ---------------------------------------------------------------
 Warning -- This program may not be used in any manner that
 competes with the business of Gaussian, Inc. or will provide
 assistance to any competitor of Gaussian, Inc.  The licensee
 of this program is prohibited from giving any competitor of
 Gaussian, Inc. access to this program.  By using this program,
 the user acknowledges that Gaussian, Inc. is engaged in the
 business of creating and licensing software in the field of
 computational chemistry and represents and warrants to the
 licensee that it is not a competitor of Gaussian, Inc. and that
 it will not use this program in any manner prohibited above.
 ---------------------------------------------------------------
  

 Cite this work as:
 Gaussian 16, Revision C.01,
 M. J. Frisch, G. W. Trucks, H. B. Schlegel, G. E. Scuseria, 
 M. A. Robb, J. R. Cheeseman, G. Scalmani, V. Barone, 
 G. A. Petersson, H. Nakatsuji, X. Li, M. Caricato, A. V. Marenich, 
 J. Bloino, B. G. Janesko, R. Gomperts, B. Mennucci, H. P. Hratchian, 
 J. V. Ortiz, A. F. Izmaylov, J. L. Sonnenberg, D. Williams-Young, 
 F. Ding, F. Lipparini, F. Egidi, J. Goings, B. Peng, A. Petrone, 
 T. Henderson, D. Ranasinghe, V. G. Zakrzewski, J. Gao, N. Rega, 
 G. Zheng, W. Liang, M. Hada, M. Ehara, K. Toyota, R. Fukuda, 
 J. Hasegawa, M. Ishida, T. Nakajima, Y. Honda, O. Kitao, H. Nakai, 
 T. Vreven, K. Throssell, J. A. Montgomery, Jr., J. E. Peralta, 
 F. Ogliaro, M. J. Bearpark, J. J. Heyd, E. N. Brothers, K. N. Kudin, 
 V. N. Staroverov, T. A. Keith, R. Kobayashi, J. Normand, 
 K. Raghavachari, A. P. Rendell, J. C. Burant, S. S. Iyengar, 
 J. Tomasi, M. Cossi, J. M. Millam, M. Klene, C. Adamo, R. Cammi, 
 J. W. Ochterski, R. L. Martin, K. Morokuma, O. Farkas, 
 J. B. Foresman, and D. J. Fox, Gaussian, Inc., Wallingford CT, 2019.
 
 ******************************************
 Gaussian 16:  ES64L-G16RevC.01  3-Jul-2019
                30-Jul-2021 
 ******************************************
 %mem=8GB
 %NProcShare=8
 Will use up to    8 processors via shared memory.
 -----------------------------------------------------------
 #N RPBEPBE/Def2QZVPP scf=tight Int(Grid=ultrafine) OPT FREQ
 -----------------------------------------------------------
 1/18=20,19=15,26=4,38=1/1,3;
 2/9=110,12=2,17=6,18=5,40=1/2;
 3/5=45,7=202,11=2,25=1,30=1,71=1,74=1009,75=-5,116=1/1,2,3;
 4//1;
 5/5=2,32=2,38=5/2;
 6/7=2,8=2,9=2,10=2,28=1/1;
 7//1,2,3,16;
 1/18=20,19=15,26=4/3(2);
 2/9=110/2;
 99//99;
 2/9=110/2;
 3/5=45,7=202,11=2,25=1,30=1,71=1,74=1009,75=-5,116=1/1,2,3;
 4/5=5,16=3,69=1/1;
 5/5=2,32=2,38=5/2;
 7//1,2,3,16;
 1/18=20,19=15,26=4/3(-5);
 2/9=110/2;
 6/7=2,8=2,9=2,10=2,19=2,28=1/1;
 99/9=1/99;
 ---------
 Mol job 1
 ---------
 Symbolic Z-matrix:
 Charge =  0 Multiplicity = 1
 Si                    8.        8.        8. 
 Cl                    9.18631   6.81369   9.18631 
 Cl                    6.81369   9.18631   9.18631 
 Cl                    6.81369   6.81369   6.81369 
 Cl                    9.18631   9.18631   6.81369 
 

 GradGradGradGradGradGradGradGradGradGradGradGradGradGradGradGradGradGrad
 Berny optimization.
 Initialization pass.
                           ----------------------------
                           !    Initial Parameters    !
                           ! (Angstroms and Degrees)  !
 --------------------------                            --------------------------
 ! Name  Definition              Value          Derivative Info.                !
 --------------------------------------------------------------------------------
 ! R1    R(1,2)                  2.0548         estimate D2E/DX2                !
 ! R2    R(1,3)                  2.0548         estimate D2E/DX2                !
 ! R3    R(1,4)                  2.0548         estimate D2E/DX2                !
 ! R4    R(1,5)                  2.0548         estimate D2E/DX2                !
 ! A1    A(2,1,3)              109.4712         estimate D2E/DX2                !
 ! A2    A(2,1,4)              109.4712         estimate D2E/DX2                !
 ! A3    A(2,1,5)              109.4712         estimate D2E/DX2                !
 ! A4    A(3,1,4)              109.4712         estimate D2E/DX2                !
 ! A5    A(3,1,5)              109.4712         estimate D2E/DX2                !
 ! A6    A(4,1,5)              109.4712         estimate D2E/DX2                !
 ! D1    D(2,1,4,3)            120.0            estimate D2E/DX2                !
 ! D2    D(2,1,5,3)           -120.0            estimate D2E/DX2                !
 ! D3    D(2,1,5,4)            120.0            estimate D2E/DX2                !
 ! D4    D(3,1,5,4)           -120.0            estimate D2E/DX2                !
 --------------------------------------------------------------------------------
 Trust Radius=3.00D-01 FncErr=1.00D-07 GrdErr=1.00D-06 EigMax=2.50D+02 EigMin=1.00D-04
 Number of steps in this run=     24 maximum allowed number of steps=    100.
 GradGradGradGradGradGradGradGradGradGradGradGradGradGradGradGradGradGrad

                          Input orientation:                          
 ---------------------------------------------------------------------
 Center     Atomic      Atomic             Coordinates (Angstroms)
 Number     Number       Type             X           Y           Z
 ---------------------------------------------------------------------
      1         14           0        8.000000    8.000000    8.000000
      2         17           0        9.186310    6.813690    9.186310
      3         17           0        6.813690    9.186310    9.186310
      4         17           0        6.813690    6.813690    6.813690
      5         17           0        9.186310    9.186310    6.813690
 ---------------------------------------------------------------------
                    Distance matrix (angstroms):
                    1          2          3          4          5
     1  Si   0.000000
     2  Cl   2.054750   0.000000
     3  Cl   2.054750   3.355393   0.000000
     4  Cl   2.054750   3.355393   3.355393   0.000000
     5  Cl   2.054750   3.355393   3.355393   3.355393   0.000000
 Stoichiometry    Cl4Si
 Framework group  TD[O(Si),4C3(Cl)]
 Deg. of freedom     1
 Full point group                 TD      NOp  24
 Largest Abelian subgroup         D2      NOp   4
 Largest concise Abelian subgroup D2      NOp   4
                         Standard orientation:                         
 ---------------------------------------------------------------------
 Center     Atomic      Atomic             Coordinates (Angstroms)
 Number     Number       Type             X           Y           Z
 ---------------------------------------------------------------------
      1         14           0        0.000000    0.000000    0.000000
      2         17           0        1.186310    1.186310    1.186310
      3         17           0       -1.186310   -1.186310    1.186310
      4         17           0        1.186310   -1.186310   -1.186310
      5         17           0       -1.186310    1.186310   -1.186310
 ---------------------------------------------------------------------
 Rotational constants (GHZ):           1.2836573           1.2836573           1.2836573
 Standard basis: def2QZVPP (5D, 7F)
 There are   115 symmetry adapted cartesian basis functions of A   symmetry.
 There are   105 symmetry adapted cartesian basis functions of B1  symmetry.
 There are   105 symmetry adapted cartesian basis functions of B2  symmetry.
 There are   105 symmetry adapted cartesian basis functions of B3  symmetry.
 There are    92 symmetry adapted basis functions of A   symmetry.
 There are    86 symmetry adapted basis functions of B1  symmetry.
 There are    86 symmetry adapted basis functions of B2  symmetry.
 There are    86 symmetry adapted basis functions of B3  symmetry.
   350 basis functions,   605 primitive gaussians,   430 cartesian basis functions
    41 alpha electrons       41 beta electrons
       nuclear repulsion energy       518.6448599658 Hartrees.
 NAtoms=    5 NActive=    5 NUniq=    2 SFac= 4.00D+00 NAtFMM=   60 NAOKFM=F Big=F
 Integral buffers will be    131072 words long.
 Raffenetti 2 integral format.
 Two-electron integral symmetry is turned on.
 One-electron integrals computed using PRISM.
  24 Symmetry operations used in ECPInt.
 ECPInt:  NShTT=    6105 NPrTT=   21500 LenC2=    5588 LenP2D=   14520.
 LDataN:  DoStor=T MaxTD1= 8 Len=  415
 NBasis=   350 RedAO= T EigKep=  1.90D-04  NBF=    92    86    86    86
 NBsUse=   350 1.00D-06 EigRej= -1.00D+00 NBFU=    92    86    86    86
 ExpMin= 5.30D-02 ExpMax= 1.47D+06 ExpMxC= 1.67D+03 IAcc=3 IRadAn=         5 AccDes= 0.00D+00
 Harris functional with IExCor= 1009 and IRadAn=       5 diagonalized for initial guess.
 HarFok:  IExCor= 1009 AccDes= 0.00D+00 IRadAn=         5 IDoV= 1 UseB2=F ITyADJ=14
 ICtDFT=  3500011 ScaDFX=  1.000000  1.000000  1.000000  1.000000
 FoFCou: FMM=F IPFlag=           0 FMFlag=      100000 FMFlg1=           0
         NFxFlg=           0 DoJE=T BraDBF=F KetDBF=T FulRan=T
         wScrn=  0.000000 ICntrl=       500 IOpCl=  0 I1Cent=   200000004 NGrid=           0
         NMat0=    1 NMatS0=      1 NMatT0=    0 NMatD0=    1 NMtDS0=    0 NMtDT0=    0
 Petite list used in FoFCou.
 Initial guess orbital symmetries:
       Occupied  (A1) (T2) (T2) (T2) (A1) (A1) (T2) (T2) (T2) (T2)
                 (T2) (T2) (A1) (E) (E) (T2) (T2) (T2) (T1) (T1)
                 (T1) (A1) (T2) (T2) (T2) (A1) (T2) (T2) (T2) (A1)
                 (T2) (T2) (T2) (E) (E) (T2) (T2) (T2) (T1) (T1)
                 (T1)
       Virtual   (A1) (T2) (T2) (T2) (A1) (T2) (T2) (T2) (T2) (T2)
                 (T2) (E) (E) (E) (E) (A1) (T2) (T2) (T2) (T1)
                 (T1) (T1) (T2) (T2) (T2) (T1) (T1) (T1) (E) (E)
                 (T2) (T2) (T2) (T1) (T1) (T1) (T2) (T2) (T2) (A1)
                 (T2) (T2) (T2) (T2) (T2) (T2) (A1) (E) (E) (E)
                 (E) (A1) (T2) (T2) (T2) (T2) (T2) (T2) (T1) (T1)
                 (T1) (T2) (T2) (T2) (A1) (T1) (T1) (T1) (E) (E)
                 (T1) (T1) (T1) (T2) (T2) (T2) (E) (E) (T2) (T2)
                 (T2) (T1) (T1) (T1) (A1) (T2) (T2) (T2) (T2) (T2)
                 (T2) (E) (E) (A2) (T1) (T1) (T1) (T2) (T2) (T2)
                 (T2) (T2) (T2) (A1) (E) (E) (T1) (T1) (T1) (A1)
                 (T2) (T2) (T2) (E) (E) (T1) (T1) (T1) (T2) (T2)
                 (T2) (A1) (T2) (T2) (T2) (A1) (T2) (T2) (T2) (T1)
                 (T1) (T1) (E) (E) (T2) (T2) (T2) (T2) (T2) (T2)
                 (E) (E) (T1) (T1) (T1) (A1) (T2) (T2) (T2) (A1)
                 (T2) (T2) (T2) (T1) (T1) (T1) (E) (E) (T2) (T2)
                 (T2) (T2) (T2) (T2) (E) (E) (T1) (T1) (T1) (A1)
                 (T2) (T2) (T2) (A2) (E) (E) (T2) (T2) (T2) (T1)
                 (T1) (T1) (T1) (T1) (T1) (T2) (T2) (T2) (E) (E)
                 (A1) (T1) (T1) (T1) (T2) (T2) (T2) (T2) (T2) (T2)
                 (T1) (T1) (T1) (A1) (E) (E) (A2) (T2) (T2) (T2)
                 (T1) (T1) (T1) (A1) (E) (E) (T2) (T2) (T2) (T2)
                 (T2) (T2) (T1) (T1) (T1) (A1) (T1) (T1) (T1) (T2)
                 (T2) (T2) (E) (E) (T1) (T1) (T1) (T2) (T2) (T2)
                 (T2) (T2) (T2) (E) (E) (A1) (T2) (T2) (T2) (A1)
                 (E) (E) (T2) (T2) (T2) (T2) (T2) (T2) (A1) (T1)
                 (T1) (T1) (E) (E) (T2) (T2) (T2) (T2) (T2) (T2)
                 (E) (E) (T1) (T1) (T1) (T2) (T2) (T2) (A1) (T2)
                 (T2) (T2) (A1) (T2) (T2) (T2) (A1) (T1) (T1) (T1)
                 (T2) (T2) (T2) (E) (E) (A1) (T2) (T2) (T2) (A1)
                 (T2) (T2) (T2) (A1) (A1) (T2) (T2) (T2) (A1)
 The electronic state of the initial guess is 1-A1.
 Requested convergence on RMS density matrix=1.00D-08 within 128 cycles.
 Requested convergence on MAX density matrix=1.00D-06.
 Requested convergence on             energy=1.00D-06.
 No special actions if energy rises.
 Integral accuracy reduced to 1.0D-05 until final iterations.
 Initial convergence to 1.0D-05 achieved.  Increase integral accuracy.
 SCF Done:  E(RPBE-PBE) =  -2129.74173214     A.U. after   11 cycles
            NFock= 11  Conv=0.25D-08     -V/T= 2.0016

 **********************************************************************

            Population analysis using the SCF Density.

 **********************************************************************

 Orbital symmetries:
       Occupied  (A1) (T2) (T2) (T2) (A1) (A1) (T2) (T2) (T2) (A1)
                 (T2) (T2) (T2) (E) (E) (T2) (T2) (T2) (T1) (T1)
                 (T1) (A1) (T2) (T2) (T2) (A1) (T2) (T2) (T2) (A1)
                 (T2) (T2) (T2) (E) (E) (T2) (T2) (T2) (T1) (T1)
                 (T1)
       Virtual   (A1) (T2) (T2) (T2) (A1) (T2) (T2) (T2) (E) (E)
                 (T2) (T2) (T2) (E) (E) (A1) (T2) (T2) (T2) (T1)
                 (T1) (T1) (T2) (T2) (T2) (T1) (T1) (T1) (E) (E)
                 (T2) (T2) (T2) (T1) (T1) (T1) (T2) (T2) (T2) (A1)
                 (T2) (T2) (T2) (T2) (T2) (T2) (A1) (E) (E) (E)
                 (E) (A1) (T2) (T2) (T2) (T2) (T2) (T2) (T1) (T1)
                 (T1) (T2) (T2) (T2) (A1) (T1) (T1) (T1) (E) (E)
                 (T1) (T1) (T1) (T2) (T2) (T2) (E) (E) (T2) (T2)
                 (T2) (T1) (T1) (T1) (A1) (T2) (T2) (T2) (E) (E)
                 (T2) (T2) (T2) (A2) (T1) (T1) (T1) (T2) (T2) (T2)
                 (T2) (T2) (T2) (A1) (E) (E) (T1) (T1) (T1) (A1)
                 (E) (E) (T2) (T2) (T2) (T1) (T1) (T1) (T2) (T2)
                 (T2) (A1) (T2) (T2) (T2) (A1) (T2) (T2) (T2) (T1)
                 (T1) (T1) (E) (E) (T2) (T2) (T2) (T2) (T2) (T2)
                 (E) (E) (T1) (T1) (T1) (A1) (T2) (T2) (T2) (A1)
                 (T2) (T2) (T2) (T1) (T1) (T1) (E) (E) (T2) (T2)
                 (T2) (T2) (T2) (T2) (E) (E) (T1) (T1) (T1) (A1)
                 (T2) (T2) (T2) (A2) (T2) (T2) (T2) (E) (E) (T1)
                 (T1) (T1) (T1) (T1) (T1) (T2) (T2) (T2) (E) (E)
                 (A1) (T1) (T1) (T1) (T2) (T2) (T2) (T2) (T2) (T2)
                 (T1) (T1) (T1) (A1) (E) (E) (A2) (T1) (T1) (T1)
                 (T2) (T2) (T2) (A1) (E) (E) (T2) (T2) (T2) (T2)
                 (T2) (T2) (T1) (T1) (T1) (A1) (T1) (T1) (T1) (T2)
                 (T2) (T2) (E) (E) (T1) (T1) (T1) (T2) (T2) (T2)
                 (T2) (T2) (T2) (E) (E) (A1) (T2) (T2) (T2) (A1)
                 (E) (E) (T2) (T2) (T2) (T2) (T2) (T2) (A1) (T1)
                 (T1) (T1) (E) (E) (T2) (T2) (T2) (T2) (T2) (T2)
                 (E) (E) (T1) (T1) (T1) (T2) (T2) (T2) (A1) (T2)
                 (T2) (T2) (A1) (T2) (T2) (T2) (A1) (T1) (T1) (T1)
                 (T2) (T2) (T2) (E) (E) (A1) (T2) (T2) (T2) (A1)
                 (T2) (T2) (T2) (A1) (A1) (T2) (T2) (T2) (A1)
 The electronic state is 1-A1.
 Alpha  occ. eigenvalues -- -100.69430-100.69430-100.69430-100.69430 -65.53979
 Alpha  occ. eigenvalues --   -9.20561  -9.20561  -9.20561  -9.20561  -7.02696
 Alpha  occ. eigenvalues --   -7.02696  -7.02696  -7.02696  -7.02033  -7.02033
 Alpha  occ. eigenvalues --   -7.02033  -7.02033  -7.02033  -7.02033  -7.02033
 Alpha  occ. eigenvalues --   -7.02033  -5.17741  -3.58796  -3.58796  -3.58796
 Alpha  occ. eigenvalues --   -0.81502  -0.77352  -0.77352  -0.77352  -0.50596
 Alpha  occ. eigenvalues --   -0.40703  -0.40703  -0.40703  -0.33588  -0.33588
 Alpha  occ. eigenvalues --   -0.32804  -0.32804  -0.32804  -0.30048  -0.30048
 Alpha  occ. eigenvalues --   -0.30048
 Alpha virt. eigenvalues --   -0.08036  -0.02648  -0.02648  -0.02648   0.02021
 Alpha virt. eigenvalues --    0.06036   0.06036   0.06036   0.09489   0.09489
 Alpha virt. eigenvalues --    0.10480   0.10480   0.10480   0.15196   0.15196
 Alpha virt. eigenvalues --    0.16438   0.17603   0.17603   0.17603   0.19530
 Alpha virt. eigenvalues --    0.19530   0.19530   0.20277   0.20277   0.20277
 Alpha virt. eigenvalues --    0.27499   0.27499   0.27499   0.29459   0.29459
 Alpha virt. eigenvalues --    0.35532   0.35532   0.35532   0.38762   0.38762
 Alpha virt. eigenvalues --    0.38762   0.43224   0.43224   0.43224   0.46870
 Alpha virt. eigenvalues --    0.48749   0.48749   0.48749   0.51819   0.51819
 Alpha virt. eigenvalues --    0.51819   0.53136   0.57210   0.57210   0.62353
 Alpha virt. eigenvalues --    0.62353   0.66818   0.71632   0.71632   0.71632
 Alpha virt. eigenvalues --    0.74766   0.74766   0.74766   0.86641   0.86641
 Alpha virt. eigenvalues --    0.86641   0.88178   0.88178   0.88178   0.99029
 Alpha virt. eigenvalues --    1.04674   1.04674   1.04674   1.05339   1.05339
 Alpha virt. eigenvalues --    1.07311   1.07311   1.07311   1.07750   1.07750
 Alpha virt. eigenvalues --    1.07750   1.11236   1.11236   1.11701   1.11701
 Alpha virt. eigenvalues --    1.11701   1.13391   1.13391   1.13391   1.15009
 Alpha virt. eigenvalues --    1.19627   1.19627   1.19627   1.22739   1.22739
 Alpha virt. eigenvalues --    1.23110   1.23110   1.23110   1.25591   1.26754
 Alpha virt. eigenvalues --    1.26754   1.26754   1.34286   1.34286   1.34286
 Alpha virt. eigenvalues --    1.35657   1.35657   1.35657   1.40201   1.42675
 Alpha virt. eigenvalues --    1.42675   1.46812   1.46812   1.46812   1.53767
 Alpha virt. eigenvalues --    1.60224   1.60224   1.61768   1.61768   1.61768
 Alpha virt. eigenvalues --    1.76661   1.76661   1.76661   1.78298   1.78298
 Alpha virt. eigenvalues --    1.78298   1.82433   1.90899   1.90899   1.90899
 Alpha virt. eigenvalues --    2.00906   2.11188   2.11188   2.11188   2.13749
 Alpha virt. eigenvalues --    2.13749   2.13749   2.18485   2.18485   2.19321
 Alpha virt. eigenvalues --    2.19321   2.19321   2.34247   2.34247   2.34247
 Alpha virt. eigenvalues --    2.44644   2.44644   2.53261   2.53261   2.53261
 Alpha virt. eigenvalues --    2.54221   2.59985   2.59985   2.59985   2.81134
 Alpha virt. eigenvalues --    3.05880   3.05880   3.05880   3.12308   3.12308
 Alpha virt. eigenvalues --    3.12308   3.14045   3.14045   3.20341   3.20341
 Alpha virt. eigenvalues --    3.20341   3.28264   3.28264   3.28264   3.30921
 Alpha virt. eigenvalues --    3.30921   3.32146   3.32146   3.32146   3.42101
 Alpha virt. eigenvalues --    3.44312   3.44312   3.44312   3.45094   3.46745
 Alpha virt. eigenvalues --    3.46745   3.46745   3.46765   3.46765   3.46793
 Alpha virt. eigenvalues --    3.46793   3.46793   3.47874   3.47874   3.47874
 Alpha virt. eigenvalues --    3.53238   3.53238   3.53238   3.54128   3.54128
 Alpha virt. eigenvalues --    3.58809   3.58984   3.58984   3.58984   3.59165
 Alpha virt. eigenvalues --    3.59165   3.59165   3.73871   3.73871   3.73871
 Alpha virt. eigenvalues --    3.75480   3.75480   3.75480   3.76270   3.77170
 Alpha virt. eigenvalues --    3.77170   3.79837   3.81147   3.81147   3.81147
 Alpha virt. eigenvalues --    3.81435   3.81435   3.81435   3.84988   3.86349
 Alpha virt. eigenvalues --    3.86349   3.91157   3.91157   3.91157   3.93254
 Alpha virt. eigenvalues --    3.93254   3.93254   4.00834   4.00834   4.00834
 Alpha virt. eigenvalues --    4.01838   4.09022   4.09022   4.09022   4.17464
 Alpha virt. eigenvalues --    4.17464   4.17464   4.19036   4.19036   4.52655
 Alpha virt. eigenvalues --    4.52655   4.52655   4.58693   4.58693   4.58693
 Alpha virt. eigenvalues --    4.60882   4.60882   4.60882   4.66234   4.66234
 Alpha virt. eigenvalues --    4.75586   4.85047   4.85047   4.85047   5.41335
 Alpha virt. eigenvalues --    5.57589   5.57589   6.09591   6.09591   6.09591
 Alpha virt. eigenvalues --    8.34084   8.34084   8.34084   8.51643  10.44184
 Alpha virt. eigenvalues --   10.44184  10.44184  10.45159  10.45159  10.47896
 Alpha virt. eigenvalues --   10.47896  10.47896  10.56450  10.56450  10.56450
 Alpha virt. eigenvalues --   10.60687  10.60687  10.61426  10.61426  10.61426
 Alpha virt. eigenvalues --   10.74019  10.74019  10.74019  10.80419  12.32814
 Alpha virt. eigenvalues --   12.32814  12.32814  16.28767  28.48256  28.48256
 Alpha virt. eigenvalues --   28.48256  28.58271  41.31182  41.31182  41.31182
 Alpha virt. eigenvalues --   41.31792  41.31792  41.31792  41.33139  41.33139
 Alpha virt. eigenvalues --   41.37576  41.38263  41.38263  41.38263  57.48777
 Alpha virt. eigenvalues --   97.75998  97.75998  97.75998  97.85376 314.92298
 Alpha virt. eigenvalues --  524.16622 524.16622 524.16622 524.31732
          Condensed to atoms (all electrons):
               1          2          3          4          5
     1  Si  11.443081   0.430230   0.430230   0.430230   0.430230
     2  Cl   0.430230  16.897179  -0.039470  -0.039470  -0.039470
     3  Cl   0.430230  -0.039470  16.897179  -0.039470  -0.039470
     4  Cl   0.430230  -0.039470  -0.039470  16.897179  -0.039470
     5  Cl   0.430230  -0.039470  -0.039470  -0.039470  16.897179
 Mulliken charges:
               1
     1  Si   0.835999
     2  Cl  -0.209000
     3  Cl  -0.209000
     4  Cl  -0.209000
     5  Cl  -0.209000
 Sum of Mulliken charges =  -0.00000
 Mulliken charges with hydrogens summed into heavy atoms:
               1
     1  Si   0.835999
     2  Cl  -0.209000
     3  Cl  -0.209000
     4  Cl  -0.209000
     5  Cl  -0.209000
 Electronic spatial extent (au):  <R**2>=           1164.3130
 Charge=             -0.0000 electrons
 Dipole moment (field-independent basis, Debye):
    X=              0.0000    Y=             -0.0000    Z=             -0.0000  Tot=              0.0000
 Quadrupole moment (field-independent basis, Debye-Ang):
   XX=            -62.3536   YY=            -62.3536   ZZ=            -62.3536
   XY=             -0.0000   XZ=             -0.0000   YZ=              0.0000
 Traceless Quadrupole moment (field-independent basis, Debye-Ang):
   XX=              0.0000   YY=             -0.0000   ZZ=             -0.0000
   XY=             -0.0000   XZ=             -0.0000   YZ=              0.0000
 Octapole moment (field-independent basis, Debye-Ang**2):
  XXX=              0.0000  YYY=             -0.0000  ZZZ=             -0.0000  XYY=              0.0000
  XXY=             -0.0000  XXZ=              0.0000  XZZ=             -0.0000  YZZ=              0.0000
  YYZ=              0.0000  XYZ=              2.9044
 Hexadecapole moment (field-independent basis, Debye-Ang**3):
 XXXX=           -490.6109 YYYY=           -490.6109 ZZZZ=           -490.6109 XXXY=             -0.0000
 XXXZ=              0.0000 YYYX=             -0.0000 YYYZ=              0.0000 ZZZX=              0.0000
 ZZZY=              0.0000 XXYY=           -156.4841 XXZZ=           -156.4841 YYZZ=           -156.4841
 XXYZ=              0.0000 YYXZ=              0.0000 ZZXY=             -0.0000
 N-N= 5.186448599658D+02 E-N=-6.103517417560D+03  KE= 2.126404565697D+03
 Symmetry A    KE= 6.700029704296D+02
 Symmetry B1   KE= 4.854671984225D+02
 Symmetry B2   KE= 4.854671984225D+02
 Symmetry B3   KE= 4.854671984224D+02
  24 Symmetry operations used in ECPInt.
 ECPInt:  NShTT=    6105 NPrTT=   21500 LenC2=    5588 LenP2D=   14520.
 LDataN:  DoStor=T MaxTD1= 9 Len=  602
 Calling FoFJK, ICntrl=      2527 FMM=F ISym2X=1 I1Cent= 0 IOpClX= 0 NMat=1 NMatS=1 NMatT=0.
 ***** Axes restored to original set *****
 -------------------------------------------------------------------
 Center     Atomic                   Forces (Hartrees/Bohr)
 Number     Number              X              Y              Z
 -------------------------------------------------------------------
      1       14          -0.000000000    0.000000000   -0.000000000
      2       17          -0.003646159    0.003646159   -0.003646159
      3       17           0.003646159   -0.003646159   -0.003646159
      4       17           0.003646159    0.003646159    0.003646159
      5       17          -0.003646159   -0.003646159    0.003646159
 -------------------------------------------------------------------
 Cartesian Forces:  Max     0.003646159 RMS     0.003261224

 GradGradGradGradGradGradGradGradGradGradGradGradGradGradGradGradGradGrad
 Berny optimization.
 FormGI is forming the generalized inverse of G from B-inverse, IUseBI=4.
 Internal  Forces:  Max     0.006315332 RMS     0.003375687
 Search for a local minimum.
 Step number   1 out of a maximum of   24
 All quantities printed in internal units (Hartrees-Bohrs-Radians)
 Mixed Optimization -- RFO/linear search
 Second derivative matrix not updated -- first step.
 The second derivative matrix:
                          R1        R2        R3        R4        A1
           R1           0.29006
           R2           0.00000   0.29006
           R3           0.00000   0.00000   0.29006
           R4           0.00000   0.00000   0.00000   0.29006
           A1           0.00000   0.00000   0.00000   0.00000   0.25000
           A2           0.00000   0.00000   0.00000   0.00000   0.00000
           A3           0.00000   0.00000   0.00000   0.00000   0.00000
           A4           0.00000   0.00000   0.00000   0.00000   0.00000
           A5           0.00000   0.00000   0.00000   0.00000   0.00000
           A6           0.00000   0.00000   0.00000   0.00000   0.00000
           D1           0.00000   0.00000   0.00000   0.00000   0.00000
           D2           0.00000   0.00000   0.00000   0.00000   0.00000
           D3           0.00000   0.00000   0.00000   0.00000   0.00000
           D4           0.00000   0.00000   0.00000   0.00000   0.00000
                          A2        A3        A4        A5        A6
           A2           0.25000
           A3           0.00000   0.25000
           A4           0.00000   0.00000   0.25000
           A5           0.00000   0.00000   0.00000   0.25000
           A6           0.00000   0.00000   0.00000   0.00000   0.25000
           D1           0.00000   0.00000   0.00000   0.00000   0.00000
           D2           0.00000   0.00000   0.00000   0.00000   0.00000
           D3           0.00000   0.00000   0.00000   0.00000   0.00000
           D4           0.00000   0.00000   0.00000   0.00000   0.00000
                          D1        D2        D3        D4
           D1           0.01632
           D2           0.00000   0.01632
           D3           0.00000   0.00000   0.01632
           D4           0.00000   0.00000   0.00000   0.01632
 ITU=  0
     Eigenvalues ---    0.08822   0.09760   0.14095   0.25000   0.25000
     Eigenvalues ---    0.29006   0.29006   0.29006   0.29006
 RFO step:  Lambda=-5.48970861D-04 EMin= 8.82203409D-02
 Linear search not attempted -- first point.
 Iteration  1 RMS(Cart)=  0.01161611 RMS(Int)=  0.00000000
 Iteration  2 RMS(Cart)=  0.00000000 RMS(Int)=  0.00000000
 ClnCor:  largest displacement from symmetrization is 3.90D-12 for atom     3.
 Variable       Old X    -DE/DX   Delta X   Delta X   Delta X     New X
                                 (Linear)    (Quad)   (Total)
    R1        3.88291  -0.00632   0.00000  -0.02173  -0.02173   3.86118
    R2        3.88291  -0.00632   0.00000  -0.02173  -0.02173   3.86118
    R3        3.88291  -0.00632   0.00000  -0.02173  -0.02173   3.86118
    R4        3.88291  -0.00632   0.00000  -0.02173  -0.02173   3.86118
    A1        1.91063   0.00000   0.00000   0.00000   0.00000   1.91063
    A2        1.91063   0.00000   0.00000   0.00000   0.00000   1.91063
    A3        1.91063  -0.00000   0.00000  -0.00000   0.00000   1.91063
    A4        1.91063   0.00000   0.00000   0.00000   0.00000   1.91063
    A5        1.91063  -0.00000   0.00000  -0.00000   0.00000   1.91063
    A6        1.91063  -0.00000   0.00000  -0.00000  -0.00000   1.91063
    D1        2.09440   0.00000   0.00000   0.00000   0.00000   2.09440
    D2       -2.09440   0.00000   0.00000   0.00000   0.00000  -2.09440
    D3        2.09440  -0.00000   0.00000  -0.00000   0.00000   2.09440
    D4       -2.09440  -0.00000   0.00000  -0.00000   0.00000  -2.09440
         Item               Value     Threshold  Converged?
 Maximum Force            0.006315     0.000450     NO 
 RMS     Force            0.003376     0.000300     NO 
 Maximum Displacement     0.012547     0.001800     NO 
 RMS     Displacement     0.011616     0.001200     NO 
 Predicted change in Energy=-2.750049D-04
 GradGradGradGradGradGradGradGradGradGradGradGradGradGradGradGradGradGrad

                          Input orientation:                          
 ---------------------------------------------------------------------
 Center     Atomic      Atomic             Coordinates (Angstroms)
 Number     Number       Type             X           Y           Z
 ---------------------------------------------------------------------
      1         14           0        8.000000    8.000000    8.000000
      2         17           0        9.179671    6.820329    9.179671
      3         17           0        6.820329    9.179671    9.179671
      4         17           0        6.820329    6.820329    6.820329
      5         17           0        9.179671    9.179671    6.820329
 ---------------------------------------------------------------------
                    Distance matrix (angstroms):
                    1          2          3          4          5
     1  Si   0.000000
     2  Cl   2.043250   0.000000
     3  Cl   2.043250   3.336613   0.000000
     4  Cl   2.043250   3.336613   3.336613   0.000000
     5  Cl   2.043250   3.336613   3.336613   3.336613   0.000000
 Stoichiometry    Cl4Si
 Framework group  TD[O(Si),4C3(Cl)]
 Deg. of freedom     1
 Full point group                 TD      NOp  24
 Largest Abelian subgroup         D2      NOp   4
 Largest concise Abelian subgroup D2      NOp   4
                         Standard orientation:                         
 ---------------------------------------------------------------------
 Center     Atomic      Atomic             Coordinates (Angstroms)
 Number     Number       Type             X           Y           Z
 ---------------------------------------------------------------------
      1         14           0        0.000000    0.000000    0.000000
      2         17           0        1.179671    1.179671    1.179671
      3         17           0       -1.179671   -1.179671    1.179671
      4         17           0        1.179671   -1.179671   -1.179671
      5         17           0       -1.179671    1.179671   -1.179671
 ---------------------------------------------------------------------
 Rotational constants (GHZ):           1.2981475           1.2981475           1.2981475
 Standard basis: def2QZVPP (5D, 7F)
 There are   115 symmetry adapted cartesian basis functions of A   symmetry.
 There are   105 symmetry adapted cartesian basis functions of B1  symmetry.
 There are   105 symmetry adapted cartesian basis functions of B2  symmetry.
 There are   105 symmetry adapted cartesian basis functions of B3  symmetry.
 There are    92 symmetry adapted basis functions of A   symmetry.
 There are    86 symmetry adapted basis functions of B1  symmetry.
 There are    86 symmetry adapted basis functions of B2  symmetry.
 There are    86 symmetry adapted basis functions of B3  symmetry.
   350 basis functions,   605 primitive gaussians,   430 cartesian basis functions
    41 alpha electrons       41 beta electrons
       nuclear repulsion energy       521.5639288175 Hartrees.
 NAtoms=    5 NActive=    5 NUniq=    2 SFac= 4.00D+00 NAtFMM=   60 NAOKFM=F Big=F
 Integral buffers will be    131072 words long.
 Raffenetti 2 integral format.
 Two-electron integral symmetry is turned on.
 One-electron integrals computed using PRISM.
  24 Symmetry operations used in ECPInt.
 ECPInt:  NShTT=    6105 NPrTT=   21500 LenC2=    5588 LenP2D=   14524.
 LDataN:  DoStor=T MaxTD1= 8 Len=  415
 NBasis=   350 RedAO= T EigKep=  1.83D-04  NBF=    92    86    86    86
 NBsUse=   350 1.00D-06 EigRej= -1.00D+00 NBFU=    92    86    86    86
 Initial guess from the checkpoint file:  "/data/hutter/SMG16/PBE/Gau-18950.chk"
 B after Tr=     0.000000    0.000000    0.000000
         Rot=    1.000000    0.000000   -0.000000   -0.000000 Ang=   0.00 deg.
 Initial guess orbital symmetries:
       Occupied  (A1) (T2) (T2) (T2) (A1) (A1) (T2) (T2) (T2) (A1)
                 (T2) (T2) (T2) (E) (E) (T2) (T2) (T2) (T1) (T1)
                 (T1) (A1) (T2) (T2) (T2) (A1) (T2) (T2) (T2) (A1)
                 (T2) (T2) (T2) (E) (E) (T2) (T2) (T2) (T1) (T1)
                 (T1)
       Virtual   (A1) (T2) (T2) (T2) (A1) (T2) (T2) (T2) (E) (E)
                 (T2) (T2) (T2) (E) (E) (A1) (T2) (T2) (T2) (T1)
                 (T1) (T1) (T2) (T2) (T2) (T1) (T1) (T1) (E) (E)
                 (T2) (T2) (T2) (T1) (T1) (T1) (T2) (T2) (T2) (A1)
                 (T2) (T2) (T2) (T2) (T2) (T2) (A1) (E) (E) (E)
                 (E) (A1) (T2) (T2) (T2) (T2) (T2) (T2) (T1) (T1)
                 (T1) (T2) (T2) (T2) (A1) (T1) (T1) (T1) (E) (E)
                 (T1) (T1) (T1) (T2) (T2) (T2) (E) (E) (T2) (T2)
                 (T2) (T1) (T1) (T1) (A1) (T2) (T2) (T2) (E) (E)
                 (T2) (T2) (T2) (A2) (T1) (T1) (T1) (T2) (T2) (T2)
                 (T2) (T2) (T2) (A1) (E) (E) (T1) (T1) (T1) (A1)
                 (E) (E) (T2) (T2) (T2) (T1) (T1) (T1) (T2) (T2)
                 (T2) (A1) (T2) (T2) (T2) (A1) (T2) (T2) (T2) (T1)
                 (T1) (T1) (E) (E) (T2) (T2) (T2) (T2) (T2) (T2)
                 (E) (E) (T1) (T1) (T1) (A1) (T2) (T2) (T2) (A1)
                 (T2) (T2) (T2) (T1) (T1) (T1) (E) (E) (T2) (T2)
                 (T2) (T2) (T2) (T2) (E) (E) (T1) (T1) (T1) (A1)
                 (T2) (T2) (T2) (A2) (T2) (T2) (T2) (E) (E) (T1)
                 (T1) (T1) (T1) (T1) (T1) (T2) (T2) (T2) (E) (E)
                 (A1) (T1) (T1) (T1) (T2) (T2) (T2) (T2) (T2) (T2)
                 (T1) (T1) (T1) (A1) (E) (E) (A2) (T1) (T1) (T1)
                 (T2) (T2) (T2) (A1) (E) (E) (T2) (T2) (T2) (T2)
                 (T2) (T2) (T1) (T1) (T1) (A1) (T1) (T1) (T1) (T2)
                 (T2) (T2) (E) (E) (T1) (T1) (T1) (T2) (T2) (T2)
                 (T2) (T2) (T2) (E) (E) (A1) (T2) (T2) (T2) (A1)
                 (E) (E) (T2) (T2) (T2) (T2) (T2) (T2) (A1) (T1)
                 (T1) (T1) (E) (E) (T2) (T2) (T2) (T2) (T2) (T2)
                 (E) (E) (T1) (T1) (T1) (T2) (T2) (T2) (A1) (T2)
                 (T2) (T2) (A1) (T2) (T2) (T2) (A1) (T1) (T1) (T1)
                 (T2) (T2) (T2) (E) (E) (A1) (T2) (T2) (T2) (A1)
                 (T2) (T2) (T2) (A1) (A1) (T2) (T2) (T2) (A1)
 Requested convergence on RMS density matrix=1.00D-08 within 128 cycles.
 Requested convergence on MAX density matrix=1.00D-06.
 Requested convergence on             energy=1.00D-06.
 No special actions if energy rises.
 SCF Done:  E(RPBE-PBE) =  -2129.74209151     A.U. after    7 cycles
            NFock=  7  Conv=0.37D-08     -V/T= 2.0015
  24 Symmetry operations used in ECPInt.
 ECPInt:  NShTT=    6105 NPrTT=   21500 LenC2=    5588 LenP2D=   14524.
 LDataN:  DoStor=T MaxTD1= 9 Len=  602
 Calling FoFJK, ICntrl=      2527 FMM=F ISym2X=1 I1Cent= 0 IOpClX= 0 NMat=1 NMatS=1 NMatT=0.
 ***** Axes restored to original set *****
 -------------------------------------------------------------------
 Center     Atomic                   Forces (Hartrees/Bohr)
 Number     Number              X              Y              Z
 -------------------------------------------------------------------
      1       14           0.000000000   -0.000000000    0.000000000
      2       17          -0.001103860    0.001103860   -0.001103860
      3       17           0.001103860   -0.001103860   -0.001103860
      4       17           0.001103860    0.001103860    0.001103860
      5       17          -0.001103860   -0.001103860    0.001103860
 -------------------------------------------------------------------
 Cartesian Forces:  Max     0.001103860 RMS     0.000987322

 GradGradGradGradGradGradGradGradGradGradGradGradGradGradGradGradGradGrad
 Berny optimization.
 Using GEDIIS/GDIIS optimizer.
 FormGI is forming the generalized inverse of G from B-inverse, IUseBI=4.
 Internal  Forces:  Max     0.001911942 RMS     0.001021976
 Search for a local minimum.
 Step number   2 out of a maximum of   24
 All quantities printed in internal units (Hartrees-Bohrs-Radians)
 Mixed Optimization -- RFO/linear search
 Update second derivatives using D2CorX and points    1    2
 DE= -3.59D-04 DEPred=-2.75D-04 R= 1.31D+00
 TightC=F SS=  1.41D+00  RLast= 4.35D-02 DXNew= 5.0454D-01 1.3039D-01
 Trust test= 1.31D+00 RLast= 4.35D-02 DXMaxT set to 3.00D-01
 The second derivative matrix:
                          R1        R2        R3        R4        A1
           R1           0.26820
           R2          -0.02186   0.26820
           R3          -0.02186  -0.02186   0.26820
           R4          -0.02186  -0.02186  -0.02186   0.26820
           A1           0.00000   0.00000   0.00000   0.00000   0.25000
           A2          -0.00000  -0.00000  -0.00000  -0.00000  -0.00000
           A3           0.00000   0.00000   0.00000   0.00000   0.00000
           A4           0.00000   0.00000   0.00000   0.00000   0.00000
           A5          -0.00000  -0.00000  -0.00000  -0.00000  -0.00000
           A6           0.00000   0.00000   0.00000   0.00000   0.00000
           D1          -0.00000  -0.00000  -0.00000  -0.00000  -0.00000
           D2          -0.00000  -0.00000  -0.00000  -0.00000  -0.00000
           D3          -0.00000  -0.00000  -0.00000  -0.00000  -0.00000
           D4           0.00000   0.00000   0.00000   0.00000   0.00000
                          A2        A3        A4        A5        A6
           A2           0.25000
           A3          -0.00000   0.25000
           A4          -0.00000   0.00000   0.25000
           A5           0.00000  -0.00000  -0.00000   0.25000
           A6          -0.00000   0.00000   0.00000  -0.00000   0.25000
           D1           0.00000  -0.00000  -0.00000   0.00000  -0.00000
           D2           0.00000  -0.00000  -0.00000   0.00000  -0.00000
           D3           0.00000  -0.00000  -0.00000   0.00000  -0.00000
           D4          -0.00000   0.00000   0.00000  -0.00000   0.00000
                          D1        D2        D3        D4
           D1           0.01632
           D2           0.00000   0.01632
           D3           0.00000   0.00000   0.01632
           D4          -0.00000  -0.00000  -0.00000   0.01632
 ITU=  1  0
 Use linear search instead of GDIIS.
     Eigenvalues ---    0.08822   0.09760   0.14095   0.20262   0.25000
     Eigenvalues ---    0.25000   0.29006   0.29006   0.29006
 RFO step:  Lambda= 0.00000000D+00 EMin= 8.82203409D-02
 Quartic linear search produced a step of  0.41743.
 Iteration  1 RMS(Cart)=  0.00484886 RMS(Int)=  0.00000000
 Iteration  2 RMS(Cart)=  0.00000000 RMS(Int)=  0.00000000
 ClnCor:  largest displacement from symmetrization is 5.62D-12 for atom     3.
 Variable       Old X    -DE/DX   Delta X   Delta X   Delta X     New X
                                 (Linear)    (Quad)   (Total)
    R1        3.86118  -0.00191  -0.00907   0.00000  -0.00907   3.85211
    R2        3.86118  -0.00191  -0.00907   0.00000  -0.00907   3.85211
    R3        3.86118  -0.00191  -0.00907  -0.00000  -0.00907   3.85211
    R4        3.86118  -0.00191  -0.00907  -0.00000  -0.00907   3.85211
    A1        1.91063   0.00000  -0.00000   0.00000  -0.00000   1.91063
    A2        1.91063  -0.00000  -0.00000  -0.00000   0.00000   1.91063
    A3        1.91063   0.00000  -0.00000   0.00000   0.00000   1.91063
    A4        1.91063   0.00000  -0.00000   0.00000   0.00000   1.91063
    A5        1.91063  -0.00000   0.00000  -0.00000  -0.00000   1.91063
    A6        1.91063   0.00000   0.00000  -0.00000  -0.00000   1.91063
    D1        2.09440   0.00000  -0.00000   0.00000  -0.00000   2.09440
    D2       -2.09440  -0.00000   0.00000  -0.00000   0.00000  -2.09440
    D3        2.09440  -0.00000   0.00000  -0.00000   0.00000   2.09440
    D4       -2.09440  -0.00000   0.00000  -0.00000   0.00000  -2.09440
         Item               Value     Threshold  Converged?
 Maximum Force            0.001912     0.000450     NO 
 RMS     Force            0.001022     0.000300     NO 
 Maximum Displacement     0.005237     0.001800     NO 
 RMS     Displacement     0.004849     0.001200     NO 
 Predicted change in Energy=-3.602784D-05
 GradGradGradGradGradGradGradGradGradGradGradGradGradGradGradGradGradGrad

                          Input orientation:                          
 ---------------------------------------------------------------------
 Center     Atomic      Atomic             Coordinates (Angstroms)
 Number     Number       Type             X           Y           Z
 ---------------------------------------------------------------------
      1         14           0        8.000000    8.000000    8.000000
      2         17           0        9.176899    6.823101    9.176899
      3         17           0        6.823101    9.176899    9.176899
      4         17           0        6.823101    6.823101    6.823101
      5         17           0        9.176899    9.176899    6.823101
 ---------------------------------------------------------------------
                    Distance matrix (angstroms):
                    1          2          3          4          5
     1  Si   0.000000
     2  Cl   2.038450   0.000000
     3  Cl   2.038450   3.328774   0.000000
     4  Cl   2.038450   3.328774   3.328774   0.000000
     5  Cl   2.038450   3.328774   3.328774   3.328774   0.000000
 Stoichiometry    Cl4Si
 Framework group  TD[O(Si),4C3(Cl)]
 Deg. of freedom     1
 Full point group                 TD      NOp  24
 Largest Abelian subgroup         D2      NOp   4
 Largest concise Abelian subgroup D2      NOp   4
                         Standard orientation:                         
 ---------------------------------------------------------------------
 Center     Atomic      Atomic             Coordinates (Angstroms)
 Number     Number       Type             X           Y           Z
 ---------------------------------------------------------------------
      1         14           0        0.000000    0.000000    0.000000
      2         17           0        1.176899    1.176899    1.176899
      3         17           0       -1.176899   -1.176899    1.176899
      4         17           0        1.176899   -1.176899   -1.176899
      5         17           0       -1.176899    1.176899   -1.176899
 ---------------------------------------------------------------------
 Rotational constants (GHZ):           1.3042687           1.3042687           1.3042687
 Standard basis: def2QZVPP (5D, 7F)
 There are   115 symmetry adapted cartesian basis functions of A   symmetry.
 There are   105 symmetry adapted cartesian basis functions of B1  symmetry.
 There are   105 symmetry adapted cartesian basis functions of B2  symmetry.
 There are   105 symmetry adapted cartesian basis functions of B3  symmetry.
 There are    92 symmetry adapted basis functions of A   symmetry.
 There are    86 symmetry adapted basis functions of B1  symmetry.
 There are    86 symmetry adapted basis functions of B2  symmetry.
 There are    86 symmetry adapted basis functions of B3  symmetry.
   350 basis functions,   605 primitive gaussians,   430 cartesian basis functions
    41 alpha electrons       41 beta electrons
       nuclear repulsion energy       522.7921658542 Hartrees.
 NAtoms=    5 NActive=    5 NUniq=    2 SFac= 4.00D+00 NAtFMM=   60 NAOKFM=F Big=F
 Integral buffers will be    131072 words long.
 Raffenetti 2 integral format.
 Two-electron integral symmetry is turned on.
 One-electron integrals computed using PRISM.
  24 Symmetry operations used in ECPInt.
 ECPInt:  NShTT=    6105 NPrTT=   21500 LenC2=    5588 LenP2D=   14536.
 LDataN:  DoStor=T MaxTD1= 8 Len=  415
 NBasis=   350 RedAO= T EigKep=  1.80D-04  NBF=    92    86    86    86
 NBsUse=   350 1.00D-06 EigRej= -1.00D+00 NBFU=    92    86    86    86
 Initial guess from the checkpoint file:  "/data/hutter/SMG16/PBE/Gau-18950.chk"
 B after Tr=     0.000000   -0.000000    0.000000
         Rot=    1.000000   -0.000000    0.000000    0.000000 Ang=   0.00 deg.
 Initial guess orbital symmetries:
       Occupied  (A1) (T2) (T2) (T2) (A1) (A1) (T2) (T2) (T2) (A1)
                 (T2) (T2) (T2) (E) (E) (T2) (T2) (T2) (T1) (T1)
                 (T1) (A1) (T2) (T2) (T2) (A1) (T2) (T2) (T2) (A1)
                 (T2) (T2) (T2) (E) (E) (T2) (T2) (T2) (T1) (T1)
                 (T1)
       Virtual   (A1) (T2) (T2) (T2) (A1) (T2) (T2) (T2) (E) (E)
                 (T2) (T2) (T2) (E) (E) (A1) (T2) (T2) (T2) (T1)
                 (T1) (T1) (T2) (T2) (T2) (T1) (T1) (T1) (E) (E)
                 (T2) (T2) (T2) (T1) (T1) (T1) (T2) (T2) (T2) (A1)
                 (T2) (T2) (T2) (T2) (T2) (T2) (A1) (E) (E) (E)
                 (E) (A1) (T2) (T2) (T2) (T2) (T2) (T2) (T1) (T1)
                 (T1) (T2) (T2) (T2) (A1) (T1) (T1) (T1) (E) (E)
                 (T1) (T1) (T1) (T2) (T2) (T2) (E) (E) (T2) (T2)
                 (T2) (T1) (T1) (T1) (A1) (T2) (T2) (T2) (E) (E)
                 (T2) (T2) (T2) (A2) (T1) (T1) (T1) (T2) (T2) (T2)
                 (T2) (T2) (T2) (A1) (E) (E) (T1) (T1) (T1) (A1)
                 (E) (E) (T2) (T2) (T2) (T1) (T1) (T1) (T2) (T2)
                 (T2) (A1) (T2) (T2) (T2) (A1) (T2) (T2) (T2) (T1)
                 (T1) (T1) (T2) (T2) (T2) (E) (E) (T2) (T2) (T2)
                 (E) (E) (T1) (T1) (T1) (A1) (T2) (T2) (T2) (A1)
                 (T2) (T2) (T2) (T1) (T1) (T1) (E) (E) (T2) (T2)
                 (T2) (T2) (T2) (T2) (E) (E) (T1) (T1) (T1) (A1)
                 (T2) (T2) (T2) (A2) (T2) (T2) (T2) (E) (E) (T1)
                 (T1) (T1) (T1) (T1) (T1) (T2) (T2) (T2) (E) (E)
                 (A1) (T1) (T1) (T1) (T2) (T2) (T2) (T2) (T2) (T2)
                 (T1) (T1) (T1) (A1) (E) (E) (A2) (T1) (T1) (T1)
                 (T2) (T2) (T2) (A1) (E) (E) (T2) (T2) (T2) (T2)
                 (T2) (T2) (A1) (T1) (T1) (T1) (T1) (T1) (T1) (T2)
                 (T2) (T2) (E) (E) (T1) (T1) (T1) (T2) (T2) (T2)
                 (T2) (T2) (T2) (E) (E) (A1) (T2) (T2) (T2) (A1)
                 (E) (E) (T2) (T2) (T2) (T2) (T2) (T2) (A1) (T1)
                 (T1) (T1) (E) (E) (T2) (T2) (T2) (T2) (T2) (T2)
                 (E) (E) (T1) (T1) (T1) (T2) (T2) (T2) (A1) (T2)
                 (T2) (T2) (A1) (T2) (T2) (T2) (A1) (T1) (T1) (T1)
                 (T2) (T2) (T2) (E) (E) (A1) (T2) (T2) (T2) (A1)
                 (T2) (T2) (T2) (A1) (A1) (T2) (T2) (T2) (A1)
 Requested convergence on RMS density matrix=1.00D-08 within 128 cycles.
 Requested convergence on MAX density matrix=1.00D-06.
 Requested convergence on             energy=1.00D-06.
 No special actions if energy rises.
 SCF Done:  E(RPBE-PBE) =  -2129.74212633     A.U. after    6 cycles
            NFock=  6  Conv=0.68D-08     -V/T= 2.0015
  24 Symmetry operations used in ECPInt.
 ECPInt:  NShTT=    6105 NPrTT=   21500 LenC2=    5588 LenP2D=   14536.
 LDataN:  DoStor=T MaxTD1= 9 Len=  602
 Calling FoFJK, ICntrl=      2527 FMM=F ISym2X=1 I1Cent= 0 IOpClX= 0 NMat=1 NMatS=1 NMatT=0.
 ***** Axes restored to original set *****
 -------------------------------------------------------------------
 Center     Atomic                   Forces (Hartrees/Bohr)
 Number     Number              X              Y              Z
 -------------------------------------------------------------------
      1       14          -0.000000000   -0.000000000    0.000000000
      2       17           0.000000201   -0.000000201    0.000000201
      3       17          -0.000000201    0.000000201    0.000000201
      4       17          -0.000000201   -0.000000201   -0.000000201
      5       17           0.000000201    0.000000201   -0.000000201
 -------------------------------------------------------------------
 Cartesian Forces:  Max     0.000000201 RMS     0.000000180

 GradGradGradGradGradGradGradGradGradGradGradGradGradGradGradGradGradGrad
 Berny optimization.
 Using GEDIIS/GDIIS optimizer.
 FormGI is forming the generalized inverse of G from B-inverse, IUseBI=4.
 Internal  Forces:  Max     0.000000349 RMS     0.000000186
 Search for a local minimum.
 Step number   3 out of a maximum of   24
 All quantities printed in internal units (Hartrees-Bohrs-Radians)
 Mixed Optimization -- En-DIIS/RFO-DIIS
 Update second derivatives using D2CorX and points    1    2    3
 DE= -3.48D-05 DEPred=-3.60D-05 R= 9.66D-01
 TightC=F SS=  1.41D+00  RLast= 1.81D-02 DXNew= 5.0454D-01 5.4428D-02
 Trust test= 9.66D-01 RLast= 1.81D-02 DXMaxT set to 3.00D-01
 The second derivative matrix:
                          R1        R2        R3        R4        A1
           R1           0.27024
           R2          -0.01981   0.27024
           R3          -0.01981  -0.01981   0.27024
           R4          -0.01981  -0.01981  -0.01981   0.27024
           A1          -0.00000  -0.00000  -0.00000  -0.00000   0.25000
           A2           0.00000   0.00000   0.00000   0.00000  -0.00000
           A3          -0.00000  -0.00000  -0.00000  -0.00000   0.00000
           A4          -0.00000  -0.00000  -0.00000  -0.00000   0.00000
           A5          -0.00000  -0.00000  -0.00000  -0.00000   0.00000
           A6           0.00000   0.00000   0.00000   0.00000  -0.00000
           D1          -0.00000  -0.00000  -0.00000  -0.00000   0.00000
           D2           0.00000   0.00000   0.00000   0.00000  -0.00000
           D3           0.00000   0.00000   0.00000   0.00000  -0.00000
           D4           0.00000   0.00000   0.00000   0.00000  -0.00000
                          A2        A3        A4        A5        A6
           A2           0.25000
           A3          -0.00000   0.25000
           A4          -0.00000   0.00000   0.25000
           A5          -0.00000   0.00000   0.00000   0.25000
           A6           0.00000  -0.00000  -0.00000  -0.00000   0.25000
           D1          -0.00000   0.00000   0.00000   0.00000  -0.00000
           D2           0.00000  -0.00000  -0.00000  -0.00000   0.00000
           D3           0.00000  -0.00000  -0.00000  -0.00000   0.00000
           D4           0.00000  -0.00000  -0.00000  -0.00000   0.00000
                          D1        D2        D3        D4
           D1           0.01632
           D2          -0.00000   0.01632
           D3          -0.00000   0.00000   0.01632
           D4          -0.00000   0.00000   0.00000   0.01632
 ITU=  1  1  0
 Use linear search instead of GDIIS.
     Eigenvalues ---    0.08822   0.09760   0.14095   0.21080   0.25000
     Eigenvalues ---    0.25000   0.29006   0.29006   0.29006
 RFO step:  Lambda= 0.00000000D+00 EMin= 8.82203409D-02
 Quartic linear search produced a step of -0.00018.
 Iteration  1 RMS(Cart)=  0.00000087 RMS(Int)=  0.00000000
 ClnCor:  largest displacement from symmetrization is 3.44D-12 for atom     5.
 Variable       Old X    -DE/DX   Delta X   Delta X   Delta X     New X
                                 (Linear)    (Quad)   (Total)
    R1        3.85211   0.00000   0.00000  -0.00000   0.00000   3.85211
    R2        3.85211   0.00000   0.00000  -0.00000   0.00000   3.85211
    R3        3.85211   0.00000   0.00000   0.00000   0.00000   3.85211
    R4        3.85211   0.00000   0.00000  -0.00000   0.00000   3.85211
    A1        1.91063   0.00000   0.00000   0.00000   0.00000   1.91063
    A2        1.91063  -0.00000  -0.00000   0.00000  -0.00000   1.91063
    A3        1.91063   0.00000  -0.00000  -0.00000   0.00000   1.91063
    A4        1.91063   0.00000  -0.00000   0.00000  -0.00000   1.91063
    A5        1.91063  -0.00000  -0.00000  -0.00000  -0.00000   1.91063
    A6        1.91063   0.00000   0.00000   0.00000   0.00000   1.91063
    D1        2.09440   0.00000   0.00000   0.00000   0.00000   2.09440
    D2       -2.09440   0.00000   0.00000   0.00000  -0.00000  -2.09440
    D3        2.09440   0.00000   0.00000   0.00000   0.00000   2.09440
    D4       -2.09440  -0.00000   0.00000  -0.00000   0.00000  -2.09440
         Item               Value     Threshold  Converged?
 Maximum Force            0.000000     0.000450     YES
 RMS     Force            0.000000     0.000300     YES
 Maximum Displacement     0.000001     0.001800     YES
 RMS     Displacement     0.000001     0.001200     YES
 Predicted change in Energy=-1.154311D-12
 Optimization completed.
    -- Stationary point found.
                           ----------------------------
                           !   Optimized Parameters   !
                           ! (Angstroms and Degrees)  !
 --------------------------                            --------------------------
 ! Name  Definition              Value          Derivative Info.                !
 --------------------------------------------------------------------------------
 ! R1    R(1,2)                  2.0384         -DE/DX =    0.0                 !
 ! R2    R(1,3)                  2.0384         -DE/DX =    0.0                 !
 ! R3    R(1,4)                  2.0384         -DE/DX =    0.0                 !
 ! R4    R(1,5)                  2.0384         -DE/DX =    0.0                 !
 ! A1    A(2,1,3)              109.4712         -DE/DX =    0.0                 !
 ! A2    A(2,1,4)              109.4712         -DE/DX =    0.0                 !
 ! A3    A(2,1,5)              109.4712         -DE/DX =    0.0                 !
 ! A4    A(3,1,4)              109.4712         -DE/DX =    0.0                 !
 ! A5    A(3,1,5)              109.4712         -DE/DX =    0.0                 !
 ! A6    A(4,1,5)              109.4712         -DE/DX =    0.0                 !
 ! D1    D(2,1,4,3)            120.0            -DE/DX =    0.0                 !
 ! D2    D(2,1,5,3)           -120.0            -DE/DX =    0.0                 !
 ! D3    D(2,1,5,4)            120.0            -DE/DX =    0.0                 !
 ! D4    D(3,1,5,4)           -120.0            -DE/DX =    0.0                 !
 --------------------------------------------------------------------------------
 GradGradGradGradGradGradGradGradGradGradGradGradGradGradGradGradGradGrad

                          Input orientation:                          
 ---------------------------------------------------------------------
 Center     Atomic      Atomic             Coordinates (Angstroms)
 Number     Number       Type             X           Y           Z
 ---------------------------------------------------------------------
      1         14           0        8.000000    8.000000    8.000000
      2         17           0        9.176899    6.823101    9.176899
      3         17           0        6.823101    9.176899    9.176899
      4         17           0        6.823101    6.823101    6.823101
      5         17           0        9.176899    9.176899    6.823101
 ---------------------------------------------------------------------
                    Distance matrix (angstroms):
                    1          2          3          4          5
     1  Si   0.000000
     2  Cl   2.038450   0.000000
     3  Cl   2.038450   3.328774   0.000000
     4  Cl   2.038450   3.328774   3.328774   0.000000
     5  Cl   2.038450   3.328774   3.328774   3.328774   0.000000
 Stoichiometry    Cl4Si
 Framework group  TD[O(Si),4C3(Cl)]
 Deg. of freedom     1
 Full point group                 TD      NOp  24
 Largest Abelian subgroup         D2      NOp   4
 Largest concise Abelian subgroup D2      NOp   4
                         Standard orientation:                         
 ---------------------------------------------------------------------
 Center     Atomic      Atomic             Coordinates (Angstroms)
 Number     Number       Type             X           Y           Z
 ---------------------------------------------------------------------
      1         14           0        0.000000    0.000000    0.000000
      2         17           0        1.176899    1.176899    1.176899
      3         17           0       -1.176899   -1.176899    1.176899
      4         17           0        1.176899   -1.176899   -1.176899
      5         17           0       -1.176899    1.176899   -1.176899
 ---------------------------------------------------------------------
 Rotational constants (GHZ):           1.3042687           1.3042687           1.3042687

 **********************************************************************

            Population analysis using the SCF Density.

 **********************************************************************

 Orbital symmetries:
       Occupied  (A1) (T2) (T2) (T2) (A1) (A1) (T2) (T2) (T2) (A1)
                 (T2) (T2) (T2) (E) (E) (T2) (T2) (T2) (T1) (T1)
                 (T1) (A1) (T2) (T2) (T2) (A1) (T2) (T2) (T2) (A1)
                 (T2) (T2) (T2) (E) (E) (T2) (T2) (T2) (T1) (T1)
                 (T1)
       Virtual   (A1) (T2) (T2) (T2) (A1) (T2) (T2) (T2) (E) (E)
                 (T2) (T2) (T2) (E) (E) (A1) (T2) (T2) (T2) (T1)
                 (T1) (T1) (T2) (T2) (T2) (T1) (T1) (T1) (E) (E)
                 (T2) (T2) (T2) (T1) (T1) (T1) (T2) (T2) (T2) (A1)
                 (T2) (T2) (T2) (T2) (T2) (T2) (A1) (E) (E) (E)
                 (E) (A1) (T2) (T2) (T2) (T2) (T2) (T2) (T1) (T1)
                 (T1) (T2) (T2) (T2) (A1) (T1) (T1) (T1) (E) (E)
                 (T1) (T1) (T1) (T2) (T2) (T2) (E) (E) (T2) (T2)
                 (T2) (T1) (T1) (T1) (A1) (T2) (T2) (T2) (E) (E)
                 (T2) (T2) (T2) (A2) (T1) (T1) (T1) (T2) (T2) (T2)
                 (T2) (T2) (T2) (A1) (E) (E) (T1) (T1) (T1) (A1)
                 (E) (E) (T2) (T2) (T2) (T1) (T1) (T1) (T2) (T2)
                 (T2) (A1) (T2) (T2) (T2) (A1) (T2) (T2) (T2) (T1)
                 (T1) (T1) (T2) (T2) (T2) (E) (E) (T2) (T2) (T2)
                 (E) (E) (T1) (T1) (T1) (A1) (T2) (T2) (T2) (A1)
                 (T2) (T2) (T2) (T1) (T1) (T1) (E) (E) (T2) (T2)
                 (T2) (T2) (T2) (T2) (E) (E) (T1) (T1) (T1) (A1)
                 (T2) (T2) (T2) (A2) (T2) (T2) (T2) (E) (E) (T1)
                 (T1) (T1) (T1) (T1) (T1) (T2) (T2) (T2) (E) (E)
                 (A1) (T1) (T1) (T1) (T2) (T2) (T2) (T2) (T2) (T2)
                 (T1) (T1) (T1) (A1) (E) (E) (A2) (T2) (T2) (T2)
                 (T1) (T1) (T1) (A1) (E) (E) (T2) (T2) (T2) (T2)
                 (T2) (T2) (A1) (T1) (T1) (T1) (T1) (T1) (T1) (T2)
                 (T2) (T2) (E) (E) (T1) (T1) (T1) (T2) (T2) (T2)
                 (T2) (T2) (T2) (E) (E) (A1) (T2) (T2) (T2) (A1)
                 (E) (E) (T2) (T2) (T2) (T2) (T2) (T2) (A1) (T1)
                 (T1) (T1) (E) (E) (T2) (T2) (T2) (T2) (T2) (T2)
                 (E) (E) (T1) (T1) (T1) (T2) (T2) (T2) (A1) (T2)
                 (T2) (T2) (A1) (T2) (T2) (T2) (A1) (T1) (T1) (T1)
                 (T2) (T2) (T2) (E) (E) (A1) (T2) (T2) (T2) (A1)
                 (T2) (T2) (T2) (A1) (A1) (T2) (T2) (T2) (A1)
 The electronic state is 1-A1.
 Alpha  occ. eigenvalues -- -100.69327-100.69327-100.69327-100.69327 -65.53484
 Alpha  occ. eigenvalues --   -9.20490  -9.20490  -9.20490  -9.20490  -7.02611
 Alpha  occ. eigenvalues --   -7.02611  -7.02611  -7.02611  -7.01964  -7.01964
 Alpha  occ. eigenvalues --   -7.01964  -7.01964  -7.01964  -7.01964  -7.01964
 Alpha  occ. eigenvalues --   -7.01964  -5.17342  -3.58392  -3.58392  -3.58392
 Alpha  occ. eigenvalues --   -0.81780  -0.77438  -0.77438  -0.77438  -0.50567
 Alpha  occ. eigenvalues --   -0.40816  -0.40816  -0.40816  -0.33694  -0.33694
 Alpha  occ. eigenvalues --   -0.32852  -0.32852  -0.32852  -0.30004  -0.30004
 Alpha  occ. eigenvalues --   -0.30004
 Alpha virt. eigenvalues --   -0.07216  -0.02278  -0.02278  -0.02278   0.01966
 Alpha virt. eigenvalues --    0.06025   0.06025   0.06025   0.09503   0.09503
 Alpha virt. eigenvalues --    0.10513   0.10513   0.10513   0.15282   0.15282
 Alpha virt. eigenvalues --    0.16604   0.17533   0.17533   0.17533   0.19554
 Alpha virt. eigenvalues --    0.19554   0.19554   0.20494   0.20494   0.20494
 Alpha virt. eigenvalues --    0.27590   0.27590   0.27590   0.29603   0.29603
 Alpha virt. eigenvalues --    0.35583   0.35583   0.35583   0.39089   0.39089
 Alpha virt. eigenvalues --    0.39089   0.43874   0.43874   0.43874   0.46566
 Alpha virt. eigenvalues --    0.48568   0.48568   0.48568   0.52297   0.52297
 Alpha virt. eigenvalues --    0.52297   0.53719   0.57287   0.57287   0.62832
 Alpha virt. eigenvalues --    0.62832   0.66826   0.71646   0.71646   0.71646
 Alpha virt. eigenvalues --    0.75084   0.75084   0.75084   0.86852   0.86852
 Alpha virt. eigenvalues --    0.86852   0.88627   0.88627   0.88627   0.98729
 Alpha virt. eigenvalues --    1.04815   1.04815   1.04815   1.05566   1.05566
 Alpha virt. eigenvalues --    1.07311   1.07311   1.07311   1.08077   1.08077
 Alpha virt. eigenvalues --    1.08077   1.11369   1.11369   1.12019   1.12019
 Alpha virt. eigenvalues --    1.12019   1.13538   1.13538   1.13538   1.15315
 Alpha virt. eigenvalues --    1.19787   1.19787   1.19787   1.23398   1.23398
 Alpha virt. eigenvalues --    1.23499   1.23499   1.23499   1.25778   1.27189
 Alpha virt. eigenvalues --    1.27189   1.27189   1.34917   1.34917   1.34917
 Alpha virt. eigenvalues --    1.36357   1.36357   1.36357   1.40978   1.43451
 Alpha virt. eigenvalues --    1.43451   1.48346   1.48346   1.48346   1.52890
 Alpha virt. eigenvalues --    1.60235   1.60235   1.62851   1.62851   1.62851
 Alpha virt. eigenvalues --    1.77397   1.77397   1.77397   1.77821   1.77821
 Alpha virt. eigenvalues --    1.77821   1.84088   1.92531   1.92531   1.92531
 Alpha virt. eigenvalues --    2.01504   2.12479   2.12479   2.12479   2.14553
 Alpha virt. eigenvalues --    2.14553   2.14553   2.19365   2.19365   2.19365
 Alpha virt. eigenvalues --    2.20226   2.20226   2.34602   2.34602   2.34602
 Alpha virt. eigenvalues --    2.45758   2.45758   2.53893   2.53893   2.53893
 Alpha virt. eigenvalues --    2.55703   2.61152   2.61152   2.61152   2.82353
 Alpha virt. eigenvalues --    3.07197   3.07197   3.07197   3.12462   3.12462
 Alpha virt. eigenvalues --    3.12462   3.14271   3.14271   3.20729   3.20729
 Alpha virt. eigenvalues --    3.20729   3.28498   3.28498   3.28498   3.31313
 Alpha virt. eigenvalues --    3.31313   3.32168   3.32168   3.32168   3.42479
 Alpha virt. eigenvalues --    3.44673   3.44673   3.44673   3.45060   3.46732
 Alpha virt. eigenvalues --    3.46732   3.46732   3.46750   3.46750   3.46779
 Alpha virt. eigenvalues --    3.46779   3.46779   3.48026   3.48026   3.48026
 Alpha virt. eigenvalues --    3.53509   3.53509   3.53509   3.54259   3.54259
 Alpha virt. eigenvalues --    3.59961   3.60044   3.60044   3.60044   3.60541
 Alpha virt. eigenvalues --    3.60541   3.60541   3.74507   3.74507   3.74507
 Alpha virt. eigenvalues --    3.75596   3.75596   3.75596   3.76257   3.78187
 Alpha virt. eigenvalues --    3.78187   3.80027   3.81416   3.81416   3.81416
 Alpha virt. eigenvalues --    3.81502   3.81502   3.81502   3.85016   3.87230
 Alpha virt. eigenvalues --    3.87230   3.92134   3.92134   3.92134   3.95105
 Alpha virt. eigenvalues --    3.95105   3.95105   4.00984   4.02923   4.02923
 Alpha virt. eigenvalues --    4.02923   4.11783   4.11783   4.11783   4.19084
 Alpha virt. eigenvalues --    4.19084   4.19084   4.20720   4.20720   4.54249
 Alpha virt. eigenvalues --    4.54249   4.54249   4.57809   4.57809   4.57809
 Alpha virt. eigenvalues --    4.62581   4.62581   4.62581   4.67666   4.67666
 Alpha virt. eigenvalues --    4.76716   4.88436   4.88436   4.88436   5.47192
 Alpha virt. eigenvalues --    5.58667   5.58667   6.12916   6.12916   6.12916
 Alpha virt. eigenvalues --    8.34999   8.34999   8.34999   8.54312  10.44336
 Alpha virt. eigenvalues --   10.44336  10.44336  10.45406  10.45406  10.48279
 Alpha virt. eigenvalues --   10.48279  10.48279  10.56914  10.56914  10.56914
 Alpha virt. eigenvalues --   10.60826  10.60826  10.62092  10.62092  10.62092
 Alpha virt. eigenvalues --   10.75920  10.75920  10.75920  10.81933  12.35973
 Alpha virt. eigenvalues --   12.35973  12.35973  16.32300  28.49026  28.49026
 Alpha virt. eigenvalues --   28.49026  28.60906  41.31306  41.31306  41.31306
 Alpha virt. eigenvalues --   41.31911  41.31911  41.31911  41.33309  41.33309
 Alpha virt. eigenvalues --   41.37759  41.38644  41.38644  41.38644  57.51854
 Alpha virt. eigenvalues --   97.76751  97.76751  97.76751  97.87815 314.97167
 Alpha virt. eigenvalues --  524.17870 524.17870 524.17870 524.35729
          Condensed to atoms (all electrons):
               1          2          3          4          5
     1  Si  11.430755   0.436664   0.436664   0.436664   0.436664
     2  Cl   0.436664  16.890920  -0.040646  -0.040646  -0.040646
     3  Cl   0.436664  -0.040646  16.890920  -0.040646  -0.040646
     4  Cl   0.436664  -0.040646  -0.040646  16.890920  -0.040646
     5  Cl   0.436664  -0.040646  -0.040646  -0.040646  16.890920
 Mulliken charges:
               1
     1  Si   0.822590
     2  Cl  -0.205647
     3  Cl  -0.205647
     4  Cl  -0.205647
     5  Cl  -0.205647
 Sum of Mulliken charges =   0.00000
 Mulliken charges with hydrogens summed into heavy atoms:
               1
     1  Si   0.822590
     2  Cl  -0.205647
     3  Cl  -0.205647
     4  Cl  -0.205647
     5  Cl  -0.205647
 Electronic spatial extent (au):  <R**2>=           1147.8762
 Charge=              0.0000 electrons
 Dipole moment (field-independent basis, Debye):
    X=              0.0000    Y=              0.0000    Z=              0.0000  Tot=              0.0000
 Quadrupole moment (field-independent basis, Debye-Ang):
   XX=            -62.2483   YY=            -62.2483   ZZ=            -62.2483
   XY=             -0.0000   XZ=              0.0000   YZ=              0.0000
 Traceless Quadrupole moment (field-independent basis, Debye-Ang):
   XX=              0.0000   YY=              0.0000   ZZ=             -0.0000
   XY=             -0.0000   XZ=              0.0000   YZ=              0.0000
 Octapole moment (field-independent basis, Debye-Ang**2):
  XXX=              0.0000  YYY=              0.0000  ZZZ=              0.0000  XYY=              0.0000
  XXY=              0.0000  XXZ=             -0.0000  XZZ=             -0.0000  YZZ=              0.0000
  YYZ=              0.0000  XYZ=              2.8094
 Hexadecapole moment (field-independent basis, Debye-Ang**3):
 XXXX=           -483.5534 YYYY=           -483.5534 ZZZZ=           -483.5534 XXXY=             -0.0000
 XXXZ=              0.0000 YYYX=              0.0000 YYYZ=              0.0000 ZZZX=              0.0000
 ZZZY=             -0.0000 XXYY=           -154.3830 XXZZ=           -154.3830 YYZZ=           -154.3830
 XXYZ=              0.0000 YYXZ=              0.0000 ZZXY=              0.0000
 N-N= 5.227921658542D+02 E-N=-6.111948081419D+03  KE= 2.126502145544D+03
 Symmetry A    KE= 6.700090180663D+02
 Symmetry B1   KE= 4.854977091592D+02
 Symmetry B2   KE= 4.854977091592D+02
 Symmetry B3   KE= 4.854977091592D+02
 Unable to Open any file for archive entry.
 1\1\GINC-TCOPT10\FOpt\RPBEPBE\def2QZVPP\Cl4Si1\HUTTER\30-Jul-2021\0\\#
 N RPBEPBE/Def2QZVPP scf=tight Int(Grid=ultrafine) OPT FREQ\\Mol job 1\
 \0,1\Si,8.,8.,8.\Cl,9.1768994889,6.8231005111,9.1768994889\Cl,6.823100
 5111,9.1768994889,9.1768994889\Cl,6.8231005111,6.8231005111,6.82310051
 11\Cl,9.1768994889,9.1768994889,6.8231005111\\Version=ES64L-G16RevC.01
 \State=1-A1\HF=-2129.7421263\RMSD=6.787e-09\RMSF=1.801e-07\Dipole=0.,0
 .,0.\Quadrupole=0.,0.,0.,0.,0.,0.\PG=TD [O(Si1),4C3(Cl1)]\\@
 The archive entry for this job was punched.


 At the touch of love, everyone becomes a poet.
                                -- Plato
 Job cpu time:       0 days  0 hours 20 minutes 17.8 seconds.
 Elapsed time:       0 days  0 hours  2 minutes 33.6 seconds.
 File lengths (MBytes):  RWF=     72 Int=      0 D2E=      0 Chk=     10 Scr=      1
 Normal termination of Gaussian 16 at Fri Jul 30 20:11:40 2021.
 Link1:  Proceeding to internal job step number  2.
 ----------------------------------------------------------------------
 #N Geom=AllCheck Guess=TCheck SCRF=Check GenChk RPBEPBE/def2QZVPP Freq
 ----------------------------------------------------------------------
 1/10=4,29=7,30=1,38=1,40=1/1,3;
 2/12=2,40=1/2;
 3/5=45,7=202,11=2,14=-4,25=1,30=1,70=2,71=2,74=1009,75=-5,116=1,140=1/1,2,3;
 4/5=101/1;
 5/5=2,32=2,38=6,98=1/2;
 8/6=4,10=90,11=11/1;
 11/6=1,8=1,9=11,15=111,16=1/1,2,10;
 10/6=1/2;
 6/7=2,8=2,9=2,10=2,28=1/1;
 7/8=1,10=1,25=1/1,2,3,16;
 1/10=4,30=1/3;
 99//99;
 Structure from the checkpoint file:  "/data/hutter/SMG16/PBE/Gau-18950.chk"
 ---------
 Mol job 1
 ---------
 Charge =  0 Multiplicity = 1
 Redundant internal coordinates found in file.  (old form).
 Si,0,8.,8.,8.
 Cl,0,9.1768994889,6.8231005111,9.1768994889
 Cl,0,6.8231005111,9.1768994889,9.1768994889
 Cl,0,6.8231005111,6.8231005111,6.8231005111
 Cl,0,9.1768994889,9.1768994889,6.8231005111
 Recover connectivity data from disk.

 GradGradGradGradGradGradGradGradGradGradGradGradGradGradGradGradGradGrad
 Berny optimization.
 Initialization pass.
                           ----------------------------
                           !    Initial Parameters    !
                           ! (Angstroms and Degrees)  !
 --------------------------                            --------------------------
 ! Name  Definition              Value          Derivative Info.                !
 --------------------------------------------------------------------------------
 ! R1    R(1,2)                  2.0384         calculate D2E/DX2 analytically  !
 ! R2    R(1,3)                  2.0384         calculate D2E/DX2 analytically  !
 ! R3    R(1,4)                  2.0384         calculate D2E/DX2 analytically  !
 ! R4    R(1,5)                  2.0384         calculate D2E/DX2 analytically  !
 ! A1    A(2,1,3)              109.4712         calculate D2E/DX2 analytically  !
 ! A2    A(2,1,4)              109.4712         calculate D2E/DX2 analytically  !
 ! A3    A(2,1,5)              109.4712         calculate D2E/DX2 analytically  !
 ! A4    A(3,1,4)              109.4712         calculate D2E/DX2 analytically  !
 ! A5    A(3,1,5)              109.4712         calculate D2E/DX2 analytically  !
 ! A6    A(4,1,5)              109.4712         calculate D2E/DX2 analytically  !
 ! D1    D(2,1,4,3)            120.0            calculate D2E/DX2 analytically  !
 ! D2    D(2,1,5,3)           -120.0            calculate D2E/DX2 analytically  !
 ! D3    D(2,1,5,4)            120.0            calculate D2E/DX2 analytically  !
 ! D4    D(3,1,5,4)           -120.0            calculate D2E/DX2 analytically  !
 --------------------------------------------------------------------------------
 Trust Radius=3.00D-01 FncErr=1.00D-07 GrdErr=1.00D-07 EigMax=2.50D+02 EigMin=1.00D-04
 Number of steps in this run=      2 maximum allowed number of steps=      2.
 GradGradGradGradGradGradGradGradGradGradGradGradGradGradGradGradGradGrad

                          Input orientation:                          
 ---------------------------------------------------------------------
 Center     Atomic      Atomic             Coordinates (Angstroms)
 Number     Number       Type             X           Y           Z
 ---------------------------------------------------------------------
      1         14           0        8.000000    8.000000    8.000000
      2         17           0        9.176899    6.823101    9.176899
      3         17           0        6.823101    9.176899    9.176899
      4         17           0        6.823101    6.823101    6.823101
      5         17           0        9.176899    9.176899    6.823101
 ---------------------------------------------------------------------
                    Distance matrix (angstroms):
                    1          2          3          4          5
     1  Si   0.000000
     2  Cl   2.038450   0.000000
     3  Cl   2.038450   3.328774   0.000000
     4  Cl   2.038450   3.328774   3.328774   0.000000
     5  Cl   2.038450   3.328774   3.328774   3.328774   0.000000
 Stoichiometry    Cl4Si
 Framework group  TD[O(Si),4C3(Cl)]
 Deg. of freedom     1
 Full point group                 TD      NOp  24
 Largest Abelian subgroup         D2      NOp   4
 Largest concise Abelian subgroup D2      NOp   4
                         Standard orientation:                         
 ---------------------------------------------------------------------
 Center     Atomic      Atomic             Coordinates (Angstroms)
 Number     Number       Type             X           Y           Z
 ---------------------------------------------------------------------
      1         14           0        0.000000    0.000000    0.000000
      2         17           0        1.176899    1.176899    1.176899
      3         17           0       -1.176899   -1.176899    1.176899
      4         17           0        1.176899   -1.176899   -1.176899
      5         17           0       -1.176899    1.176899   -1.176899
 ---------------------------------------------------------------------
 Rotational constants (GHZ):           1.3042687           1.3042687           1.3042687
 Standard basis: def2QZVPP (5D, 7F)
 There are   115 symmetry adapted cartesian basis functions of A   symmetry.
 There are   105 symmetry adapted cartesian basis functions of B1  symmetry.
 There are   105 symmetry adapted cartesian basis functions of B2  symmetry.
 There are   105 symmetry adapted cartesian basis functions of B3  symmetry.
 There are    92 symmetry adapted basis functions of A   symmetry.
 There are    86 symmetry adapted basis functions of B1  symmetry.
 There are    86 symmetry adapted basis functions of B2  symmetry.
 There are    86 symmetry adapted basis functions of B3  symmetry.
   350 basis functions,   605 primitive gaussians,   430 cartesian basis functions
    41 alpha electrons       41 beta electrons
       nuclear repulsion energy       522.7921658542 Hartrees.
 NAtoms=    5 NActive=    5 NUniq=    2 SFac= 4.00D+00 NAtFMM=   60 NAOKFM=F Big=F
 Integral buffers will be    131072 words long.
 Raffenetti 2 integral format.
 Two-electron integral symmetry is turned on.
 One-electron integrals computed using PRISM.
  24 Symmetry operations used in ECPInt.
 ECPInt:  NShTT=    6105 NPrTT=   21500 LenC2=    5588 LenP2D=   14536.
 LDataN:  DoStor=T MaxTD1= 8 Len=  415
 NBasis=   350 RedAO= T EigKep=  1.80D-04  NBF=    92    86    86    86
 NBsUse=   350 1.00D-06 EigRej= -1.00D+00 NBFU=    92    86    86    86
 Initial guess from the checkpoint file:  "/data/hutter/SMG16/PBE/Gau-18950.chk"
 B after Tr=    -0.000000    0.000000    0.000000
         Rot=    1.000000   -0.000000   -0.000000   -0.000000 Ang=   0.00 deg.
 Initial guess orbital symmetries:
       Occupied  (A1) (T2) (T2) (T2) (A1) (A1) (T2) (T2) (T2) (A1)
                 (T2) (T2) (T2) (E) (E) (T2) (T2) (T2) (T1) (T1)
                 (T1) (A1) (T2) (T2) (T2) (A1) (T2) (T2) (T2) (A1)
                 (T2) (T2) (T2) (E) (E) (T2) (T2) (T2) (T1) (T1)
                 (T1)
       Virtual   (A1) (T2) (T2) (T2) (A1) (T2) (T2) (T2) (E) (E)
                 (T2) (T2) (T2) (E) (E) (A1) (T2) (T2) (T2) (T1)
                 (T1) (T1) (T2) (T2) (T2) (T1) (T1) (T1) (E) (E)
                 (T2) (T2) (T2) (T1) (T1) (T1) (T2) (T2) (T2) (A1)
                 (T2) (T2) (T2) (T2) (T2) (T2) (A1) (E) (E) (E)
                 (E) (A1) (T2) (T2) (T2) (T2) (T2) (T2) (T1) (T1)
                 (T1) (T2) (T2) (T2) (A1) (T1) (T1) (T1) (E) (E)
                 (T1) (T1) (T1) (T2) (T2) (T2) (E) (E) (T2) (T2)
                 (T2) (T1) (T1) (T1) (A1) (T2) (T2) (T2) (E) (E)
                 (T2) (T2) (T2) (A2) (T1) (T1) (T1) (T2) (T2) (T2)
                 (T2) (T2) (T2) (A1) (E) (E) (T1) (T1) (T1) (A1)
                 (E) (E) (T2) (T2) (T2) (T1) (T1) (T1) (T2) (T2)
                 (T2) (A1) (T2) (T2) (T2) (A1) (T2) (T2) (T2) (T1)
                 (T1) (T1) (T2) (T2) (T2) (E) (E) (T2) (T2) (T2)
                 (E) (E) (T1) (T1) (T1) (A1) (T2) (T2) (T2) (A1)
                 (T2) (T2) (T2) (T1) (T1) (T1) (E) (E) (T2) (T2)
                 (T2) (T2) (T2) (T2) (E) (E) (T1) (T1) (T1) (A1)
                 (T2) (T2) (T2) (A2) (T2) (T2) (T2) (E) (E) (T1)
                 (T1) (T1) (T1) (T1) (T1) (T2) (T2) (T2) (E) (E)
                 (A1) (T1) (T1) (T1) (T2) (T2) (T2) (T2) (T2) (T2)
                 (T1) (T1) (T1) (A1) (E) (E) (A2) (T2) (T2) (T2)
                 (T1) (T1) (T1) (A1) (E) (E) (T2) (T2) (T2) (T2)
                 (T2) (T2) (A1) (T1) (T1) (T1) (T1) (T1) (T1) (T2)
                 (T2) (T2) (E) (E) (T1) (T1) (T1) (T2) (T2) (T2)
                 (T2) (T2) (T2) (E) (E) (A1) (T2) (T2) (T2) (A1)
                 (E) (E) (T2) (T2) (T2) (T2) (T2) (T2) (A1) (T1)
                 (T1) (T1) (E) (E) (T2) (T2) (T2) (T2) (T2) (T2)
                 (E) (E) (T1) (T1) (T1) (T2) (T2) (T2) (A1) (T2)
                 (T2) (T2) (A1) (T2) (T2) (T2) (A1) (T1) (T1) (T1)
                 (T2) (T2) (T2) (E) (E) (A1) (T2) (T2) (T2) (A1)
                 (T2) (T2) (T2) (A1) (A1) (T2) (T2) (T2) (A1)
 Requested convergence on RMS density matrix=1.00D-08 within 128 cycles.
 Requested convergence on MAX density matrix=1.00D-06.
 Requested convergence on             energy=1.00D-06.
 No special actions if energy rises.
 SCF Done:  E(RPBE-PBE) =  -2129.74212633     A.U. after    1 cycles
            NFock=  1  Conv=0.48D-08     -V/T= 2.0015
 DoSCS=F DFT=T ScalE2(SS,OS)=  1.000000  1.000000
 Range of M.O.s used for correlation:     1   350
 NBasis=   350 NAE=    41 NBE=    41 NFC=     0 NFV=     0
 NROrb=    350 NOA=    41 NOB=    41 NVA=   309 NVB=   309

 **** Warning!!: The largest alpha MO coefficient is  0.26852511D+02

  24 Symmetry operations used in ECPInt.
 ECPInt:  NShTT=    6105 NPrTT=   21500 LenC2=    5588 LenP2D=   14536.
 LDataN:  DoStor=T MaxTD1= 9 Len=  602
 Symmetrizing basis deriv contribution to polar:
 IMax=3 JMax=2 DiffMx= 0.00D+00
 G2DrvN: will do     6 centers at a time, making    1 passes.
 Calling FoFCou, ICntrl=  3507 FMM=F I1Cent=   0 AccDes= 0.00D+00.
 End of G2Drv F.D. properties file   721 does not exist.
 End of G2Drv F.D. properties file   722 does not exist.
 End of G2Drv F.D. properties file   788 does not exist.
          IDoAtm=11111
          Differentiating once with respect to electric field.
                with respect to dipole field.
          Differentiating once with respect to nuclear coordinates.
 CalDSu exits because no D1Ps are significant.
          There are     9 degrees of freedom in the 1st order CPHF.  IDoFFX=4 NUNeed=     9.
      9 vectors produced by pass  0 Test12= 1.41D-13 1.11D-08 XBig12= 9.36D+01 3.10D+00.
 AX will form     9 AO Fock derivatives at one time.
      9 vectors produced by pass  1 Test12= 1.41D-13 1.11D-08 XBig12= 2.16D+01 1.45D+00.
      9 vectors produced by pass  2 Test12= 1.41D-13 1.11D-08 XBig12= 1.94D+00 3.15D-01.
      9 vectors produced by pass  3 Test12= 1.41D-13 1.11D-08 XBig12= 2.35D-01 8.09D-02.
      9 vectors produced by pass  4 Test12= 1.41D-13 1.11D-08 XBig12= 1.47D-03 5.90D-03.
      9 vectors produced by pass  5 Test12= 1.41D-13 1.11D-08 XBig12= 1.13D-05 6.94D-04.
      9 vectors produced by pass  6 Test12= 1.41D-13 1.11D-08 XBig12= 8.39D-08 4.59D-05.
      9 vectors produced by pass  7 Test12= 1.41D-13 1.11D-08 XBig12= 3.13D-10 3.20D-06.
      3 vectors produced by pass  8 Test12= 1.41D-13 1.11D-08 XBig12= 4.56D-12 3.18D-07.
      3 vectors produced by pass  9 Test12= 1.41D-13 1.11D-08 XBig12= 2.88D-14 3.12D-08.
 InvSVY:  IOpt=1 It=  1 EMax= 1.78D-15
 Solved reduced A of dimension    78 with     9 vectors.
 Isotropic polarizability for W=    0.000000       77.63 Bohr**3.
 End of Minotr F.D. properties file   721 does not exist.
 End of Minotr F.D. properties file   722 does not exist.
 End of Minotr F.D. properties file   788 does not exist.

 **********************************************************************

            Population analysis using the SCF Density.

 **********************************************************************

 Orbital symmetries:
       Occupied  (A1) (T2) (T2) (T2) (A1) (A1) (T2) (T2) (T2) (A1)
                 (T2) (T2) (T2) (E) (E) (T2) (T2) (T2) (T1) (T1)
                 (T1) (A1) (T2) (T2) (T2) (A1) (T2) (T2) (T2) (A1)
                 (T2) (T2) (T2) (E) (E) (T2) (T2) (T2) (T1) (T1)
                 (T1)
       Virtual   (A1) (T2) (T2) (T2) (A1) (T2) (T2) (T2) (E) (E)
                 (T2) (T2) (T2) (E) (E) (A1) (T2) (T2) (T2) (T1)
                 (T1) (T1) (T2) (T2) (T2) (T1) (T1) (T1) (E) (E)
                 (T2) (T2) (T2) (T1) (T1) (T1) (T2) (T2) (T2) (A1)
                 (T2) (T2) (T2) (T2) (T2) (T2) (A1) (E) (E) (E)
                 (E) (A1) (T2) (T2) (T2) (T2) (T2) (T2) (T1) (T1)
                 (T1) (T2) (T2) (T2) (A1) (T1) (T1) (T1) (E) (E)
                 (T1) (T1) (T1) (T2) (T2) (T2) (E) (E) (T2) (T2)
                 (T2) (T1) (T1) (T1) (A1) (T2) (T2) (T2) (E) (E)
                 (T2) (T2) (T2) (A2) (T1) (T1) (T1) (T2) (T2) (T2)
                 (T2) (T2) (T2) (A1) (E) (E) (T1) (T1) (T1) (A1)
                 (E) (E) (T2) (T2) (T2) (T1) (T1) (T1) (T2) (T2)
                 (T2) (A1) (T2) (T2) (T2) (A1) (T2) (T2) (T2) (T1)
                 (T1) (T1) (T2) (T2) (T2) (E) (E) (T2) (T2) (T2)
                 (E) (E) (T1) (T1) (T1) (A1) (T2) (T2) (T2) (A1)
                 (T2) (T2) (T2) (T1) (T1) (T1) (E) (E) (T2) (T2)
                 (T2) (T2) (T2) (T2) (E) (E) (T1) (T1) (T1) (A1)
                 (T2) (T2) (T2) (A2) (T2) (T2) (T2) (E) (E) (T1)
                 (T1) (T1) (T1) (T1) (T1) (T2) (T2) (T2) (E) (E)
                 (A1) (T1) (T1) (T1) (T2) (T2) (T2) (T2) (T2) (T2)
                 (T1) (T1) (T1) (A1) (E) (E) (A2) (T2) (T2) (T2)
                 (T1) (T1) (T1) (A1) (E) (E) (T2) (T2) (T2) (T2)
                 (T2) (T2) (A1) (T1) (T1) (T1) (T1) (T1) (T1) (T2)
                 (T2) (T2) (E) (E) (T1) (T1) (T1) (T2) (T2) (T2)
                 (T2) (T2) (T2) (E) (E) (A1) (T2) (T2) (T2) (A1)
                 (E) (E) (T2) (T2) (T2) (T2) (T2) (T2) (A1) (T1)
                 (T1) (T1) (E) (E) (T2) (T2) (T2) (T2) (T2) (T2)
                 (E) (E) (T1) (T1) (T1) (T2) (T2) (T2) (A1) (T2)
                 (T2) (T2) (A1) (T2) (T2) (T2) (A1) (T1) (T1) (T1)
                 (T2) (T2) (T2) (E) (E) (A1) (T2) (T2) (T2) (A1)
                 (T2) (T2) (T2) (A1) (A1) (T2) (T2) (T2) (A1)
 The electronic state is 1-A1.
 Alpha  occ. eigenvalues -- -100.69327-100.69327-100.69327-100.69327 -65.53484
 Alpha  occ. eigenvalues --   -9.20490  -9.20490  -9.20490  -9.20490  -7.02611
 Alpha  occ. eigenvalues --   -7.02611  -7.02611  -7.02611  -7.01964  -7.01964
 Alpha  occ. eigenvalues --   -7.01964  -7.01964  -7.01964  -7.01964  -7.01964
 Alpha  occ. eigenvalues --   -7.01964  -5.17343  -3.58392  -3.58392  -3.58392
 Alpha  occ. eigenvalues --   -0.81780  -0.77438  -0.77438  -0.77438  -0.50567
 Alpha  occ. eigenvalues --   -0.40816  -0.40816  -0.40816  -0.33694  -0.33694
 Alpha  occ. eigenvalues --   -0.32852  -0.32852  -0.32852  -0.30004  -0.30004
 Alpha  occ. eigenvalues --   -0.30004
 Alpha virt. eigenvalues --   -0.07216  -0.02278  -0.02278  -0.02278   0.01966
 Alpha virt. eigenvalues --    0.06025   0.06025   0.06025   0.09503   0.09503
 Alpha virt. eigenvalues --    0.10513   0.10513   0.10513   0.15282   0.15282
 Alpha virt. eigenvalues --    0.16604   0.17533   0.17533   0.17533   0.19554
 Alpha virt. eigenvalues --    0.19554   0.19554   0.20494   0.20494   0.20494
 Alpha virt. eigenvalues --    0.27590   0.27590   0.27590   0.29603   0.29603
 Alpha virt. eigenvalues --    0.35583   0.35583   0.35583   0.39089   0.39089
 Alpha virt. eigenvalues --    0.39089   0.43874   0.43874   0.43874   0.46566
 Alpha virt. eigenvalues --    0.48568   0.48568   0.48568   0.52297   0.52297
 Alpha virt. eigenvalues --    0.52297   0.53719   0.57287   0.57287   0.62832
 Alpha virt. eigenvalues --    0.62832   0.66826   0.71646   0.71646   0.71646
 Alpha virt. eigenvalues --    0.75084   0.75084   0.75084   0.86852   0.86852
 Alpha virt. eigenvalues --    0.86852   0.88627   0.88627   0.88627   0.98729
 Alpha virt. eigenvalues --    1.04815   1.04815   1.04815   1.05566   1.05566
 Alpha virt. eigenvalues --    1.07311   1.07311   1.07311   1.08077   1.08077
 Alpha virt. eigenvalues --    1.08077   1.11369   1.11369   1.12019   1.12019
 Alpha virt. eigenvalues --    1.12019   1.13538   1.13538   1.13538   1.15315
 Alpha virt. eigenvalues --    1.19787   1.19787   1.19787   1.23398   1.23398
 Alpha virt. eigenvalues --    1.23499   1.23499   1.23499   1.25778   1.27189
 Alpha virt. eigenvalues --    1.27189   1.27189   1.34917   1.34917   1.34917
 Alpha virt. eigenvalues --    1.36357   1.36357   1.36357   1.40978   1.43451
 Alpha virt. eigenvalues --    1.43451   1.48346   1.48346   1.48346   1.52890
 Alpha virt. eigenvalues --    1.60235   1.60235   1.62851   1.62851   1.62851
 Alpha virt. eigenvalues --    1.77397   1.77397   1.77397   1.77821   1.77821
 Alpha virt. eigenvalues --    1.77821   1.84088   1.92531   1.92531   1.92531
 Alpha virt. eigenvalues --    2.01504   2.12478   2.12478   2.12478   2.14553
 Alpha virt. eigenvalues --    2.14553   2.14553   2.19365   2.19365   2.19365
 Alpha virt. eigenvalues --    2.20226   2.20226   2.34602   2.34602   2.34602
 Alpha virt. eigenvalues --    2.45758   2.45758   2.53893   2.53893   2.53893
 Alpha virt. eigenvalues --    2.55703   2.61152   2.61152   2.61152   2.82353
 Alpha virt. eigenvalues --    3.07197   3.07197   3.07197   3.12462   3.12462
 Alpha virt. eigenvalues --    3.12462   3.14271   3.14271   3.20729   3.20729
 Alpha virt. eigenvalues --    3.20729   3.28498   3.28498   3.28498   3.31313
 Alpha virt. eigenvalues --    3.31313   3.32168   3.32168   3.32168   3.42479
 Alpha virt. eigenvalues --    3.44673   3.44673   3.44673   3.45060   3.46732
 Alpha virt. eigenvalues --    3.46732   3.46732   3.46750   3.46750   3.46779
 Alpha virt. eigenvalues --    3.46779   3.46779   3.48026   3.48026   3.48026
 Alpha virt. eigenvalues --    3.53509   3.53509   3.53509   3.54259   3.54259
 Alpha virt. eigenvalues --    3.59961   3.60044   3.60044   3.60044   3.60541
 Alpha virt. eigenvalues --    3.60541   3.60541   3.74507   3.74507   3.74507
 Alpha virt. eigenvalues --    3.75596   3.75596   3.75596   3.76257   3.78187
 Alpha virt. eigenvalues --    3.78187   3.80027   3.81416   3.81416   3.81416
 Alpha virt. eigenvalues --    3.81502   3.81502   3.81502   3.85016   3.87230
 Alpha virt. eigenvalues --    3.87230   3.92134   3.92134   3.92134   3.95105
 Alpha virt. eigenvalues --    3.95105   3.95105   4.00984   4.02923   4.02923
 Alpha virt. eigenvalues --    4.02923   4.11783   4.11783   4.11783   4.19084
 Alpha virt. eigenvalues --    4.19084   4.19084   4.20720   4.20720   4.54249
 Alpha virt. eigenvalues --    4.54249   4.54249   4.57809   4.57809   4.57809
 Alpha virt. eigenvalues --    4.62581   4.62581   4.62581   4.67666   4.67666
 Alpha virt. eigenvalues --    4.76716   4.88436   4.88436   4.88436   5.47192
 Alpha virt. eigenvalues --    5.58667   5.58667   6.12916   6.12916   6.12916
 Alpha virt. eigenvalues --    8.34999   8.34999   8.34999   8.54312  10.44336
 Alpha virt. eigenvalues --   10.44336  10.44336  10.45406  10.45406  10.48279
 Alpha virt. eigenvalues --   10.48279  10.48279  10.56914  10.56914  10.56914
 Alpha virt. eigenvalues --   10.60826  10.60826  10.62092  10.62092  10.62092
 Alpha virt. eigenvalues --   10.75920  10.75920  10.75920  10.81933  12.35973
 Alpha virt. eigenvalues --   12.35973  12.35973  16.32300  28.49026  28.49026
 Alpha virt. eigenvalues --   28.49026  28.60906  41.31306  41.31306  41.31306
 Alpha virt. eigenvalues --   41.31911  41.31911  41.31911  41.33309  41.33309
 Alpha virt. eigenvalues --   41.37759  41.38644  41.38644  41.38644  57.51853
 Alpha virt. eigenvalues --   97.76751  97.76751  97.76751  97.87815 314.97167
 Alpha virt. eigenvalues --  524.17870 524.17870 524.17870 524.35729
          Condensed to atoms (all electrons):
               1          2          3          4          5
     1  Si  11.430760   0.436664   0.436664   0.436664   0.436664
     2  Cl   0.436664  16.890918  -0.040646  -0.040646  -0.040646
     3  Cl   0.436664  -0.040646  16.890918  -0.040646  -0.040646
     4  Cl   0.436664  -0.040646  -0.040646  16.890918  -0.040646
     5  Cl   0.436664  -0.040646  -0.040646  -0.040646  16.890918
 Mulliken charges:
               1
     1  Si   0.822583
     2  Cl  -0.205646
     3  Cl  -0.205646
     4  Cl  -0.205646
     5  Cl  -0.205646
 Sum of Mulliken charges =  -0.00000
 Mulliken charges with hydrogens summed into heavy atoms:
               1
     1  Si   0.822583
     2  Cl  -0.205646
     3  Cl  -0.205646
     4  Cl  -0.205646
     5  Cl  -0.205646
 APT charges:
               1
     1  Si   1.917957
     2  Cl  -0.479489
     3  Cl  -0.479489
     4  Cl  -0.479489
     5  Cl  -0.479489
 Sum of APT charges =  -0.00000
 APT charges with hydrogens summed into heavy atoms:
               1
     1  Si   1.917957
     2  Cl  -0.479489
     3  Cl  -0.479489
     4  Cl  -0.479489
     5  Cl  -0.479489
 Electronic spatial extent (au):  <R**2>=           1147.8760
 Charge=             -0.0000 electrons
 Dipole moment (field-independent basis, Debye):
    X=              0.0000    Y=             -0.0000    Z=              0.0000  Tot=              0.0000
 Quadrupole moment (field-independent basis, Debye-Ang):
   XX=            -62.2482   YY=            -62.2482   ZZ=            -62.2482
   XY=              0.0000   XZ=              0.0000   YZ=             -0.0000
 Traceless Quadrupole moment (field-independent basis, Debye-Ang):
   XX=             -0.0000   YY=              0.0000   ZZ=              0.0000
   XY=              0.0000   XZ=              0.0000   YZ=             -0.0000
 Octapole moment (field-independent basis, Debye-Ang**2):
  XXX=              0.0000  YYY=             -0.0000  ZZZ=             -0.0000  XYY=             -0.0000
  XXY=             -0.0000  XXZ=             -0.0000  XZZ=              0.0000  YZZ=             -0.0000
  YYZ=             -0.0000  XYZ=              2.8095
 Hexadecapole moment (field-independent basis, Debye-Ang**3):
 XXXX=           -483.5531 YYYY=           -483.5531 ZZZZ=           -483.5531 XXXY=             -0.0000
 XXXZ=             -0.0000 YYYX=             -0.0000 YYYZ=              0.0000 ZZZX=             -0.0000
 ZZZY=             -0.0000 XXYY=           -154.3828 XXZZ=           -154.3828 YYZZ=           -154.3828
 XXYZ=              0.0000 YYXZ=             -0.0000 ZZXY=              0.0000
 N-N= 5.227921658542D+02 E-N=-6.111948088954D+03  KE= 2.126502130004D+03
 Symmetry A    KE= 6.700090146497D+02
 Symmetry B1   KE= 4.854977051182D+02
 Symmetry B2   KE= 4.854977051182D+02
 Symmetry B3   KE= 4.854977051182D+02
  Exact polarizability:      77.630       0.000      77.630       0.000       0.000      77.630
 Approx polarizability:     143.101       0.000     143.101      -0.000      -0.000     143.101
  24 Symmetry operations used in ECPInt.
 ECPInt:  NShTT=    6105 NPrTT=   21500 LenC2=    5588 LenP2D=   14536.
 LDataN:  DoStor=T MaxTD1=10 Len=  848
 Calling FoFJK, ICntrl=    100527 FMM=F ISym2X=1 I1Cent= 0 IOpClX= 0 NMat=1 NMatS=1 NMatT=0.
 Full mass-weighted force constant matrix:
 Low frequencies ---   -3.6429   -3.6429   -3.6429   -0.0028    0.0015    0.0025
 Low frequencies ---  138.0911  138.0911  209.4076
 Diagonal vibrational polarizability:
       15.2060178      15.2060178      15.2060178
 Harmonic frequencies (cm**-1), IR intensities (KM/Mole), Raman scattering
 activities (A**4/AMU), depolarization ratios for plane and unpolarized
 incident light, reduced masses (AMU), force constants (mDyne/A),
 and normal coordinates:
                      1                      2                      3
                      E                      E                     T2
 Frequencies --    138.0911               138.0911               209.4076
 Red. masses --     34.9689                34.9689                33.5818
 Frc consts  --      0.3929                 0.3929                 0.8676
 IR Inten    --      0.0000                 0.0000                 4.4378
  Atom  AN      X      Y      Z        X      Y      Z        X      Y      Z
     1  14    -0.00  -0.00  -0.00     0.00   0.00   0.00    -0.05   0.33  -0.29
     2  17    -0.00  -0.35   0.35     0.41  -0.20  -0.20     0.04  -0.30   0.26
     3  17     0.00   0.35   0.35    -0.41   0.20  -0.20     0.44   0.10  -0.14
     4  17    -0.00   0.35  -0.35     0.41   0.20   0.20    -0.02  -0.24   0.32
     5  17     0.00  -0.35  -0.35    -0.41  -0.20   0.20    -0.43   0.17  -0.21
                      4                      5                      6
                     T2                     T2                     A1
 Frequencies --    209.4076               209.4076               401.4593
 Red. masses --     33.5818                33.5818                34.9689
 Frc consts  --      0.8676                 0.8676                 3.3206
 IR Inten    --      4.4378                 4.4378                 0.0000
  Atom  AN      X      Y      Z        X      Y      Z        X      Y      Z
     1  14    -0.41  -0.14  -0.10    -0.17   0.26   0.32     0.00   0.00  -0.00
     2  17    -0.09  -0.33  -0.36     0.44   0.05  -0.00     0.29   0.29   0.29
     3  17     0.05  -0.19   0.41    -0.01  -0.39  -0.13    -0.29  -0.29   0.29
     4  17     0.25   0.24   0.21    -0.37   0.29   0.23     0.29  -0.29  -0.29
     5  17     0.11   0.38  -0.17     0.08  -0.16  -0.36    -0.29   0.29  -0.29
                      7                      8                      9
                     T2                     T2                     T2
 Frequencies --    594.5151               594.5151               594.5151
 Red. masses --     29.9658                29.9658                29.9658
 Frc consts  --      6.2403                 6.2403                 6.2403
 IR Inten    --    163.9449               163.9449               163.9449
  Atom  AN      X      Y      Z        X      Y      Z        X      Y      Z
     1  14     0.27   0.07   0.80     0.75   0.27  -0.28    -0.27   0.80   0.03
     2  17    -0.20  -0.20  -0.22    -0.15  -0.14  -0.12    -0.09  -0.12  -0.10
     3  17     0.07   0.08  -0.10    -0.24  -0.23   0.23    -0.08  -0.11   0.09
     4  17     0.09  -0.10  -0.12    -0.15   0.12   0.14     0.20  -0.21  -0.19
     5  17    -0.18   0.17  -0.19    -0.06   0.03  -0.03     0.19  -0.20   0.18

 -------------------
 - Thermochemistry -
 -------------------
 Temperature   298.150 Kelvin.  Pressure   1.00000 Atm.
 Atom     1 has atomic number 14 and mass  27.97693
 Atom     2 has atomic number 17 and mass  34.96885
 Atom     3 has atomic number 17 and mass  34.96885
 Atom     4 has atomic number 17 and mass  34.96885
 Atom     5 has atomic number 17 and mass  34.96885
 Molecular mass:   167.85234 amu.
 Principal axes and moments of inertia in atomic units:
                           1         2         3
     Eigenvalues --  1383.718841383.718841383.71884
           X            0.43277   0.11275   0.89443
           Y            0.86553   0.22550  -0.44721
           Z           -0.25212   0.96770   0.00000
 This molecule is a spherical top.
 Rotational symmetry number 12.
 Warning -- assumption of classical behavior for rotation
           may cause significant error
 Rotational temperatures (Kelvin)      0.06260     0.06260     0.06260
 Rotational constants (GHZ):           1.30427     1.30427     1.30427
 Zero-point vibrational energy      18478.8 (Joules/Mol)
                                    4.41653 (Kcal/Mol)
 Warning -- explicit consideration of   9 degrees of freedom as
           vibrations may cause significant error
 Vibrational temperatures:    198.68   198.68   301.29   301.29   301.29
          (Kelvin)            577.61   855.37   855.37   855.37
 
 Zero-point correction=                           0.007038 (Hartree/Particle)
 Thermal correction to Energy=                    0.013635
 Thermal correction to Enthalpy=                  0.014579
 Thermal correction to Gibbs Free Energy=        -0.023350
 Sum of electronic and zero-point Energies=          -2129.735088
 Sum of electronic and thermal Energies=             -2129.728492
 Sum of electronic and thermal Enthalpies=           -2129.727548
 Sum of electronic and thermal Free Energies=        -2129.765476
 
                     E (Thermal)             CV                S
                      KCal/Mol        Cal/Mol-Kelvin    Cal/Mol-Kelvin
 Total                    8.556             19.869             79.827
 Electronic               0.000              0.000              0.000
 Translational            0.889              2.981             41.262
 Rotational               0.889              2.981             24.424
 Vibrational              6.778             13.907             14.142
 Vibration     1          0.614              1.915              2.830
 Vibration     2          0.614              1.915              2.830
 Vibration     3          0.642              1.826              2.049
 Vibration     4          0.642              1.826              2.049
 Vibration     5          0.642              1.826              2.049
 Vibration     6          0.767              1.467              0.957
 Vibration     7          0.952              1.043              0.459
 Vibration     8          0.952              1.043              0.459
 Vibration     9          0.952              1.043              0.459
                       Q            Log10(Q)             Ln(Q)
 Total Bot       0.549628D+11         10.740069         24.729922
 Total V=0       0.949314D+14         13.977410         32.184175
 Vib (Bot)       0.132430D-01         -1.878013         -4.324284
 Vib (Bot)    1  0.147323D+01          0.168270          0.387455
 Vib (Bot)    2  0.147323D+01          0.168270          0.387455
 Vib (Bot)    3  0.948691D+00         -0.022875         -0.052672
 Vib (Bot)    4  0.948691D+00         -0.022875         -0.052672
 Vib (Bot)    5  0.948691D+00         -0.022875         -0.052672
 Vib (Bot)    6  0.443496D+00         -0.353110         -0.813067
 Vib (Bot)    7  0.252578D+00         -0.597605         -1.376037
 Vib (Bot)    8  0.252578D+00         -0.597605         -1.376037
 Vib (Bot)    9  0.252578D+00         -0.597605         -1.376037
 Vib (V=0)       0.228733D+02          1.359329          3.129970
 Vib (V=0)    1  0.205576D+01          0.312973          0.720647
 Vib (V=0)    2  0.205576D+01          0.312973          0.720647
 Vib (V=0)    3  0.157239D+01          0.196560          0.452595
 Vib (V=0)    4  0.157239D+01          0.196560          0.452595
 Vib (V=0)    5  0.157239D+01          0.196560          0.452595
 Vib (V=0)    6  0.116835D+01          0.067572          0.155590
 Vib (V=0)    7  0.106017D+01          0.025377          0.058433
 Vib (V=0)    8  0.106017D+01          0.025377          0.058433
 Vib (V=0)    9  0.106017D+01          0.025377          0.058433
 Electronic      0.100000D+01          0.000000          0.000000
 Translational   0.854762D+08          7.931845         18.263748
 Rotational      0.485552D+05          4.686236         10.790457
 ***** Axes restored to original set *****
 -------------------------------------------------------------------
 Center     Atomic                   Forces (Hartrees/Bohr)
 Number     Number              X              Y              Z
 -------------------------------------------------------------------
      1       14          -0.000000000    0.000000000    0.000000000
      2       17           0.000000411   -0.000000411    0.000000411
      3       17          -0.000000411    0.000000411    0.000000411
      4       17          -0.000000411   -0.000000411   -0.000000411
      5       17           0.000000411    0.000000411   -0.000000411
 -------------------------------------------------------------------
 Cartesian Forces:  Max     0.000000411 RMS     0.000000368
 FormGI is forming the generalized inverse of G from B-inverse, IUseBI=4.

 GradGradGradGradGradGradGradGradGradGradGradGradGradGradGradGradGradGrad
 Berny optimization.
 Internal  Forces:  Max     0.000000712 RMS     0.000000381
 Search for a local minimum.
 Step number   1 out of a maximum of    2
 All quantities printed in internal units (Hartrees-Bohrs-Radians)
 Second derivative matrix not updated -- analytic derivatives used.
 The second derivative matrix:
                          R1        R2        R3        R4        A1
           R1           0.18623
           R2           0.00902   0.18623
           R3           0.00902   0.00902   0.18623
           R4           0.00902   0.00902   0.00902   0.18623
           A1           0.00277   0.00277  -0.00174  -0.00381   0.02060
           A2           0.00435  -0.00112   0.00484  -0.00806  -0.00622
           A3           0.00850  -0.00682  -0.00755   0.00587  -0.01255
           A4          -0.00112   0.00435   0.00484  -0.00806  -0.00622
           A5          -0.00682   0.00850  -0.00755   0.00587  -0.01255
           A6          -0.00768  -0.00768   0.00716   0.00819   0.01695
           D1           0.00537   0.00537   0.00379  -0.01454   0.01762
           D2          -0.00442  -0.00442   0.01138  -0.00253  -0.00986
           D3           0.00583  -0.01025   0.00569  -0.00126  -0.00493
           D4           0.01025  -0.00583  -0.00569   0.00126   0.00493
                          A2        A3        A4        A5        A6
           A2           0.04181
           A3          -0.02371   0.08156
           A4           0.00307   0.01543   0.04181
           A5           0.01543  -0.03461  -0.02371   0.08156
           A6          -0.03039  -0.02612  -0.03039  -0.02612   0.09609
           D1           0.01987  -0.02044   0.01987  -0.02044  -0.01647
           D2           0.01269  -0.01337   0.01269  -0.01337   0.01124
           D3           0.01808   0.00491  -0.00540  -0.01829   0.00562
           D4           0.00540   0.01829  -0.01808  -0.00491  -0.00562
                          D1        D2        D3        D4
           D1           0.04591
           D2           0.00346   0.02846
           D3           0.00173   0.01423   0.02859
           D4          -0.00173  -0.01423   0.01437   0.02859
 ITU=  0
     Eigenvalues ---    0.05304   0.06081   0.09611   0.13017   0.13203
     Eigenvalues ---    0.18407   0.18410   0.18629   0.21328
 Angle between quadratic step and forces=   0.00 degrees.
 Linear search not attempted -- first point.
 Iteration  1 RMS(Cart)=  0.00000178 RMS(Int)=  0.00000000
 Iteration  2 RMS(Cart)=  0.00000000 RMS(Int)=  0.00000000
 ClnCor:  largest displacement from symmetrization is 3.23D-11 for atom     4.
 Variable       Old X    -DE/DX   Delta X   Delta X   Delta X     New X
                                 (Linear)    (Quad)   (Total)
    R1        3.85211   0.00000   0.00000   0.00000   0.00000   3.85212
    R2        3.85211   0.00000   0.00000   0.00000   0.00000   3.85212
    R3        3.85211   0.00000   0.00000   0.00000   0.00000   3.85212
    R4        3.85211   0.00000   0.00000   0.00000   0.00000   3.85212
    A1        1.91063   0.00000   0.00000   0.00000   0.00000   1.91063
    A2        1.91063  -0.00000   0.00000  -0.00000   0.00000   1.91063
    A3        1.91063  -0.00000   0.00000  -0.00000   0.00000   1.91063
    A4        1.91063  -0.00000   0.00000  -0.00000   0.00000   1.91063
    A5        1.91063  -0.00000   0.00000  -0.00000   0.00000   1.91063
    A6        1.91063   0.00000   0.00000   0.00000   0.00000   1.91063
    D1        2.09440   0.00000   0.00000   0.00000   0.00000   2.09440
    D2       -2.09440  -0.00000   0.00000  -0.00000  -0.00000  -2.09440
    D3        2.09440  -0.00000   0.00000  -0.00000  -0.00000   2.09440
    D4       -2.09440   0.00000   0.00000   0.00000   0.00000  -2.09440
         Item               Value     Threshold  Converged?
 Maximum Force            0.000001     0.000450     YES
 RMS     Force            0.000000     0.000300     YES
 Maximum Displacement     0.000002     0.001800     YES
 RMS     Displacement     0.000002     0.001200     YES
 Predicted change in Energy=-4.752198D-12
 Optimization completed.
    -- Stationary point found.
                           ----------------------------
                           !   Optimized Parameters   !
                           ! (Angstroms and Degrees)  !
 --------------------------                            --------------------------
 ! Name  Definition              Value          Derivative Info.                !
 --------------------------------------------------------------------------------
 ! R1    R(1,2)                  2.0384         -DE/DX =    0.0                 !
 ! R2    R(1,3)                  2.0384         -DE/DX =    0.0                 !
 ! R3    R(1,4)                  2.0384         -DE/DX =    0.0                 !
 ! R4    R(1,5)                  2.0384         -DE/DX =    0.0                 !
 ! A1    A(2,1,3)              109.4712         -DE/DX =    0.0                 !
 ! A2    A(2,1,4)              109.4712         -DE/DX =    0.0                 !
 ! A3    A(2,1,5)              109.4712         -DE/DX =    0.0                 !
 ! A4    A(3,1,4)              109.4712         -DE/DX =    0.0                 !
 ! A5    A(3,1,5)              109.4712         -DE/DX =    0.0                 !
 ! A6    A(4,1,5)              109.4712         -DE/DX =    0.0                 !
 ! D1    D(2,1,4,3)            120.0            -DE/DX =    0.0                 !
 ! D2    D(2,1,5,3)           -120.0            -DE/DX =    0.0                 !
 ! D3    D(2,1,5,4)            120.0            -DE/DX =    0.0                 !
 ! D4    D(3,1,5,4)           -120.0            -DE/DX =    0.0                 !
 --------------------------------------------------------------------------------
 GradGradGradGradGradGradGradGradGradGradGradGradGradGradGradGradGradGrad

 Dipole is zero, so no output in dipole orientation.

 ----------------------------------------------------------------------

 Electric dipole moment (input orientation):
 (Debye = 10**-18 statcoulomb cm , SI units = C m)
                  (au)            (Debye)         (10**-30 SI)
   Tot        0.000000D+00      0.000000D+00      0.000000D+00
   x          0.000000D+00      0.000000D+00      0.000000D+00
   y          0.000000D+00      0.000000D+00      0.000000D+00
   z          0.000000D+00      0.000000D+00      0.000000D+00

 Dipole polarizability, Alpha (input orientation).
 (esu units = cm**3 , SI units = C**2 m**2 J**-1)
 Alpha(0;0):
               (au)            (10**-24 esu)      (10**-40 SI)
   iso        0.776296D+02      0.115035D+02      0.127994D+02
   aniso      0.000000D+00      0.000000D+00      0.000000D+00
   xx         0.776296D+02      0.115035D+02      0.127994D+02
   yx         0.000000D+00      0.000000D+00      0.000000D+00
   yy         0.776296D+02      0.115035D+02      0.127994D+02
   zx         0.000000D+00      0.000000D+00      0.000000D+00
   zy         0.000000D+00      0.000000D+00      0.000000D+00
   zz         0.776296D+02      0.115035D+02      0.127994D+02

 ----------------------------------------------------------------------
 Unable to Open any file for archive entry.
 1\1\GINC-TCOPT10\Freq\RPBEPBE\def2QZVPP\Cl4Si1\HUTTER\30-Jul-2021\0\\#
 N Geom=AllCheck Guess=TCheck SCRF=Check GenChk RPBEPBE/def2QZVPP Freq\
 \Mol job 1\\0,1\Si,8.,8.,8.\Cl,9.1768994889,6.8231005111,9.1768994889\
 Cl,6.8231005111,9.1768994889,9.1768994889\Cl,6.8231005111,6.8231005111
 ,6.8231005111\Cl,9.1768994889,9.1768994889,6.8231005111\\Version=ES64L
 -G16RevC.01\State=1-A1\HF=-2129.7421263\RMSD=4.844e-09\RMSF=3.676e-07\
 ZeroPoint=0.0070382\Thermal=0.0136346\ETot=-2129.7284917\HTot=-2129.72
 75475\GTot=-2129.7654759\Dipole=0.,0.,0.\DipoleDeriv=1.917957,0.,0.,0.
 ,1.917957,0.,0.,0.,1.917957,-0.4794893,0.2555226,-0.2555226,0.2555226,
 -0.4794893,0.2555226,-0.2555226,0.2555226,-0.4794893,-0.4794893,0.2555
 226,0.2555226,0.2555226,-0.4794893,-0.2555226,0.2555226,-0.2555226,-0.
 4794893,-0.4794893,-0.2555226,-0.2555226,-0.2555226,-0.4794893,-0.2555
 226,-0.2555226,-0.2555226,-0.4794893,-0.4794893,-0.2555226,0.2555226,-
 0.2555226,-0.4794893,0.2555226,0.2555226,0.2555226,-0.4794893\Polar=77
 .6296202,0.,77.6296202,0.,0.,77.6296202\Quadrupole=0.,0.,0.,0.,0.,0.\P
 G=TD [O(Si1),4C3(Cl1)]\NImag=0\\0.25766628,0.,0.25766628,0.,0.,0.25766
 628,-0.06441657,0.04716075,-0.04716075,0.07290071,0.04716075,-0.064416
 57,0.04716075,-0.05666399,0.07290071,-0.04716075,0.04716075,-0.0644165
 7,0.05666399,-0.05666399,0.07290071,-0.06441657,0.04716075,0.04716075,
 -0.00587526,0.00950324,0.00174232,0.07290071,0.04716075,-0.06441657,-0
 .04716075,0.00950324,-0.00587526,-0.00174232,-0.05666399,0.07290071,0.
 04716075,-0.04716075,-0.06441657,-0.00174232,0.00174232,0.00326639,-0.
 05666399,0.05666399,0.07290071,-0.06441657,-0.04716075,-0.04716075,-0.
 00587526,-0.00174232,-0.00950324,0.00326639,0.00174232,0.00174232,0.07
 290071,-0.04716075,-0.06441657,-0.04716075,0.00174232,0.00326639,0.001
 74232,-0.00174232,-0.00587526,-0.00950324,0.05666399,0.07290071,-0.047
 16075,-0.04716075,-0.06441657,-0.00950324,-0.00174232,-0.00587526,-0.0
 0174232,-0.00950324,-0.00587526,0.05666399,0.05666399,0.07290071,-0.06
 441657,-0.04716075,0.04716075,0.00326639,0.00174232,-0.00174232,-0.005
 87526,-0.00174232,0.00950324,-0.00587526,-0.00950324,0.00174232,0.0729
 0071,-0.04716075,-0.06441657,0.04716075,-0.00174232,-0.00587526,0.0095
 0324,0.00174232,0.00326639,-0.00174232,-0.00950324,-0.00587526,0.00174
 232,0.05666399,0.07290071,0.04716075,0.04716075,-0.06441657,0.00174232
 ,0.00950324,-0.00587526,0.00950324,0.00174232,-0.00587526,-0.00174232,
 -0.00174232,0.00326639,-0.05666399,-0.05666399,0.07290071\\0.,0.,0.,-0
 .00000041,0.00000041,-0.00000041,0.00000041,-0.00000041,-0.00000041,0.
 00000041,0.00000041,0.00000041,-0.00000041,-0.00000041,0.00000041\\\@
 The archive entry for this job was punched.


 When I told the people of Northern Ireland that I was
 an atheist, a woman in the audience stood up and said,
 "Yes, but is it the God of the Catholics or the God
 of the Protestants in whom you don't believe?"
                               -- Quentin Crisp
 Job cpu time:       0 days  0 hours 24 minutes 34.2 seconds.
 Elapsed time:       0 days  0 hours  3 minutes  4.6 seconds.
 File lengths (MBytes):  RWF=     72 Int=      0 D2E=      0 Chk=     11 Scr=      1
 Normal termination of Gaussian 16 at Fri Jul 30 20:14:45 2021.
