 Entering Gaussian System, Link 0=g16
 Initial command:
 /sw-ng/spack/opt/spack/linux-opensuse_leap15-sandybridge/pgi-18.10/gaussian-src-16-C.01-zldqaomctopxhethwccpmxmwefdscg3m/g16/l1.exe "/data/hutter/SMG16/PBE/Gau-83137.inp" -scrdir="/data/hutter/SMG16/PBE/"
 Entering Link 1 = /sw-ng/spack/opt/spack/linux-opensuse_leap15-sandybridge/pgi-18.10/gaussian-src-16-C.01-zldqaomctopxhethwccpmxmwefdscg3m/g16/l1.exe PID=     83144.
  
 Copyright (c) 1988-2019, Gaussian, Inc.  All Rights Reserved.
  
 This is part of the Gaussian(R) 16 program.  It is based on
 the Gaussian(R) 09 system (copyright 2009, Gaussian, Inc.),
 the Gaussian(R) 03 system (copyright 2003, Gaussian, Inc.),
 the Gaussian(R) 98 system (copyright 1998, Gaussian, Inc.),
 the Gaussian(R) 94 system (copyright 1995, Gaussian, Inc.),
 the Gaussian 92(TM) system (copyright 1992, Gaussian, Inc.),
 the Gaussian 90(TM) system (copyright 1990, Gaussian, Inc.),
 the Gaussian 88(TM) system (copyright 1988, Gaussian, Inc.),
 the Gaussian 86(TM) system (copyright 1986, Carnegie Mellon
 University), and the Gaussian 82(TM) system (copyright 1983,
 Carnegie Mellon University). Gaussian is a federally registered
 trademark of Gaussian, Inc.
  
 This software contains proprietary and confidential information,
 including trade secrets, belonging to Gaussian, Inc.
  
 This software is provided under written license and may be
 used, copied, transmitted, or stored only in accord with that
 written license.
  
 The following legend is applicable only to US Government
 contracts under FAR:
  
                    RESTRICTED RIGHTS LEGEND
  
 Use, reproduction and disclosure by the US Government is
 subject to restrictions as set forth in subparagraphs (a)
 and (c) of the Commercial Computer Software - Restricted
 Rights clause in FAR 52.227-19.
  
 Gaussian, Inc.
 340 Quinnipiac St., Bldg. 40, Wallingford CT 06492
  
  
 ---------------------------------------------------------------
 Warning -- This program may not be used in any manner that
 competes with the business of Gaussian, Inc. or will provide
 assistance to any competitor of Gaussian, Inc.  The licensee
 of this program is prohibited from giving any competitor of
 Gaussian, Inc. access to this program.  By using this program,
 the user acknowledges that Gaussian, Inc. is engaged in the
 business of creating and licensing software in the field of
 computational chemistry and represents and warrants to the
 licensee that it is not a competitor of Gaussian, Inc. and that
 it will not use this program in any manner prohibited above.
 ---------------------------------------------------------------
  

 Cite this work as:
 Gaussian 16, Revision C.01,
 M. J. Frisch, G. W. Trucks, H. B. Schlegel, G. E. Scuseria, 
 M. A. Robb, J. R. Cheeseman, G. Scalmani, V. Barone, 
 G. A. Petersson, H. Nakatsuji, X. Li, M. Caricato, A. V. Marenich, 
 J. Bloino, B. G. Janesko, R. Gomperts, B. Mennucci, H. P. Hratchian, 
 J. V. Ortiz, A. F. Izmaylov, J. L. Sonnenberg, D. Williams-Young, 
 F. Ding, F. Lipparini, F. Egidi, J. Goings, B. Peng, A. Petrone, 
 T. Henderson, D. Ranasinghe, V. G. Zakrzewski, J. Gao, N. Rega, 
 G. Zheng, W. Liang, M. Hada, M. Ehara, K. Toyota, R. Fukuda, 
 J. Hasegawa, M. Ishida, T. Nakajima, Y. Honda, O. Kitao, H. Nakai, 
 T. Vreven, K. Throssell, J. A. Montgomery, Jr., J. E. Peralta, 
 F. Ogliaro, M. J. Bearpark, J. J. Heyd, E. N. Brothers, K. N. Kudin, 
 V. N. Staroverov, T. A. Keith, R. Kobayashi, J. Normand, 
 K. Raghavachari, A. P. Rendell, J. C. Burant, S. S. Iyengar, 
 J. Tomasi, M. Cossi, J. M. Millam, M. Klene, C. Adamo, R. Cammi, 
 J. W. Ochterski, R. L. Martin, K. Morokuma, O. Farkas, 
 J. B. Foresman, and D. J. Fox, Gaussian, Inc., Wallingford CT, 2019.
 
 ******************************************
 Gaussian 16:  ES64L-G16RevC.01  3-Jul-2019
                30-Jul-2021 
 ******************************************
 %mem=8GB
 %NProcShare=8
 Will use up to    8 processors via shared memory.
 -----------------------------------------------------------
 #N UPBEPBE/Def2QZVPP scf=tight Int(Grid=ultrafine) OPT FREQ
 -----------------------------------------------------------
 1/18=20,19=15,26=4,38=1/1,3;
 2/9=110,12=2,17=6,18=5,40=1/2;
 3/5=45,7=202,11=2,25=1,30=1,71=1,74=1009,75=-5,116=2/1,2,3;
 4//1;
 5/5=2,32=2,38=5/2;
 6/7=2,8=2,9=2,10=2,28=1/1;
 7//1,2,3,16;
 1/18=20,19=15,26=4/3(2);
 2/9=110/2;
 99//99;
 2/9=110/2;
 3/5=45,7=202,11=2,25=1,30=1,71=1,74=1009,75=-5,116=2/1,2,3;
 4/5=5,16=3,69=1/1;
 5/5=2,32=2,38=5/2;
 7//1,2,3,16;
 1/18=20,19=15,26=4/3(-5);
 2/9=110/2;
 6/7=2,8=2,9=2,10=2,19=2,28=1/1;
 99/9=1/99;
 ---------
 Mol job 1
 ---------
 Symbolic Z-matrix:
 Charge =  0 Multiplicity = 2
 Pd                    8.        8.        7.03642 
 F                     8.        8.        8.96358 
 

 GradGradGradGradGradGradGradGradGradGradGradGradGradGradGradGradGradGrad
 Berny optimization.
 Initialization pass.
                           ----------------------------
                           !    Initial Parameters    !
                           ! (Angstroms and Degrees)  !
 --------------------------                            --------------------------
 ! Name  Definition              Value          Derivative Info.                !
 --------------------------------------------------------------------------------
 ! R1    R(1,2)                  1.9272         estimate D2E/DX2                !
 --------------------------------------------------------------------------------
 Trust Radius=3.00D-01 FncErr=1.00D-07 GrdErr=1.00D-06 EigMax=2.50D+02 EigMin=1.00D-04
 Number of steps in this run=     20 maximum allowed number of steps=    100.
 GradGradGradGradGradGradGradGradGradGradGradGradGradGradGradGradGradGrad

                          Input orientation:                          
 ---------------------------------------------------------------------
 Center     Atomic      Atomic             Coordinates (Angstroms)
 Number     Number       Type             X           Y           Z
 ---------------------------------------------------------------------
      1         46           0        8.000000    8.000000    7.036418
      2          9           0        8.000000    8.000000    8.963582
 ---------------------------------------------------------------------
 Stoichiometry    FPd(2)
 Framework group  C*V[C*(FPd)]
 Deg. of freedom     1
 Full point group                 C*V     NOp   4
 Largest Abelian subgroup         C2V     NOp   4
 Largest concise Abelian subgroup C1      NOp   1
                         Standard orientation:                         
 ---------------------------------------------------------------------
 Center     Atomic      Atomic             Coordinates (Angstroms)
 Number     Number       Type             X           Y           Z
 ---------------------------------------------------------------------
      1         46           0        0.000000    0.000000    0.315354
      2          9           0        0.000000    0.000000   -1.611810
 ---------------------------------------------------------------------
 Rotational constants (GHZ):           0.0000000           8.4473719           8.4473719
 Standard basis: def2QZVPP (5D, 7F)
 There are    80 symmetry adapted cartesian basis functions of A1  symmetry.
 There are    22 symmetry adapted cartesian basis functions of A2  symmetry.
 There are    43 symmetry adapted cartesian basis functions of B1  symmetry.
 There are    43 symmetry adapted cartesian basis functions of B2  symmetry.
 There are    58 symmetry adapted basis functions of A1  symmetry.
 There are    19 symmetry adapted basis functions of A2  symmetry.
 There are    34 symmetry adapted basis functions of B1  symmetry.
 There are    34 symmetry adapted basis functions of B2  symmetry.
   145 basis functions,   237 primitive gaussians,   188 cartesian basis functions
    14 alpha electrons       13 beta electrons
       nuclear repulsion energy        44.4833454451 Hartrees.
 NAtoms=    2 NActive=    2 NUniq=    2 SFac= 1.00D+00 NAtFMM=   60 NAOKFM=F Big=F
 Integral buffers will be    131072 words long.
 Raffenetti 2 integral format.
 Two-electron integral symmetry is turned on.
 One-electron integrals computed using PRISM.
   4 Symmetry operations used in ECPInt.
 ECPInt:  NShTT=     780 NPrTT=    1824 LenC2=     778 LenP2D=    1718.
 LDataN:  DoStor=T MaxTD1= 8 Len=  415
 NBasis=   145 RedAO= T EigKep=  2.71D-03  NBF=    58    19    34    34
 NBsUse=   145 1.00D-06 EigRej= -1.00D+00 NBFU=    58    19    34    34
 Defaulting to unpruned grid for atomic number  46.
 ExpMin= 3.00D-02 ExpMax= 1.33D+05 ExpMxC= 1.27D+03 IAcc=3 IRadAn=         5 AccDes= 0.00D+00
 Harris functional with IExCor= 1009 and IRadAn=       5 diagonalized for initial guess.
 HarFok:  IExCor= 1009 AccDes= 0.00D+00 IRadAn=         5 IDoV= 1 UseB2=F ITyADJ=14
 ICtDFT=  3500011 ScaDFX=  1.000000  1.000000  1.000000  1.000000
 Defaulting to unpruned grid for atomic number  46.
 FoFCou: FMM=F IPFlag=           0 FMFlag=      100000 FMFlg1=           0
         NFxFlg=           0 DoJE=T BraDBF=F KetDBF=T FulRan=T
         wScrn=  0.000000 ICntrl=       500 IOpCl=  0 I1Cent=   200000004 NGrid=           0
         NMat0=    1 NMatS0=      1 NMatT0=    0 NMatD0=    1 NMtDS0=    0 NMtDT0=    0
 Petite list used in FoFCou.
 Initial guess orbital symmetries:
 Alpha Orbitals:
       Occupied  (SG) (SG) (SG) (PI) (PI) (SG) (SG) (PI) (PI) (DLTA)
                 (DLTA) (PI) (PI) (SG)
       Virtual   (SG) (PI) (PI) (SG) (SG) (PI) (PI) (SG) (SG) (DLTA)
                 (DLTA) (PI) (PI) (SG) (PI) (PI) (DLTA) (DLTA)
                 (PHI) (PHI) (PI) (PI) (SG) (SG) (SG) (PI) (PI)
                 (PI) (PI) (SG) (DLTA) (DLTA) (SG) (PI) (PI) (DLTA)
                 (DLTA) (PHI) (PHI) (SG) (DLTA) (DLTA) (PI) (PI)
                 (SG) (PI) (PI) (SG) (DLTA) (DLTA) (PHI) (PHI)
                 (SG) (PI) (PI) (SG) (DLTA) (DLTA) (PHI) (PHI)
                 (?A) (?A) (PI) (PI) (SG) (DLTA) (DLTA) (SG) (PI)
                 (PI) (PHI) (PHI) (SG) (DLTA) (DLTA) (PI) (PI)
                 (SG) (PI) (PI) (DLTA) (DLTA) (PI) (PI) (SG) (SG)
                 (PI) (PI) (SG) (PHI) (PHI) (DLTA) (DLTA) (PI)
                 (PI) (SG) (PHI) (PHI) (?A) (?A) (DLTA) (DLTA)
                 (PI) (PI) (SG) (PHI) (PHI) (?A) (?A) (DLTA) (DLTA)
                 (PI) (PI) (SG) (PHI) (PHI) (DLTA) (DLTA) (PI)
                 (PI) (SG) (SG) (DLTA) (DLTA) (PI) (PI) (SG) (SG)
                 (SG) (SG) (SG)
 Beta  Orbitals:
       Occupied  (SG) (SG) (SG) (PI) (PI) (SG) (SG) (PI) (PI) (DLTA)
                 (DLTA) (PI) (PI)
       Virtual   (SG) (SG) (PI) (PI) (SG) (SG) (PI) (PI) (SG) (SG)
                 (DLTA) (DLTA) (PI) (PI) (SG) (PI) (PI) (DLTA)
                 (DLTA) (PHI) (PHI) (PI) (PI) (SG) (SG) (SG) (PI)
                 (PI) (PI) (PI) (SG) (DLTA) (DLTA) (SG) (PI) (PI)
                 (DLTA) (DLTA) (PHI) (PHI) (SG) (DLTA) (DLTA) (PI)
                 (PI) (SG) (PI) (PI) (SG) (DLTA) (DLTA) (PHI) (PHI)
                 (SG) (PI) (PI) (SG) (DLTA) (DLTA) (PHI) (PHI)
                 (?A) (?A) (PI) (PI) (SG) (DLTA) (DLTA) (SG) (PI)
                 (PI) (PHI) (PHI) (SG) (DLTA) (DLTA) (PI) (PI)
                 (SG) (PI) (PI) (DLTA) (DLTA) (PI) (PI) (SG) (SG)
                 (PI) (PI) (SG) (PHI) (PHI) (DLTA) (DLTA) (PI)
                 (PI) (SG) (PHI) (PHI) (?A) (?A) (DLTA) (DLTA)
                 (PI) (PI) (SG) (PHI) (PHI) (?A) (?A) (DLTA) (DLTA)
                 (PI) (PI) (SG) (PHI) (PHI) (DLTA) (DLTA) (PI)
                 (PI) (SG) (SG) (DLTA) (DLTA) (PI) (PI) (SG) (SG)
                 (SG) (SG) (SG)
 The electronic state of the initial guess is 2-SG.
 Initial guess <Sx>= 0.0000 <Sy>= 0.0000 <Sz>= 0.5000 <S**2>= 0.7500 S= 0.5000
 Keep J ints in memory in symmetry-blocked form, NReq=70240301.
 Requested convergence on RMS density matrix=1.00D-08 within 128 cycles.
 Requested convergence on MAX density matrix=1.00D-06.
 Requested convergence on             energy=1.00D-06.
 No special actions if energy rises.
 Defaulting to unpruned grid for atomic number  46.
 Defaulting to unpruned grid for atomic number  46.
 Defaulting to unpruned grid for atomic number  46.
 Defaulting to unpruned grid for atomic number  46.
 Defaulting to unpruned grid for atomic number  46.
 Defaulting to unpruned grid for atomic number  46.
 Defaulting to unpruned grid for atomic number  46.
 Defaulting to unpruned grid for atomic number  46.
 EnCoef did     3 forward-backward iterations
 EnCoef did     2 forward-backward iterations
 EnCoef did     3 forward-backward iterations
 EnCoef did     5 forward-backward iterations
 SCF Done:  E(UPBE-PBE) =  -227.698322353     A.U. after   15 cycles
            NFock= 15  Conv=0.37D-08     -V/T= 2.5392
 <Sx>= 0.0000 <Sy>= 0.0000 <Sz>= 0.5000 <S**2>= 0.7505 S= 0.5002
 <L.S>=  0.00000000000    
 Annihilation of the first spin contaminant:
 S**2 before annihilation     0.7505,   after     0.7500

 **********************************************************************

            Population analysis using the SCF Density.

 **********************************************************************

 Orbital symmetries:
 Alpha Orbitals:
       Occupied  (SG) (SG) (SG) (PI) (PI) (SG) (SG) (PI) (PI) (DLTA)
                 (DLTA) (SG) (PI) (PI)
       Virtual   (SG) (PI) (PI) (SG) (SG) (PI) (PI) (SG) (DLTA)
                 (DLTA) (PI) (PI) (SG) (SG) (DLTA) (DLTA) (PHI)
                 (PHI) (PI) (PI) (PI) (PI) (SG) (SG) (SG) (PI)
                 (PI) (PI) (PI) (DLTA) (DLTA) (SG) (PI) (PI) (SG)
                 (DLTA) (DLTA) (PHI) (PHI) (SG) (DLTA) (DLTA) (PI)
                 (PI) (SG) (PI) (PI) (SG) (DLTA) (DLTA) (PHI) (PHI)
                 (SG) (PI) (PI) (SG) (DLTA) (DLTA) (?A) (?A) (PHI)
                 (PHI) (PI) (PI) (SG) (DLTA) (DLTA) (SG) (PI) (PI)
                 (SG) (PHI) (PHI) (DLTA) (DLTA) (PI) (PI) (PI)
                 (PI) (SG) (DLTA) (DLTA) (PI) (PI) (SG) (SG) (PI)
                 (PI) (SG) (DLTA) (DLTA) (PHI) (PHI) (PI) (PI)
                 (SG) (DLTA) (DLTA) (?A) (?A) (PHI) (PHI) (PI)
                 (PI) (SG) (DLTA) (DLTA) (PHI) (PHI) (?A) (?A)
                 (PI) (PI) (SG) (PHI) (PHI) (DLTA) (DLTA) (PI)
                 (PI) (SG) (SG) (DLTA) (DLTA) (PI) (PI) (SG) (SG)
                 (SG) (SG) (SG)
 Beta  Orbitals:
       Occupied  (SG) (SG) (SG) (PI) (PI) (SG) (SG) (PI) (PI) (DLTA)
                 (DLTA) (PI) (PI)
       Virtual   (SG) (SG) (PI) (PI) (SG) (SG) (PI) (PI) (SG) (DLTA)
                 (DLTA) (PI) (PI) (SG) (SG) (DLTA) (DLTA) (PHI)
                 (PHI) (PI) (PI) (PI) (PI) (SG) (SG) (SG) (PI)
                 (PI) (PI) (PI) (DLTA) (DLTA) (SG) (PI) (PI) (SG)
                 (DLTA) (DLTA) (PHI) (PHI) (SG) (DLTA) (DLTA) (PI)
                 (PI) (SG) (PI) (PI) (SG) (DLTA) (DLTA) (PHI) (PHI)
                 (SG) (PI) (PI) (SG) (DLTA) (DLTA) (PHI) (PHI)
                 (?A) (?A) (PI) (PI) (SG) (DLTA) (DLTA) (PI) (PI)
                 (SG) (SG) (PHI) (PHI) (DLTA) (DLTA) (PI) (PI)
                 (PI) (PI) (SG) (DLTA) (DLTA) (PI) (PI) (SG) (SG)
                 (PI) (PI) (SG) (DLTA) (DLTA) (PHI) (PHI) (PI)
                 (PI) (SG) (PHI) (PHI) (DLTA) (DLTA) (?A) (?A)
                 (PI) (PI) (SG) (PHI) (PHI) (DLTA) (DLTA) (?A)
                 (?A) (PI) (PI) (SG) (PHI) (PHI) (DLTA) (DLTA)
                 (PI) (PI) (SG) (SG) (DLTA) (DLTA) (PI) (PI) (SG)
                 (SG) (SG) (SG) (SG)
 The electronic state is 2-SG.
 Alpha  occ. eigenvalues --  -24.18306  -3.32550  -2.07248  -2.03119  -2.03119
 Alpha  occ. eigenvalues --   -0.97961  -0.36735  -0.30838  -0.30838  -0.23942
 Alpha  occ. eigenvalues --   -0.23942  -0.23073  -0.22141  -0.22141
 Alpha virt. eigenvalues --   -0.13993  -0.02129  -0.02129   0.01637   0.06144
 Alpha virt. eigenvalues --    0.10669   0.10669   0.15748   0.21391   0.21391
 Alpha virt. eigenvalues --    0.23365   0.23365   0.24149   0.36849   0.40466
 Alpha virt. eigenvalues --    0.40466   0.40792   0.40792   0.42469   0.42469
 Alpha virt. eigenvalues --    0.52904   0.52904   0.53719   0.58823   0.67349
 Alpha virt. eigenvalues --    0.68007   0.68007   0.98619   0.98619   0.98648
 Alpha virt. eigenvalues --    0.98648   1.03054   1.16556   1.16556   1.19446
 Alpha virt. eigenvalues --    1.19995   1.19995   1.20034   1.20034   1.26490
 Alpha virt. eigenvalues --    1.43316   1.43316   1.69242   1.69242   1.71417
 Alpha virt. eigenvalues --    1.76389   1.76389   2.37062   2.82185   2.82187
 Alpha virt. eigenvalues --    2.83070   2.83070   2.84028   2.85988   2.85988
 Alpha virt. eigenvalues --    2.95489   2.98665   2.98665   2.99883   2.99890
 Alpha virt. eigenvalues --    3.00251   3.00251   3.07740   3.07740   3.30483
 Alpha virt. eigenvalues --    3.35182   3.35185   3.39346   3.40295   3.40295
 Alpha virt. eigenvalues --    4.09935   4.12080   4.12080   4.17656   4.17656
 Alpha virt. eigenvalues --    4.42469   4.42469   4.69395   4.69395   4.69866
 Alpha virt. eigenvalues --    4.94044   4.94044   5.28231   5.28231   5.39783
 Alpha virt. eigenvalues --    5.88358   6.14868   6.14868   6.94708   7.90488
 Alpha virt. eigenvalues --    7.90498   7.90562   7.90562   7.95727   7.95727
 Alpha virt. eigenvalues --    8.02406   8.67549   8.67568   8.67791   8.67856
 Alpha virt. eigenvalues --    8.67859   8.67859   8.81006   8.81006   9.27317
 Alpha virt. eigenvalues --   11.30517  11.30517  11.30710  11.30710  11.32412
 Alpha virt. eigenvalues --   11.32412  11.34399  11.34399  11.38341  14.43744
 Alpha virt. eigenvalues --   14.43744  14.44652  14.44652  14.59960  14.59960
 Alpha virt. eigenvalues --   14.69441  15.03855  15.63766  15.63766  15.82428
 Alpha virt. eigenvalues --   15.82428  16.27466  31.08467  53.76661 103.11734
 Alpha virt. eigenvalues --  284.13542
  Beta  occ. eigenvalues --  -24.17930  -3.30513  -2.03371  -2.01976  -2.01976
  Beta  occ. eigenvalues --   -0.97123  -0.34538  -0.30354  -0.30354  -0.22240
  Beta  occ. eigenvalues --   -0.22240  -0.21421  -0.21421
  Beta virt. eigenvalues --   -0.18973  -0.12758  -0.01240  -0.01240   0.02068
  Beta virt. eigenvalues --    0.06799   0.11495   0.11495   0.16591   0.22343
  Beta virt. eigenvalues --    0.22343   0.23751   0.23751   0.24794   0.37455
  Beta virt. eigenvalues --    0.40886   0.40886   0.42056   0.42056   0.42765
  Beta virt. eigenvalues --    0.42765   0.53390   0.53390   0.54838   0.59475
  Beta virt. eigenvalues --    0.68405   0.69423   0.69423   0.99172   0.99172
  Beta virt. eigenvalues --    1.00373   1.00373   1.05186   1.18085   1.18085
  Beta virt. eigenvalues --    1.20382   1.20578   1.20578   1.22422   1.22422
  Beta virt. eigenvalues --    1.28746   1.43466   1.43466   1.69846   1.69846
  Beta virt. eigenvalues --    1.72518   1.77052   1.77052   2.38520   2.82562
  Beta virt. eigenvalues --    2.82564   2.84686   2.84686   2.88095   2.88591
  Beta virt. eigenvalues --    2.88591   2.98533   2.99869   2.99869   3.01091
  Beta virt. eigenvalues --    3.01091   3.02919   3.02925   3.09492   3.09492
  Beta virt. eigenvalues --    3.32168   3.36748   3.36749   3.41145   3.41145
  Beta virt. eigenvalues --    3.42534   4.10900   4.12131   4.12131   4.18226
  Beta virt. eigenvalues --    4.18226   4.43485   4.43485   4.70824   4.70824
  Beta virt. eigenvalues --    4.71402   4.94241   4.94241   5.29434   5.29434
  Beta virt. eigenvalues --    5.41286   5.90128   6.15192   6.15192   6.96332
  Beta virt. eigenvalues --    7.90617   7.90627   7.91753   7.91753   7.98767
  Beta virt. eigenvalues --    7.98767   8.07831   8.67989   8.67989   8.69122
  Beta virt. eigenvalues --    8.69142   8.69336   8.69401   8.84412   8.84412
  Beta virt. eigenvalues --    9.31912  11.31291  11.31291  11.31468  11.31468
  Beta virt. eigenvalues --   11.32428  11.32428  11.35544  11.35544  11.39576
  Beta virt. eigenvalues --   14.43838  14.43838  14.45714  14.45714  14.61649
  Beta virt. eigenvalues --   14.61649  14.71534  15.04747  15.64002  15.64002
  Beta virt. eigenvalues --   15.84146  15.84146  16.29733  31.09657  53.77343
  Beta virt. eigenvalues --  103.12578 284.13792
          Condensed to atoms (all electrons):
               1          2
     1  Pd  17.371690   0.165617
     2  F    0.165617   9.297077
          Atomic-Atomic Spin Densities.
               1          2
     1  Pd   0.862177  -0.013007
     2  F   -0.013007   0.163836
 Mulliken charges and spin densities:
               1          2
     1  Pd   0.462694   0.849170
     2  F   -0.462694   0.150830
 Sum of Mulliken charges =   0.00000   1.00000
 Mulliken charges and spin densities with hydrogens summed into heavy atoms:
               1          2
     1  Pd   0.462694   0.849170
     2  F   -0.462694   0.150830
 Electronic spatial extent (au):  <R**2>=            145.2664
 Charge=              0.0000 electrons
 Dipole moment (field-independent basis, Debye):
    X=              0.0000    Y=              0.0000    Z=              4.0652  Tot=              4.0652
 Quadrupole moment (field-independent basis, Debye-Ang):
   XX=            -23.6028   YY=            -23.6028   ZZ=            -27.2791
   XY=              0.0000   XZ=              0.0000   YZ=              0.0000
 Traceless Quadrupole moment (field-independent basis, Debye-Ang):
   XX=              1.2254   YY=              1.2254   ZZ=             -2.4509
   XY=              0.0000   XZ=              0.0000   YZ=              0.0000
 Octapole moment (field-independent basis, Debye-Ang**2):
  XXX=              0.0000  YYY=              0.0000  ZZZ=             18.7549  XYY=              0.0000
  XXY=              0.0000  XXZ=              3.2058  XZZ=              0.0000  YZZ=              0.0000
  YYZ=              3.2058  XYZ=              0.0000
 Hexadecapole moment (field-independent basis, Debye-Ang**3):
 XXXX=            -23.5019 YYYY=            -23.5019 ZZZZ=           -123.9582 XXXY=              0.0000
 XXXZ=              0.0000 YYYX=              0.0000 YYYZ=              0.0000 ZZZX=              0.0000
 ZZZY=              0.0000 XXYY=             -7.8340 XXZZ=            -24.1033 YYZZ=            -24.1033
 XXYZ=              0.0000 YYXZ=              0.0000 ZZXY=              0.0000
 N-N= 4.448334544511D+01 E-N=-6.028751180891D+02  KE= 1.479356842136D+02
 Symmetry A1   KE= 1.064445894871D+02
 Symmetry A2   KE= 5.928340398646D+00
 Symmetry B1   KE= 1.778137715096D+01
 Symmetry B2   KE= 1.778137717685D+01
 Symmetry A1   SP= 1.000000000000D+00
 Symmetry A2   SP=-3.063748663405D-15
 Symmetry B1   SP= 2.742268319703D-15
 Symmetry B2   SP= 6.674002984378D-15
                          Isotropic Fermi Contact Couplings
        Atom                 a.u.       MegaHertz       Gauss      10(-4) cm-1
     1  Pd(105             0.00000      -0.00077      -0.00028      -0.00026
     2  F(19)              0.00985      41.44692      14.78929      13.82520
 --------------------------------------------------------
       Center         ----  Spin Dipole Couplings  ----
                      3XX-RR        3YY-RR        3ZZ-RR
 --------------------------------------------------------
     1   Atom       -0.305788     -0.305788      0.611576
     2   Atom       -0.475045     -0.475045      0.950090
 --------------------------------------------------------
                        XY            XZ            YZ
 --------------------------------------------------------
     1   Atom        0.000000      0.000000      0.000000
     2   Atom        0.000000      0.000000      0.000000
 --------------------------------------------------------


 ---------------------------------------------------------------------------------
              Anisotropic Spin Dipole Couplings in Principal Axis System
 ---------------------------------------------------------------------------------

       Atom             a.u.   MegaHertz   Gauss  10(-4) cm-1        Axes

              Baa    -0.3058     7.501     2.677     2.502 -0.0000  1.0000  0.0000
     1 Pd(105 Bbb    -0.3058     7.501     2.677     2.502  1.0000  0.0000  0.0000
              Bcc     0.6116   -15.002    -5.353    -5.004  0.0000  0.0000  1.0000
 
              Baa    -0.4750  -238.580   -85.131   -79.582 -0.0000  1.0000  0.0000
     2 F(19)  Bbb    -0.4750  -238.580   -85.131   -79.582  1.0000  0.0000  0.0000
              Bcc     0.9501   477.160   170.262   159.163  0.0000  0.0000  1.0000
 

 ---------------------------------------------------------------------------------

   4 Symmetry operations used in ECPInt.
 ECPInt:  NShTT=     780 NPrTT=    1824 LenC2=     778 LenP2D=    1718.
 LDataN:  DoStor=T MaxTD1= 9 Len=  602
 Calling FoFJK, ICntrl=      2527 FMM=F ISym2X=1 I1Cent= 0 IOpClX= 0 NMat=1 NMatS=1 NMatT=0.
 Defaulting to unpruned grid for atomic number  46.
 Defaulting to unpruned grid for atomic number  46.
 Defaulting to unpruned grid for atomic number  46.
 Defaulting to unpruned grid for atomic number  46.
 Defaulting to unpruned grid for atomic number  46.
 Defaulting to unpruned grid for atomic number  46.
 Defaulting to unpruned grid for atomic number  46.
 Defaulting to unpruned grid for atomic number  46.
 ***** Axes restored to original set *****
 -------------------------------------------------------------------
 Center     Atomic                   Forces (Hartrees/Bohr)
 Number     Number              X              Y              Z
 -------------------------------------------------------------------
      1       46          -0.000000000   -0.000000000    0.001681875
      2        9          -0.000000000   -0.000000000   -0.001681875
 -------------------------------------------------------------------
 Cartesian Forces:  Max     0.001681875 RMS     0.000971031

 GradGradGradGradGradGradGradGradGradGradGradGradGradGradGradGradGradGrad
 Berny optimization.
 FormGI is forming the generalized inverse of G from B-inverse, IUseBI=4.
 Internal  Forces:  Max     0.001681875 RMS     0.001681875
 Search for a local minimum.
 Step number   1 out of a maximum of   20
 All quantities printed in internal units (Hartrees-Bohrs-Radians)
 Mixed Optimization -- RFO/linear search
 Second derivative matrix not updated -- first step.
 The second derivative matrix:
                          R1
           R1           0.22106
 ITU=  0
     Eigenvalues ---    0.22106
 RFO step:  Lambda=-1.27952661D-05 EMin= 2.21061401D-01
 Linear search not attempted -- first point.
 Iteration  1 RMS(Cart)=  0.00537948 RMS(Int)=  0.00000000
 Iteration  2 RMS(Cart)=  0.00000000 RMS(Int)=  0.00000000
 ClnCor:  largest displacement from symmetrization is 0.00D+00 for atom     0.
 Variable       Old X    -DE/DX   Delta X   Delta X   Delta X     New X
                                 (Linear)    (Quad)   (Total)
    R1        3.64181  -0.00168   0.00000  -0.00761  -0.00761   3.63420
         Item               Value     Threshold  Converged?
 Maximum Force            0.001682     0.000450     NO 
 RMS     Force            0.001682     0.000300     NO 
 Maximum Displacement     0.003804     0.001800     NO 
 RMS     Displacement     0.005379     0.001200     NO 
 Predicted change in Energy=-6.398003D-06
 GradGradGradGradGradGradGradGradGradGradGradGradGradGradGradGradGradGrad

                          Input orientation:                          
 ---------------------------------------------------------------------
 Center     Atomic      Atomic             Coordinates (Angstroms)
 Number     Number       Type             X           Y           Z
 ---------------------------------------------------------------------
      1         46           0        8.000000    8.000000    7.038431
      2          9           0        8.000000    8.000000    8.961569
 ---------------------------------------------------------------------
 Stoichiometry    FPd(2)
 Framework group  C*V[C*(FPd)]
 Deg. of freedom     1
 Full point group                 C*V     NOp   4
 Largest Abelian subgroup         C2V     NOp   4
 Largest concise Abelian subgroup C1      NOp   1
                         Standard orientation:                         
 ---------------------------------------------------------------------
 Center     Atomic      Atomic             Coordinates (Angstroms)
 Number     Number       Type             X           Y           Z
 ---------------------------------------------------------------------
      1         46           0        0.000000    0.000000    0.314695
      2          9           0        0.000000    0.000000   -1.608443
 ---------------------------------------------------------------------
 Rotational constants (GHZ):           0.0000000           8.4827759           8.4827759
 Standard basis: def2QZVPP (5D, 7F)
 There are    80 symmetry adapted cartesian basis functions of A1  symmetry.
 There are    22 symmetry adapted cartesian basis functions of A2  symmetry.
 There are    43 symmetry adapted cartesian basis functions of B1  symmetry.
 There are    43 symmetry adapted cartesian basis functions of B2  symmetry.
 There are    58 symmetry adapted basis functions of A1  symmetry.
 There are    19 symmetry adapted basis functions of A2  symmetry.
 There are    34 symmetry adapted basis functions of B1  symmetry.
 There are    34 symmetry adapted basis functions of B2  symmetry.
   145 basis functions,   237 primitive gaussians,   188 cartesian basis functions
    14 alpha electrons       13 beta electrons
       nuclear repulsion energy        44.5764656003 Hartrees.
 NAtoms=    2 NActive=    2 NUniq=    2 SFac= 1.00D+00 NAtFMM=   60 NAOKFM=F Big=F
 Integral buffers will be    131072 words long.
 Raffenetti 2 integral format.
 Two-electron integral symmetry is turned on.
 One-electron integrals computed using PRISM.
   4 Symmetry operations used in ECPInt.
 ECPInt:  NShTT=     780 NPrTT=    1824 LenC2=     778 LenP2D=    1718.
 LDataN:  DoStor=T MaxTD1= 8 Len=  415
 NBasis=   145 RedAO= T EigKep=  2.69D-03  NBF=    58    19    34    34
 NBsUse=   145 1.00D-06 EigRej= -1.00D+00 NBFU=    58    19    34    34
 Defaulting to unpruned grid for atomic number  46.
 Initial guess from the checkpoint file:  "/data/hutter/SMG16/PBE/Gau-83144.chk"
 B after Tr=     0.000000    0.000000    0.000000
         Rot=    1.000000    0.000000    0.000000    0.000000 Ang=   0.00 deg.
 Initial guess orbital symmetries:
 Alpha Orbitals:
       Occupied  (SG) (SG) (SG) (PI) (PI) (SG) (SG) (PI) (PI) (DLTA)
                 (DLTA) (SG) (PI) (PI)
       Virtual   (SG) (PI) (PI) (SG) (SG) (PI) (PI) (SG) (DLTA)
                 (DLTA) (PI) (PI) (SG) (SG) (DLTA) (DLTA) (PHI)
                 (PHI) (PI) (PI) (PI) (PI) (SG) (SG) (SG) (PI)
                 (PI) (PI) (PI) (DLTA) (DLTA) (SG) (PI) (PI) (SG)
                 (DLTA) (DLTA) (PHI) (PHI) (SG) (DLTA) (DLTA) (PI)
                 (PI) (SG) (PI) (PI) (SG) (DLTA) (DLTA) (PHI) (PHI)
                 (SG) (PI) (PI) (SG) (DLTA) (DLTA) (?A) (?A) (PHI)
                 (PHI) (PI) (PI) (SG) (DLTA) (DLTA) (SG) (PI) (PI)
                 (SG) (PHI) (PHI) (DLTA) (DLTA) (PI) (PI) (PI)
                 (PI) (SG) (DLTA) (DLTA) (PI) (PI) (SG) (SG) (PI)
                 (PI) (SG) (DLTA) (DLTA) (PHI) (PHI) (PI) (PI)
                 (SG) (DLTA) (DLTA) (?A) (?A) (PHI) (PHI) (PI)
                 (PI) (SG) (DLTA) (DLTA) (PHI) (PHI) (?A) (?A)
                 (PI) (PI) (SG) (PHI) (PHI) (DLTA) (DLTA) (PI)
                 (PI) (SG) (SG) (DLTA) (DLTA) (PI) (PI) (SG) (SG)
                 (SG) (SG) (SG)
 Beta  Orbitals:
       Occupied  (SG) (SG) (SG) (PI) (PI) (SG) (SG) (PI) (PI) (DLTA)
                 (DLTA) (PI) (PI)
       Virtual   (SG) (SG) (PI) (PI) (SG) (SG) (PI) (PI) (SG) (DLTA)
                 (DLTA) (PI) (PI) (SG) (SG) (DLTA) (DLTA) (PHI)
                 (PHI) (PI) (PI) (PI) (PI) (SG) (SG) (SG) (PI)
                 (PI) (PI) (PI) (DLTA) (DLTA) (SG) (PI) (PI) (SG)
                 (DLTA) (DLTA) (PHI) (PHI) (SG) (DLTA) (DLTA) (PI)
                 (PI) (SG) (PI) (PI) (SG) (DLTA) (DLTA) (PHI) (PHI)
                 (SG) (PI) (PI) (SG) (DLTA) (DLTA) (PHI) (PHI)
                 (?A) (?A) (PI) (PI) (SG) (DLTA) (DLTA) (PI) (PI)
                 (SG) (SG) (PHI) (PHI) (DLTA) (DLTA) (PI) (PI)
                 (PI) (PI) (SG) (DLTA) (DLTA) (PI) (PI) (SG) (SG)
                 (PI) (PI) (SG) (DLTA) (DLTA) (PHI) (PHI) (PI)
                 (PI) (SG) (PHI) (PHI) (DLTA) (DLTA) (?A) (?A)
                 (PI) (PI) (SG) (PHI) (PHI) (DLTA) (DLTA) (?A)
                 (?A) (PI) (PI) (SG) (PHI) (PHI) (DLTA) (DLTA)
                 (PI) (PI) (SG) (SG) (DLTA) (DLTA) (PI) (PI) (SG)
                 (SG) (SG) (SG) (SG)
 Initial guess <Sx>= 0.0000 <Sy>= 0.0000 <Sz>= 0.5000 <S**2>= 0.7505 S= 0.5002
 Keep J ints in memory in symmetry-blocked form, NReq=70240301.
 Requested convergence on RMS density matrix=1.00D-08 within 128 cycles.
 Requested convergence on MAX density matrix=1.00D-06.
 Requested convergence on             energy=1.00D-06.
 No special actions if energy rises.
 Defaulting to unpruned grid for atomic number  46.
 Defaulting to unpruned grid for atomic number  46.
 Defaulting to unpruned grid for atomic number  46.
 Defaulting to unpruned grid for atomic number  46.
 Defaulting to unpruned grid for atomic number  46.
 Defaulting to unpruned grid for atomic number  46.
 Defaulting to unpruned grid for atomic number  46.
 Defaulting to unpruned grid for atomic number  46.
 SCF Done:  E(UPBE-PBE) =  -227.698330115     A.U. after    8 cycles
            NFock=  8  Conv=0.20D-08     -V/T= 2.5392
 <Sx>= 0.0000 <Sy>= 0.0000 <Sz>= 0.5000 <S**2>= 0.7505 S= 0.5002
 <L.S>=  0.00000000000    
 Annihilation of the first spin contaminant:
 S**2 before annihilation     0.7505,   after     0.7500
   4 Symmetry operations used in ECPInt.
 ECPInt:  NShTT=     780 NPrTT=    1824 LenC2=     778 LenP2D=    1718.
 LDataN:  DoStor=T MaxTD1= 9 Len=  602
 Calling FoFJK, ICntrl=      2527 FMM=F ISym2X=1 I1Cent= 0 IOpClX= 0 NMat=1 NMatS=1 NMatT=0.
 Defaulting to unpruned grid for atomic number  46.
 Defaulting to unpruned grid for atomic number  46.
 Defaulting to unpruned grid for atomic number  46.
 Defaulting to unpruned grid for atomic number  46.
 Defaulting to unpruned grid for atomic number  46.
 Defaulting to unpruned grid for atomic number  46.
 Defaulting to unpruned grid for atomic number  46.
 Defaulting to unpruned grid for atomic number  46.
 ***** Axes restored to original set *****
 -------------------------------------------------------------------
 Center     Atomic                   Forces (Hartrees/Bohr)
 Number     Number              X              Y              Z
 -------------------------------------------------------------------
      1       46          -0.000000000   -0.000000000    0.000353764
      2        9          -0.000000000   -0.000000000   -0.000353764
 -------------------------------------------------------------------
 Cartesian Forces:  Max     0.000353764 RMS     0.000204246

 GradGradGradGradGradGradGradGradGradGradGradGradGradGradGradGradGradGrad
 Berny optimization.
 Using GEDIIS/GDIIS optimizer.
 Internal  Forces:  Max     0.000353764 RMS     0.000353764
 Search for a local minimum.
 Step number   2 out of a maximum of   20
 All quantities printed in internal units (Hartrees-Bohrs-Radians)
 Mixed Optimization -- En-DIIS/RFO-DIIS
 Update second derivatives using D2CorX and points    1    2
 DE= -7.76D-06 DEPred=-6.40D-06 R= 1.21D+00
 TightC=F SS=  1.41D+00  RLast= 7.61D-03 DXNew= 5.0454D-01 2.2823D-02
 Trust test= 1.21D+00 RLast= 7.61D-03 DXMaxT set to 3.00D-01
 The second derivative matrix:
                          R1
           R1           0.17457
 ITU=  1  0
 Use linear search instead of GDIIS.
     Eigenvalues ---    0.17457
 RFO step:  Lambda= 0.00000000D+00 EMin= 1.74573647D-01
 Quartic linear search produced a step of  0.26267.
 Iteration  1 RMS(Cart)=  0.00141305 RMS(Int)=  0.00000000
 Iteration  2 RMS(Cart)=  0.00000000 RMS(Int)=  0.00000000
 ClnCor:  largest displacement from symmetrization is 0.00D+00 for atom     0.
 Variable       Old X    -DE/DX   Delta X   Delta X   Delta X     New X
                                 (Linear)    (Quad)   (Total)
    R1        3.63420  -0.00035  -0.00200   0.00000  -0.00200   3.63221
         Item               Value     Threshold  Converged?
 Maximum Force            0.000354     0.000450     YES
 RMS     Force            0.000354     0.000300     NO 
 Maximum Displacement     0.000999     0.001800     YES
 RMS     Displacement     0.001413     0.001200     NO 
 Predicted change in Energy=-3.583730D-07
 GradGradGradGradGradGradGradGradGradGradGradGradGradGradGradGradGradGrad

                          Input orientation:                          
 ---------------------------------------------------------------------
 Center     Atomic      Atomic             Coordinates (Angstroms)
 Number     Number       Type             X           Y           Z
 ---------------------------------------------------------------------
      1         46           0        8.000000    8.000000    7.038960
      2          9           0        8.000000    8.000000    8.961040
 ---------------------------------------------------------------------
 Stoichiometry    FPd(2)
 Framework group  C*V[C*(FPd)]
 Deg. of freedom     1
 Full point group                 C*V     NOp   4
 Largest Abelian subgroup         C2V     NOp   4
 Largest concise Abelian subgroup C1      NOp   1
                         Standard orientation:                         
 ---------------------------------------------------------------------
 Center     Atomic      Atomic             Coordinates (Angstroms)
 Number     Number       Type             X           Y           Z
 ---------------------------------------------------------------------
      1         46           0        0.000000    0.000000    0.314522
      2          9           0        0.000000    0.000000   -1.607558
 ---------------------------------------------------------------------
 Rotational constants (GHZ):           0.0000000           8.4921126           8.4921126
 Standard basis: def2QZVPP (5D, 7F)
 There are    80 symmetry adapted cartesian basis functions of A1  symmetry.
 There are    22 symmetry adapted cartesian basis functions of A2  symmetry.
 There are    43 symmetry adapted cartesian basis functions of B1  symmetry.
 There are    43 symmetry adapted cartesian basis functions of B2  symmetry.
 There are    58 symmetry adapted basis functions of A1  symmetry.
 There are    19 symmetry adapted basis functions of A2  symmetry.
 There are    34 symmetry adapted basis functions of B1  symmetry.
 There are    34 symmetry adapted basis functions of B2  symmetry.
   145 basis functions,   237 primitive gaussians,   188 cartesian basis functions
    14 alpha electrons       13 beta electrons
       nuclear repulsion energy        44.6009905701 Hartrees.
 NAtoms=    2 NActive=    2 NUniq=    2 SFac= 1.00D+00 NAtFMM=   60 NAOKFM=F Big=F
 Integral buffers will be    131072 words long.
 Raffenetti 2 integral format.
 Two-electron integral symmetry is turned on.
 One-electron integrals computed using PRISM.
   4 Symmetry operations used in ECPInt.
 ECPInt:  NShTT=     780 NPrTT=    1824 LenC2=     778 LenP2D=    1718.
 LDataN:  DoStor=T MaxTD1= 8 Len=  415
 NBasis=   145 RedAO= T EigKep=  2.68D-03  NBF=    58    19    34    34
 NBsUse=   145 1.00D-06 EigRej= -1.00D+00 NBFU=    58    19    34    34
 Defaulting to unpruned grid for atomic number  46.
 Initial guess from the checkpoint file:  "/data/hutter/SMG16/PBE/Gau-83144.chk"
 B after Tr=     0.000000    0.000000    0.000000
         Rot=    1.000000    0.000000    0.000000    0.000000 Ang=   0.00 deg.
 Initial guess orbital symmetries:
 Alpha Orbitals:
       Occupied  (SG) (SG) (SG) (PI) (PI) (SG) (SG) (PI) (PI) (DLTA)
                 (DLTA) (SG) (PI) (PI)
       Virtual   (SG) (PI) (PI) (SG) (SG) (PI) (PI) (SG) (DLTA)
                 (DLTA) (PI) (PI) (SG) (SG) (DLTA) (DLTA) (PHI)
                 (PHI) (PI) (PI) (PI) (PI) (SG) (SG) (SG) (PI)
                 (PI) (PI) (PI) (DLTA) (DLTA) (SG) (PI) (PI) (SG)
                 (DLTA) (DLTA) (PHI) (PHI) (SG) (DLTA) (DLTA) (PI)
                 (PI) (SG) (PI) (PI) (SG) (DLTA) (DLTA) (PHI) (PHI)
                 (SG) (PI) (PI) (SG) (DLTA) (DLTA) (?A) (?A) (PHI)
                 (PHI) (PI) (PI) (SG) (DLTA) (DLTA) (SG) (PI) (PI)
                 (SG) (PHI) (PHI) (DLTA) (DLTA) (PI) (PI) (PI)
                 (PI) (SG) (DLTA) (DLTA) (PI) (PI) (SG) (SG) (PI)
                 (PI) (SG) (DLTA) (DLTA) (PHI) (PHI) (PI) (PI)
                 (SG) (DLTA) (DLTA) (?A) (PHI) (PHI) (?A) (PI)
                 (PI) (SG) (DLTA) (DLTA) (PHI) (PHI) (?A) (?A)
                 (PI) (PI) (SG) (PHI) (PHI) (DLTA) (DLTA) (PI)
                 (PI) (SG) (SG) (DLTA) (DLTA) (PI) (PI) (SG) (SG)
                 (SG) (SG) (SG)
 Beta  Orbitals:
       Occupied  (SG) (SG) (SG) (PI) (PI) (SG) (SG) (PI) (PI) (DLTA)
                 (DLTA) (PI) (PI)
       Virtual   (SG) (SG) (PI) (PI) (SG) (SG) (PI) (PI) (SG) (DLTA)
                 (DLTA) (PI) (PI) (SG) (SG) (DLTA) (DLTA) (PHI)
                 (PHI) (PI) (PI) (PI) (PI) (SG) (SG) (SG) (PI)
                 (PI) (PI) (PI) (DLTA) (DLTA) (SG) (PI) (PI) (SG)
                 (DLTA) (DLTA) (PHI) (PHI) (SG) (DLTA) (DLTA) (PI)
                 (PI) (SG) (PI) (PI) (SG) (DLTA) (DLTA) (PHI) (PHI)
                 (SG) (PI) (PI) (SG) (DLTA) (DLTA) (PHI) (PHI)
                 (?A) (?A) (PI) (PI) (SG) (DLTA) (DLTA) (PI) (PI)
                 (SG) (SG) (PHI) (PHI) (DLTA) (DLTA) (PI) (PI)
                 (PI) (PI) (SG) (DLTA) (DLTA) (PI) (PI) (SG) (SG)
                 (PI) (PI) (SG) (DLTA) (DLTA) (PHI) (PHI) (PI)
                 (PI) (SG) (PHI) (PHI) (DLTA) (DLTA) (?A) (?A)
                 (PI) (PI) (SG) (PHI) (PHI) (DLTA) (DLTA) (?A)
                 (?A) (PI) (PI) (SG) (PHI) (PHI) (DLTA) (DLTA)
                 (PI) (PI) (SG) (SG) (DLTA) (DLTA) (PI) (PI) (SG)
                 (SG) (SG) (SG) (SG)
 Initial guess <Sx>= 0.0000 <Sy>= 0.0000 <Sz>= 0.5000 <S**2>= 0.7505 S= 0.5002
 Keep J ints in memory in symmetry-blocked form, NReq=70240301.
 Requested convergence on RMS density matrix=1.00D-08 within 128 cycles.
 Requested convergence on MAX density matrix=1.00D-06.
 Requested convergence on             energy=1.00D-06.
 No special actions if energy rises.
 Defaulting to unpruned grid for atomic number  46.
 Defaulting to unpruned grid for atomic number  46.
 Defaulting to unpruned grid for atomic number  46.
 Defaulting to unpruned grid for atomic number  46.
 Defaulting to unpruned grid for atomic number  46.
 Defaulting to unpruned grid for atomic number  46.
 Defaulting to unpruned grid for atomic number  46.
 Defaulting to unpruned grid for atomic number  46.
 SCF Done:  E(UPBE-PBE) =  -227.698330469     A.U. after    7 cycles
            NFock=  7  Conv=0.30D-08     -V/T= 2.5391
 <Sx>= 0.0000 <Sy>= 0.0000 <Sz>= 0.5000 <S**2>= 0.7505 S= 0.5002
 <L.S>=  0.00000000000    
 Annihilation of the first spin contaminant:
 S**2 before annihilation     0.7505,   after     0.7500
   4 Symmetry operations used in ECPInt.
 ECPInt:  NShTT=     780 NPrTT=    1824 LenC2=     778 LenP2D=    1718.
 LDataN:  DoStor=T MaxTD1= 9 Len=  602
 Calling FoFJK, ICntrl=      2527 FMM=F ISym2X=1 I1Cent= 0 IOpClX= 0 NMat=1 NMatS=1 NMatT=0.
 Defaulting to unpruned grid for atomic number  46.
 Defaulting to unpruned grid for atomic number  46.
 Defaulting to unpruned grid for atomic number  46.
 Defaulting to unpruned grid for atomic number  46.
 Defaulting to unpruned grid for atomic number  46.
 Defaulting to unpruned grid for atomic number  46.
 Defaulting to unpruned grid for atomic number  46.
 Defaulting to unpruned grid for atomic number  46.
 ***** Axes restored to original set *****
 -------------------------------------------------------------------
 Center     Atomic                   Forces (Hartrees/Bohr)
 Number     Number              X              Y              Z
 -------------------------------------------------------------------
      1       46          -0.000000000   -0.000000000    0.000000080
      2        9          -0.000000000   -0.000000000   -0.000000080
 -------------------------------------------------------------------
 Cartesian Forces:  Max     0.000000080 RMS     0.000000046

 GradGradGradGradGradGradGradGradGradGradGradGradGradGradGradGradGradGrad
 Berny optimization.
 Using GEDIIS/GDIIS optimizer.
 Internal  Forces:  Max     0.000000080 RMS     0.000000080
 Search for a local minimum.
 Step number   3 out of a maximum of   20
 All quantities printed in internal units (Hartrees-Bohrs-Radians)
 Mixed Optimization -- En-DIIS/RFO-DIIS
 Swapping is turned off.
 Update second derivatives using D2CorX and points    2    3
 DE= -3.54D-07 DEPred=-3.58D-07 R= 9.88D-01
 Trust test= 9.88D-01 RLast= 2.00D-03 DXMaxT set to 3.00D-01
 The second derivative matrix:
                          R1
           R1           0.17699
 ITU=  0  1
     Eigenvalues ---    0.17699
 En-DIIS/RFO-DIIS/Sim-DIIS IScMMF=       -3 using points:     3    2
 RFO step:  Lambda=-3.63320485D-14.
 DidBck=F Rises=F RFO-DIIS coefs:    1.00023   -0.00023
 Iteration  1 RMS(Cart)=  0.00000032 RMS(Int)=  0.00000000
 ClnCor:  largest displacement from symmetrization is 0.00D+00 for atom     0.
 Variable       Old X    -DE/DX   Delta X   Delta X   Delta X     New X
                                 (Linear)    (Quad)   (Total)
    R1        3.63221  -0.00000  -0.00000   0.00000  -0.00000   3.63221
         Item               Value     Threshold  Converged?
 Maximum Force            0.000000     0.000450     YES
 RMS     Force            0.000000     0.000300     YES
 Maximum Displacement     0.000000     0.001800     YES
 RMS     Displacement     0.000000     0.001200     YES
 Predicted change in Energy=-1.816911D-14
 Optimization completed.
    -- Stationary point found.
                           ----------------------------
                           !   Optimized Parameters   !
                           ! (Angstroms and Degrees)  !
 --------------------------                            --------------------------
 ! Name  Definition              Value          Derivative Info.                !
 --------------------------------------------------------------------------------
 ! R1    R(1,2)                  1.9221         -DE/DX =    0.0                 !
 --------------------------------------------------------------------------------
 GradGradGradGradGradGradGradGradGradGradGradGradGradGradGradGradGradGrad

                          Input orientation:                          
 ---------------------------------------------------------------------
 Center     Atomic      Atomic             Coordinates (Angstroms)
 Number     Number       Type             X           Y           Z
 ---------------------------------------------------------------------
      1         46           0        8.000000    8.000000    7.038960
      2          9           0        8.000000    8.000000    8.961040
 ---------------------------------------------------------------------
 Stoichiometry    FPd(2)
 Framework group  C*V[C*(FPd)]
 Deg. of freedom     1
 Full point group                 C*V     NOp   4
 Largest Abelian subgroup         C2V     NOp   4
 Largest concise Abelian subgroup C1      NOp   1
                         Standard orientation:                         
 ---------------------------------------------------------------------
 Center     Atomic      Atomic             Coordinates (Angstroms)
 Number     Number       Type             X           Y           Z
 ---------------------------------------------------------------------
      1         46           0        0.000000    0.000000    0.314522
      2          9           0        0.000000    0.000000   -1.607558
 ---------------------------------------------------------------------
 Rotational constants (GHZ):           0.0000000           8.4921126           8.4921126

 **********************************************************************

            Population analysis using the SCF Density.

 **********************************************************************

 Orbital symmetries:
 Alpha Orbitals:
       Occupied  (SG) (SG) (SG) (PI) (PI) (SG) (SG) (PI) (PI) (DLTA)
                 (DLTA) (SG) (PI) (PI)
       Virtual   (SG) (PI) (PI) (SG) (SG) (PI) (PI) (SG) (DLTA)
                 (DLTA) (PI) (PI) (SG) (SG) (DLTA) (DLTA) (PHI)
                 (PHI) (PI) (PI) (PI) (PI) (SG) (SG) (SG) (PI)
                 (PI) (PI) (PI) (DLTA) (DLTA) (SG) (PI) (PI) (SG)
                 (DLTA) (DLTA) (PHI) (PHI) (SG) (DLTA) (DLTA) (PI)
                 (PI) (SG) (PI) (PI) (SG) (DLTA) (DLTA) (PHI) (PHI)
                 (SG) (PI) (PI) (SG) (DLTA) (DLTA) (?A) (?A) (PHI)
                 (PHI) (PI) (PI) (SG) (DLTA) (DLTA) (SG) (PI) (PI)
                 (SG) (PHI) (PHI) (DLTA) (DLTA) (PI) (PI) (PI)
                 (PI) (SG) (DLTA) (DLTA) (PI) (PI) (SG) (SG) (PI)
                 (PI) (SG) (DLTA) (DLTA) (PHI) (PHI) (PI) (PI)
                 (SG) (DLTA) (DLTA) (?A) (PHI) (PHI) (?A) (PI)
                 (PI) (SG) (DLTA) (DLTA) (PHI) (PHI) (?A) (?A)
                 (PI) (PI) (SG) (PHI) (PHI) (DLTA) (DLTA) (PI)
                 (PI) (SG) (SG) (DLTA) (DLTA) (PI) (PI) (SG) (SG)
                 (SG) (SG) (SG)
 Beta  Orbitals:
       Occupied  (SG) (SG) (SG) (PI) (PI) (SG) (SG) (PI) (PI) (DLTA)
                 (DLTA) (PI) (PI)
       Virtual   (SG) (SG) (PI) (PI) (SG) (SG) (PI) (PI) (SG) (DLTA)
                 (DLTA) (PI) (PI) (SG) (SG) (DLTA) (DLTA) (PHI)
                 (PHI) (PI) (PI) (PI) (PI) (SG) (SG) (SG) (PI)
                 (PI) (PI) (PI) (DLTA) (DLTA) (SG) (PI) (PI) (SG)
                 (DLTA) (DLTA) (PHI) (PHI) (SG) (DLTA) (DLTA) (PI)
                 (PI) (SG) (PI) (PI) (SG) (DLTA) (DLTA) (PHI) (PHI)
                 (SG) (PI) (PI) (SG) (DLTA) (DLTA) (PHI) (PHI)
                 (?A) (?A) (PI) (PI) (SG) (DLTA) (DLTA) (PI) (PI)
                 (SG) (SG) (PHI) (PHI) (DLTA) (DLTA) (PI) (PI)
                 (PI) (PI) (SG) (DLTA) (DLTA) (PI) (PI) (SG) (SG)
                 (PI) (PI) (SG) (DLTA) (DLTA) (PHI) (PHI) (PI)
                 (PI) (SG) (PHI) (PHI) (DLTA) (DLTA) (?A) (?A)
                 (PI) (PI) (SG) (PHI) (PHI) (DLTA) (DLTA) (?A)
                 (?A) (PI) (PI) (SG) (PHI) (PHI) (DLTA) (DLTA)
                 (PI) (PI) (SG) (SG) (DLTA) (DLTA) (PI) (PI) (SG)
                 (SG) (SG) (SG) (SG)
 The electronic state is 2-SG.
 Alpha  occ. eigenvalues --  -24.18354  -3.32539  -2.07247  -2.03105  -2.03105
 Alpha  occ. eigenvalues --   -0.98045  -0.36826  -0.30924  -0.30924  -0.23928
 Alpha  occ. eigenvalues --   -0.23928  -0.23032  -0.22112  -0.22112
 Alpha virt. eigenvalues --   -0.13957  -0.02120  -0.02120   0.01649   0.06147
 Alpha virt. eigenvalues --    0.10674   0.10674   0.15789   0.21396   0.21396
 Alpha virt. eigenvalues --    0.23372   0.23372   0.24156   0.36867   0.40461
 Alpha virt. eigenvalues --    0.40461   0.40797   0.40797   0.42485   0.42485
 Alpha virt. eigenvalues --    0.52943   0.52943   0.53735   0.58818   0.67432
 Alpha virt. eigenvalues --    0.68007   0.68007   0.98634   0.98634   0.98653
 Alpha virt. eigenvalues --    0.98653   1.03081   1.16558   1.16558   1.19485
 Alpha virt. eigenvalues --    1.19988   1.19988   1.20047   1.20047   1.26765
 Alpha virt. eigenvalues --    1.43322   1.43322   1.69330   1.69330   1.71422
 Alpha virt. eigenvalues --    1.76607   1.76607   2.37582   2.82186   2.82188
 Alpha virt. eigenvalues --    2.83085   2.83085   2.84005   2.86034   2.86034
 Alpha virt. eigenvalues --    2.95397   2.98644   2.98644   2.99900   2.99907
 Alpha virt. eigenvalues --    3.00257   3.00257   3.07904   3.07904   3.30764
 Alpha virt. eigenvalues --    3.35200   3.35202   3.39161   3.40356   3.40356
 Alpha virt. eigenvalues --    4.10030   4.12019   4.12019   4.17802   4.17802
 Alpha virt. eigenvalues --    4.42985   4.42985   4.69414   4.69414   4.70868
 Alpha virt. eigenvalues --    4.94061   4.94062   5.28618   5.28618   5.40915
 Alpha virt. eigenvalues --    5.88651   6.14919   6.14919   6.94714   7.90511
 Alpha virt. eigenvalues --    7.90520   7.90577   7.90577   7.95751   7.95751
 Alpha virt. eigenvalues --    8.02466   8.67606   8.67625   8.67808   8.67871
 Alpha virt. eigenvalues --    8.67871   8.67873   8.81334   8.81334   9.27609
 Alpha virt. eigenvalues --   11.30480  11.30480  11.30636  11.30636  11.32343
 Alpha virt. eigenvalues --   11.32344  11.34476  11.34476  11.38441  14.43684
 Alpha virt. eigenvalues --   14.43684  14.44672  14.44673  14.60242  14.60242
 Alpha virt. eigenvalues --   14.69595  15.04327  15.63757  15.63757  15.82595
 Alpha virt. eigenvalues --   15.82595  16.27729  31.08504  53.76876 103.11762
 Alpha virt. eigenvalues --  284.13808
  Beta  occ. eigenvalues --  -24.17979  -3.30508  -2.03377  -2.01966  -2.01966
  Beta  occ. eigenvalues --   -0.97212  -0.34639  -0.30441  -0.30441  -0.22224
  Beta  occ. eigenvalues --   -0.22224  -0.21392  -0.21392
  Beta virt. eigenvalues --   -0.18940  -0.12722  -0.01224  -0.01224   0.02082
  Beta virt. eigenvalues --    0.06807   0.11508   0.11508   0.16637   0.22355
  Beta virt. eigenvalues --    0.22355   0.23761   0.23761   0.24802   0.37473
  Beta virt. eigenvalues --    0.40887   0.40887   0.42070   0.42070   0.42782
  Beta virt. eigenvalues --    0.42782   0.53431   0.53431   0.54857   0.59470
  Beta virt. eigenvalues --    0.68489   0.69429   0.69429   0.99192   0.99192
  Beta virt. eigenvalues --    1.00387   1.00387   1.05207   1.18087   1.18087
  Beta virt. eigenvalues --    1.20423   1.20576   1.20576   1.22444   1.22444
  Beta virt. eigenvalues --    1.29020   1.43475   1.43475   1.69918   1.69918
  Beta virt. eigenvalues --    1.72520   1.77288   1.77288   2.39037   2.82564
  Beta virt. eigenvalues --    2.82567   2.84700   2.84700   2.88067   2.88634
  Beta virt. eigenvalues --    2.88634   2.98422   2.99846   2.99846   3.01104
  Beta virt. eigenvalues --    3.01104   3.02944   3.02950   3.09637   3.09637
  Beta virt. eigenvalues --    3.32419   3.36767   3.36769   3.41214   3.41214
  Beta virt. eigenvalues --    3.42356   4.10995   4.12070   4.12070   4.18372
  Beta virt. eigenvalues --    4.18372   4.43999   4.43999   4.70845   4.70845
  Beta virt. eigenvalues --    4.72402   4.94258   4.94258   5.29818   5.29818
  Beta virt. eigenvalues --    5.42414   5.90424   6.15241   6.15241   6.96341
  Beta virt. eigenvalues --    7.90642   7.90651   7.91764   7.91764   7.98787
  Beta virt. eigenvalues --    7.98787   8.07873   8.68001   8.68001   8.69177
  Beta virt. eigenvalues --    8.69195   8.69348   8.69413   8.84731   8.84731
  Beta virt. eigenvalues --    9.32199  11.31214  11.31214  11.31425  11.31425
  Beta virt. eigenvalues --   11.32359  11.32360  11.35614  11.35614  11.39668
  Beta virt. eigenvalues --   14.43778  14.43778  14.45728  14.45729  14.61922
  Beta virt. eigenvalues --   14.61922  14.71677  15.05210  15.63991  15.63991
  Beta virt. eigenvalues --   15.84304  15.84304  16.29989  31.09691  53.77555
  Beta virt. eigenvalues --  103.12604 284.14057
          Condensed to atoms (all electrons):
               1          2
     1  Pd  17.372814   0.165696
     2  F    0.165696   9.295794
          Atomic-Atomic Spin Densities.
               1          2
     1  Pd   0.862410  -0.012758
     2  F   -0.012758   0.163106
 Mulliken charges and spin densities:
               1          2
     1  Pd   0.461490   0.849652
     2  F   -0.461490   0.150348
 Sum of Mulliken charges =  -0.00000   1.00000
 Mulliken charges and spin densities with hydrogens summed into heavy atoms:
               1          2
     1  Pd   0.461490   0.849652
     2  F   -0.461490   0.150348
 Electronic spatial extent (au):  <R**2>=            144.7764
 Charge=             -0.0000 electrons
 Dipole moment (field-independent basis, Debye):
    X=              0.0000    Y=              0.0000    Z=              4.0437  Tot=              4.0437
 Quadrupole moment (field-independent basis, Debye-Ang):
   XX=            -23.6113   YY=            -23.6113   ZZ=            -27.2398
   XY=              0.0000   XZ=              0.0000   YZ=              0.0000
 Traceless Quadrupole moment (field-independent basis, Debye-Ang):
   XX=              1.2095   YY=              1.2095   ZZ=             -2.4190
   XY=              0.0000   XZ=              0.0000   YZ=              0.0000
 Octapole moment (field-independent basis, Debye-Ang**2):
  XXX=              0.0000  YYY=              0.0000  ZZZ=             18.6317  XYY=              0.0000
  XXY=              0.0000  XXZ=              3.1814  XZZ=              0.0000  YZZ=              0.0000
  YYZ=              3.1814  XYZ=              0.0000
 Hexadecapole moment (field-independent basis, Debye-Ang**3):
 XXXX=            -23.5391 YYYY=            -23.5391 ZZZZ=           -123.2699 XXXY=              0.0000
 XXXZ=              0.0000 YYYX=              0.0000 YYYZ=              0.0000 ZZZX=              0.0000
 ZZZY=              0.0000 XXYY=             -7.8464 XXZZ=            -24.0151 YYZZ=            -24.0151
 XXYZ=              0.0000 YYXZ=              0.0000 ZZXY=              0.0000
 N-N= 4.460099057011D+01 E-N=-6.031071316042D+02  KE= 1.479381921679D+02
 Symmetry A1   KE= 1.064437673068D+02
 Symmetry A2   KE= 5.928343074482D+00
 Symmetry B1   KE= 1.778304089331D+01
 Symmetry B2   KE= 1.778304089331D+01
 Symmetry A1   SP= 1.000000000000D+00
 Symmetry A2   SP= 7.385500495677D-15
 Symmetry B1   SP=-4.339544606362D-16
 Symmetry B2   SP=-5.325648505094D-15
                          Isotropic Fermi Contact Couplings
        Atom                 a.u.       MegaHertz       Gauss      10(-4) cm-1
     1  Pd(105             0.00000      -0.00078      -0.00028      -0.00026
     2  F(19)              0.00981      41.27656      14.72850      13.76838
 --------------------------------------------------------
       Center         ----  Spin Dipole Couplings  ----
                      3XX-RR        3YY-RR        3ZZ-RR
 --------------------------------------------------------
     1   Atom       -0.305808     -0.305808      0.611616
     2   Atom       -0.473022     -0.473022      0.946044
 --------------------------------------------------------
                        XY            XZ            YZ
 --------------------------------------------------------
     1   Atom        0.000000      0.000000      0.000000
     2   Atom        0.000000      0.000000      0.000000
 --------------------------------------------------------


 ---------------------------------------------------------------------------------
              Anisotropic Spin Dipole Couplings in Principal Axis System
 ---------------------------------------------------------------------------------

       Atom             a.u.   MegaHertz   Gauss  10(-4) cm-1        Axes

              Baa    -0.3058     7.501     2.677     2.502  1.0000  0.0000  0.0000
     1 Pd(105 Bbb    -0.3058     7.501     2.677     2.502 -0.0000  1.0000  0.0000
              Bcc     0.6116   -15.003    -5.353    -5.004  0.0000  0.0000  1.0000
 
              Baa    -0.4730  -237.564   -84.769   -79.243  1.0000  0.0000  0.0000
     2 F(19)  Bbb    -0.4730  -237.564   -84.769   -79.243 -0.0000  1.0000  0.0000
              Bcc     0.9460   475.128   169.537   158.486  0.0000  0.0000  1.0000
 

 ---------------------------------------------------------------------------------

 Unable to Open any file for archive entry.
 1\1\GINC-TCOPT10\FOpt\UPBEPBE\def2QZVPP\F1Pd1(2)\HUTTER\30-Jul-2021\0\
 \#N UPBEPBE/Def2QZVPP scf=tight Int(Grid=ultrafine) OPT FREQ\\Mol job 
 1\\0,2\Pd,8.,8.,7.038959594\F,8.,8.,8.961040406\\Version=ES64L-G16RevC
 .01\State=2-SG\HF=-227.6983305\S2=0.750479\S2-1=0.\S2A=0.75\RMSD=2.952
 e-09\RMSF=4.630e-08\Dipole=0.,0.,-1.5909108\Quadrupole=0.8992328,0.899
 2328,-1.7984655,0.,0.,0.\PG=C*V [C*(F1Pd1)]\\@
 The archive entry for this job was punched.


 THERE IS NO CURE FOR BIRTH AND DEATH SAVE TO ENJOY THE INTERVAL.

                               -- GEORGE SANTAYANA
 Job cpu time:       0 days  0 hours  5 minutes 45.5 seconds.
 Elapsed time:       0 days  0 hours  0 minutes 44.1 seconds.
 File lengths (MBytes):  RWF=     19 Int=      0 D2E=      0 Chk=      3 Scr=      1
 Normal termination of Gaussian 16 at Fri Jul 30 17:30:06 2021.
 Link1:  Proceeding to internal job step number  2.
 ----------------------------------------------------------------------
 #N Geom=AllCheck Guess=TCheck SCRF=Check GenChk UPBEPBE/def2QZVPP Freq
 ----------------------------------------------------------------------
 1/10=4,29=7,30=1,38=1,40=1/1,3;
 2/12=2,40=1/2;
 3/5=45,7=202,11=2,14=-4,25=1,30=1,70=2,71=2,74=1009,75=-5,116=2,140=1/1,2,3;
 4/5=101/1;
 5/5=2,32=2,38=6,98=1/2;
 8/6=4,10=90,11=11/1;
 11/6=1,8=1,9=11,15=111,16=1/1,2,10;
 10/6=1/2;
 6/7=2,8=2,9=2,10=2,28=1/1;
 7/8=1,10=1,25=1/1,2,3,16;
 1/10=4,30=1/3;
 99//99;
 Structure from the checkpoint file:  "/data/hutter/SMG16/PBE/Gau-83144.chk"
 ---------
 Mol job 1
 ---------
 Charge =  0 Multiplicity = 2
 Redundant internal coordinates found in file.  (old form).
 Pd,0,8.,8.,7.038959594
 F,0,8.,8.,8.961040406
 Recover connectivity data from disk.

 GradGradGradGradGradGradGradGradGradGradGradGradGradGradGradGradGradGrad
 Berny optimization.
 Initialization pass.
                           ----------------------------
                           !    Initial Parameters    !
                           ! (Angstroms and Degrees)  !
 --------------------------                            --------------------------
 ! Name  Definition              Value          Derivative Info.                !
 --------------------------------------------------------------------------------
 ! R1    R(1,2)                  1.9221         calculate D2E/DX2 analytically  !
 --------------------------------------------------------------------------------
 Trust Radius=3.00D-01 FncErr=1.00D-07 GrdErr=1.00D-07 EigMax=2.50D+02 EigMin=1.00D-04
 Number of steps in this run=      2 maximum allowed number of steps=      2.
 GradGradGradGradGradGradGradGradGradGradGradGradGradGradGradGradGradGrad

                          Input orientation:                          
 ---------------------------------------------------------------------
 Center     Atomic      Atomic             Coordinates (Angstroms)
 Number     Number       Type             X           Y           Z
 ---------------------------------------------------------------------
      1         46           0        8.000000    8.000000    7.038960
      2          9           0        8.000000    8.000000    8.961040
 ---------------------------------------------------------------------
 Stoichiometry    FPd(2)
 Framework group  C*V[C*(FPd)]
 Deg. of freedom     1
 Full point group                 C*V     NOp   4
 Largest Abelian subgroup         C2V     NOp   4
 Largest concise Abelian subgroup C1      NOp   1
                         Standard orientation:                         
 ---------------------------------------------------------------------
 Center     Atomic      Atomic             Coordinates (Angstroms)
 Number     Number       Type             X           Y           Z
 ---------------------------------------------------------------------
      1         46           0        0.000000    0.000000    0.314522
      2          9           0        0.000000    0.000000   -1.607558
 ---------------------------------------------------------------------
 Rotational constants (GHZ):           0.0000000           8.4921126           8.4921126
 Standard basis: def2QZVPP (5D, 7F)
 There are    80 symmetry adapted cartesian basis functions of A1  symmetry.
 There are    22 symmetry adapted cartesian basis functions of A2  symmetry.
 There are    43 symmetry adapted cartesian basis functions of B1  symmetry.
 There are    43 symmetry adapted cartesian basis functions of B2  symmetry.
 There are    58 symmetry adapted basis functions of A1  symmetry.
 There are    19 symmetry adapted basis functions of A2  symmetry.
 There are    34 symmetry adapted basis functions of B1  symmetry.
 There are    34 symmetry adapted basis functions of B2  symmetry.
   145 basis functions,   237 primitive gaussians,   188 cartesian basis functions
    14 alpha electrons       13 beta electrons
       nuclear repulsion energy        44.6009905701 Hartrees.
 NAtoms=    2 NActive=    2 NUniq=    2 SFac= 1.00D+00 NAtFMM=   60 NAOKFM=F Big=F
 Integral buffers will be    131072 words long.
 Raffenetti 2 integral format.
 Two-electron integral symmetry is turned on.
 One-electron integrals computed using PRISM.
   4 Symmetry operations used in ECPInt.
 ECPInt:  NShTT=     780 NPrTT=    1824 LenC2=     778 LenP2D=    1718.
 LDataN:  DoStor=T MaxTD1= 8 Len=  415
 NBasis=   145 RedAO= T EigKep=  2.68D-03  NBF=    58    19    34    34
 NBsUse=   145 1.00D-06 EigRej= -1.00D+00 NBFU=    58    19    34    34
 Defaulting to unpruned grid for atomic number  46.
 Initial guess from the checkpoint file:  "/data/hutter/SMG16/PBE/Gau-83144.chk"
 B after Tr=     0.000000    0.000000    0.000000
         Rot=    1.000000    0.000000    0.000000    0.000000 Ang=   0.00 deg.
 Initial guess orbital symmetries:
 Alpha Orbitals:
       Occupied  (SG) (SG) (SG) (PI) (PI) (SG) (SG) (PI) (PI) (DLTA)
                 (DLTA) (SG) (PI) (PI)
       Virtual   (SG) (PI) (PI) (SG) (SG) (PI) (PI) (SG) (DLTA)
                 (DLTA) (PI) (PI) (SG) (SG) (DLTA) (DLTA) (PHI)
                 (PHI) (PI) (PI) (PI) (PI) (SG) (SG) (SG) (PI)
                 (PI) (PI) (PI) (DLTA) (DLTA) (SG) (PI) (PI) (SG)
                 (DLTA) (DLTA) (PHI) (PHI) (SG) (DLTA) (DLTA) (PI)
                 (PI) (SG) (PI) (PI) (SG) (DLTA) (DLTA) (PHI) (PHI)
                 (SG) (PI) (PI) (SG) (DLTA) (DLTA) (?A) (?A) (PHI)
                 (PHI) (PI) (PI) (SG) (DLTA) (DLTA) (SG) (PI) (PI)
                 (SG) (PHI) (PHI) (DLTA) (DLTA) (PI) (PI) (PI)
                 (PI) (SG) (DLTA) (DLTA) (PI) (PI) (SG) (SG) (PI)
                 (PI) (SG) (DLTA) (DLTA) (PHI) (PHI) (PI) (PI)
                 (SG) (DLTA) (DLTA) (?A) (PHI) (PHI) (?A) (PI)
                 (PI) (SG) (DLTA) (DLTA) (PHI) (PHI) (?A) (?A)
                 (PI) (PI) (SG) (PHI) (PHI) (DLTA) (DLTA) (PI)
                 (PI) (SG) (SG) (DLTA) (DLTA) (PI) (PI) (SG) (SG)
                 (SG) (SG) (SG)
 Beta  Orbitals:
       Occupied  (SG) (SG) (SG) (PI) (PI) (SG) (SG) (PI) (PI) (DLTA)
                 (DLTA) (PI) (PI)
       Virtual   (SG) (SG) (PI) (PI) (SG) (SG) (PI) (PI) (SG) (DLTA)
                 (DLTA) (PI) (PI) (SG) (SG) (DLTA) (DLTA) (PHI)
                 (PHI) (PI) (PI) (PI) (PI) (SG) (SG) (SG) (PI)
                 (PI) (PI) (PI) (DLTA) (DLTA) (SG) (PI) (PI) (SG)
                 (DLTA) (DLTA) (PHI) (PHI) (SG) (DLTA) (DLTA) (PI)
                 (PI) (SG) (PI) (PI) (SG) (DLTA) (DLTA) (PHI) (PHI)
                 (SG) (PI) (PI) (SG) (DLTA) (DLTA) (PHI) (PHI)
                 (?A) (?A) (PI) (PI) (SG) (DLTA) (DLTA) (PI) (PI)
                 (SG) (SG) (PHI) (PHI) (DLTA) (DLTA) (PI) (PI)
                 (PI) (PI) (SG) (DLTA) (DLTA) (PI) (PI) (SG) (SG)
                 (PI) (PI) (SG) (DLTA) (DLTA) (PHI) (PHI) (PI)
                 (PI) (SG) (PHI) (PHI) (DLTA) (DLTA) (?A) (?A)
                 (PI) (PI) (SG) (PHI) (PHI) (DLTA) (DLTA) (?A)
                 (?A) (PI) (PI) (SG) (PHI) (PHI) (DLTA) (DLTA)
                 (PI) (PI) (SG) (SG) (DLTA) (DLTA) (PI) (PI) (SG)
                 (SG) (SG) (SG) (SG)
 Initial guess <Sx>= 0.0000 <Sy>= 0.0000 <Sz>= 0.5000 <S**2>= 0.7505 S= 0.5002
 Keep J ints in memory in symmetry-blocked form, NReq=70240301.
 Requested convergence on RMS density matrix=1.00D-08 within 128 cycles.
 Requested convergence on MAX density matrix=1.00D-06.
 Requested convergence on             energy=1.00D-06.
 No special actions if energy rises.
 Defaulting to unpruned grid for atomic number  46.
 Defaulting to unpruned grid for atomic number  46.
 Defaulting to unpruned grid for atomic number  46.
 Defaulting to unpruned grid for atomic number  46.
 Defaulting to unpruned grid for atomic number  46.
 Defaulting to unpruned grid for atomic number  46.
 Defaulting to unpruned grid for atomic number  46.
 Defaulting to unpruned grid for atomic number  46.
 SCF Done:  E(UPBE-PBE) =  -227.698330469     A.U. after    1 cycles
            NFock=  1  Conv=0.95D-09     -V/T= 2.5391
 <Sx>= 0.0000 <Sy>= 0.0000 <Sz>= 0.5000 <S**2>= 0.7505 S= 0.5002
 <L.S>=  0.00000000000    
 Annihilation of the first spin contaminant:
 S**2 before annihilation     0.7505,   after     0.7500
 DoSCS=F DFT=T ScalE2(SS,OS)=  1.000000  1.000000
 Range of M.O.s used for correlation:     1   145
 NBasis=   145 NAE=    14 NBE=    13 NFC=     0 NFV=     0
 NROrb=    145 NOA=    14 NOB=    13 NVA=   131 NVB=   132

 **** Warning!!: The smallest alpha delta epsilon is  0.81544964D-01


 **** Warning!!: The smallest beta delta epsilon is  0.24520189D-01

   4 Symmetry operations used in ECPInt.
 ECPInt:  NShTT=     780 NPrTT=    1824 LenC2=     778 LenP2D=    1718.
 LDataN:  DoStor=T MaxTD1= 9 Len=  602
 Symmetrizing basis deriv contribution to polar:
 IMax=3 JMax=2 DiffMx= 0.00D+00
 G2DrvN: will do     3 centers at a time, making    1 passes.
 Calling FoFCou, ICntrl=  3507 FMM=F I1Cent=   0 AccDes= 0.00D+00.
 Defaulting to unpruned grid for atomic number  46.
 Defaulting to unpruned grid for atomic number  46.
 Defaulting to unpruned grid for atomic number  46.
 Defaulting to unpruned grid for atomic number  46.
 Defaulting to unpruned grid for atomic number  46.
 Defaulting to unpruned grid for atomic number  46.
 Defaulting to unpruned grid for atomic number  46.
 Defaulting to unpruned grid for atomic number  46.
 End of G2Drv F.D. properties file   721 does not exist.
 End of G2Drv F.D. properties file   722 does not exist.
 End of G2Drv F.D. properties file   788 does not exist.
          IDoAtm=11
          Differentiating once with respect to electric field.
                with respect to dipole field.
          Differentiating once with respect to nuclear coordinates.
 Defaulting to unpruned grid for atomic number  46.
 Keep J ints in memory in symmetry-blocked form, NReq=70241849.
 Defaulting to unpruned grid for atomic number  46.
 Defaulting to unpruned grid for atomic number  46.
 Defaulting to unpruned grid for atomic number  46.
 Defaulting to unpruned grid for atomic number  46.
 Defaulting to unpruned grid for atomic number  46.
 Defaulting to unpruned grid for atomic number  46.
 Defaulting to unpruned grid for atomic number  46.
 Defaulting to unpruned grid for atomic number  46.
          There are     9 degrees of freedom in the 1st order CPHF.  IDoFFX=6 NUNeed=     3.
      6 vectors produced by pass  0 Test12= 3.94D-14 1.11D-08 XBig12= 1.59D+02 7.05D+00.
 AX will form     6 AO Fock derivatives at one time.
      6 vectors produced by pass  1 Test12= 3.94D-14 1.11D-08 XBig12= 1.24D+02 3.30D+00.
      6 vectors produced by pass  2 Test12= 3.94D-14 1.11D-08 XBig12= 1.09D+01 7.13D-01.
      6 vectors produced by pass  3 Test12= 3.94D-14 1.11D-08 XBig12= 1.71D+00 5.79D-01.
      6 vectors produced by pass  4 Test12= 3.94D-14 1.11D-08 XBig12= 1.83D-01 1.62D-01.
      6 vectors produced by pass  5 Test12= 3.94D-14 1.11D-08 XBig12= 3.69D-03 1.75D-02.
      6 vectors produced by pass  6 Test12= 3.94D-14 1.11D-08 XBig12= 4.77D-05 1.39D-03.
      6 vectors produced by pass  7 Test12= 3.94D-14 1.11D-08 XBig12= 6.91D-07 2.16D-04.
      4 vectors produced by pass  8 Test12= 3.94D-14 1.11D-08 XBig12= 6.71D-09 1.54D-05.
      4 vectors produced by pass  9 Test12= 3.94D-14 1.11D-08 XBig12= 2.37D-11 1.69D-06.
      1 vectors produced by pass 10 Test12= 3.94D-14 1.11D-08 XBig12= 8.25D-14 6.41D-08.
 InvSVY:  IOpt=1 It=  1 EMax= 2.22D-16
 Solved reduced A of dimension    57 with     6 vectors.
 Isotropic polarizability for W=    0.000000       30.33 Bohr**3.
 End of Minotr F.D. properties file   721 does not exist.
 End of Minotr F.D. properties file   722 does not exist.
 End of Minotr F.D. properties file   788 does not exist.

 **********************************************************************

            Population analysis using the SCF Density.

 **********************************************************************

 Orbital symmetries:
 Alpha Orbitals:
       Occupied  (SG) (SG) (SG) (PI) (PI) (SG) (SG) (PI) (PI) (DLTA)
                 (DLTA) (SG) (PI) (PI)
       Virtual   (SG) (PI) (PI) (SG) (SG) (PI) (PI) (SG) (DLTA)
                 (DLTA) (PI) (PI) (SG) (SG) (DLTA) (DLTA) (PHI)
                 (PHI) (PI) (PI) (PI) (PI) (SG) (SG) (SG) (PI)
                 (PI) (PI) (PI) (DLTA) (DLTA) (SG) (PI) (PI) (SG)
                 (DLTA) (DLTA) (PHI) (PHI) (SG) (DLTA) (DLTA) (PI)
                 (PI) (SG) (PI) (PI) (SG) (DLTA) (DLTA) (PHI) (PHI)
                 (SG) (PI) (PI) (SG) (DLTA) (DLTA) (?A) (?A) (PHI)
                 (PHI) (PI) (PI) (SG) (DLTA) (DLTA) (SG) (PI) (PI)
                 (SG) (PHI) (PHI) (DLTA) (DLTA) (PI) (PI) (PI)
                 (PI) (SG) (DLTA) (DLTA) (PI) (PI) (SG) (SG) (PI)
                 (PI) (SG) (DLTA) (DLTA) (PHI) (PHI) (PI) (PI)
                 (SG) (DLTA) (DLTA) (?A) (PHI) (PHI) (?A) (PI)
                 (PI) (SG) (DLTA) (DLTA) (PHI) (PHI) (?A) (?A)
                 (PI) (PI) (SG) (PHI) (PHI) (DLTA) (DLTA) (PI)
                 (PI) (SG) (SG) (DLTA) (DLTA) (PI) (PI) (SG) (SG)
                 (SG) (SG) (SG)
 Beta  Orbitals:
       Occupied  (SG) (SG) (SG) (PI) (PI) (SG) (SG) (PI) (PI) (DLTA)
                 (DLTA) (PI) (PI)
       Virtual   (SG) (SG) (PI) (PI) (SG) (SG) (PI) (PI) (SG) (DLTA)
                 (DLTA) (PI) (PI) (SG) (SG) (DLTA) (DLTA) (PHI)
                 (PHI) (PI) (PI) (PI) (PI) (SG) (SG) (SG) (PI)
                 (PI) (PI) (PI) (DLTA) (DLTA) (SG) (PI) (PI) (SG)
                 (DLTA) (DLTA) (PHI) (PHI) (SG) (DLTA) (DLTA) (PI)
                 (PI) (SG) (PI) (PI) (SG) (DLTA) (DLTA) (PHI) (PHI)
                 (SG) (PI) (PI) (SG) (DLTA) (DLTA) (PHI) (PHI)
                 (?A) (?A) (PI) (PI) (SG) (DLTA) (DLTA) (PI) (PI)
                 (SG) (SG) (PHI) (PHI) (DLTA) (DLTA) (PI) (PI)
                 (PI) (PI) (SG) (DLTA) (DLTA) (PI) (PI) (SG) (SG)
                 (PI) (PI) (SG) (DLTA) (DLTA) (PHI) (PHI) (PI)
                 (PI) (SG) (PHI) (PHI) (DLTA) (DLTA) (?A) (?A)
                 (PI) (PI) (SG) (PHI) (PHI) (DLTA) (DLTA) (?A)
                 (?A) (PI) (PI) (SG) (PHI) (PHI) (DLTA) (DLTA)
                 (PI) (PI) (SG) (SG) (DLTA) (DLTA) (PI) (PI) (SG)
                 (SG) (SG) (SG) (SG)
 The electronic state is 2-SG.
 Alpha  occ. eigenvalues --  -24.18354  -3.32539  -2.07247  -2.03105  -2.03105
 Alpha  occ. eigenvalues --   -0.98045  -0.36826  -0.30924  -0.30924  -0.23928
 Alpha  occ. eigenvalues --   -0.23928  -0.23032  -0.22112  -0.22112
 Alpha virt. eigenvalues --   -0.13957  -0.02120  -0.02120   0.01649   0.06147
 Alpha virt. eigenvalues --    0.10674   0.10674   0.15789   0.21396   0.21396
 Alpha virt. eigenvalues --    0.23372   0.23372   0.24156   0.36867   0.40461
 Alpha virt. eigenvalues --    0.40461   0.40797   0.40797   0.42485   0.42485
 Alpha virt. eigenvalues --    0.52943   0.52943   0.53735   0.58818   0.67432
 Alpha virt. eigenvalues --    0.68007   0.68007   0.98634   0.98634   0.98653
 Alpha virt. eigenvalues --    0.98653   1.03081   1.16558   1.16558   1.19485
 Alpha virt. eigenvalues --    1.19988   1.19988   1.20047   1.20047   1.26765
 Alpha virt. eigenvalues --    1.43322   1.43322   1.69330   1.69330   1.71422
 Alpha virt. eigenvalues --    1.76607   1.76607   2.37582   2.82186   2.82188
 Alpha virt. eigenvalues --    2.83085   2.83085   2.84005   2.86034   2.86034
 Alpha virt. eigenvalues --    2.95397   2.98644   2.98644   2.99900   2.99907
 Alpha virt. eigenvalues --    3.00257   3.00257   3.07904   3.07904   3.30764
 Alpha virt. eigenvalues --    3.35200   3.35202   3.39161   3.40356   3.40356
 Alpha virt. eigenvalues --    4.10030   4.12019   4.12019   4.17802   4.17802
 Alpha virt. eigenvalues --    4.42985   4.42985   4.69414   4.69414   4.70868
 Alpha virt. eigenvalues --    4.94061   4.94062   5.28618   5.28618   5.40915
 Alpha virt. eigenvalues --    5.88651   6.14919   6.14919   6.94714   7.90511
 Alpha virt. eigenvalues --    7.90520   7.90577   7.90577   7.95751   7.95751
 Alpha virt. eigenvalues --    8.02466   8.67606   8.67625   8.67808   8.67871
 Alpha virt. eigenvalues --    8.67871   8.67873   8.81334   8.81334   9.27609
 Alpha virt. eigenvalues --   11.30480  11.30480  11.30636  11.30636  11.32343
 Alpha virt. eigenvalues --   11.32344  11.34476  11.34476  11.38441  14.43684
 Alpha virt. eigenvalues --   14.43684  14.44672  14.44673  14.60242  14.60242
 Alpha virt. eigenvalues --   14.69595  15.04327  15.63757  15.63757  15.82595
 Alpha virt. eigenvalues --   15.82595  16.27729  31.08504  53.76876 103.11762
 Alpha virt. eigenvalues --  284.13808
  Beta  occ. eigenvalues --  -24.17979  -3.30508  -2.03377  -2.01966  -2.01966
  Beta  occ. eigenvalues --   -0.97212  -0.34639  -0.30441  -0.30441  -0.22224
  Beta  occ. eigenvalues --   -0.22224  -0.21392  -0.21392
  Beta virt. eigenvalues --   -0.18940  -0.12722  -0.01224  -0.01224   0.02082
  Beta virt. eigenvalues --    0.06807   0.11508   0.11508   0.16637   0.22355
  Beta virt. eigenvalues --    0.22355   0.23761   0.23761   0.24802   0.37473
  Beta virt. eigenvalues --    0.40887   0.40887   0.42070   0.42070   0.42782
  Beta virt. eigenvalues --    0.42782   0.53431   0.53431   0.54857   0.59470
  Beta virt. eigenvalues --    0.68489   0.69429   0.69429   0.99192   0.99192
  Beta virt. eigenvalues --    1.00387   1.00387   1.05207   1.18087   1.18087
  Beta virt. eigenvalues --    1.20423   1.20576   1.20576   1.22444   1.22444
  Beta virt. eigenvalues --    1.29020   1.43475   1.43475   1.69918   1.69918
  Beta virt. eigenvalues --    1.72520   1.77288   1.77288   2.39037   2.82564
  Beta virt. eigenvalues --    2.82567   2.84700   2.84700   2.88067   2.88634
  Beta virt. eigenvalues --    2.88634   2.98422   2.99846   2.99846   3.01104
  Beta virt. eigenvalues --    3.01104   3.02944   3.02950   3.09637   3.09637
  Beta virt. eigenvalues --    3.32419   3.36767   3.36769   3.41214   3.41214
  Beta virt. eigenvalues --    3.42356   4.10995   4.12070   4.12070   4.18372
  Beta virt. eigenvalues --    4.18372   4.43999   4.43999   4.70845   4.70845
  Beta virt. eigenvalues --    4.72402   4.94258   4.94258   5.29818   5.29818
  Beta virt. eigenvalues --    5.42414   5.90424   6.15241   6.15241   6.96341
  Beta virt. eigenvalues --    7.90642   7.90651   7.91764   7.91764   7.98787
  Beta virt. eigenvalues --    7.98787   8.07873   8.68001   8.68001   8.69177
  Beta virt. eigenvalues --    8.69195   8.69348   8.69413   8.84731   8.84731
  Beta virt. eigenvalues --    9.32199  11.31214  11.31214  11.31425  11.31425
  Beta virt. eigenvalues --   11.32359  11.32360  11.35614  11.35614  11.39668
  Beta virt. eigenvalues --   14.43778  14.43778  14.45728  14.45729  14.61922
  Beta virt. eigenvalues --   14.61922  14.71677  15.05210  15.63991  15.63991
  Beta virt. eigenvalues --   15.84304  15.84304  16.29989  31.09691  53.77555
  Beta virt. eigenvalues --  103.12604 284.14057
          Condensed to atoms (all electrons):
               1          2
     1  Pd  17.372814   0.165696
     2  F    0.165696   9.295794
          Atomic-Atomic Spin Densities.
               1          2
     1  Pd   0.862410  -0.012758
     2  F   -0.012758   0.163106
 Mulliken charges and spin densities:
               1          2
     1  Pd   0.461490   0.849652
     2  F   -0.461490   0.150348
 Sum of Mulliken charges =  -0.00000   1.00000
 Mulliken charges and spin densities with hydrogens summed into heavy atoms:
               1          2
     1  Pd   0.461490   0.849652
     2  F   -0.461490   0.150348
 APT charges:
               1
     1  Pd   0.586989
     2  F   -0.586989
 Sum of APT charges =   0.00000
 APT charges with hydrogens summed into heavy atoms:
               1
     1  Pd   0.586989
     2  F   -0.586989
 Electronic spatial extent (au):  <R**2>=            144.7764
 Charge=              0.0000 electrons
 Dipole moment (field-independent basis, Debye):
    X=              0.0000    Y=              0.0000    Z=              4.0437  Tot=              4.0437
 Quadrupole moment (field-independent basis, Debye-Ang):
   XX=            -23.6113   YY=            -23.6113   ZZ=            -27.2398
   XY=              0.0000   XZ=              0.0000   YZ=              0.0000
 Traceless Quadrupole moment (field-independent basis, Debye-Ang):
   XX=              1.2095   YY=              1.2095   ZZ=             -2.4190
   XY=              0.0000   XZ=              0.0000   YZ=              0.0000
 Octapole moment (field-independent basis, Debye-Ang**2):
  XXX=              0.0000  YYY=              0.0000  ZZZ=             18.6317  XYY=              0.0000
  XXY=              0.0000  XXZ=              3.1814  XZZ=              0.0000  YZZ=              0.0000
  YYZ=              3.1814  XYZ=              0.0000
 Hexadecapole moment (field-independent basis, Debye-Ang**3):
 XXXX=            -23.5391 YYYY=            -23.5391 ZZZZ=           -123.2699 XXXY=              0.0000
 XXXZ=              0.0000 YYYX=              0.0000 YYYZ=              0.0000 ZZZX=              0.0000
 ZZZY=              0.0000 XXYY=             -7.8464 XXZZ=            -24.0151 YYZZ=            -24.0151
 XXYZ=              0.0000 YYXZ=              0.0000 ZZXY=              0.0000
 N-N= 4.460099057011D+01 E-N=-6.031071346181D+02  KE= 1.479381932994D+02
 Symmetry A1   KE= 1.064437677153D+02
 Symmetry A2   KE= 5.928343169565D+00
 Symmetry B1   KE= 1.778304120724D+01
 Symmetry B2   KE= 1.778304120724D+01
 Symmetry A1   SP= 1.000000000000D+00
 Symmetry A2   SP=-1.407128401429D-15
 Symmetry B1   SP= 2.526086876839D-15
 Symmetry B2   SP= 1.723997497766D-15
  Exact polarizability:      28.291       0.000      28.291       0.000       0.000      34.407
 Approx polarizability:      46.423      -0.000      46.423      -0.000      -0.000      71.620
                          Isotropic Fermi Contact Couplings
        Atom                 a.u.       MegaHertz       Gauss      10(-4) cm-1
     1  Pd(105             0.00000      -0.00078      -0.00028      -0.00026
     2  F(19)              0.00981      41.27625      14.72839      13.76827
 --------------------------------------------------------
       Center         ----  Spin Dipole Couplings  ----
                      3XX-RR        3YY-RR        3ZZ-RR
 --------------------------------------------------------
     1   Atom       -0.305808     -0.305808      0.611616
     2   Atom       -0.473022     -0.473022      0.946044
 --------------------------------------------------------
                        XY            XZ            YZ
 --------------------------------------------------------
     1   Atom        0.000000      0.000000      0.000000
     2   Atom        0.000000      0.000000      0.000000
 --------------------------------------------------------


 ---------------------------------------------------------------------------------
              Anisotropic Spin Dipole Couplings in Principal Axis System
 ---------------------------------------------------------------------------------

       Atom             a.u.   MegaHertz   Gauss  10(-4) cm-1        Axes

              Baa    -0.3058     7.501     2.677     2.502 -0.0000  1.0000  0.0000
     1 Pd(105 Bbb    -0.3058     7.501     2.677     2.502  1.0000  0.0000  0.0000
              Bcc     0.6116   -15.003    -5.353    -5.004  0.0000  0.0000  1.0000
 
              Baa    -0.4730  -237.564   -84.769   -79.243 -0.0000  1.0000  0.0000
     2 F(19)  Bbb    -0.4730  -237.564   -84.769   -79.243  1.0000  0.0000  0.0000
              Bcc     0.9460   475.128   169.537   158.486  0.0000  0.0000  1.0000
 

 ---------------------------------------------------------------------------------

   4 Symmetry operations used in ECPInt.
 ECPInt:  NShTT=     780 NPrTT=    1824 LenC2=     778 LenP2D=    1718.
 LDataN:  DoStor=T MaxTD1=10 Len=  848
 Calling FoFJK, ICntrl=    100527 FMM=F ISym2X=1 I1Cent= 0 IOpClX= 0 NMat=1 NMatS=1 NMatT=0.
 Defaulting to unpruned grid for atomic number  46.
 Defaulting to unpruned grid for atomic number  46.
 Defaulting to unpruned grid for atomic number  46.
 Defaulting to unpruned grid for atomic number  46.
 Defaulting to unpruned grid for atomic number  46.
 Defaulting to unpruned grid for atomic number  46.
 Defaulting to unpruned grid for atomic number  46.
 Defaulting to unpruned grid for atomic number  46.
 Full mass-weighted force constant matrix:
 Low frequencies ---   -0.0006   -0.0006   -0.0005   13.4606   13.4606  539.6341
 Diagonal vibrational polarizability:
        0.0000000       0.0000000       4.3800140
 Harmonic frequencies (cm**-1), IR intensities (KM/Mole), Raman scattering
 activities (A**4/AMU), depolarization ratios for plane and unpolarized
 incident light, reduced masses (AMU), force constants (mDyne/A),
 and normal coordinates:
                      1
                     SG
 Frequencies --    539.6341
 Red. masses --     21.7080
 Frc consts  --      3.7245
 IR Inten    --     47.3959
  Atom  AN      X      Y      Z
     1  46    -0.00  -0.00  -0.18
     2   9    -0.00  -0.00   0.98

 -------------------
 - Thermochemistry -
 -------------------
 Temperature   298.150 Kelvin.  Pressure   1.00000 Atm.
 Atom     1 has atomic number 46 and mass 105.90320
 Atom     2 has atomic number  9 and mass  18.99840
 Molecular mass:   124.90160 amu.
 Principal axes and moments of inertia in atomic units:
                           1         2         3
     Eigenvalues --     0.00000 212.51970 212.51970
           X            0.00000  -0.00000   1.00000
           Y            0.00000   1.00000   0.00000
           Z            1.00000   0.00000   0.00000
 This molecule is a prolate symmetric top.
 Rotational symmetry number  1.
 Rotational temperature (Kelvin)      0.40756
 Rotational constant (GHZ):           8.492113
 Zero-point vibrational energy       3227.7 (Joules/Mol)
                                    0.77145 (Kcal/Mol)
 Warning -- explicit consideration of   1 degrees of freedom as
           vibrations may cause significant error
 Vibrational temperatures:    776.41
          (Kelvin)
 
 Zero-point correction=                           0.001229 (Hartree/Particle)
 Thermal correction to Energy=                    0.003786
 Thermal correction to Enthalpy=                  0.004730
 Thermal correction to Gibbs Free Energy=        -0.022550
 Sum of electronic and zero-point Energies=           -227.697101
 Sum of electronic and thermal Energies=              -227.694544
 Sum of electronic and thermal Enthalpies=            -227.693600
 Sum of electronic and thermal Free Energies=         -227.720881
 
                     E (Thermal)             CV                S
                      KCal/Mol        Cal/Mol-Kelvin    Cal/Mol-Kelvin
 Total                    2.376              6.130             57.417
 Electronic               0.000              0.000              1.377
 Translational            0.889              2.981             40.381
 Rotational               0.592              1.987             15.093
 Vibrational              0.895              1.162              0.566
 Vibration     1          0.895              1.162              0.566
                       Q            Log10(Q)             Ln(Q)
 Total Bot       0.235767D+11         10.372483         23.883525
 Total V=0       0.866876D+11         10.937957         25.185577
 Vib (Bot)       0.293698D+00         -0.532099         -1.225203
 Vib (Bot)    1  0.293698D+00         -0.532099         -1.225203
 Vib (V=0)       0.107988D+01          0.033375          0.076848
 Vib (V=0)    1  0.107988D+01          0.033375          0.076848
 Electronic      0.200000D+01          0.301030          0.693147
 Translational   0.548663D+08          7.739306         17.820410
 Rotational      0.731554D+03          2.864246          6.595171
 ***** Axes restored to original set *****
 -------------------------------------------------------------------
 Center     Atomic                   Forces (Hartrees/Bohr)
 Number     Number              X              Y              Z
 -------------------------------------------------------------------
      1       46          -0.000000000   -0.000000000    0.000000044
      2        9          -0.000000000   -0.000000000   -0.000000044
 -------------------------------------------------------------------
 Cartesian Forces:  Max     0.000000044 RMS     0.000000026
 FormGI is forming the generalized inverse of G from B-inverse, IUseBI=4.

 GradGradGradGradGradGradGradGradGradGradGradGradGradGradGradGradGradGrad
 Berny optimization.
 Internal  Forces:  Max     0.000000044 RMS     0.000000044
 Search for a local minimum.
 Step number   1 out of a maximum of    2
 All quantities printed in internal units (Hartrees-Bohrs-Radians)
 Second derivative matrix not updated -- analytic derivatives used.
 The second derivative matrix:
                          R1
           R1           0.17752
 ITU=  0
     Eigenvalues ---    0.17752
 Angle between quadratic step and forces=  90.00 degrees.
 Linear search not attempted -- first point.
 Iteration  1 RMS(Cart)=  0.00000018 RMS(Int)=  0.00000000
 ClnCor:  largest displacement from symmetrization is 0.00D+00 for atom     0.
 Variable       Old X    -DE/DX   Delta X   Delta X   Delta X     New X
                                 (Linear)    (Quad)   (Total)
    R1        3.63221  -0.00000   0.00000  -0.00000  -0.00000   3.63221
         Item               Value     Threshold  Converged?
 Maximum Force            0.000000     0.000450     YES
 RMS     Force            0.000000     0.000300     YES
 Maximum Displacement     0.000000     0.001800     YES
 RMS     Displacement     0.000000     0.001200     YES
 Predicted change in Energy=-5.559005D-15
 Optimization completed.
    -- Stationary point found.
                           ----------------------------
                           !   Optimized Parameters   !
                           ! (Angstroms and Degrees)  !
 --------------------------                            --------------------------
 ! Name  Definition              Value          Derivative Info.                !
 --------------------------------------------------------------------------------
 ! R1    R(1,2)                  1.9221         -DE/DX =    0.0                 !
 --------------------------------------------------------------------------------
 GradGradGradGradGradGradGradGradGradGradGradGradGradGradGradGradGradGrad


 ----------------------------------------------------------------------

 Electric dipole moment (input orientation):
 (Debye = 10**-18 statcoulomb cm , SI units = C m)
                  (au)            (Debye)         (10**-30 SI)
   Tot        0.159091D+01      0.404370D+01      0.134883D+02
   x          0.000000D+00      0.000000D+00      0.000000D+00
   y          0.000000D+00      0.000000D+00      0.000000D+00
   z         -0.159091D+01     -0.404370D+01     -0.134883D+02

 Dipole polarizability, Alpha (input orientation).
 (esu units = cm**3 , SI units = C**2 m**2 J**-1)
 Alpha(0;0):
               (au)            (10**-24 esu)      (10**-40 SI)
   iso        0.303298D+02      0.449441D+01      0.500070D+01
   aniso      0.611562D+01      0.906241D+00      0.100833D+01
   xx         0.282912D+02      0.419233D+01      0.466459D+01
   yx         0.000000D+00      0.000000D+00      0.000000D+00
   yy         0.282912D+02      0.419233D+01      0.466459D+01
   zx         0.000000D+00      0.000000D+00      0.000000D+00
   zy         0.000000D+00      0.000000D+00      0.000000D+00
   zz         0.344068D+02      0.509857D+01      0.567292D+01

 ----------------------------------------------------------------------

 Dipole orientation:
    46         15.11780900        -15.11780900        -13.30170583
     9         15.11780900        -15.11780900        -16.93391216

 Electric dipole moment (dipole orientation):
 (Debye = 10**-18 statcoulomb cm , SI units = C m)
                  (au)            (Debye)         (10**-30 SI)
   Tot        0.159091D+01      0.404370D+01      0.134883D+02
   x          0.000000D+00      0.000000D+00      0.000000D+00
   y          0.000000D+00      0.000000D+00      0.000000D+00
   z          0.159091D+01      0.404370D+01      0.134883D+02

 Dipole polarizability, Alpha (dipole orientation).
 (esu units = cm**3 , SI units = C**2 m**2 J**-1)
 Alpha(0;0):
               (au)            (10**-24 esu)      (10**-40 SI)
   iso        0.303298D+02      0.449441D+01      0.500070D+01
   aniso      0.611562D+01      0.906241D+00      0.100833D+01
   xx         0.282912D+02      0.419233D+01      0.466459D+01
   yx         0.000000D+00      0.000000D+00      0.000000D+00
   yy         0.282912D+02      0.419233D+01      0.466459D+01
   zx         0.000000D+00      0.000000D+00      0.000000D+00
   zy         0.000000D+00      0.000000D+00      0.000000D+00
   zz         0.344068D+02      0.509857D+01      0.567292D+01

 ----------------------------------------------------------------------
 Unable to Open any file for archive entry.
 1\1\GINC-TCOPT10\Freq\UPBEPBE\def2QZVPP\F1Pd1(2)\HUTTER\30-Jul-2021\0\
 \#N Geom=AllCheck Guess=TCheck SCRF=Check GenChk UPBEPBE/def2QZVPP Fre
 q\\Mol job 1\\0,2\Pd,8.,8.,7.038959594\F,8.,8.,8.961040406\\Version=ES
 64L-G16RevC.01\State=2-SG\HF=-227.6983305\S2=0.750479\S2-1=0.\S2A=0.75
 \RMSD=9.543e-10\RMSF=2.565e-08\ZeroPoint=0.0012294\Thermal=0.0037862\E
 Tot=-227.6945442\HTot=-227.6936\GTot=-227.7208809\Dipole=0.,0.,-1.5909
 121\DipoleDeriv=0.4380034,0.,0.,0.,0.4380034,0.,0.,0.,0.8849609,-0.438
 0034,0.,0.,0.,-0.4380034,0.,0.,0.,-0.8849609\Polar=28.2912135,0.,28.29
 12135,0.,0.,34.4068327\Quadrupole=0.899233,0.899233,-1.798466,0.,0.,0.
 \PG=C*V [C*(F1Pd1)]\NImag=0\\0.00011045,0.,0.00011045,0.,0.,0.17752048
 ,-0.00011045,0.,0.,0.00011045,0.,-0.00011045,0.,0.,0.00011045,0.,0.,-0
 .17752048,0.,0.,0.17752048\\0.,0.,-0.00000004,0.,0.,0.00000004\\\@
 The archive entry for this job was punched.


 TRUTH, IN SCIENCE, CAN BE DEFINED AS THE WORKING HYPOTHESIS 
 BEST FITTED TO OPEN THE WAY TO THE NEXT BETTER ONE.

                              -- KONRAD LORENZ
 Job cpu time:       0 days  0 hours  8 minutes 15.8 seconds.
 Elapsed time:       0 days  0 hours  1 minutes  2.4 seconds.
 File lengths (MBytes):  RWF=     19 Int=      0 D2E=      0 Chk=      3 Scr=      1
 Normal termination of Gaussian 16 at Fri Jul 30 17:31:08 2021.
