 Entering Gaussian System, Link 0=g16
 Initial command:
 /sw-ng/spack/opt/spack/linux-opensuse_leap15-sandybridge/pgi-18.10/gaussian-src-16-C.01-zldqaomctopxhethwccpmxmwefdscg3m/g16/l1.exe "/data/hutter/SMG16/PBE/Gau-37365.inp" -scrdir="/data/hutter/SMG16/PBE/"
 Entering Link 1 = /sw-ng/spack/opt/spack/linux-opensuse_leap15-sandybridge/pgi-18.10/gaussian-src-16-C.01-zldqaomctopxhethwccpmxmwefdscg3m/g16/l1.exe PID=     37369.
  
 Copyright (c) 1988-2019, Gaussian, Inc.  All Rights Reserved.
  
 This is part of the Gaussian(R) 16 program.  It is based on
 the Gaussian(R) 09 system (copyright 2009, Gaussian, Inc.),
 the Gaussian(R) 03 system (copyright 2003, Gaussian, Inc.),
 the Gaussian(R) 98 system (copyright 1998, Gaussian, Inc.),
 the Gaussian(R) 94 system (copyright 1995, Gaussian, Inc.),
 the Gaussian 92(TM) system (copyright 1992, Gaussian, Inc.),
 the Gaussian 90(TM) system (copyright 1990, Gaussian, Inc.),
 the Gaussian 88(TM) system (copyright 1988, Gaussian, Inc.),
 the Gaussian 86(TM) system (copyright 1986, Carnegie Mellon
 University), and the Gaussian 82(TM) system (copyright 1983,
 Carnegie Mellon University). Gaussian is a federally registered
 trademark of Gaussian, Inc.
  
 This software contains proprietary and confidential information,
 including trade secrets, belonging to Gaussian, Inc.
  
 This software is provided under written license and may be
 used, copied, transmitted, or stored only in accord with that
 written license.
  
 The following legend is applicable only to US Government
 contracts under FAR:
  
                    RESTRICTED RIGHTS LEGEND
  
 Use, reproduction and disclosure by the US Government is
 subject to restrictions as set forth in subparagraphs (a)
 and (c) of the Commercial Computer Software - Restricted
 Rights clause in FAR 52.227-19.
  
 Gaussian, Inc.
 340 Quinnipiac St., Bldg. 40, Wallingford CT 06492
  
  
 ---------------------------------------------------------------
 Warning -- This program may not be used in any manner that
 competes with the business of Gaussian, Inc. or will provide
 assistance to any competitor of Gaussian, Inc.  The licensee
 of this program is prohibited from giving any competitor of
 Gaussian, Inc. access to this program.  By using this program,
 the user acknowledges that Gaussian, Inc. is engaged in the
 business of creating and licensing software in the field of
 computational chemistry and represents and warrants to the
 licensee that it is not a competitor of Gaussian, Inc. and that
 it will not use this program in any manner prohibited above.
 ---------------------------------------------------------------
  

 Cite this work as:
 Gaussian 16, Revision C.01,
 M. J. Frisch, G. W. Trucks, H. B. Schlegel, G. E. Scuseria, 
 M. A. Robb, J. R. Cheeseman, G. Scalmani, V. Barone, 
 G. A. Petersson, H. Nakatsuji, X. Li, M. Caricato, A. V. Marenich, 
 J. Bloino, B. G. Janesko, R. Gomperts, B. Mennucci, H. P. Hratchian, 
 J. V. Ortiz, A. F. Izmaylov, J. L. Sonnenberg, D. Williams-Young, 
 F. Ding, F. Lipparini, F. Egidi, J. Goings, B. Peng, A. Petrone, 
 T. Henderson, D. Ranasinghe, V. G. Zakrzewski, J. Gao, N. Rega, 
 G. Zheng, W. Liang, M. Hada, M. Ehara, K. Toyota, R. Fukuda, 
 J. Hasegawa, M. Ishida, T. Nakajima, Y. Honda, O. Kitao, H. Nakai, 
 T. Vreven, K. Throssell, J. A. Montgomery, Jr., J. E. Peralta, 
 F. Ogliaro, M. J. Bearpark, J. J. Heyd, E. N. Brothers, K. N. Kudin, 
 V. N. Staroverov, T. A. Keith, R. Kobayashi, J. Normand, 
 K. Raghavachari, A. P. Rendell, J. C. Burant, S. S. Iyengar, 
 J. Tomasi, M. Cossi, J. M. Millam, M. Klene, C. Adamo, R. Cammi, 
 J. W. Ochterski, R. L. Martin, K. Morokuma, O. Farkas, 
 J. B. Foresman, and D. J. Fox, Gaussian, Inc., Wallingford CT, 2019.
 
 ******************************************
 Gaussian 16:  ES64L-G16RevC.01  3-Jul-2019
                30-Jul-2021 
 ******************************************
 %mem=8GB
 %NProcShare=8
 Will use up to    8 processors via shared memory.
 -----------------------------------------------------------
 #N UPBEPBE/Def2QZVPP scf=tight Int(Grid=ultrafine) OPT FREQ
 -----------------------------------------------------------
 1/18=20,19=15,26=4,38=1/1,3;
 2/9=110,12=2,17=6,18=5,40=1/2;
 3/5=45,7=202,11=2,25=1,30=1,71=1,74=1009,75=-5,116=2/1,2,3;
 4//1;
 5/5=2,32=2,38=5/2;
 6/7=2,8=2,9=2,10=2,28=1/1;
 7//1,2,3,16;
 1/18=20,19=15,26=4/3(2);
 2/9=110/2;
 99//99;
 2/9=110/2;
 3/5=45,7=202,11=2,25=1,30=1,71=1,74=1009,75=-5,116=2/1,2,3;
 4/5=5,16=3,69=1/1;
 5/5=2,32=2,38=5/2;
 7//1,2,3,16;
 1/18=20,19=15,26=4/3(-5);
 2/9=110/2;
 6/7=2,8=2,9=2,10=2,19=2,28=1/1;
 99/9=1/99;
 ---------
 Mol job 1
 ---------
 Symbolic Z-matrix:
 Charge =  0 Multiplicity = 2
 Tl                    8.        8.        7.03798 
 O                     8.        8.        8.96202 
 

 GradGradGradGradGradGradGradGradGradGradGradGradGradGradGradGradGradGrad
 Berny optimization.
 Initialization pass.
                           ----------------------------
                           !    Initial Parameters    !
                           ! (Angstroms and Degrees)  !
 --------------------------                            --------------------------
 ! Name  Definition              Value          Derivative Info.                !
 --------------------------------------------------------------------------------
 ! R1    R(1,2)                  1.924          estimate D2E/DX2                !
 --------------------------------------------------------------------------------
 Trust Radius=3.00D-01 FncErr=1.00D-07 GrdErr=1.00D-06 EigMax=2.50D+02 EigMin=1.00D-04
 Number of steps in this run=     20 maximum allowed number of steps=    100.
 GradGradGradGradGradGradGradGradGradGradGradGradGradGradGradGradGradGrad

                          Input orientation:                          
 ---------------------------------------------------------------------
 Center     Atomic      Atomic             Coordinates (Angstroms)
 Number     Number       Type             X           Y           Z
 ---------------------------------------------------------------------
      1         81           0        8.000000    8.000000    7.037979
      2          8           0        8.000000    8.000000    8.962021
 ---------------------------------------------------------------------
 Stoichiometry    OTl(2)
 Framework group  C*V[C*(OTl)]
 Deg. of freedom     1
 Full point group                 C*V     NOp   4
 Largest Abelian subgroup         C2V     NOp   4
 Largest concise Abelian subgroup C1      NOp   1
                         Standard orientation:                         
 ---------------------------------------------------------------------
 Center     Atomic      Atomic             Coordinates (Angstroms)
 Number     Number       Type             X           Y           Z
 ---------------------------------------------------------------------
      1         81           0        0.000000    0.000000    0.172948
      2          8           0        0.000000    0.000000   -1.751094
 ---------------------------------------------------------------------
 Rotational constants (GHZ):           0.0000000           9.2010757           9.2010757
 Standard basis: def2QZVPP (5D, 7F)
 There are    75 symmetry adapted cartesian basis functions of A1  symmetry.
 There are    19 symmetry adapted cartesian basis functions of A2  symmetry.
 There are    41 symmetry adapted cartesian basis functions of B1  symmetry.
 There are    41 symmetry adapted cartesian basis functions of B2  symmetry.
 There are    56 symmetry adapted basis functions of A1  symmetry.
 There are    17 symmetry adapted basis functions of A2  symmetry.
 There are    33 symmetry adapted basis functions of B1  symmetry.
 There are    33 symmetry adapted basis functions of B2  symmetry.
   139 basis functions,   266 primitive gaussians,   176 cartesian basis functions
    15 alpha electrons       14 beta electrons
       nuclear repulsion energy        46.2057385441 Hartrees.
 NAtoms=    2 NActive=    2 NUniq=    2 SFac= 1.00D+00 NAtFMM=   60 NAOKFM=F Big=F
 Integral buffers will be    131072 words long.
 Raffenetti 2 integral format.
 Two-electron integral symmetry is turned on.
 One-electron integrals computed using PRISM.
   4 Symmetry operations used in ECPInt.
 ECPInt:  NShTT=     780 NPrTT=    2973 LenC2=     781 LenP2D=    2719.
 LDataN:  DoStor=T MaxTD1= 9 Len=  602
 NBasis=   139 RedAO= T EigKep=  6.54D-04  NBF=    56    17    33    33
 NBsUse=   139 1.00D-06 EigRej= -1.00D+00 NBFU=    56    17    33    33
 Defaulting to unpruned grid for atomic number  81.
 ExpMin= 2.61D-02 ExpMax= 1.17D+05 ExpMxC= 1.13D+03 IAcc=3 IRadAn=         5 AccDes= 0.00D+00
 Harris functional with IExCor= 1009 and IRadAn=       5 diagonalized for initial guess.
 HarFok:  IExCor= 1009 AccDes= 0.00D+00 IRadAn=         5 IDoV= 1 UseB2=F ITyADJ=14
 ICtDFT=  3500011 ScaDFX=  1.000000  1.000000  1.000000  1.000000
 Defaulting to unpruned grid for atomic number  81.
 FoFCou: FMM=F IPFlag=           0 FMFlag=      100000 FMFlg1=           0
         NFxFlg=           0 DoJE=T BraDBF=F KetDBF=T FulRan=T
         wScrn=  0.000000 ICntrl=       500 IOpCl=  0 I1Cent=   200000004 NGrid=           0
         NMat0=    1 NMatS0=      1 NMatT0=    0 NMatD0=    1 NMtDS0=    0 NMtDT0=    0
 Petite list used in FoFCou.
 Initial guess orbital symmetries:
 Alpha Orbitals:
       Occupied  (SG) (SG) (SG) (PI) (PI) (SG) (SG) (PI) (PI) (DLTA)
                 (DLTA) (SG) (PI) (PI) (SG)
       Virtual   (PI) (PI) (SG) (SG) (PI) (PI) (SG) (DLTA) (DLTA)
                 (PI) (PI) (SG) (SG) (PI) (PI) (SG) (PI) (PI) (DLTA)
                 (DLTA) (PHI) (PHI) (SG) (DLTA) (DLTA) (PI) (PI)
                 (SG) (PI) (PI) (SG) (SG) (SG) (DLTA) (DLTA) (PI)
                 (PI) (PI) (PI) (DLTA) (DLTA) (PHI) (PHI) (SG)
                 (PI) (PI) (SG) (DLTA) (DLTA) (PI) (PI) (PI) (PI)
                 (PHI) (PHI) (?A) (?A) (SG) (DLTA) (DLTA) (SG)
                 (SG) (PI) (PI) (SG) (DLTA) (DLTA) (PI) (PI) (PHI)
                 (PHI) (PHI) (PHI) (SG) (DLTA) (DLTA) (SG) (PI)
                 (PI) (DLTA) (DLTA) (SG) (PI) (PI) (SG) (PI) (PI)
                 (SG) (DLTA) (DLTA) (PHI) (PHI) (PI) (PI) (SG)
                 (PHI) (PHI) (?A) (?A) (DLTA) (DLTA) (PI) (PI)
                 (SG) (PHI) (PHI) (DLTA) (DLTA) (SG) (PI) (PI)
                 (SG) (DLTA) (DLTA) (PI) (PI) (SG) (SG) (PI) (PI)
                 (SG) (SG) (SG) (SG)
 Beta  Orbitals:
       Occupied  (SG) (SG) (SG) (PI) (PI) (SG) (SG) (PI) (PI) (DLTA)
                 (DLTA) (SG) (PI) (PI)
       Virtual   (SG) (PI) (PI) (SG) (SG) (PI) (PI) (SG) (DLTA)
                 (DLTA) (PI) (PI) (SG) (SG) (PI) (PI) (SG) (PI)
                 (PI) (DLTA) (DLTA) (PHI) (PHI) (SG) (DLTA) (DLTA)
                 (PI) (PI) (SG) (PI) (PI) (SG) (SG) (SG) (DLTA)
                 (DLTA) (PI) (PI) (PI) (PI) (DLTA) (DLTA) (PHI)
                 (PHI) (SG) (PI) (PI) (SG) (DLTA) (DLTA) (PI) (PI)
                 (PI) (PI) (PHI) (PHI) (?A) (?A) (SG) (DLTA) (DLTA)
                 (SG) (SG) (PI) (PI) (SG) (DLTA) (DLTA) (PI) (PI)
                 (PHI) (PHI) (PHI) (PHI) (SG) (DLTA) (DLTA) (SG)
                 (PI) (PI) (DLTA) (DLTA) (SG) (PI) (PI) (SG) (PI)
                 (PI) (SG) (DLTA) (DLTA) (PHI) (PHI) (PI) (PI)
                 (SG) (PHI) (PHI) (?A) (?A) (DLTA) (DLTA) (PI)
                 (PI) (SG) (PHI) (PHI) (DLTA) (DLTA) (SG) (PI)
                 (PI) (SG) (DLTA) (DLTA) (PI) (PI) (SG) (SG) (PI)
                 (PI) (SG) (SG) (SG) (SG)
 The electronic state of the initial guess is 2-SG.
 Initial guess <Sx>= 0.0000 <Sy>= 0.0000 <Sz>= 0.5000 <S**2>= 0.7500 S= 0.5000
 Keep J ints in memory in symmetry-blocked form, NReq=59379869.
 Requested convergence on RMS density matrix=1.00D-08 within 128 cycles.
 Requested convergence on MAX density matrix=1.00D-06.
 Requested convergence on             energy=1.00D-06.
 No special actions if energy rises.
 Defaulting to unpruned grid for atomic number  81.
 Defaulting to unpruned grid for atomic number  81.
 Defaulting to unpruned grid for atomic number  81.
 Defaulting to unpruned grid for atomic number  81.
 Defaulting to unpruned grid for atomic number  81.
 Defaulting to unpruned grid for atomic number  81.
 Defaulting to unpruned grid for atomic number  81.
 Defaulting to unpruned grid for atomic number  81.
 EnCoef did     7 forward-backward iterations
 SCF Done:  E(UPBE-PBE) =  -247.681226331     A.U. after   14 cycles
            NFock= 14  Conv=0.50D-08     -V/T= 2.8839
 <Sx>= 0.0000 <Sy>= 0.0000 <Sz>= 0.5000 <S**2>= 0.7557 S= 0.5028
 <L.S>=  0.00000000000    
 Annihilation of the first spin contaminant:
 S**2 before annihilation     0.7557,   after     0.7500

 **********************************************************************

            Population analysis using the SCF Density.

 **********************************************************************

 Orbital symmetries:
 Alpha Orbitals:
       Occupied  (SG) (SG) (PI) (PI) (SG) (SG) (PI) (PI) (DLTA)
                 (DLTA) (SG) (SG) (SG) (PI) (PI)
       Virtual   (PI) (PI) (SG) (SG) (PI) (PI) (SG) (DLTA) (DLTA)
                 (PI) (PI) (SG) (PI) (PI) (SG) (SG) (PI) (PI) (DLTA)
                 (DLTA) (PHI) (PHI) (SG) (DLTA) (DLTA) (PI) (PI)
                 (SG) (PI) (PI) (SG) (SG) (SG) (PI) (PI) (DLTA)
                 (DLTA) (PI) (PI) (PHI) (PHI) (DLTA) (DLTA) (SG)
                 (PI) (PI) (DLTA) (DLTA) (SG) (PI) (PI) (PHI) (PHI)
                 (?A) (?A) (PI) (PI) (SG) (DLTA) (DLTA) (SG) (SG)
                 (PI) (PI) (SG) (DLTA) (DLTA) (PHI) (PHI) (PI)
                 (PI) (SG) (PHI) (PHI) (SG) (DLTA) (DLTA) (PI)
                 (PI) (DLTA) (DLTA) (SG) (PI) (PI) (SG) (PI) (PI)
                 (SG) (PHI) (PHI) (DLTA) (DLTA) (PI) (PI) (SG)
                 (PHI) (PHI) (DLTA) (DLTA) (PI) (PI) (?A) (?A)
                 (SG) (PHI) (PHI) (DLTA) (DLTA) (SG) (PI) (PI)
                 (SG) (DLTA) (DLTA) (PI) (PI) (SG) (SG) (PI) (PI)
                 (SG) (SG) (SG) (SG)
 Beta  Orbitals:
       Occupied  (SG) (SG) (PI) (PI) (SG) (SG) (DLTA) (DLTA) (PI)
                 (PI) (SG) (SG) (PI) (PI)
       Virtual   (SG) (PI) (PI) (SG) (SG) (PI) (PI) (SG) (DLTA)
                 (DLTA) (PI) (PI) (SG) (PI) (PI) (SG) (SG) (PI)
                 (PI) (DLTA) (DLTA) (PHI) (PHI) (DLTA) (DLTA) (SG)
                 (PI) (PI) (SG) (PI) (PI) (SG) (SG) (SG) (PI) (PI)
                 (DLTA) (DLTA) (PI) (PI) (PHI) (PHI) (DLTA) (DLTA)
                 (SG) (PI) (PI) (DLTA) (DLTA) (SG) (PI) (PI) (?A)
                 (?A) (PHI) (PHI) (PI) (PI) (SG) (DLTA) (DLTA)
                 (SG) (SG) (PI) (PI) (SG) (DLTA) (DLTA) (PHI) (PHI)
                 (PI) (PI) (SG) (PHI) (PHI) (DLTA) (DLTA) (SG)
                 (PI) (PI) (DLTA) (DLTA) (SG) (PI) (PI) (SG) (PI)
                 (PI) (SG) (PHI) (PHI) (DLTA) (DLTA) (PI) (PI)
                 (SG) (PHI) (PHI) (?A) (?A) (DLTA) (DLTA) (PI)
                 (PI) (SG) (PHI) (PHI) (DLTA) (DLTA) (SG) (PI)
                 (PI) (SG) (DLTA) (DLTA) (PI) (PI) (SG) (SG) (PI)
                 (PI) (SG) (SG) (SG) (SG)
 The electronic state is 2-SG.
 Alpha  occ. eigenvalues --  -18.73974  -4.85129  -2.86193  -2.86193  -2.86151
 Alpha  occ. eigenvalues --   -0.82736  -0.59108  -0.59108  -0.58927  -0.58926
 Alpha  occ. eigenvalues --   -0.58120  -0.38079  -0.24415  -0.23233  -0.23233
 Alpha virt. eigenvalues --   -0.07509  -0.07509  -0.01246   0.03134   0.04619
 Alpha virt. eigenvalues --    0.04619   0.08070   0.09572   0.09572   0.11264
 Alpha virt. eigenvalues --    0.11264   0.13871   0.26727   0.26727   0.29000
 Alpha virt. eigenvalues --    0.29797   0.35587   0.35587   0.41176   0.41176
 Alpha virt. eigenvalues --    0.42338   0.42338   0.42579   0.42791   0.42791
 Alpha virt. eigenvalues --    0.44117   0.44117   0.47225   0.52557   0.52557
 Alpha virt. eigenvalues --    0.66917   0.89619   0.99417   1.04089   1.04089
 Alpha virt. eigenvalues --    1.06048   1.06048   1.09731   1.09731   1.11494
 Alpha virt. eigenvalues --    1.11494   1.11845   1.11845   1.17511   1.23498
 Alpha virt. eigenvalues --    1.23498   1.30607   1.30607   1.31543   1.38856
 Alpha virt. eigenvalues --    1.38856   1.41322   1.41322   1.41448   1.41448
 Alpha virt. eigenvalues --    1.43056   1.43056   1.44872   1.54733   1.54733
 Alpha virt. eigenvalues --    1.74933   1.88911   1.94712   1.94712   2.40444
 Alpha virt. eigenvalues --    2.80083   2.80083   2.83800   2.83800   2.85802
 Alpha virt. eigenvalues --    2.85802   3.00197   3.08900   3.08900   3.24264
 Alpha virt. eigenvalues --    3.25851   3.25852   3.58304   3.58304   3.78728
 Alpha virt. eigenvalues --    3.78728   3.87540   4.17648   4.17648   4.28412
 Alpha virt. eigenvalues --    5.00646   5.00646   5.50508   7.65158   7.65158
 Alpha virt. eigenvalues --    7.65714   7.65714   7.77377   7.77377   7.81519
 Alpha virt. eigenvalues --    8.75332   8.75332   8.76149   8.76150   8.77973
 Alpha virt. eigenvalues --    8.77973   8.78500   8.78501   8.81312  10.81532
 Alpha virt. eigenvalues --   10.81532  10.86189  10.86189  10.96875  11.04984
 Alpha virt. eigenvalues --   11.04984  11.50424  11.83982  11.83983  12.04326
 Alpha virt. eigenvalues --   12.04326  12.22088  12.73027  31.78253  31.78253
 Alpha virt. eigenvalues --   33.07785  46.93601  79.69261 251.39814
  Beta  occ. eigenvalues --  -18.72344  -4.84960  -2.86095  -2.86095  -2.85876
  Beta  occ. eigenvalues --   -0.78915  -0.58850  -0.58850  -0.58781  -0.58781
  Beta  occ. eigenvalues --   -0.56898  -0.35566  -0.21726  -0.21726
  Beta virt. eigenvalues --   -0.18400  -0.06850  -0.06850   0.00188   0.03730
  Beta virt. eigenvalues --    0.04826   0.04826   0.09550   0.09826   0.09826
  Beta virt. eigenvalues --    0.12043   0.12043   0.14773   0.27010   0.27010
  Beta virt. eigenvalues --    0.30648   0.31716   0.36333   0.36333   0.42110
  Beta virt. eigenvalues --    0.42110   0.42524   0.42524   0.42760   0.42760
  Beta virt. eigenvalues --    0.43091   0.45212   0.45212   0.49215   0.53615
  Beta virt. eigenvalues --    0.53615   0.68133   0.91394   1.01449   1.04387
  Beta virt. eigenvalues --    1.04387   1.06645   1.06645   1.10642   1.10642
  Beta virt. eigenvalues --    1.11587   1.11587   1.12222   1.12222   1.18580
  Beta virt. eigenvalues --    1.25520   1.25520   1.30808   1.30808   1.33870
  Beta virt. eigenvalues --    1.40211   1.40211   1.41593   1.41593   1.41926
  Beta virt. eigenvalues --    1.41926   1.44165   1.44165   1.48788   1.55806
  Beta virt. eigenvalues --    1.55806   1.76099   1.91089   1.96556   1.96556
  Beta virt. eigenvalues --    2.42788   2.80697   2.80698   2.83896   2.83896
  Beta virt. eigenvalues --    2.87171   2.87171   3.01743   3.09103   3.09103
  Beta virt. eigenvalues --    3.27792   3.27792   3.28587   3.61859   3.61859
  Beta virt. eigenvalues --    3.79759   3.79759   3.90996   4.22468   4.22468
  Beta virt. eigenvalues --    4.35755   5.01925   5.01925   5.56529   7.65280
  Beta virt. eigenvalues --    7.65280   7.65952   7.65953   7.77814   7.77814
  Beta virt. eigenvalues --    7.82291   8.78046   8.78046   8.78686   8.78686
  Beta virt. eigenvalues --    8.80918   8.80918   8.84164   8.84164   8.87816
  Beta virt. eigenvalues --   10.82130  10.82130  10.90940  10.90940  11.03970
  Beta virt. eigenvalues --   11.12981  11.12981  11.53846  11.85293  11.85293
  Beta virt. eigenvalues --   12.12190  12.12190  12.33109  12.77331  31.78392
  Beta virt. eigenvalues --   31.78392  33.08036  46.96859  79.69385 251.40694
          Condensed to atoms (all electrons):
               1          2
     1  Tl  20.099093   0.336895
     2  O    0.336895   8.227117
          Atomic-Atomic Spin Densities.
               1          2
     1  Tl   0.393531  -0.072731
     2  O   -0.072731   0.751932
 Mulliken charges and spin densities:
               1          2
     1  Tl   0.564012   0.320800
     2  O   -0.564012   0.679200
 Sum of Mulliken charges =  -0.00000   1.00000
 Mulliken charges and spin densities with hydrogens summed into heavy atoms:
               1          2
     1  Tl   0.564012   0.320800
     2  O   -0.564012   0.679200
 Electronic spatial extent (au):  <R**2>=            161.3553
 Charge=              0.0000 electrons
 Dipole moment (field-independent basis, Debye):
    X=              0.0000    Y=              0.0000    Z=              3.8873  Tot=              3.8873
 Quadrupole moment (field-independent basis, Debye-Ang):
   XX=            -29.5237   YY=            -29.5237   ZZ=            -37.1382
   XY=              0.0000   XZ=              0.0000   YZ=              0.0000
 Traceless Quadrupole moment (field-independent basis, Debye-Ang):
   XX=              2.5382   YY=              2.5382   ZZ=             -5.0764
   XY=              0.0000   XZ=              0.0000   YZ=              0.0000
 Octapole moment (field-independent basis, Debye-Ang**2):
  XXX=              0.0000  YYY=              0.0000  ZZZ=             28.0263  XYY=              0.0000
  XXY=              0.0000  XXZ=              7.4800  XZZ=              0.0000  YZZ=              0.0000
  YYZ=              7.4800  XYZ=              0.0000
 Hexadecapole moment (field-independent basis, Debye-Ang**3):
 XXXX=            -34.4201 YYYY=            -34.4201 ZZZZ=           -165.1649 XXXY=              0.0000
 XXXZ=              0.0000 YYYX=              0.0000 YYYZ=              0.0000 ZZZX=              0.0000
 ZZZY=              0.0000 XXYY=            -11.4733 XXZZ=            -33.2037 YYZZ=            -33.2037
 XXYZ=              0.0000 YYXZ=              0.0000 ZZXY=              0.0000
 N-N= 4.620573854408D+01 E-N=-6.290435726783D+02  KE= 1.314699976958D+02
 Symmetry A1   KE= 9.216611535453D+01
 Symmetry A2   KE= 6.182133820886D+00
 Symmetry B1   KE= 1.656087426019D+01
 Symmetry B2   KE= 1.656087426019D+01
 Symmetry A1   SP= 1.000000000000D+00
 Symmetry A2   SP=-5.954358921952D-15
 Symmetry B1   SP=-1.415519194507D-14
 Symmetry B2   SP=-2.968209699702D-15
                          Isotropic Fermi Contact Couplings
        Atom                 a.u.       MegaHertz       Gauss      10(-4) cm-1
     1  Tl(205             0.00001       0.01768       0.00631       0.00590
     2  O(17)              0.00391      -2.37237      -0.84652      -0.79134
 --------------------------------------------------------
       Center         ----  Spin Dipole Couplings  ----
                      3XX-RR        3YY-RR        3ZZ-RR
 --------------------------------------------------------
     1   Atom       -0.036937     -0.036937      0.073873
     2   Atom       -1.329603     -1.329603      2.659206
 --------------------------------------------------------
                        XY            XZ            YZ
 --------------------------------------------------------
     1   Atom        0.000000      0.000000      0.000000
     2   Atom        0.000000      0.000000      0.000000
 --------------------------------------------------------


 ---------------------------------------------------------------------------------
              Anisotropic Spin Dipole Couplings in Principal Axis System
 ---------------------------------------------------------------------------------

       Atom             a.u.   MegaHertz   Gauss  10(-4) cm-1        Axes

              Baa    -0.0369   -11.560    -4.125    -3.856  1.0000  0.0000  0.0000
     1 Tl(205 Bbb    -0.0369   -11.560    -4.125    -3.856 -0.0000  1.0000  0.0000
              Bcc     0.0739    23.120     8.250     7.712  0.0000  0.0000  1.0000
 
              Baa    -1.3296    96.209    34.330    32.092  1.0000  0.0000  0.0000
     2 O(17)  Bbb    -1.3296    96.209    34.330    32.092 -0.0000  1.0000  0.0000
              Bcc     2.6592  -192.418   -68.660   -64.184  0.0000  0.0000  1.0000
 

 ---------------------------------------------------------------------------------

   4 Symmetry operations used in ECPInt.
 ECPInt:  NShTT=     780 NPrTT=    2973 LenC2=     781 LenP2D=    2719.
 LDataN:  DoStor=T MaxTD1=10 Len=  848
 Calling FoFJK, ICntrl=      2527 FMM=F ISym2X=1 I1Cent= 0 IOpClX= 0 NMat=1 NMatS=1 NMatT=0.
 Defaulting to unpruned grid for atomic number  81.
 Defaulting to unpruned grid for atomic number  81.
 Defaulting to unpruned grid for atomic number  81.
 Defaulting to unpruned grid for atomic number  81.
 Defaulting to unpruned grid for atomic number  81.
 Defaulting to unpruned grid for atomic number  81.
 Defaulting to unpruned grid for atomic number  81.
 Defaulting to unpruned grid for atomic number  81.
 ***** Axes restored to original set *****
 -------------------------------------------------------------------
 Center     Atomic                   Forces (Hartrees/Bohr)
 Number     Number              X              Y              Z
 -------------------------------------------------------------------
      1       81          -0.000000000   -0.000000000   -0.030335657
      2        8          -0.000000000   -0.000000000    0.030335657
 -------------------------------------------------------------------
 Cartesian Forces:  Max     0.030335657 RMS     0.017514300

 GradGradGradGradGradGradGradGradGradGradGradGradGradGradGradGradGradGrad
 Berny optimization.
 FormGI is forming the generalized inverse of G from B-inverse, IUseBI=4.
 Internal  Forces:  Max     0.030335657 RMS     0.030335657
 Search for a local minimum.
 Step number   1 out of a maximum of   20
 All quantities printed in internal units (Hartrees-Bohrs-Radians)
 Mixed Optimization -- RFO/linear search
 Second derivative matrix not updated -- first step.
 The second derivative matrix:
                          R1
           R1           0.24617
 ITU=  0
     Eigenvalues ---    0.24617
 RFO step:  Lambda=-3.68311030D-03 EMin= 2.46174210D-01
 Linear search not attempted -- first point.
 Iteration  1 RMS(Cart)=  0.08585119 RMS(Int)=  0.00000000
 Iteration  2 RMS(Cart)=  0.00000000 RMS(Int)=  0.00000000
 ClnCor:  largest displacement from symmetrization is 0.00D+00 for atom     0.
 Variable       Old X    -DE/DX   Delta X   Delta X   Delta X     New X
                                 (Linear)    (Quad)   (Total)
    R1        3.63591   0.03034   0.00000   0.12141   0.12141   3.75732
         Item               Value     Threshold  Converged?
 Maximum Force            0.030336     0.000450     NO 
 RMS     Force            0.030336     0.000300     NO 
 Maximum Displacement     0.060706     0.001800     NO 
 RMS     Displacement     0.085851     0.001200     NO 
 Predicted change in Energy=-1.868701D-03
 GradGradGradGradGradGradGradGradGradGradGradGradGradGradGradGradGradGrad

                          Input orientation:                          
 ---------------------------------------------------------------------
 Center     Atomic      Atomic             Coordinates (Angstroms)
 Number     Number       Type             X           Y           Z
 ---------------------------------------------------------------------
      1         81           0        8.000000    8.000000    7.005855
      2          8           0        8.000000    8.000000    8.994145
 ---------------------------------------------------------------------
 Stoichiometry    OTl(2)
 Framework group  C*V[C*(OTl)]
 Deg. of freedom     1
 Full point group                 C*V     NOp   4
 Largest Abelian subgroup         C2V     NOp   4
 Largest concise Abelian subgroup C1      NOp   1
                         Standard orientation:                         
 ---------------------------------------------------------------------
 Center     Atomic      Atomic             Coordinates (Angstroms)
 Number     Number       Type             X           Y           Z
 ---------------------------------------------------------------------
      1         81           0        0.000000    0.000000    0.178723
      2          8           0        0.000000    0.000000   -1.809567
 ---------------------------------------------------------------------
 Rotational constants (GHZ):           0.0000000           8.6160470           8.6160470
 Standard basis: def2QZVPP (5D, 7F)
 There are    75 symmetry adapted cartesian basis functions of A1  symmetry.
 There are    19 symmetry adapted cartesian basis functions of A2  symmetry.
 There are    41 symmetry adapted cartesian basis functions of B1  symmetry.
 There are    41 symmetry adapted cartesian basis functions of B2  symmetry.
 There are    56 symmetry adapted basis functions of A1  symmetry.
 There are    17 symmetry adapted basis functions of A2  symmetry.
 There are    33 symmetry adapted basis functions of B1  symmetry.
 There are    33 symmetry adapted basis functions of B2  symmetry.
   139 basis functions,   266 primitive gaussians,   176 cartesian basis functions
    15 alpha electrons       14 beta electrons
       nuclear repulsion energy        44.7126739382 Hartrees.
 NAtoms=    2 NActive=    2 NUniq=    2 SFac= 1.00D+00 NAtFMM=   60 NAOKFM=F Big=F
 Integral buffers will be    131072 words long.
 Raffenetti 2 integral format.
 Two-electron integral symmetry is turned on.
 One-electron integrals computed using PRISM.
   4 Symmetry operations used in ECPInt.
 ECPInt:  NShTT=     780 NPrTT=    2973 LenC2=     781 LenP2D=    2713.
 LDataN:  DoStor=T MaxTD1= 9 Len=  602
 NBasis=   139 RedAO= T EigKep=  8.14D-04  NBF=    56    17    33    33
 NBsUse=   139 1.00D-06 EigRej= -1.00D+00 NBFU=    56    17    33    33
 Defaulting to unpruned grid for atomic number  81.
 Initial guess from the checkpoint file:  "/data/hutter/SMG16/PBE/Gau-37369.chk"
 B after Tr=     0.000000    0.000000   -0.000000
         Rot=    1.000000    0.000000    0.000000    0.000000 Ang=   0.00 deg.
 Initial guess orbital symmetries:
 Alpha Orbitals:
       Occupied  (SG) (SG) (PI) (PI) (SG) (SG) (PI) (PI) (DLTA)
                 (DLTA) (SG) (SG) (SG) (PI) (PI)
       Virtual   (PI) (PI) (SG) (SG) (PI) (PI) (SG) (DLTA) (DLTA)
                 (PI) (PI) (SG) (PI) (PI) (SG) (SG) (PI) (PI) (DLTA)
                 (DLTA) (PHI) (PHI) (SG) (DLTA) (DLTA) (PI) (PI)
                 (SG) (PI) (PI) (SG) (SG) (SG) (PI) (PI) (DLTA)
                 (DLTA) (PI) (PI) (PHI) (PHI) (DLTA) (DLTA) (SG)
                 (PI) (PI) (DLTA) (DLTA) (SG) (PI) (PI) (PHI) (PHI)
                 (?A) (?A) (PI) (PI) (SG) (DLTA) (DLTA) (SG) (SG)
                 (PI) (PI) (SG) (DLTA) (DLTA) (PHI) (PHI) (PI)
                 (PI) (SG) (PHI) (PHI) (SG) (DLTA) (DLTA) (PI)
                 (PI) (DLTA) (DLTA) (SG) (PI) (PI) (SG) (PI) (PI)
                 (SG) (PHI) (PHI) (DLTA) (DLTA) (PI) (PI) (SG)
                 (PHI) (PHI) (DLTA) (DLTA) (PI) (PI) (?A) (?A)
                 (SG) (PHI) (PHI) (DLTA) (DLTA) (SG) (PI) (PI)
                 (SG) (DLTA) (DLTA) (PI) (PI) (SG) (SG) (PI) (PI)
                 (SG) (SG) (SG) (SG)
 Beta  Orbitals:
       Occupied  (SG) (SG) (PI) (PI) (SG) (SG) (DLTA) (DLTA) (PI)
                 (PI) (SG) (SG) (PI) (PI)
       Virtual   (SG) (PI) (PI) (SG) (SG) (PI) (PI) (SG) (DLTA)
                 (DLTA) (PI) (PI) (SG) (PI) (PI) (SG) (SG) (PI)
                 (PI) (DLTA) (DLTA) (PHI) (PHI) (DLTA) (DLTA) (SG)
                 (PI) (PI) (SG) (PI) (PI) (SG) (SG) (SG) (PI) (PI)
                 (DLTA) (DLTA) (PI) (PI) (PHI) (PHI) (DLTA) (DLTA)
                 (SG) (PI) (PI) (DLTA) (DLTA) (SG) (PI) (PI) (?A)
                 (?A) (PHI) (PHI) (PI) (PI) (SG) (DLTA) (DLTA)
                 (SG) (SG) (PI) (PI) (SG) (DLTA) (DLTA) (PHI) (PHI)
                 (PI) (PI) (SG) (PHI) (PHI) (DLTA) (DLTA) (SG)
                 (PI) (PI) (DLTA) (DLTA) (SG) (PI) (PI) (SG) (PI)
                 (PI) (SG) (PHI) (PHI) (DLTA) (DLTA) (PI) (PI)
                 (SG) (PHI) (PHI) (?A) (?A) (DLTA) (DLTA) (PI)
                 (PI) (SG) (PHI) (PHI) (DLTA) (DLTA) (SG) (PI)
                 (PI) (SG) (DLTA) (DLTA) (PI) (PI) (SG) (SG) (PI)
                 (PI) (SG) (SG) (SG) (SG)
 Initial guess <Sx>= 0.0000 <Sy>= 0.0000 <Sz>= 0.5000 <S**2>= 0.7558 S= 0.5029
 ExpMin= 2.61D-02 ExpMax= 1.17D+05 ExpMxC= 1.13D+03 IAcc=3 IRadAn=         5 AccDes= 0.00D+00
 Harris functional with IExCor= 1009 and IRadAn=       5 diagonalized for initial guess.
 HarFok:  IExCor= 1009 AccDes= 0.00D+00 IRadAn=         5 IDoV= 1 UseB2=F ITyADJ=14
 ICtDFT=  3500011 ScaDFX=  1.000000  1.000000  1.000000  1.000000
 Defaulting to unpruned grid for atomic number  81.
 FoFCou: FMM=F IPFlag=           0 FMFlag=      100000 FMFlg1=           0
         NFxFlg=           0 DoJE=T BraDBF=F KetDBF=T FulRan=T
         wScrn=  0.000000 ICntrl=       500 IOpCl=  0 I1Cent=   200000004 NGrid=           0
         NMat0=    1 NMatS0=      1 NMatT0=    0 NMatD0=    1 NMtDS0=    0 NMtDT0=    0
 Petite list used in FoFCou.
 Keep J ints in memory in symmetry-blocked form, NReq=59379869.
 Requested convergence on RMS density matrix=1.00D-08 within 128 cycles.
 Requested convergence on MAX density matrix=1.00D-06.
 Requested convergence on             energy=1.00D-06.
 No special actions if energy rises.
 Defaulting to unpruned grid for atomic number  81.
 Defaulting to unpruned grid for atomic number  81.
 Defaulting to unpruned grid for atomic number  81.
 Defaulting to unpruned grid for atomic number  81.
 Defaulting to unpruned grid for atomic number  81.
 Defaulting to unpruned grid for atomic number  81.
 Defaulting to unpruned grid for atomic number  81.
 Defaulting to unpruned grid for atomic number  81.
 SCF Done:  E(UPBE-PBE) =  -247.683382509     A.U. after   12 cycles
            NFock= 12  Conv=0.33D-08     -V/T= 2.8847
 <Sx>= 0.0000 <Sy>= 0.0000 <Sz>= 0.5000 <S**2>= 0.7564 S= 0.5032
 <L.S>=  0.00000000000    
 Annihilation of the first spin contaminant:
 S**2 before annihilation     0.7564,   after     0.7500
   4 Symmetry operations used in ECPInt.
 ECPInt:  NShTT=     780 NPrTT=    2973 LenC2=     781 LenP2D=    2713.
 LDataN:  DoStor=T MaxTD1=10 Len=  848
 Calling FoFJK, ICntrl=      2527 FMM=F ISym2X=1 I1Cent= 0 IOpClX= 0 NMat=1 NMatS=1 NMatT=0.
 Defaulting to unpruned grid for atomic number  81.
 Defaulting to unpruned grid for atomic number  81.
 Defaulting to unpruned grid for atomic number  81.
 Defaulting to unpruned grid for atomic number  81.
 Defaulting to unpruned grid for atomic number  81.
 Defaulting to unpruned grid for atomic number  81.
 Defaulting to unpruned grid for atomic number  81.
 Defaulting to unpruned grid for atomic number  81.
 ***** Axes restored to original set *****
 -------------------------------------------------------------------
 Center     Atomic                   Forces (Hartrees/Bohr)
 Number     Number              X              Y              Z
 -------------------------------------------------------------------
      1       81          -0.000000000   -0.000000000   -0.006580906
      2        8          -0.000000000   -0.000000000    0.006580906
 -------------------------------------------------------------------
 Cartesian Forces:  Max     0.006580906 RMS     0.003799488

 GradGradGradGradGradGradGradGradGradGradGradGradGradGradGradGradGradGrad
 Berny optimization.
 Using GEDIIS/GDIIS optimizer.
 Internal  Forces:  Max     0.006580906 RMS     0.006580906
 Search for a local minimum.
 Step number   2 out of a maximum of   20
 All quantities printed in internal units (Hartrees-Bohrs-Radians)
 Mixed Optimization -- RFO/linear search
 Update second derivatives using D2CorX and points    1    2
 DE= -2.16D-03 DEPred=-1.87D-03 R= 1.15D+00
 TightC=F SS=  1.41D+00  RLast= 1.21D-01 DXNew= 5.0454D-01 3.6424D-01
 Trust test= 1.15D+00 RLast= 1.21D-01 DXMaxT set to 3.64D-01
 The second derivative matrix:
                          R1
           R1           0.19565
 ITU=  1  0
 Use linear search instead of GDIIS.
     Eigenvalues ---    0.19565
 RFO step:  Lambda= 0.00000000D+00 EMin= 1.95654191D-01
 Quartic linear search produced a step of  0.35874.
 Iteration  1 RMS(Cart)=  0.03079852 RMS(Int)=  0.00000000
 Iteration  2 RMS(Cart)=  0.00000000 RMS(Int)=  0.00000000
 ClnCor:  largest displacement from symmetrization is 0.00D+00 for atom     0.
 Variable       Old X    -DE/DX   Delta X   Delta X   Delta X     New X
                                 (Linear)    (Quad)   (Total)
    R1        3.75732   0.00658   0.04356  -0.00000   0.04356   3.80088
         Item               Value     Threshold  Converged?
 Maximum Force            0.006581     0.000450     NO 
 RMS     Force            0.006581     0.000300     NO 
 Maximum Displacement     0.021778     0.001800     NO 
 RMS     Displacement     0.030799     0.001200     NO 
 Predicted change in Energy=-1.010483D-04
 GradGradGradGradGradGradGradGradGradGradGradGradGradGradGradGradGradGrad

                          Input orientation:                          
 ---------------------------------------------------------------------
 Center     Atomic      Atomic             Coordinates (Angstroms)
 Number     Number       Type             X           Y           Z
 ---------------------------------------------------------------------
      1         81           0        8.000000    8.000000    6.994331
      2          8           0        8.000000    8.000000    9.005669
 ---------------------------------------------------------------------
 Stoichiometry    OTl(2)
 Framework group  C*V[C*(OTl)]
 Deg. of freedom     1
 Full point group                 C*V     NOp   4
 Largest Abelian subgroup         C2V     NOp   4
 Largest concise Abelian subgroup C1      NOp   1
                         Standard orientation:                         
 ---------------------------------------------------------------------
 Center     Atomic      Atomic             Coordinates (Angstroms)
 Number     Number       Type             X           Y           Z
 ---------------------------------------------------------------------
      1         81           0        0.000000    0.000000    0.180795
      2          8           0        0.000000    0.000000   -1.830544
 ---------------------------------------------------------------------
 Rotational constants (GHZ):           0.0000000           8.4197095           8.4197095
 Standard basis: def2QZVPP (5D, 7F)
 There are    75 symmetry adapted cartesian basis functions of A1  symmetry.
 There are    19 symmetry adapted cartesian basis functions of A2  symmetry.
 There are    41 symmetry adapted cartesian basis functions of B1  symmetry.
 There are    41 symmetry adapted cartesian basis functions of B2  symmetry.
 There are    56 symmetry adapted basis functions of A1  symmetry.
 There are    17 symmetry adapted basis functions of A2  symmetry.
 There are    33 symmetry adapted basis functions of B1  symmetry.
 There are    33 symmetry adapted basis functions of B2  symmetry.
   139 basis functions,   266 primitive gaussians,   176 cartesian basis functions
    15 alpha electrons       14 beta electrons
       nuclear repulsion energy        44.2002949036 Hartrees.
 NAtoms=    2 NActive=    2 NUniq=    2 SFac= 1.00D+00 NAtFMM=   60 NAOKFM=F Big=F
 Integral buffers will be    131072 words long.
 Raffenetti 2 integral format.
 Two-electron integral symmetry is turned on.
 One-electron integrals computed using PRISM.
   4 Symmetry operations used in ECPInt.
 ECPInt:  NShTT=     780 NPrTT=    2973 LenC2=     781 LenP2D=    2709.
 LDataN:  DoStor=T MaxTD1= 9 Len=  602
 NBasis=   139 RedAO= T EigKep=  8.78D-04  NBF=    56    17    33    33
 NBsUse=   139 1.00D-06 EigRej= -1.00D+00 NBFU=    56    17    33    33
 Defaulting to unpruned grid for atomic number  81.
 Initial guess from the checkpoint file:  "/data/hutter/SMG16/PBE/Gau-37369.chk"
 B after Tr=     0.000000    0.000000    0.000000
         Rot=    1.000000    0.000000    0.000000    0.000000 Ang=   0.00 deg.
 Initial guess orbital symmetries:
 Alpha Orbitals:
       Occupied  (SG) (SG) (PI) (PI) (SG) (SG) (PI) (PI) (DLTA)
                 (DLTA) (SG) (SG) (SG) (PI) (PI)
       Virtual   (PI) (PI) (SG) (SG) (PI) (PI) (SG) (DLTA) (DLTA)
                 (PI) (PI) (SG) (PI) (PI) (SG) (SG) (PI) (PI) (DLTA)
                 (DLTA) (PHI) (PHI) (SG) (DLTA) (DLTA) (PI) (PI)
                 (SG) (PI) (PI) (SG) (SG) (SG) (PI) (PI) (DLTA)
                 (DLTA) (PI) (PI) (PHI) (PHI) (DLTA) (DLTA) (SG)
                 (PI) (PI) (SG) (DLTA) (DLTA) (PI) (PI) (?A) (?A)
                 (PHI) (PHI) (PI) (PI) (SG) (DLTA) (DLTA) (SG)
                 (SG) (PI) (PI) (SG) (DLTA) (DLTA) (PI) (PI) (PHI)
                 (PHI) (SG) (PHI) (PHI) (SG) (DLTA) (DLTA) (PI)
                 (PI) (DLTA) (DLTA) (SG) (PI) (PI) (SG) (PI) (PI)
                 (SG) (PHI) (PHI) (DLTA) (DLTA) (PI) (PI) (SG)
                 (PHI) (PHI) (DLTA) (DLTA) (PI) (PI) (?A) (?A)
                 (SG) (PHI) (PHI) (DLTA) (DLTA) (SG) (PI) (PI)
                 (SG) (DLTA) (DLTA) (PI) (PI) (SG) (SG) (PI) (PI)
                 (SG) (SG) (SG) (SG)
 Beta  Orbitals:
       Occupied  (SG) (SG) (PI) (PI) (SG) (SG) (DLTA) (DLTA) (PI)
                 (PI) (SG) (SG) (PI) (PI)
       Virtual   (SG) (PI) (PI) (SG) (SG) (PI) (PI) (SG) (DLTA)
                 (DLTA) (PI) (PI) (SG) (PI) (PI) (SG) (SG) (PI)
                 (PI) (DLTA) (DLTA) (PHI) (PHI) (DLTA) (DLTA) (SG)
                 (PI) (PI) (SG) (PI) (PI) (SG) (SG) (SG) (PI) (PI)
                 (DLTA) (DLTA) (PI) (PI) (PHI) (PHI) (DLTA) (DLTA)
                 (SG) (PI) (PI) (DLTA) (DLTA) (SG) (PI) (PI) (?A)
                 (?A) (PHI) (PHI) (PI) (PI) (SG) (DLTA) (DLTA)
                 (SG) (SG) (PI) (PI) (SG) (DLTA) (DLTA) (PHI) (PHI)
                 (PI) (PI) (SG) (PHI) (PHI) (DLTA) (DLTA) (SG)
                 (PI) (PI) (DLTA) (DLTA) (SG) (PI) (PI) (SG) (PI)
                 (PI) (SG) (PHI) (PHI) (DLTA) (DLTA) (PI) (PI)
                 (SG) (PHI) (PHI) (?A) (?A) (DLTA) (DLTA) (PI)
                 (PI) (SG) (PHI) (PHI) (DLTA) (DLTA) (SG) (PI)
                 (PI) (SG) (DLTA) (DLTA) (PI) (PI) (SG) (SG) (PI)
                 (PI) (SG) (SG) (SG) (SG)
 Initial guess <Sx>= 0.0000 <Sy>= 0.0000 <Sz>= 0.5000 <S**2>= 0.7565 S= 0.5032
 ExpMin= 2.61D-02 ExpMax= 1.17D+05 ExpMxC= 1.13D+03 IAcc=3 IRadAn=         5 AccDes= 0.00D+00
 Harris functional with IExCor= 1009 and IRadAn=       5 diagonalized for initial guess.
 HarFok:  IExCor= 1009 AccDes= 0.00D+00 IRadAn=         5 IDoV= 1 UseB2=F ITyADJ=14
 ICtDFT=  3500011 ScaDFX=  1.000000  1.000000  1.000000  1.000000
 Defaulting to unpruned grid for atomic number  81.
 FoFCou: FMM=F IPFlag=           0 FMFlag=      100000 FMFlg1=           0
         NFxFlg=           0 DoJE=T BraDBF=F KetDBF=T FulRan=T
         wScrn=  0.000000 ICntrl=       500 IOpCl=  0 I1Cent=   200000004 NGrid=           0
         NMat0=    1 NMatS0=      1 NMatT0=    0 NMatD0=    1 NMtDS0=    0 NMtDT0=    0
 Petite list used in FoFCou.
 Keep J ints in memory in symmetry-blocked form, NReq=59379869.
 Requested convergence on RMS density matrix=1.00D-08 within 128 cycles.
 Requested convergence on MAX density matrix=1.00D-06.
 Requested convergence on             energy=1.00D-06.
 No special actions if energy rises.
 Defaulting to unpruned grid for atomic number  81.
 Defaulting to unpruned grid for atomic number  81.
 Defaulting to unpruned grid for atomic number  81.
 Defaulting to unpruned grid for atomic number  81.
 Defaulting to unpruned grid for atomic number  81.
 Defaulting to unpruned grid for atomic number  81.
 Defaulting to unpruned grid for atomic number  81.
 Defaulting to unpruned grid for atomic number  81.
 Rare condition: small coef for last iteration:  0.000D+00
 SCF Done:  E(UPBE-PBE) =  -247.683520846     A.U. after   10 cycles
            NFock= 10  Conv=0.56D-08     -V/T= 2.8849
 <Sx>= 0.0000 <Sy>= 0.0000 <Sz>= 0.5000 <S**2>= 0.7567 S= 0.5033
 <L.S>=  0.00000000000    
 Annihilation of the first spin contaminant:
 S**2 before annihilation     0.7567,   after     0.7500
   4 Symmetry operations used in ECPInt.
 ECPInt:  NShTT=     780 NPrTT=    2973 LenC2=     781 LenP2D=    2709.
 LDataN:  DoStor=T MaxTD1=10 Len=  848
 Calling FoFJK, ICntrl=      2527 FMM=F ISym2X=1 I1Cent= 0 IOpClX= 0 NMat=1 NMatS=1 NMatT=0.
 Defaulting to unpruned grid for atomic number  81.
 Defaulting to unpruned grid for atomic number  81.
 Defaulting to unpruned grid for atomic number  81.
 Defaulting to unpruned grid for atomic number  81.
 Defaulting to unpruned grid for atomic number  81.
 Defaulting to unpruned grid for atomic number  81.
 Defaulting to unpruned grid for atomic number  81.
 Defaulting to unpruned grid for atomic number  81.
 ***** Axes restored to original set *****
 -------------------------------------------------------------------
 Center     Atomic                   Forces (Hartrees/Bohr)
 Number     Number              X              Y              Z
 -------------------------------------------------------------------
      1       81          -0.000000000   -0.000000000    0.000086432
      2        8          -0.000000000   -0.000000000   -0.000086432
 -------------------------------------------------------------------
 Cartesian Forces:  Max     0.000086432 RMS     0.000049902

 GradGradGradGradGradGradGradGradGradGradGradGradGradGradGradGradGradGrad
 Berny optimization.
 Using GEDIIS/GDIIS optimizer.
 Internal  Forces:  Max     0.000086432 RMS     0.000086432
 Search for a local minimum.
 Step number   3 out of a maximum of   20
 All quantities printed in internal units (Hartrees-Bohrs-Radians)
 Mixed Optimization -- En-DIIS/RFO-DIIS
 Update second derivatives using D2CorX and points    2    3
 DE= -1.38D-04 DEPred=-1.01D-04 R= 1.37D+00
 TightC=F SS=  1.41D+00  RLast= 4.36D-02 DXNew= 6.1257D-01 1.3067D-01
 Trust test= 1.37D+00 RLast= 4.36D-02 DXMaxT set to 3.64D-01
 The second derivative matrix:
                          R1
           R1           0.15308
 ITU=  1  1
 Use linear search instead of GDIIS.
     Eigenvalues ---    0.15308
 RFO step:  Lambda= 0.00000000D+00 EMin= 1.53076194D-01
 Quartic linear search produced a step of -0.01383.
 Iteration  1 RMS(Cart)=  0.00042587 RMS(Int)=  0.00000000
 Iteration  2 RMS(Cart)=  0.00000000 RMS(Int)=  0.00000000
 ClnCor:  largest displacement from symmetrization is 0.00D+00 for atom     0.
 Variable       Old X    -DE/DX   Delta X   Delta X   Delta X     New X
                                 (Linear)    (Quad)   (Total)
    R1        3.80088  -0.00009  -0.00060   0.00000  -0.00060   3.80028
         Item               Value     Threshold  Converged?
 Maximum Force            0.000086     0.000450     YES
 RMS     Force            0.000086     0.000300     YES
 Maximum Displacement     0.000301     0.001800     YES
 RMS     Displacement     0.000426     0.001200     YES
 Predicted change in Energy=-2.429286D-08
 Optimization completed.
    -- Stationary point found.
                           ----------------------------
                           !   Optimized Parameters   !
                           ! (Angstroms and Degrees)  !
 --------------------------                            --------------------------
 ! Name  Definition              Value          Derivative Info.                !
 --------------------------------------------------------------------------------
 ! R1    R(1,2)                  2.0113         -DE/DX =   -0.0001              !
 --------------------------------------------------------------------------------
 GradGradGradGradGradGradGradGradGradGradGradGradGradGradGradGradGradGrad

                          Input orientation:                          
 ---------------------------------------------------------------------
 Center     Atomic      Atomic             Coordinates (Angstroms)
 Number     Number       Type             X           Y           Z
 ---------------------------------------------------------------------
      1         81           0        8.000000    8.000000    6.994331
      2          8           0        8.000000    8.000000    9.005669
 ---------------------------------------------------------------------
 Stoichiometry    OTl(2)
 Framework group  C*V[C*(OTl)]
 Deg. of freedom     1
 Full point group                 C*V     NOp   4
 Largest Abelian subgroup         C2V     NOp   4
 Largest concise Abelian subgroup C1      NOp   1
                         Standard orientation:                         
 ---------------------------------------------------------------------
 Center     Atomic      Atomic             Coordinates (Angstroms)
 Number     Number       Type             X           Y           Z
 ---------------------------------------------------------------------
      1         81           0        0.000000    0.000000    0.180795
      2          8           0        0.000000    0.000000   -1.830544
 ---------------------------------------------------------------------
 Rotational constants (GHZ):           0.0000000           8.4197095           8.4197095

 **********************************************************************

            Population analysis using the SCF Density.

 **********************************************************************

 Orbital symmetries:
 Alpha Orbitals:
       Occupied  (SG) (SG) (PI) (PI) (SG) (SG) (DLTA) (DLTA) (PI)
                 (PI) (SG) (SG) (SG) (PI) (PI)
       Virtual   (PI) (PI) (SG) (SG) (PI) (PI) (SG) (DLTA) (DLTA)
                 (PI) (PI) (SG) (PI) (PI) (SG) (SG) (PI) (PI) (DLTA)
                 (DLTA) (PHI) (PHI) (SG) (DLTA) (DLTA) (PI) (PI)
                 (SG) (PI) (PI) (SG) (SG) (SG) (PI) (PI) (DLTA)
                 (DLTA) (PI) (PI) (PHI) (PHI) (DLTA) (DLTA) (SG)
                 (PI) (PI) (SG) (DLTA) (DLTA) (PI) (PI) (?A) (?A)
                 (PHI) (PHI) (PI) (PI) (SG) (DLTA) (DLTA) (SG)
                 (SG) (PI) (PI) (SG) (DLTA) (DLTA) (PI) (PI) (PHI)
                 (PHI) (SG) (PHI) (PHI) (SG) (DLTA) (DLTA) (PI)
                 (PI) (DLTA) (DLTA) (SG) (PI) (PI) (SG) (PI) (PI)
                 (SG) (PHI) (PHI) (DLTA) (DLTA) (PI) (PI) (SG)
                 (PHI) (PHI) (DLTA) (DLTA) (SG) (PI) (PI) (?A)
                 (?A) (PHI) (PHI) (DLTA) (DLTA) (SG) (PI) (PI)
                 (SG) (DLTA) (DLTA) (PI) (PI) (SG) (SG) (PI) (PI)
                 (SG) (SG) (SG) (SG)
 Beta  Orbitals:
       Occupied  (SG) (SG) (PI) (PI) (SG) (SG) (DLTA) (DLTA) (PI)
                 (PI) (SG) (SG) (PI) (PI)
       Virtual   (SG) (PI) (PI) (SG) (SG) (PI) (PI) (SG) (DLTA)
                 (DLTA) (PI) (PI) (SG) (PI) (PI) (SG) (SG) (PI)
                 (PI) (DLTA) (DLTA) (PHI) (PHI) (DLTA) (DLTA) (SG)
                 (PI) (PI) (SG) (PI) (PI) (SG) (SG) (SG) (PI) (PI)
                 (DLTA) (DLTA) (PI) (PI) (PHI) (PHI) (DLTA) (DLTA)
                 (SG) (PI) (PI) (DLTA) (DLTA) (SG) (PI) (PI) (?A)
                 (?A) (PHI) (PHI) (PI) (PI) (SG) (DLTA) (DLTA)
                 (SG) (SG) (PI) (PI) (SG) (DLTA) (DLTA) (PI) (PI)
                 (PHI) (PHI) (SG) (PHI) (PHI) (DLTA) (DLTA) (SG)
                 (PI) (PI) (DLTA) (DLTA) (SG) (PI) (PI) (SG) (PI)
                 (PI) (SG) (PHI) (PHI) (DLTA) (DLTA) (PI) (PI)
                 (SG) (PHI) (PHI) (?A) (?A) (DLTA) (DLTA) (PI)
                 (PI) (SG) (PHI) (PHI) (DLTA) (DLTA) (SG) (PI)
                 (PI) (SG) (DLTA) (DLTA) (PI) (PI) (SG) (SG) (PI)
                 (PI) (SG) (SG) (SG) (SG)
 The electronic state is 2-SG.
 Alpha  occ. eigenvalues --  -18.73833  -4.85232  -2.86329  -2.86329  -2.86155
 Alpha  occ. eigenvalues --   -0.81057  -0.59089  -0.59088  -0.59044  -0.59044
 Alpha  occ. eigenvalues --   -0.58365  -0.38096  -0.24997  -0.22583  -0.22583
 Alpha virt. eigenvalues --   -0.07892  -0.07892  -0.01872   0.03105   0.04559
 Alpha virt. eigenvalues --    0.04559   0.07477   0.09516   0.09516   0.11212
 Alpha virt. eigenvalues --    0.11212   0.13625   0.26712   0.26712   0.28787
 Alpha virt. eigenvalues --    0.29121   0.35438   0.35438   0.41137   0.41137
 Alpha virt. eigenvalues --    0.42206   0.42206   0.42542   0.42816   0.42816
 Alpha virt. eigenvalues --    0.43885   0.43885   0.47196   0.51410   0.51410
 Alpha virt. eigenvalues --    0.65742   0.88424   1.01226   1.04112   1.04112
 Alpha virt. eigenvalues --    1.05244   1.05244   1.09803   1.09803   1.11318
 Alpha virt. eigenvalues --    1.11318   1.12311   1.12312   1.16031   1.22958
 Alpha virt. eigenvalues --    1.22958   1.29559   1.30513   1.30513   1.36360
 Alpha virt. eigenvalues --    1.36360   1.41260   1.41260   1.41323   1.41323
 Alpha virt. eigenvalues --    1.41576   1.41576   1.41589   1.52374   1.52374
 Alpha virt. eigenvalues --    1.76523   1.83428   1.90981   1.90981   2.37848
 Alpha virt. eigenvalues --    2.80932   2.80933   2.81673   2.81673   2.83648
 Alpha virt. eigenvalues --    2.83648   2.99901   3.09025   3.09025   3.21168
 Alpha virt. eigenvalues --    3.21659   3.21659   3.52979   3.52979   3.77331
 Alpha virt. eigenvalues --    3.77331   3.81640   4.12483   4.12483   4.25562
 Alpha virt. eigenvalues --    4.99555   4.99555   5.48792   7.65013   7.65013
 Alpha virt. eigenvalues --    7.65346   7.65365   7.75699   7.75699   7.84196
 Alpha virt. eigenvalues --    8.75949   8.75949   8.75997   8.75997   8.79001
 Alpha virt. eigenvalues --    8.79069   8.79069   8.79263   8.79264  10.81809
 Alpha virt. eigenvalues --   10.81809  10.84300  10.84300  10.97897  11.00238
 Alpha virt. eigenvalues --   11.00238  11.41543  11.83256  11.83256  12.01720
 Alpha virt. eigenvalues --   12.01720  12.19706  12.67527  31.76869  31.76869
 Alpha virt. eigenvalues --   32.72151  46.87650  79.66337 251.33740
  Beta  occ. eigenvalues --  -18.72064  -4.85097  -2.86252  -2.86252  -2.85934
  Beta  occ. eigenvalues --   -0.76802  -0.59032  -0.59032  -0.58776  -0.58776
  Beta  occ. eigenvalues --   -0.57315  -0.35736  -0.20925  -0.20925
  Beta virt. eigenvalues --   -0.18414  -0.07320  -0.07320  -0.00363   0.03559
  Beta virt. eigenvalues --    0.04684   0.04684   0.08844   0.09693   0.09693
  Beta virt. eigenvalues --    0.11879   0.11879   0.14473   0.26917   0.26917
  Beta virt. eigenvalues --    0.30029   0.31364   0.36138   0.36138   0.41954
  Beta virt. eigenvalues --    0.41954   0.42332   0.42332   0.42700   0.42700
  Beta virt. eigenvalues --    0.42929   0.44775   0.44775   0.48966   0.52417
  Beta virt. eigenvalues --    0.52417   0.66965   0.90214   1.03170   1.04325
  Beta virt. eigenvalues --    1.04325   1.05813   1.05813   1.10715   1.10715
  Beta virt. eigenvalues --    1.11381   1.11381   1.12611   1.12611   1.16891
  Beta virt. eigenvalues --    1.25002   1.25002   1.30654   1.30654   1.31806
  Beta virt. eigenvalues --    1.37371   1.37371   1.41345   1.41346   1.41795
  Beta virt. eigenvalues --    1.41795   1.42894   1.42894   1.46031   1.53287
  Beta virt. eigenvalues --    1.53288   1.77578   1.85409   1.92684   1.92684
  Beta virt. eigenvalues --    2.40331   2.81457   2.81457   2.83128   2.83128
  Beta virt. eigenvalues --    2.83710   2.83710   3.01545   3.09263   3.09263
  Beta virt. eigenvalues --    3.23877   3.23877   3.26108   3.56766   3.56766
  Beta virt. eigenvalues --    3.78451   3.78451   3.85385   4.17833   4.17833
  Beta virt. eigenvalues --    4.33787   5.01002   5.01002   5.55387   7.65104
  Beta virt. eigenvalues --    7.65104   7.65546   7.65566   7.76136   7.76136
  Beta virt. eigenvalues --    7.84700   8.78906   8.78906   8.79500   8.79500
  Beta virt. eigenvalues --    8.81230   8.81230   8.85889   8.85889   8.86467
  Beta virt. eigenvalues --   10.82505  10.82505  10.89458  10.89458  11.06311
  Beta virt. eigenvalues --   11.08959  11.08959  11.44448  11.84720  11.84720
  Beta virt. eigenvalues --   12.10264  12.10264  12.32548  12.71704  31.76979
  Beta virt. eigenvalues --   31.76979  32.72368  46.91210  79.66438 251.34703
          Condensed to atoms (all electrons):
               1          2
     1  Tl  20.136775   0.303787
     2  O    0.303787   8.255651
          Atomic-Atomic Spin Densities.
               1          2
     1  Tl   0.314274  -0.061941
     2  O   -0.061941   0.809609
 Mulliken charges and spin densities:
               1          2
     1  Tl   0.559438   0.252332
     2  O   -0.559438   0.747668
 Sum of Mulliken charges =  -0.00000   1.00000
 Mulliken charges and spin densities with hydrogens summed into heavy atoms:
               1          2
     1  Tl   0.559438   0.252332
     2  O   -0.559438   0.747668
 Electronic spatial extent (au):  <R**2>=            170.1410
 Charge=             -0.0000 electrons
 Dipole moment (field-independent basis, Debye):
    X=              0.0000    Y=              0.0000    Z=              4.2242  Tot=              4.2242
 Quadrupole moment (field-independent basis, Debye-Ang):
   XX=            -29.6158   YY=            -29.6158   ZZ=            -37.5566
   XY=              0.0000   XZ=              0.0000   YZ=              0.0000
 Traceless Quadrupole moment (field-independent basis, Debye-Ang):
   XX=              2.6469   YY=              2.6469   ZZ=             -5.2939
   XY=              0.0000   XZ=              0.0000   YZ=              0.0000
 Octapole moment (field-independent basis, Debye-Ang**2):
  XXX=              0.0000  YYY=              0.0000  ZZZ=             30.7075  XYY=              0.0000
  XXY=              0.0000  XXZ=              8.1413  XZZ=              0.0000  YZZ=              0.0000
  YYZ=              8.1413  XYZ=              0.0000
 Hexadecapole moment (field-independent basis, Debye-Ang**3):
 XXXX=            -34.8115 YYYY=            -34.8115 ZZZZ=           -177.2929 XXXY=              0.0000
 XXXZ=              0.0000 YYYX=              0.0000 YYYZ=              0.0000 ZZZX=              0.0000
 ZZZY=              0.0000 XXYY=            -11.6038 XXZZ=            -35.3682 YYZZ=            -35.3682
 XXYZ=              0.0000 YYXZ=              0.0000 ZZXY=              0.0000
 N-N= 4.420029490357D+01 E-N=-6.250231558863D+02  KE= 1.314010353373D+02
 Symmetry A1   KE= 9.210609367161D+01
 Symmetry A2   KE= 6.181365831539D+00
 Symmetry B1   KE= 1.655678791708D+01
 Symmetry B2   KE= 1.655678791708D+01
 Symmetry A1   SP= 1.000000000000D+00
 Symmetry A2   SP= 1.766784731822D-15
 Symmetry B1   SP=-1.641693847380D-15
 Symmetry B2   SP= 5.527931831359D-15
                          Isotropic Fermi Contact Couplings
        Atom                 a.u.       MegaHertz       Gauss      10(-4) cm-1
     1  Tl(205             0.00001       0.01543       0.00551       0.00515
     2  O(17)              0.01378      -8.35538      -2.98141      -2.78705
 --------------------------------------------------------
       Center         ----  Spin Dipole Couplings  ----
                      3XX-RR        3YY-RR        3ZZ-RR
 --------------------------------------------------------
     1   Atom       -0.033034     -0.033034      0.066068
     2   Atom       -1.412034     -1.412034      2.824069
 --------------------------------------------------------
                        XY            XZ            YZ
 --------------------------------------------------------
     1   Atom        0.000000      0.000000      0.000000
     2   Atom        0.000000      0.000000      0.000000
 --------------------------------------------------------


 ---------------------------------------------------------------------------------
              Anisotropic Spin Dipole Couplings in Principal Axis System
 ---------------------------------------------------------------------------------

       Atom             a.u.   MegaHertz   Gauss  10(-4) cm-1        Axes

              Baa    -0.0330   -10.339    -3.689    -3.449  1.0000  0.0000  0.0000
     1 Tl(205 Bbb    -0.0330   -10.339    -3.689    -3.449 -0.0000  1.0000  0.0000
              Bcc     0.0661    20.677     7.378     6.897  0.0000  0.0000  1.0000
 
              Baa    -1.4120   102.174    36.458    34.082  1.0000  0.0000  0.0000
     2 O(17)  Bbb    -1.4120   102.174    36.458    34.082 -0.0000  1.0000  0.0000
              Bcc     2.8241  -204.348   -72.916   -68.163  0.0000  0.0000  1.0000
 

 ---------------------------------------------------------------------------------

 Unable to Open any file for archive entry.
 1\1\GINC-TCOPT10\FOpt\UPBEPBE\def2QZVPP\O1Tl1(2)\HUTTER\30-Jul-2021\0\
 \#N UPBEPBE/Def2QZVPP scf=tight Int(Grid=ultrafine) OPT FREQ\\Mol job 
 1\\0,2\Tl,8.,8.,6.9943305624\O,8.,8.,9.0056694376\\Version=ES64L-G16Re
 vC.01\State=2-SG\HF=-247.6835208\S2=0.756687\S2-1=0.\S2A=0.750035\RMSD
 =5.590e-09\RMSF=4.990e-05\Dipole=0.,0.,-1.661929\Quadrupole=1.9679317,
 1.9679317,-3.9358634,0.,0.,0.\PG=C*V [C*(O1Tl1)]\\@
 The archive entry for this job was punched.


 THERE ARE PEOPLE SO ADDICTED TO EXAGERATING THEY
 CAN'T TELL THE TRUTH WITHOUT LYING. -- FORTUNE COOKIE
 Job cpu time:       0 days  0 hours  6 minutes  6.7 seconds.
 Elapsed time:       0 days  0 hours  0 minutes 46.7 seconds.
 File lengths (MBytes):  RWF=     18 Int=      0 D2E=      0 Chk=      3 Scr=      1
 Normal termination of Gaussian 16 at Fri Jul 30 21:07:25 2021.
 Link1:  Proceeding to internal job step number  2.
 ----------------------------------------------------------------------
 #N Geom=AllCheck Guess=TCheck SCRF=Check GenChk UPBEPBE/def2QZVPP Freq
 ----------------------------------------------------------------------
 1/10=4,29=7,30=1,38=1,40=1/1,3;
 2/12=2,40=1/2;
 3/5=45,7=202,11=2,14=-4,25=1,30=1,70=2,71=2,74=1009,75=-5,116=2,140=1/1,2,3;
 4/5=101/1;
 5/5=2,32=2,38=6,98=1/2;
 8/6=4,10=90,11=11/1;
 11/6=1,8=1,9=11,15=111,16=1/1,2,10;
 10/6=1/2;
 6/7=2,8=2,9=2,10=2,28=1/1;
 7/8=1,10=1,25=1/1,2,3,16;
 1/10=4,30=1/3;
 99//99;
 Structure from the checkpoint file:  "/data/hutter/SMG16/PBE/Gau-37369.chk"
 ---------
 Mol job 1
 ---------
 Charge =  0 Multiplicity = 2
 Redundant internal coordinates found in file.  (old form).
 Tl,0,8.,8.,6.9943305624
 O,0,8.,8.,9.0056694376
 Recover connectivity data from disk.

 GradGradGradGradGradGradGradGradGradGradGradGradGradGradGradGradGradGrad
 Berny optimization.
 Initialization pass.
                           ----------------------------
                           !    Initial Parameters    !
                           ! (Angstroms and Degrees)  !
 --------------------------                            --------------------------
 ! Name  Definition              Value          Derivative Info.                !
 --------------------------------------------------------------------------------
 ! R1    R(1,2)                  2.0113         calculate D2E/DX2 analytically  !
 --------------------------------------------------------------------------------
 Trust Radius=3.00D-01 FncErr=1.00D-07 GrdErr=1.00D-07 EigMax=2.50D+02 EigMin=1.00D-04
 Number of steps in this run=      2 maximum allowed number of steps=      2.
 GradGradGradGradGradGradGradGradGradGradGradGradGradGradGradGradGradGrad

                          Input orientation:                          
 ---------------------------------------------------------------------
 Center     Atomic      Atomic             Coordinates (Angstroms)
 Number     Number       Type             X           Y           Z
 ---------------------------------------------------------------------
      1         81           0        8.000000    8.000000    6.994331
      2          8           0        8.000000    8.000000    9.005669
 ---------------------------------------------------------------------
 Stoichiometry    OTl(2)
 Framework group  C*V[C*(OTl)]
 Deg. of freedom     1
 Full point group                 C*V     NOp   4
 Largest Abelian subgroup         C2V     NOp   4
 Largest concise Abelian subgroup C1      NOp   1
                         Standard orientation:                         
 ---------------------------------------------------------------------
 Center     Atomic      Atomic             Coordinates (Angstroms)
 Number     Number       Type             X           Y           Z
 ---------------------------------------------------------------------
      1         81           0        0.000000    0.000000    0.180795
      2          8           0        0.000000    0.000000   -1.830544
 ---------------------------------------------------------------------
 Rotational constants (GHZ):           0.0000000           8.4197095           8.4197095
 Standard basis: def2QZVPP (5D, 7F)
 There are    75 symmetry adapted cartesian basis functions of A1  symmetry.
 There are    19 symmetry adapted cartesian basis functions of A2  symmetry.
 There are    41 symmetry adapted cartesian basis functions of B1  symmetry.
 There are    41 symmetry adapted cartesian basis functions of B2  symmetry.
 There are    56 symmetry adapted basis functions of A1  symmetry.
 There are    17 symmetry adapted basis functions of A2  symmetry.
 There are    33 symmetry adapted basis functions of B1  symmetry.
 There are    33 symmetry adapted basis functions of B2  symmetry.
   139 basis functions,   266 primitive gaussians,   176 cartesian basis functions
    15 alpha electrons       14 beta electrons
       nuclear repulsion energy        44.2002949036 Hartrees.
 NAtoms=    2 NActive=    2 NUniq=    2 SFac= 1.00D+00 NAtFMM=   60 NAOKFM=F Big=F
 Integral buffers will be    131072 words long.
 Raffenetti 2 integral format.
 Two-electron integral symmetry is turned on.
 One-electron integrals computed using PRISM.
   4 Symmetry operations used in ECPInt.
 ECPInt:  NShTT=     780 NPrTT=    2973 LenC2=     781 LenP2D=    2709.
 LDataN:  DoStor=T MaxTD1= 9 Len=  602
 NBasis=   139 RedAO= T EigKep=  8.78D-04  NBF=    56    17    33    33
 NBsUse=   139 1.00D-06 EigRej= -1.00D+00 NBFU=    56    17    33    33
 Defaulting to unpruned grid for atomic number  81.
 Initial guess from the checkpoint file:  "/data/hutter/SMG16/PBE/Gau-37369.chk"
 B after Tr=     0.000000    0.000000    0.000000
         Rot=    1.000000    0.000000    0.000000    0.000000 Ang=   0.00 deg.
 Initial guess orbital symmetries:
 Alpha Orbitals:
       Occupied  (SG) (SG) (PI) (PI) (SG) (SG) (DLTA) (DLTA) (PI)
                 (PI) (SG) (SG) (SG) (PI) (PI)
       Virtual   (PI) (PI) (SG) (SG) (PI) (PI) (SG) (DLTA) (DLTA)
                 (PI) (PI) (SG) (PI) (PI) (SG) (SG) (PI) (PI) (DLTA)
                 (DLTA) (PHI) (PHI) (SG) (DLTA) (DLTA) (PI) (PI)
                 (SG) (PI) (PI) (SG) (SG) (SG) (PI) (PI) (DLTA)
                 (DLTA) (PI) (PI) (PHI) (PHI) (DLTA) (DLTA) (SG)
                 (PI) (PI) (SG) (DLTA) (DLTA) (PI) (PI) (?A) (?A)
                 (PHI) (PHI) (PI) (PI) (SG) (DLTA) (DLTA) (SG)
                 (SG) (PI) (PI) (SG) (DLTA) (DLTA) (PI) (PI) (PHI)
                 (PHI) (SG) (PHI) (PHI) (SG) (DLTA) (DLTA) (PI)
                 (PI) (DLTA) (DLTA) (SG) (PI) (PI) (SG) (PI) (PI)
                 (SG) (PHI) (PHI) (DLTA) (DLTA) (PI) (PI) (SG)
                 (PHI) (PHI) (DLTA) (DLTA) (SG) (PI) (PI) (?A)
                 (?A) (PHI) (PHI) (DLTA) (DLTA) (SG) (PI) (PI)
                 (SG) (DLTA) (DLTA) (PI) (PI) (SG) (SG) (PI) (PI)
                 (SG) (SG) (SG) (SG)
 Beta  Orbitals:
       Occupied  (SG) (SG) (PI) (PI) (SG) (SG) (DLTA) (DLTA) (PI)
                 (PI) (SG) (SG) (PI) (PI)
       Virtual   (SG) (PI) (PI) (SG) (SG) (PI) (PI) (SG) (DLTA)
                 (DLTA) (PI) (PI) (SG) (PI) (PI) (SG) (SG) (PI)
                 (PI) (DLTA) (DLTA) (PHI) (PHI) (DLTA) (DLTA) (SG)
                 (PI) (PI) (SG) (PI) (PI) (SG) (SG) (SG) (PI) (PI)
                 (DLTA) (DLTA) (PI) (PI) (PHI) (PHI) (DLTA) (DLTA)
                 (SG) (PI) (PI) (DLTA) (DLTA) (SG) (PI) (PI) (?A)
                 (?A) (PHI) (PHI) (PI) (PI) (SG) (DLTA) (DLTA)
                 (SG) (SG) (PI) (PI) (SG) (DLTA) (DLTA) (PI) (PI)
                 (PHI) (PHI) (SG) (PHI) (PHI) (DLTA) (DLTA) (SG)
                 (PI) (PI) (DLTA) (DLTA) (SG) (PI) (PI) (SG) (PI)
                 (PI) (SG) (PHI) (PHI) (DLTA) (DLTA) (PI) (PI)
                 (SG) (PHI) (PHI) (?A) (?A) (DLTA) (DLTA) (PI)
                 (PI) (SG) (PHI) (PHI) (DLTA) (DLTA) (SG) (PI)
                 (PI) (SG) (DLTA) (DLTA) (PI) (PI) (SG) (SG) (PI)
                 (PI) (SG) (SG) (SG) (SG)
 Initial guess <Sx>= 0.0000 <Sy>= 0.0000 <Sz>= 0.5000 <S**2>= 0.7567 S= 0.5033
 Keep J ints in memory in symmetry-blocked form, NReq=59379869.
 Requested convergence on RMS density matrix=1.00D-08 within 128 cycles.
 Requested convergence on MAX density matrix=1.00D-06.
 Requested convergence on             energy=1.00D-06.
 No special actions if energy rises.
 Defaulting to unpruned grid for atomic number  81.
 Defaulting to unpruned grid for atomic number  81.
 Defaulting to unpruned grid for atomic number  81.
 Defaulting to unpruned grid for atomic number  81.
 Defaulting to unpruned grid for atomic number  81.
 Defaulting to unpruned grid for atomic number  81.
 Defaulting to unpruned grid for atomic number  81.
 Defaulting to unpruned grid for atomic number  81.
 SCF Done:  E(UPBE-PBE) =  -247.683520846     A.U. after    1 cycles
            NFock=  1  Conv=0.48D-08     -V/T= 2.8849
 <Sx>= 0.0000 <Sy>= 0.0000 <Sz>= 0.5000 <S**2>= 0.7567 S= 0.5033
 <L.S>=  0.00000000000    
 Annihilation of the first spin contaminant:
 S**2 before annihilation     0.7567,   after     0.7500
 DoSCS=F DFT=T ScalE2(SS,OS)=  1.000000  1.000000
 Range of M.O.s used for correlation:     1   139
 NBasis=   139 NAE=    15 NBE=    14 NFC=     0 NFV=     0
 NROrb=    139 NOA=    15 NOB=    14 NVA=   124 NVB=   125

 **** Warning!!: The largest alpha MO coefficient is  0.10251746D+02


 **** Warning!!: The smallest beta delta epsilon is  0.25104203D-01

   4 Symmetry operations used in ECPInt.
 ECPInt:  NShTT=     780 NPrTT=    2973 LenC2=     781 LenP2D=    2709.
 LDataN:  DoStor=T MaxTD1=10 Len=  848
 Symmetrizing basis deriv contribution to polar:
 IMax=3 JMax=2 DiffMx= 0.00D+00
 G2DrvN: will do     3 centers at a time, making    1 passes.
 Calling FoFCou, ICntrl=  3507 FMM=F I1Cent=   0 AccDes= 0.00D+00.
 Defaulting to unpruned grid for atomic number  81.
 Defaulting to unpruned grid for atomic number  81.
 Defaulting to unpruned grid for atomic number  81.
 Defaulting to unpruned grid for atomic number  81.
 Defaulting to unpruned grid for atomic number  81.
 Defaulting to unpruned grid for atomic number  81.
 Defaulting to unpruned grid for atomic number  81.
 Defaulting to unpruned grid for atomic number  81.
 End of G2Drv F.D. properties file   721 does not exist.
 End of G2Drv F.D. properties file   722 does not exist.
 End of G2Drv F.D. properties file   788 does not exist.
          IDoAtm=11
          Differentiating once with respect to electric field.
                with respect to dipole field.
          Differentiating once with respect to nuclear coordinates.
 Defaulting to unpruned grid for atomic number  81.
 Keep J ints in memory in symmetry-blocked form, NReq=59381400.
 Defaulting to unpruned grid for atomic number  81.
 Defaulting to unpruned grid for atomic number  81.
 Defaulting to unpruned grid for atomic number  81.
 Defaulting to unpruned grid for atomic number  81.
 Defaulting to unpruned grid for atomic number  81.
 Defaulting to unpruned grid for atomic number  81.
 Defaulting to unpruned grid for atomic number  81.
 Defaulting to unpruned grid for atomic number  81.
          There are     9 degrees of freedom in the 1st order CPHF.  IDoFFX=6 NUNeed=     3.
      6 vectors produced by pass  0 Test12= 4.01D-14 1.11D-08 XBig12= 3.94D+02 1.11D+01.
 AX will form     6 AO Fock derivatives at one time.
      6 vectors produced by pass  1 Test12= 4.01D-14 1.11D-08 XBig12= 4.85D+02 1.01D+01.
      6 vectors produced by pass  2 Test12= 4.01D-14 1.11D-08 XBig12= 2.19D+01 1.72D+00.
      6 vectors produced by pass  3 Test12= 4.01D-14 1.11D-08 XBig12= 5.68D+00 5.73D-01.
      6 vectors produced by pass  4 Test12= 4.01D-14 1.11D-08 XBig12= 2.00D-01 1.53D-01.
      6 vectors produced by pass  5 Test12= 4.01D-14 1.11D-08 XBig12= 5.82D-03 2.39D-02.
      6 vectors produced by pass  6 Test12= 4.01D-14 1.11D-08 XBig12= 1.74D-05 7.64D-04.
      6 vectors produced by pass  7 Test12= 4.01D-14 1.11D-08 XBig12= 2.38D-07 1.33D-04.
      4 vectors produced by pass  8 Test12= 4.01D-14 1.11D-08 XBig12= 4.54D-09 1.92D-05.
      3 vectors produced by pass  9 Test12= 4.01D-14 1.11D-08 XBig12= 6.60D-11 1.79D-06.
      1 vectors produced by pass 10 Test12= 4.01D-14 1.11D-08 XBig12= 3.32D-13 1.10D-07.
 InvSVY:  IOpt=1 It=  1 EMax= 2.22D-16
 Solved reduced A of dimension    56 with     6 vectors.
 Isotropic polarizability for W=    0.000000       47.22 Bohr**3.
 End of Minotr F.D. properties file   721 does not exist.
 End of Minotr F.D. properties file   722 does not exist.
 End of Minotr F.D. properties file   788 does not exist.

 **********************************************************************

            Population analysis using the SCF Density.

 **********************************************************************

 Orbital symmetries:
 Alpha Orbitals:
       Occupied  (SG) (SG) (PI) (PI) (SG) (SG) (DLTA) (DLTA) (PI)
                 (PI) (SG) (SG) (SG) (PI) (PI)
       Virtual   (PI) (PI) (SG) (SG) (PI) (PI) (SG) (DLTA) (DLTA)
                 (PI) (PI) (SG) (PI) (PI) (SG) (SG) (PI) (PI) (DLTA)
                 (DLTA) (PHI) (PHI) (SG) (DLTA) (DLTA) (PI) (PI)
                 (SG) (PI) (PI) (SG) (SG) (SG) (PI) (PI) (DLTA)
                 (DLTA) (PI) (PI) (PHI) (PHI) (DLTA) (DLTA) (SG)
                 (PI) (PI) (SG) (DLTA) (DLTA) (PI) (PI) (?A) (?A)
                 (PHI) (PHI) (PI) (PI) (SG) (DLTA) (DLTA) (SG)
                 (SG) (PI) (PI) (SG) (DLTA) (DLTA) (PI) (PI) (PHI)
                 (PHI) (SG) (PHI) (PHI) (SG) (DLTA) (DLTA) (PI)
                 (PI) (DLTA) (DLTA) (SG) (PI) (PI) (SG) (PI) (PI)
                 (SG) (PHI) (PHI) (DLTA) (DLTA) (PI) (PI) (SG)
                 (PHI) (PHI) (DLTA) (DLTA) (SG) (PI) (PI) (?A)
                 (?A) (PHI) (PHI) (DLTA) (DLTA) (SG) (PI) (PI)
                 (SG) (DLTA) (DLTA) (PI) (PI) (SG) (SG) (PI) (PI)
                 (SG) (SG) (SG) (SG)
 Beta  Orbitals:
       Occupied  (SG) (SG) (PI) (PI) (SG) (SG) (DLTA) (DLTA) (PI)
                 (PI) (SG) (SG) (PI) (PI)
       Virtual   (SG) (PI) (PI) (SG) (SG) (PI) (PI) (SG) (DLTA)
                 (DLTA) (PI) (PI) (SG) (PI) (PI) (SG) (SG) (PI)
                 (PI) (DLTA) (DLTA) (PHI) (PHI) (DLTA) (DLTA) (SG)
                 (PI) (PI) (SG) (PI) (PI) (SG) (SG) (SG) (PI) (PI)
                 (DLTA) (DLTA) (PI) (PI) (PHI) (PHI) (DLTA) (DLTA)
                 (SG) (PI) (PI) (DLTA) (DLTA) (SG) (PI) (PI) (?A)
                 (?A) (PHI) (PHI) (PI) (PI) (SG) (DLTA) (DLTA)
                 (SG) (SG) (PI) (PI) (SG) (DLTA) (DLTA) (PI) (PI)
                 (PHI) (PHI) (SG) (PHI) (PHI) (DLTA) (DLTA) (SG)
                 (PI) (PI) (DLTA) (DLTA) (SG) (PI) (PI) (SG) (PI)
                 (PI) (SG) (PHI) (PHI) (DLTA) (DLTA) (PI) (PI)
                 (SG) (PHI) (PHI) (?A) (?A) (DLTA) (DLTA) (PI)
                 (PI) (SG) (PHI) (PHI) (DLTA) (DLTA) (SG) (PI)
                 (PI) (SG) (DLTA) (DLTA) (PI) (PI) (SG) (SG) (PI)
                 (PI) (SG) (SG) (SG) (SG)
 The electronic state is 2-SG.
 Alpha  occ. eigenvalues --  -18.73833  -4.85232  -2.86329  -2.86329  -2.86155
 Alpha  occ. eigenvalues --   -0.81057  -0.59089  -0.59088  -0.59044  -0.59044
 Alpha  occ. eigenvalues --   -0.58365  -0.38096  -0.24997  -0.22583  -0.22583
 Alpha virt. eigenvalues --   -0.07892  -0.07892  -0.01872   0.03105   0.04559
 Alpha virt. eigenvalues --    0.04559   0.07477   0.09516   0.09516   0.11212
 Alpha virt. eigenvalues --    0.11212   0.13625   0.26712   0.26712   0.28787
 Alpha virt. eigenvalues --    0.29121   0.35438   0.35438   0.41137   0.41137
 Alpha virt. eigenvalues --    0.42206   0.42206   0.42542   0.42816   0.42816
 Alpha virt. eigenvalues --    0.43885   0.43885   0.47196   0.51410   0.51410
 Alpha virt. eigenvalues --    0.65742   0.88424   1.01226   1.04112   1.04112
 Alpha virt. eigenvalues --    1.05244   1.05244   1.09803   1.09803   1.11319
 Alpha virt. eigenvalues --    1.11319   1.12311   1.12312   1.16031   1.22958
 Alpha virt. eigenvalues --    1.22958   1.29559   1.30513   1.30513   1.36360
 Alpha virt. eigenvalues --    1.36360   1.41260   1.41260   1.41323   1.41323
 Alpha virt. eigenvalues --    1.41576   1.41576   1.41589   1.52374   1.52374
 Alpha virt. eigenvalues --    1.76523   1.83428   1.90981   1.90981   2.37848
 Alpha virt. eigenvalues --    2.80932   2.80933   2.81673   2.81673   2.83648
 Alpha virt. eigenvalues --    2.83648   2.99901   3.09025   3.09025   3.21168
 Alpha virt. eigenvalues --    3.21659   3.21659   3.52979   3.52979   3.77331
 Alpha virt. eigenvalues --    3.77331   3.81640   4.12483   4.12483   4.25562
 Alpha virt. eigenvalues --    4.99555   4.99555   5.48792   7.65013   7.65013
 Alpha virt. eigenvalues --    7.65346   7.65365   7.75699   7.75699   7.84196
 Alpha virt. eigenvalues --    8.75949   8.75949   8.75997   8.75997   8.79001
 Alpha virt. eigenvalues --    8.79069   8.79069   8.79263   8.79264  10.81809
 Alpha virt. eigenvalues --   10.81809  10.84300  10.84300  10.97897  11.00238
 Alpha virt. eigenvalues --   11.00238  11.41543  11.83256  11.83256  12.01720
 Alpha virt. eigenvalues --   12.01720  12.19706  12.67527  31.76869  31.76869
 Alpha virt. eigenvalues --   32.72151  46.87650  79.66337 251.33740
  Beta  occ. eigenvalues --  -18.72065  -4.85097  -2.86252  -2.86252  -2.85934
  Beta  occ. eigenvalues --   -0.76802  -0.59032  -0.59032  -0.58776  -0.58776
  Beta  occ. eigenvalues --   -0.57315  -0.35736  -0.20925  -0.20925
  Beta virt. eigenvalues --   -0.18414  -0.07320  -0.07320  -0.00363   0.03559
  Beta virt. eigenvalues --    0.04684   0.04684   0.08844   0.09693   0.09693
  Beta virt. eigenvalues --    0.11879   0.11879   0.14473   0.26917   0.26917
  Beta virt. eigenvalues --    0.30029   0.31364   0.36138   0.36138   0.41954
  Beta virt. eigenvalues --    0.41954   0.42332   0.42332   0.42700   0.42700
  Beta virt. eigenvalues --    0.42929   0.44775   0.44775   0.48966   0.52417
  Beta virt. eigenvalues --    0.52417   0.66965   0.90214   1.03170   1.04325
  Beta virt. eigenvalues --    1.04325   1.05813   1.05813   1.10715   1.10715
  Beta virt. eigenvalues --    1.11381   1.11381   1.12611   1.12611   1.16891
  Beta virt. eigenvalues --    1.25002   1.25002   1.30654   1.30654   1.31806
  Beta virt. eigenvalues --    1.37371   1.37371   1.41345   1.41346   1.41795
  Beta virt. eigenvalues --    1.41795   1.42894   1.42894   1.46031   1.53287
  Beta virt. eigenvalues --    1.53288   1.77578   1.85409   1.92684   1.92684
  Beta virt. eigenvalues --    2.40331   2.81457   2.81457   2.83128   2.83128
  Beta virt. eigenvalues --    2.83710   2.83710   3.01545   3.09263   3.09263
  Beta virt. eigenvalues --    3.23877   3.23877   3.26107   3.56766   3.56766
  Beta virt. eigenvalues --    3.78450   3.78451   3.85384   4.17833   4.17833
  Beta virt. eigenvalues --    4.33787   5.01002   5.01002   5.55387   7.65104
  Beta virt. eigenvalues --    7.65104   7.65546   7.65566   7.76136   7.76136
  Beta virt. eigenvalues --    7.84700   8.78906   8.78906   8.79500   8.79500
  Beta virt. eigenvalues --    8.81230   8.81230   8.85889   8.85889   8.86467
  Beta virt. eigenvalues --   10.82505  10.82505  10.89458  10.89458  11.06311
  Beta virt. eigenvalues --   11.08959  11.08959  11.44448  11.84720  11.84720
  Beta virt. eigenvalues --   12.10264  12.10264  12.32548  12.71704  31.76979
  Beta virt. eigenvalues --   31.76979  32.72368  46.91210  79.66438 251.34703
          Condensed to atoms (all electrons):
               1          2
     1  Tl  20.136774   0.303787
     2  O    0.303787   8.255653
          Atomic-Atomic Spin Densities.
               1          2
     1  Tl   0.314274  -0.061942
     2  O   -0.061942   0.809609
 Mulliken charges and spin densities:
               1          2
     1  Tl   0.559439   0.252332
     2  O   -0.559439   0.747668
 Sum of Mulliken charges =  -0.00000   1.00000
 Mulliken charges and spin densities with hydrogens summed into heavy atoms:
               1          2
     1  Tl   0.559439   0.252332
     2  O   -0.559439   0.747668
 APT charges:
               1
     1  Tl   0.558374
     2  O   -0.558374
 Sum of APT charges =   0.00000
 APT charges with hydrogens summed into heavy atoms:
               1
     1  Tl   0.558374
     2  O   -0.558374
 Electronic spatial extent (au):  <R**2>=            170.1410
 Charge=             -0.0000 electrons
 Dipole moment (field-independent basis, Debye):
    X=              0.0000    Y=              0.0000    Z=              4.2242  Tot=              4.2242
 Quadrupole moment (field-independent basis, Debye-Ang):
   XX=            -29.6158   YY=            -29.6158   ZZ=            -37.5567
   XY=              0.0000   XZ=              0.0000   YZ=              0.0000
 Traceless Quadrupole moment (field-independent basis, Debye-Ang):
   XX=              2.6469   YY=              2.6469   ZZ=             -5.2939
   XY=              0.0000   XZ=              0.0000   YZ=              0.0000
 Octapole moment (field-independent basis, Debye-Ang**2):
  XXX=              0.0000  YYY=              0.0000  ZZZ=             30.7076  XYY=              0.0000
  XXY=              0.0000  XXZ=              8.1413  XZZ=              0.0000  YZZ=              0.0000
  YYZ=              8.1413  XYZ=              0.0000
 Hexadecapole moment (field-independent basis, Debye-Ang**3):
 XXXX=            -34.8114 YYYY=            -34.8114 ZZZZ=           -177.2930 XXXY=              0.0000
 XXXZ=              0.0000 YYYX=              0.0000 YYYZ=              0.0000 ZZZX=              0.0000
 ZZZY=              0.0000 XXYY=            -11.6038 XXZZ=            -35.3682 YYZZ=            -35.3682
 XXYZ=              0.0000 YYXZ=              0.0000 ZZXY=              0.0000
 N-N= 4.420029490357D+01 E-N=-6.250231684950D+02  KE= 1.314010409744D+02
 Symmetry A1   KE= 9.210609543789D+01
 Symmetry A2   KE= 6.181365815187D+00
 Symmetry B1   KE= 1.655678986065D+01
 Symmetry B2   KE= 1.655678986065D+01
 Symmetry A1   SP= 1.000000000000D+00
 Symmetry A2   SP=-1.075396100328D-15
 Symmetry B1   SP= 4.066185898459D-15
 Symmetry B2   SP= 1.027014743052D-15
  Exact polarizability:      43.718       0.000      43.718       0.000       0.000      54.230
 Approx polarizability:      63.189      -0.000      63.189      -0.000      -0.000     146.301
                          Isotropic Fermi Contact Couplings
        Atom                 a.u.       MegaHertz       Gauss      10(-4) cm-1
     1  Tl(205             0.00001       0.01543       0.00551       0.00515
     2  O(17)              0.01378      -8.35531      -2.98138      -2.78703
 --------------------------------------------------------
       Center         ----  Spin Dipole Couplings  ----
                      3XX-RR        3YY-RR        3ZZ-RR
 --------------------------------------------------------
     1   Atom       -0.033034     -0.033034      0.066068
     2   Atom       -1.412035     -1.412035      2.824069
 --------------------------------------------------------
                        XY            XZ            YZ
 --------------------------------------------------------
     1   Atom        0.000000      0.000000      0.000000
     2   Atom        0.000000      0.000000      0.000000
 --------------------------------------------------------


 ---------------------------------------------------------------------------------
              Anisotropic Spin Dipole Couplings in Principal Axis System
 ---------------------------------------------------------------------------------

       Atom             a.u.   MegaHertz   Gauss  10(-4) cm-1        Axes

              Baa    -0.0330   -10.339    -3.689    -3.449 -0.0000  1.0000  0.0000
     1 Tl(205 Bbb    -0.0330   -10.339    -3.689    -3.449  1.0000  0.0000  0.0000
              Bcc     0.0661    20.677     7.378     6.897  0.0000  0.0000  1.0000
 
              Baa    -1.4120   102.174    36.458    34.082 -0.0000  1.0000  0.0000
     2 O(17)  Bbb    -1.4120   102.174    36.458    34.082  1.0000  0.0000  0.0000
              Bcc     2.8241  -204.348   -72.916   -68.163  0.0000  0.0000  1.0000
 

 ---------------------------------------------------------------------------------

   4 Symmetry operations used in ECPInt.
 ECPInt:  NShTT=     780 NPrTT=    2973 LenC2=     781 LenP2D=    2709.
 LDataN:  DoStor=T MaxTD1=11 Len= 1166
 Calling FoFJK, ICntrl=    100527 FMM=F ISym2X=1 I1Cent= 0 IOpClX= 0 NMat=1 NMatS=1 NMatT=0.
 Defaulting to unpruned grid for atomic number  81.
 Defaulting to unpruned grid for atomic number  81.
 Defaulting to unpruned grid for atomic number  81.
 Defaulting to unpruned grid for atomic number  81.
 Defaulting to unpruned grid for atomic number  81.
 Defaulting to unpruned grid for atomic number  81.
 Defaulting to unpruned grid for atomic number  81.
 Defaulting to unpruned grid for atomic number  81.
 Full mass-weighted force constant matrix:
 Low frequencies ---    0.0003    0.0003    0.0004   27.5261   27.5261  505.4520
 Diagonal vibrational polarizability:
        0.0000000       0.0000000       4.4364980
 Harmonic frequencies (cm**-1), IR intensities (KM/Mole), Raman scattering
 activities (A**4/AMU), depolarization ratios for plane and unpolarized
 incident light, reduced masses (AMU), force constants (mDyne/A),
 and normal coordinates:
                      1
                     SG
 Frequencies --    505.4520
 Red. masses --     17.1387
 Frc consts  --      2.5798
 IR Inten    --     42.1179
  Atom  AN      X      Y      Z
     1  81    -0.00  -0.00  -0.08
     2   8    -0.00  -0.00   1.00

 -------------------
 - Thermochemistry -
 -------------------
 Temperature   298.150 Kelvin.  Pressure   1.00000 Atm.
 Atom     1 has atomic number 81 and mass 204.97450
 Atom     2 has atomic number  8 and mass  15.99491
 Molecular mass:   220.96941 amu.
 Principal axes and moments of inertia in atomic units:
                           1         2         3
     Eigenvalues --     0.00000 214.34721 214.34721
           X            0.00000  -0.00000   1.00000
           Y            0.00000   1.00000   0.00000
           Z            1.00000   0.00000   0.00000
 This molecule is a prolate symmetric top.
 Rotational symmetry number  1.
 Rotational temperature (Kelvin)      0.40408
 Rotational constant (GHZ):           8.419709
 Zero-point vibrational energy       3023.3 (Joules/Mol)
                                    0.72258 (Kcal/Mol)
 Warning -- explicit consideration of   1 degrees of freedom as
           vibrations may cause significant error
 Vibrational temperatures:    727.23
          (Kelvin)
 
 Zero-point correction=                           0.001152 (Hartree/Particle)
 Thermal correction to Energy=                    0.003732
 Thermal correction to Enthalpy=                  0.004676
 Thermal correction to Gibbs Free Energy=        -0.023458
 Sum of electronic and zero-point Energies=           -247.682369
 Sum of electronic and thermal Energies=              -247.679789
 Sum of electronic and thermal Enthalpies=            -247.678845
 Sum of electronic and thermal Free Energies=         -247.706979
 
                     E (Thermal)             CV                S
                      KCal/Mol        Cal/Mol-Kelvin    Cal/Mol-Kelvin
 Total                    2.342              6.206             59.214
 Electronic               0.000              0.000              1.377
 Translational            0.889              2.981             42.081
 Rotational               0.592              1.987             15.110
 Vibrational              0.861              1.238              0.645
 Vibration     1          0.861              1.238              0.645
                       Q            Log10(Q)             Ln(Q)
 Total Bot       0.616500D+11         10.789933         24.844739
 Total V=0       0.208732D+12         11.319588         26.064315
 Vib (Bot)       0.323583D+00         -0.490014         -1.128299
 Vib (Bot)    1  0.323583D+00         -0.490014         -1.128299
 Vib (V=0)       0.109557D+01          0.039641          0.091277
 Vib (V=0)    1  0.109557D+01          0.039641          0.091277
 Electronic      0.200000D+01          0.301030          0.693147
 Translational   0.129108D+09          8.110952         18.676157
 Rotational      0.737845D+03          2.867965          6.603733
 ***** Axes restored to original set *****
 -------------------------------------------------------------------
 Center     Atomic                   Forces (Hartrees/Bohr)
 Number     Number              X              Y              Z
 -------------------------------------------------------------------
      1       81          -0.000000000   -0.000000000    0.000086316
      2        8          -0.000000000   -0.000000000   -0.000086316
 -------------------------------------------------------------------
 Cartesian Forces:  Max     0.000086316 RMS     0.000049834
 FormGI is forming the generalized inverse of G from B-inverse, IUseBI=4.

 GradGradGradGradGradGradGradGradGradGradGradGradGradGradGradGradGradGrad
 Berny optimization.
 Internal  Forces:  Max     0.000086316 RMS     0.000086316
 Search for a local minimum.
 Step number   1 out of a maximum of    2
 All quantities printed in internal units (Hartrees-Bohrs-Radians)
 Second derivative matrix not updated -- analytic derivatives used.
 The second derivative matrix:
                          R1
           R1           0.14345
 ITU=  0
     Eigenvalues ---    0.14345
 Angle between quadratic step and forces=   0.00 degrees.
 Linear search not attempted -- first point.
 Iteration  1 RMS(Cart)=  0.00042548 RMS(Int)=  0.00000000
 Iteration  2 RMS(Cart)=  0.00000000 RMS(Int)=  0.00000000
 ClnCor:  largest displacement from symmetrization is 0.00D+00 for atom     0.
 Variable       Old X    -DE/DX   Delta X   Delta X   Delta X     New X
                                 (Linear)    (Quad)   (Total)
    R1        3.80088  -0.00009   0.00000  -0.00060  -0.00060   3.80028
         Item               Value     Threshold  Converged?
 Maximum Force            0.000086     0.000450     YES
 RMS     Force            0.000086     0.000300     YES
 Maximum Displacement     0.000301     0.001800     YES
 RMS     Displacement     0.000425     0.001200     YES
 Predicted change in Energy=-2.596868D-08
 Optimization completed.
    -- Stationary point found.
                           ----------------------------
                           !   Optimized Parameters   !
                           ! (Angstroms and Degrees)  !
 --------------------------                            --------------------------
 ! Name  Definition              Value          Derivative Info.                !
 --------------------------------------------------------------------------------
 ! R1    R(1,2)                  2.0113         -DE/DX =   -0.0001              !
 --------------------------------------------------------------------------------
 GradGradGradGradGradGradGradGradGradGradGradGradGradGradGradGradGradGrad


 ----------------------------------------------------------------------

 Electric dipole moment (input orientation):
 (Debye = 10**-18 statcoulomb cm , SI units = C m)
                  (au)            (Debye)         (10**-30 SI)
   Tot        0.166194D+01      0.422422D+01      0.140905D+02
   x          0.000000D+00      0.000000D+00      0.000000D+00
   y          0.000000D+00      0.000000D+00      0.000000D+00
   z         -0.166194D+01     -0.422422D+01     -0.140905D+02

 Dipole polarizability, Alpha (input orientation).
 (esu units = cm**3 , SI units = C**2 m**2 J**-1)
 Alpha(0;0):
               (au)            (10**-24 esu)      (10**-40 SI)
   iso        0.472221D+02      0.699759D+01      0.778587D+01
   aniso      0.105118D+02      0.155769D+01      0.173316D+01
   xx         0.437181D+02      0.647836D+01      0.720815D+01
   yx         0.000000D+00      0.000000D+00      0.000000D+00
   yy         0.437181D+02      0.647836D+01      0.720815D+01
   zx         0.000000D+00      0.000000D+00      0.000000D+00
   zy         0.000000D+00      0.000000D+00      0.000000D+00
   zz         0.542299D+02      0.803605D+01      0.894131D+01

 ----------------------------------------------------------------------

 Dipole orientation:
    81         15.11780900        -15.11780900        -13.21736919
     8         15.11780900        -15.11780900        -17.01824881

 Electric dipole moment (dipole orientation):
 (Debye = 10**-18 statcoulomb cm , SI units = C m)
                  (au)            (Debye)         (10**-30 SI)
   Tot        0.166194D+01      0.422422D+01      0.140905D+02
   x          0.000000D+00      0.000000D+00      0.000000D+00
   y          0.000000D+00      0.000000D+00      0.000000D+00
   z          0.166194D+01      0.422422D+01      0.140905D+02

 Dipole polarizability, Alpha (dipole orientation).
 (esu units = cm**3 , SI units = C**2 m**2 J**-1)
 Alpha(0;0):
               (au)            (10**-24 esu)      (10**-40 SI)
   iso        0.472221D+02      0.699759D+01      0.778587D+01
   aniso      0.105118D+02      0.155769D+01      0.173316D+01
   xx         0.437181D+02      0.647836D+01      0.720815D+01
   yx         0.000000D+00      0.000000D+00      0.000000D+00
   yy         0.437181D+02      0.647836D+01      0.720815D+01
   zx         0.000000D+00      0.000000D+00      0.000000D+00
   zy         0.000000D+00      0.000000D+00      0.000000D+00
   zz         0.542299D+02      0.803605D+01      0.894131D+01

 ----------------------------------------------------------------------
 Unable to Open any file for archive entry.
 1\1\GINC-TCOPT10\Freq\UPBEPBE\def2QZVPP\O1Tl1(2)\HUTTER\30-Jul-2021\0\
 \#N Geom=AllCheck Guess=TCheck SCRF=Check GenChk UPBEPBE/def2QZVPP Fre
 q\\Mol job 1\\0,2\Tl,8.,8.,6.9943305624\O,8.,8.,9.0056694376\\Version=
 ES64L-G16RevC.01\State=2-SG\HF=-247.6835208\S2=0.756687\S2-1=0.\S2A=0.
 750035\RMSD=4.829e-09\RMSF=4.983e-05\ZeroPoint=0.0011515\Thermal=0.003
 7321\ETot=-247.6797888\HTot=-247.6788446\GTot=-247.7069789\Dipole=0.,0
 .,-1.6619363\DipoleDeriv=0.437246,0.,0.,0.,0.437246,0.,0.,0.,0.8006316
 ,-0.437246,0.,0.,0.,-0.437246,0.,0.,0.,-0.8006316\Polar=43.7181399,0.,
 43.7181399,0.,0.,54.2299202\Quadrupole=1.9679384,1.9679384,-3.9358768,
 0.,0.,0.\PG=C*V [C*(O1Tl1)]\NImag=0\\0.00042543,0.,0.00042543,0.,0.,0.
 14345013,-0.00042543,0.,0.,0.00042543,0.,-0.00042543,0.,0.,0.00042543,
 0.,0.,-0.14345013,0.,0.,0.14345013\\0.,0.,-0.00008632,0.,0.,0.00008632
 \\\@
 The archive entry for this job was punched.


 A SOLDIER'S LIFE IS A LIFE OF HONOR, BUT A DOG WOULD NOT LEAD IT.
 -- PRINCE RUPERT, FOUNDER OF THE HUDSON'S BAY COMPANY
 Job cpu time:       0 days  0 hours  7 minutes  1.1 seconds.
 Elapsed time:       0 days  0 hours  0 minutes 53.0 seconds.
 File lengths (MBytes):  RWF=     18 Int=      0 D2E=      0 Chk=      3 Scr=      1
 Normal termination of Gaussian 16 at Fri Jul 30 21:08:18 2021.
