 Entering Gaussian System, Link 0=g16
 Initial command:
 /sw-ng/spack/opt/spack/linux-opensuse_leap15-sandybridge/pgi-18.10/gaussian-src-16-C.01-zldqaomctopxhethwccpmxmwefdscg3m/g16/l1.exe "/data/hutter/SMG16/PBE/Gau-91616.inp" -scrdir="/data/hutter/SMG16/PBE/"
 Entering Link 1 = /sw-ng/spack/opt/spack/linux-opensuse_leap15-sandybridge/pgi-18.10/gaussian-src-16-C.01-zldqaomctopxhethwccpmxmwefdscg3m/g16/l1.exe PID=     91627.
  
 Copyright (c) 1988-2019, Gaussian, Inc.  All Rights Reserved.
  
 This is part of the Gaussian(R) 16 program.  It is based on
 the Gaussian(R) 09 system (copyright 2009, Gaussian, Inc.),
 the Gaussian(R) 03 system (copyright 2003, Gaussian, Inc.),
 the Gaussian(R) 98 system (copyright 1998, Gaussian, Inc.),
 the Gaussian(R) 94 system (copyright 1995, Gaussian, Inc.),
 the Gaussian 92(TM) system (copyright 1992, Gaussian, Inc.),
 the Gaussian 90(TM) system (copyright 1990, Gaussian, Inc.),
 the Gaussian 88(TM) system (copyright 1988, Gaussian, Inc.),
 the Gaussian 86(TM) system (copyright 1986, Carnegie Mellon
 University), and the Gaussian 82(TM) system (copyright 1983,
 Carnegie Mellon University). Gaussian is a federally registered
 trademark of Gaussian, Inc.
  
 This software contains proprietary and confidential information,
 including trade secrets, belonging to Gaussian, Inc.
  
 This software is provided under written license and may be
 used, copied, transmitted, or stored only in accord with that
 written license.
  
 The following legend is applicable only to US Government
 contracts under FAR:
  
                    RESTRICTED RIGHTS LEGEND
  
 Use, reproduction and disclosure by the US Government is
 subject to restrictions as set forth in subparagraphs (a)
 and (c) of the Commercial Computer Software - Restricted
 Rights clause in FAR 52.227-19.
  
 Gaussian, Inc.
 340 Quinnipiac St., Bldg. 40, Wallingford CT 06492
  
  
 ---------------------------------------------------------------
 Warning -- This program may not be used in any manner that
 competes with the business of Gaussian, Inc. or will provide
 assistance to any competitor of Gaussian, Inc.  The licensee
 of this program is prohibited from giving any competitor of
 Gaussian, Inc. access to this program.  By using this program,
 the user acknowledges that Gaussian, Inc. is engaged in the
 business of creating and licensing software in the field of
 computational chemistry and represents and warrants to the
 licensee that it is not a competitor of Gaussian, Inc. and that
 it will not use this program in any manner prohibited above.
 ---------------------------------------------------------------
  

 Cite this work as:
 Gaussian 16, Revision C.01,
 M. J. Frisch, G. W. Trucks, H. B. Schlegel, G. E. Scuseria, 
 M. A. Robb, J. R. Cheeseman, G. Scalmani, V. Barone, 
 G. A. Petersson, H. Nakatsuji, X. Li, M. Caricato, A. V. Marenich, 
 J. Bloino, B. G. Janesko, R. Gomperts, B. Mennucci, H. P. Hratchian, 
 J. V. Ortiz, A. F. Izmaylov, J. L. Sonnenberg, D. Williams-Young, 
 F. Ding, F. Lipparini, F. Egidi, J. Goings, B. Peng, A. Petrone, 
 T. Henderson, D. Ranasinghe, V. G. Zakrzewski, J. Gao, N. Rega, 
 G. Zheng, W. Liang, M. Hada, M. Ehara, K. Toyota, R. Fukuda, 
 J. Hasegawa, M. Ishida, T. Nakajima, Y. Honda, O. Kitao, H. Nakai, 
 T. Vreven, K. Throssell, J. A. Montgomery, Jr., J. E. Peralta, 
 F. Ogliaro, M. J. Bearpark, J. J. Heyd, E. N. Brothers, K. N. Kudin, 
 V. N. Staroverov, T. A. Keith, R. Kobayashi, J. Normand, 
 K. Raghavachari, A. P. Rendell, J. C. Burant, S. S. Iyengar, 
 J. Tomasi, M. Cossi, J. M. Millam, M. Klene, C. Adamo, R. Cammi, 
 J. W. Ochterski, R. L. Martin, K. Morokuma, O. Farkas, 
 J. B. Foresman, and D. J. Fox, Gaussian, Inc., Wallingford CT, 2019.
 
 ******************************************
 Gaussian 16:  ES64L-G16RevC.01  3-Jul-2019
                30-Jul-2021 
 ******************************************
 %mem=8GB
 %NProcShare=8
 Will use up to    8 processors via shared memory.
 -----------------------------------------------------------
 #N RPBEPBE/Def2QZVPP scf=tight Int(Grid=ultrafine) OPT FREQ
 -----------------------------------------------------------
 1/18=20,19=15,26=4,38=1/1,3;
 2/9=110,12=2,17=6,18=5,40=1/2;
 3/5=45,7=202,11=2,25=1,30=1,71=1,74=1009,75=-5,116=1/1,2,3;
 4//1;
 5/5=2,32=2,38=5/2;
 6/7=2,8=2,9=2,10=2,28=1/1;
 7//1,2,3,16;
 1/18=20,19=15,26=4/3(2);
 2/9=110/2;
 99//99;
 2/9=110/2;
 3/5=45,7=202,11=2,25=1,30=1,71=1,74=1009,75=-5,116=1/1,2,3;
 4/5=5,16=3,69=1/1;
 5/5=2,32=2,38=5/2;
 7//1,2,3,16;
 1/18=20,19=15,26=4/3(-5);
 2/9=110/2;
 6/7=2,8=2,9=2,10=2,19=2,28=1/1;
 99/9=1/99;
 ---------
 Mol job 1
 ---------
 Symbolic Z-matrix:
 Charge =  0 Multiplicity = 1
 Cl                    8.49999   7.65617   8.5 
 F                     6.73801   7.69855   8.5 
 F                     10.26199   7.69859   8.5 
 F                     8.50002   9.34383   8.5 
 

 GradGradGradGradGradGradGradGradGradGradGradGradGradGradGradGradGradGrad
 Berny optimization.
 Initialization pass.
                           ----------------------------
                           !    Initial Parameters    !
                           ! (Angstroms and Degrees)  !
 --------------------------                            --------------------------
 ! Name  Definition              Value          Derivative Info.                !
 --------------------------------------------------------------------------------
 ! R1    R(1,2)                  1.7625         estimate D2E/DX2                !
 ! R2    R(1,3)                  1.7625         estimate D2E/DX2                !
 ! R3    R(1,4)                  1.6877         estimate D2E/DX2                !
 ! A1    A(2,1,4)               88.6235         estimate D2E/DX2                !
 ! A2    A(3,1,4)               88.6195         estimate D2E/DX2                !
 ! A3    L(2,1,3,4,-1)         177.243          estimate D2E/DX2                !
 ! A4    L(2,1,3,4,-2)         180.0            estimate D2E/DX2                !
 ! D1    D(2,1,3,4)              0.0            estimate D2E/DX2                !
 --------------------------------------------------------------------------------
 Trust Radius=3.00D-01 FncErr=1.00D-07 GrdErr=1.00D-06 EigMax=2.50D+02 EigMin=1.00D-04
 Number of steps in this run=     20 maximum allowed number of steps=    100.
 GradGradGradGradGradGradGradGradGradGradGradGradGradGradGradGradGradGrad

                          Input orientation:                          
 ---------------------------------------------------------------------
 Center     Atomic      Atomic             Coordinates (Angstroms)
 Number     Number       Type             X           Y           Z
 ---------------------------------------------------------------------
      1         17           0        8.499987    7.656169    8.500000
      2          9           0        6.738009    7.698548    8.500000
      3          9           0       10.261991    7.698592    8.500000
      4          9           0        8.500025    9.343831    8.500000
 ---------------------------------------------------------------------
                    Distance matrix (angstroms):
                    1          2          3          4
     1  Cl   0.000000
     2  F    1.762487   0.000000
     3  F    1.762515   3.523982   0.000000
     4  F    1.687662   2.410738   2.410671   0.000000
 Stoichiometry    ClF3
 Framework group  CS[SG(ClF3)]
 Deg. of freedom     5
 Full point group                 CS      NOp   2
 Largest Abelian subgroup         CS      NOp   2
 Largest concise Abelian subgroup C1      NOp   1
                         Standard orientation:                         
 ---------------------------------------------------------------------
 Center     Atomic      Atomic             Coordinates (Angstroms)
 Number     Number       Type             X           Y           Z
 ---------------------------------------------------------------------
      1         17           0       -0.000000    0.362549   -0.000000
      2          9           0       -1.761979    0.320235   -0.000000
      3          9           0        1.762003    0.320062    0.000000
      4          9           0       -0.000024   -1.325113   -0.000000
 ---------------------------------------------------------------------
 Rotational constants (GHZ):          12.0761352           4.2841301           3.1622796
 Standard basis: def2QZVPP (5D, 7F)
 There are   202 symmetry adapted cartesian basis functions of A'  symmetry.
 There are   100 symmetry adapted cartesian basis functions of A"  symmetry.
 There are   157 symmetry adapted basis functions of A'  symmetry.
 There are    84 symmetry adapted basis functions of A"  symmetry.
   241 basis functions,   397 primitive gaussians,   302 cartesian basis functions
    22 alpha electrons       22 beta electrons
       nuclear repulsion energy       187.5724133723 Hartrees.
 NAtoms=    4 NActive=    4 NUniq=    4 SFac= 1.00D+00 NAtFMM=   60 NAOKFM=F Big=F
 Integral buffers will be    131072 words long.
 Raffenetti 2 integral format.
 Two-electron integral symmetry is turned on.
 One-electron integrals computed using PRISM.
   2 Symmetry operations used in ECPInt.
 ECPInt:  NShTT=    2701 NPrTT=    8450 LenC2=    2549 LenP2D=    6333.
 LDataN:  DoStor=T MaxTD1= 8 Len=  415
 NBasis=   241 RedAO= T EigKep=  1.11D-03  NBF=   157    84
 NBsUse=   241 1.00D-06 EigRej= -1.00D+00 NBFU=   157    84
 ExpMin= 9.32D-02 ExpMax= 1.47D+06 ExpMxC= 1.67D+03 IAcc=3 IRadAn=         5 AccDes= 0.00D+00
 Harris functional with IExCor= 1009 and IRadAn=       5 diagonalized for initial guess.
 HarFok:  IExCor= 1009 AccDes= 0.00D+00 IRadAn=         5 IDoV= 1 UseB2=F ITyADJ=14
 ICtDFT=  3500011 ScaDFX=  1.000000  1.000000  1.000000  1.000000
 FoFCou: FMM=F IPFlag=           0 FMFlag=      100000 FMFlg1=           0
         NFxFlg=           0 DoJE=T BraDBF=F KetDBF=T FulRan=T
         wScrn=  0.000000 ICntrl=       500 IOpCl=  0 I1Cent=   200000004 NGrid=           0
         NMat0=    1 NMatS0=      1 NMatT0=    0 NMatD0=    1 NMtDS0=    0 NMtDT0=    0
 Petite list used in FoFCou.
 Initial guess orbital symmetries:
       Occupied  (A') (A') (A') (A') (A') (A') (A') (A") (A') (A')
                 (A') (A') (A') (A') (A") (A') (A") (A') (A") (A')
                 (A') (A")
       Virtual   (A') (A') (A') (A') (A") (A') (A') (A") (A') (A')
                 (A") (A') (A') (A') (A") (A") (A") (A') (A') (A')
                 (A') (A') (A') (A") (A") (A') (A') (A") (A') (A')
                 (A') (A") (A") (A') (A") (A') (A') (A") (A") (A')
                 (A') (A') (A') (A") (A") (A') (A") (A') (A") (A')
                 (A') (A') (A") (A') (A') (A') (A") (A') (A") (A')
                 (A') (A') (A') (A') (A") (A") (A') (A') (A") (A")
                 (A') (A') (A") (A') (A') (A') (A") (A') (A") (A')
                 (A") (A') (A') (A') (A') (A") (A") (A') (A") (A')
                 (A') (A') (A") (A") (A") (A') (A') (A") (A') (A")
                 (A") (A') (A') (A') (A') (A") (A") (A') (A") (A')
                 (A") (A") (A') (A') (A') (A') (A') (A") (A') (A")
                 (A") (A') (A') (A') (A") (A') (A") (A") (A') (A')
                 (A') (A') (A') (A') (A') (A') (A") (A") (A') (A')
                 (A') (A") (A") (A') (A") (A') (A') (A") (A') (A")
                 (A') (A") (A") (A') (A') (A') (A") (A") (A") (A')
                 (A') (A') (A") (A') (A") (A') (A') (A') (A") (A")
                 (A') (A') (A") (A') (A") (A') (A") (A') (A') (A")
                 (A') (A") (A') (A') (A') (A') (A") (A") (A') (A')
                 (A') (A') (A") (A") (A') (A') (A") (A') (A") (A")
                 (A') (A") (A') (A') (A') (A') (A') (A') (A") (A')
                 (A') (A') (A') (A') (A') (A') (A') (A') (A')
 The electronic state of the initial guess is 1-A'.
 Keep J ints in memory in symmetry-blocked form, NReq=639804687.
 Requested convergence on RMS density matrix=1.00D-08 within 128 cycles.
 Requested convergence on MAX density matrix=1.00D-06.
 Requested convergence on             energy=1.00D-06.
 No special actions if energy rises.
 Integral accuracy reduced to 1.0D-05 until final iterations.
 EnCoef did     2 forward-backward iterations
 EnCoef did   100 forward-backward iterations
 Problem detected with inexpensive integrals.
 Switching to full accuracy and repeating last cycle.
 EnCoef did     2 forward-backward iterations
 EnCoef did   100 forward-backward iterations
 EnCoef did     1 forward-backward iterations
 SCF Done:  E(RPBE-PBE) =  -759.262394883     A.U. after   18 cycles
            NFock= 18  Conv=0.73D-08     -V/T= 2.0022

 **********************************************************************

            Population analysis using the SCF Density.

 **********************************************************************

 Orbital symmetries:
       Occupied  (A') (A') (A') (A') (A') (A') (A') (A") (A') (A')
                 (A') (A') (A') (A') (A") (A') (A") (A') (A") (A')
                 (A') (A")
       Virtual   (A') (A') (A') (A") (A') (A') (A") (A") (A') (A')
                 (A') (A') (A') (A") (A") (A') (A") (A') (A') (A')
                 (A') (A') (A') (A") (A") (A') (A") (A') (A') (A')
                 (A') (A") (A") (A') (A") (A') (A') (A") (A") (A')
                 (A') (A') (A') (A") (A") (A") (A') (A') (A') (A")
                 (A') (A') (A") (A') (A') (A') (A") (A') (A') (A")
                 (A') (A') (A') (A') (A") (A") (A') (A") (A') (A")
                 (A') (A') (A") (A') (A') (A') (A") (A') (A") (A')
                 (A") (A') (A') (A') (A') (A") (A') (A") (A') (A")
                 (A') (A') (A") (A") (A") (A') (A') (A') (A") (A")
                 (A") (A') (A') (A') (A") (A') (A") (A') (A") (A')
                 (A") (A') (A") (A') (A') (A') (A') (A") (A') (A")
                 (A") (A') (A') (A') (A") (A") (A') (A") (A') (A')
                 (A') (A') (A') (A') (A') (A') (A") (A") (A') (A')
                 (A') (A") (A') (A") (A') (A") (A') (A') (A") (A")
                 (A') (A') (A") (A") (A') (A") (A') (A") (A") (A')
                 (A') (A") (A') (A') (A') (A') (A") (A') (A") (A')
                 (A") (A') (A') (A") (A") (A') (A') (A') (A") (A")
                 (A') (A') (A") (A") (A') (A') (A') (A") (A') (A')
                 (A') (A') (A") (A') (A") (A") (A') (A') (A") (A")
                 (A") (A') (A') (A') (A') (A') (A') (A') (A") (A')
                 (A') (A') (A') (A') (A') (A') (A') (A') (A')
 The electronic state is 1-A'.
 Alpha  occ. eigenvalues -- -100.90427 -24.34382 -24.27988 -24.27987  -9.39253
 Alpha  occ. eigenvalues --   -7.21901  -7.21783  -7.19857  -1.17906  -1.09265
 Alpha  occ. eigenvalues --   -1.09033  -0.83116  -0.55370  -0.54786  -0.48163
 Alpha  occ. eigenvalues --   -0.42959  -0.39344  -0.39009  -0.37551  -0.36264
 Alpha  occ. eigenvalues --   -0.35543  -0.30556
 Alpha virt. eigenvalues --   -0.21783  -0.12855   0.13189   0.13694   0.14128
 Alpha virt. eigenvalues --    0.14664   0.20443   0.21566   0.22277   0.23295
 Alpha virt. eigenvalues --    0.25446   0.31148   0.34124   0.34792   0.35653
 Alpha virt. eigenvalues --    0.37839   0.39561   0.42899   0.44827   0.52408
 Alpha virt. eigenvalues --    0.77777   0.80418   0.89191   0.92511   0.96423
 Alpha virt. eigenvalues --    0.97441   0.98851   1.00006   1.03949   1.06140
 Alpha virt. eigenvalues --    1.07196   1.07313   1.10111   1.13053   1.15730
 Alpha virt. eigenvalues --    1.26363   1.32694   1.33534   1.33676   1.46553
 Alpha virt. eigenvalues --    1.49453   1.53360   1.53562   1.53901   1.57187
 Alpha virt. eigenvalues --    1.57864   1.58487   1.59623   1.63270   1.63389
 Alpha virt. eigenvalues --    1.63900   1.67264   1.68616   1.69103   1.75179
 Alpha virt. eigenvalues --    1.76152   1.94825   2.13684   2.18259   2.18644
 Alpha virt. eigenvalues --    2.40309   2.67026   2.71791   2.95191   2.96931
 Alpha virt. eigenvalues --    2.97567   3.08270   3.21921   3.23157   3.25515
 Alpha virt. eigenvalues --    3.27289   3.29217   3.31629   3.37191   3.46162
 Alpha virt. eigenvalues --    3.49156   3.50052   3.59549   3.59597   3.63041
 Alpha virt. eigenvalues --    3.64849   3.74468   3.76496   3.84946   3.85097
 Alpha virt. eigenvalues --    3.86958   3.90642   3.94187   4.01047   4.03096
 Alpha virt. eigenvalues --    4.04488   4.04915   4.05759   4.07085   4.09688
 Alpha virt. eigenvalues --    4.19283   4.21823   4.27562   4.28256   4.34778
 Alpha virt. eigenvalues --    4.35090   4.41170   4.46896   4.57172   4.68623
 Alpha virt. eigenvalues --    4.70642   4.76916   4.84107   4.84698   4.84769
 Alpha virt. eigenvalues --    4.87365   4.88719   4.90356   5.01691   5.06571
 Alpha virt. eigenvalues --    5.13332   5.19096   5.31966   5.38864   5.44532
 Alpha virt. eigenvalues --    5.47230   5.49800   5.54363   5.81925   6.01622
 Alpha virt. eigenvalues --    6.01839   6.03033   6.12802   6.13173   6.18341
 Alpha virt. eigenvalues --    6.19035   6.29264   6.75622   6.78340   6.90700
 Alpha virt. eigenvalues --    8.34225  10.31115  10.33108  10.35249  10.56262
 Alpha virt. eigenvalues --   10.92025  11.16356  11.16621  11.17361  11.18165
 Alpha virt. eigenvalues --   11.18674  11.18753  11.21470  11.21589  11.21659
 Alpha virt. eigenvalues --   11.21743  11.22370  11.22408  11.23116  11.23300
 Alpha virt. eigenvalues --   11.23308  11.23322  11.23324  11.23576  11.24258
 Alpha virt. eigenvalues --   11.25659  11.30149  11.30894  11.33526  11.40256
 Alpha virt. eigenvalues --   11.40629  11.40793  11.77918  14.29552  14.29757
 Alpha virt. eigenvalues --   14.31616  14.33041  14.34284  14.34459  14.34511
 Alpha virt. eigenvalues --   14.34544  14.37986  14.38016  14.38308  14.42634
 Alpha virt. eigenvalues --   14.47090  14.52484  14.53813  14.61189  14.61463
 Alpha virt. eigenvalues --   14.63299  14.63678  14.64660  14.68987  15.07572
 Alpha virt. eigenvalues --   15.32495  15.48009  15.49630  15.52464  15.53723
 Alpha virt. eigenvalues --   15.54218  15.54302  15.60929  15.75860  15.77369
 Alpha virt. eigenvalues --   15.80803  15.81662  15.84361  15.85187  16.24849
 Alpha virt. eigenvalues --   16.29040  16.38066  28.29849  41.11755  41.19055
 Alpha virt. eigenvalues --   41.19757  53.54844  53.62801  53.72613  97.56464
 Alpha virt. eigenvalues --  283.87500 283.98613 284.10043 523.97357
          Condensed to atoms (all electrons):
               1          2          3          4
     1  Cl  15.939902   0.076886   0.076896   0.145406
     2  F    0.076886   9.238757   0.009105  -0.028318
     3  F    0.076896   0.009105   9.238772  -0.028325
     4  F    0.145406  -0.028318  -0.028325   9.079269
 Mulliken charges:
               1
     1  Cl   0.760911
     2  F   -0.296430
     3  F   -0.296449
     4  F   -0.168032
 Sum of Mulliken charges =  -0.00000
 Mulliken charges with hydrogens summed into heavy atoms:
               1
     1  Cl   0.760911
     2  F   -0.296430
     3  F   -0.296449
     4  F   -0.168032
 Electronic spatial extent (au):  <R**2>=            333.8137
 Charge=             -0.0000 electrons
 Dipole moment (field-independent basis, Debye):
    X=             -0.0002    Y=              0.7300    Z=              0.0000  Tot=              0.7300
 Quadrupole moment (field-independent basis, Debye-Ang):
   XX=            -32.6080   YY=            -25.8531   ZZ=            -26.6113
   XY=              0.0002   XZ=              0.0000   YZ=             -0.0000
 Traceless Quadrupole moment (field-independent basis, Debye-Ang):
   XX=             -4.2505   YY=              2.5043   ZZ=              1.7462
   XY=              0.0002   XZ=              0.0000   YZ=             -0.0000
 Octapole moment (field-independent basis, Debye-Ang**2):
  XXX=             -0.0010  YYY=             -1.6854  ZZZ=              0.0000  XYY=              0.0001
  XXY=             -2.7858  XXZ=              0.0000  XZZ=             -0.0001  YZZ=             -1.1130
  YYZ=             -0.0000  XYZ=              0.0000
 Hexadecapole moment (field-independent basis, Debye-Ang**3):
 XXXX=           -224.4112 YYYY=            -81.9772 ZZZZ=            -21.6323 XXXY=              0.0042
 XXXZ=              0.0000 YYYX=              0.0041 YYYZ=             -0.0000 ZZZX=              0.0000
 ZZZY=             -0.0000 XXYY=            -50.5756 XXZZ=            -39.4681 YYZZ=            -18.2544
 XXYZ=             -0.0000 YYXZ=              0.0000 ZZXY=              0.0014
 N-N= 1.875724133723D+02 E-N=-2.182893963337D+03  KE= 7.575580412068D+02
 Symmetry A'   KE= 6.914800216770D+02
 Symmetry A"   KE= 6.607801952978D+01
   2 Symmetry operations used in ECPInt.
 ECPInt:  NShTT=    2701 NPrTT=    8450 LenC2=    2549 LenP2D=    6333.
 LDataN:  DoStor=T MaxTD1= 9 Len=  602
 Calling FoFJK, ICntrl=      2527 FMM=F ISym2X=1 I1Cent= 0 IOpClX= 0 NMat=1 NMatS=1 NMatT=0.
 ***** Axes restored to original set *****
 -------------------------------------------------------------------
 Center     Atomic                   Forces (Hartrees/Bohr)
 Number     Number              X              Y              Z
 -------------------------------------------------------------------
      1       17           0.000011748    0.019960003   -0.000000000
      2        9           0.010614931   -0.000598883    0.000000000
      3        9          -0.010620625   -0.000604674   -0.000000000
      4        9          -0.000006053   -0.018756445   -0.000000000
 -------------------------------------------------------------------
 Cartesian Forces:  Max     0.019960003 RMS     0.009020370

 GradGradGradGradGradGradGradGradGradGradGradGradGradGradGradGradGradGrad
 Berny optimization.
 FormGI is forming the generalized inverse of G from B-inverse, IUseBI=4.
 Internal  Forces:  Max     0.018756446 RMS     0.008504776
 Search for a local minimum.
 Step number   1 out of a maximum of   20
 All quantities printed in internal units (Hartrees-Bohrs-Radians)
 Mixed Optimization -- RFO/linear search
 Second derivative matrix not updated -- first step.
 The second derivative matrix:
                          R1        R2        R3        A1        A2
           R1           0.29309
           R2           0.00000   0.29307
           R3           0.00000   0.00000   0.37417
           A1           0.00000   0.00000   0.00000   0.25000
           A2           0.00000   0.00000   0.00000   0.00000   0.25000
           A3           0.00000   0.00000   0.00000   0.00000   0.00000
           A4           0.00000   0.00000   0.00000   0.00000   0.00000
           D1           0.00000   0.00000   0.00000   0.00000   0.00000
                          A3        A4        D1
           A3           0.00230
           A4           0.00000   0.00230
           D1           0.00000   0.00000   0.00230
 ITU=  0
     Eigenvalues ---    0.00230   0.08487   0.25000   0.29307   0.29309
     Eigenvalues ---    0.37417
 RFO step:  Lambda=-1.71266985D-03 EMin= 2.30000000D-03
 Linear search not attempted -- first point.
 Iteration  1 RMS(Cart)=  0.02202010 RMS(Int)=  0.00004520
 Iteration  2 RMS(Cart)=  0.00005917 RMS(Int)=  0.00000000
 Iteration  3 RMS(Cart)=  0.00000000 RMS(Int)=  0.00000000
 ClnCor:  largest displacement from symmetrization is 2.81D-11 for atom     1.
 Variable       Old X    -DE/DX   Delta X   Delta X   Delta X     New X
                                 (Linear)    (Quad)   (Total)
    R1        3.33062  -0.01063   0.00000  -0.03604  -0.03604   3.29457
    R2        3.33067  -0.01063   0.00000  -0.03607  -0.03607   3.29460
    R3        3.18922  -0.01876   0.00000  -0.04990  -0.04990   3.13932
    A1        1.54677   0.00038   0.00000   0.00440   0.00440   1.55118
    A2        1.54670   0.00039   0.00000   0.00447   0.00447   1.55118
    A3        3.09347   0.00077   0.00000   0.00888   0.00888   3.10235
    A4        3.14159   0.00000   0.00000  -0.00000   0.00000   3.14159
    D1        0.00000  -0.00000   0.00000  -0.00000   0.00000   0.00000
         Item               Value     Threshold  Converged?
 Maximum Force            0.018756     0.000450     NO 
 RMS     Force            0.008505     0.000300     NO 
 Maximum Displacement     0.035743     0.001800     NO 
 RMS     Displacement     0.022043     0.001200     NO 
 Predicted change in Energy=-8.607948D-04
 GradGradGradGradGradGradGradGradGradGradGradGradGradGradGradGradGradGrad

                          Input orientation:                          
 ---------------------------------------------------------------------
 Center     Atomic      Atomic             Coordinates (Angstroms)
 Number     Number       Type             X           Y           Z
 ---------------------------------------------------------------------
      1         17           0        8.500001    7.666869    8.500000
      2          9           0        6.756923    7.701066    8.500000
      3          9           0       10.243094    7.701081    8.500000
      4          9           0        8.499993    9.328125    8.500000
 ---------------------------------------------------------------------
                    Distance matrix (angstroms):
                    1          2          3          4
     1  Cl   0.000000
     2  F    1.743413   0.000000
     3  F    1.743429   3.486171   0.000000
     4  F    1.661256   2.384453   2.384465   0.000000
 Stoichiometry    ClF3
 Framework group  CS[SG(ClF3)]
 Deg. of freedom     5
 Full point group                 CS      NOp   2
 Largest Abelian subgroup         CS      NOp   2
 Largest concise Abelian subgroup C1      NOp   1
                         Standard orientation:                         
 ---------------------------------------------------------------------
 Center     Atomic      Atomic             Coordinates (Angstroms)
 Number     Number       Type             X           Y           Z
 ---------------------------------------------------------------------
      1         17           0        0.000000    0.353795   -0.000000
      2          9           0       -1.743078    0.319606   -0.000000
      3          9           0        1.743093    0.319575    0.000000
      4          9           0       -0.000015   -1.307461   -0.000000
 ---------------------------------------------------------------------
 Rotational constants (GHZ):          12.4068807           4.3775658           3.2358491
 Standard basis: def2QZVPP (5D, 7F)
 There are   202 symmetry adapted cartesian basis functions of A'  symmetry.
 There are   100 symmetry adapted cartesian basis functions of A"  symmetry.
 There are   157 symmetry adapted basis functions of A'  symmetry.
 There are    84 symmetry adapted basis functions of A"  symmetry.
   241 basis functions,   397 primitive gaussians,   302 cartesian basis functions
    22 alpha electrons       22 beta electrons
       nuclear repulsion energy       189.8637817232 Hartrees.
 NAtoms=    4 NActive=    4 NUniq=    4 SFac= 1.00D+00 NAtFMM=   60 NAOKFM=F Big=F
 Integral buffers will be    131072 words long.
 Raffenetti 2 integral format.
 Two-electron integral symmetry is turned on.
 One-electron integrals computed using PRISM.
   2 Symmetry operations used in ECPInt.
 ECPInt:  NShTT=    2701 NPrTT=    8450 LenC2=    2553 LenP2D=    6355.
 LDataN:  DoStor=T MaxTD1= 8 Len=  415
 NBasis=   241 RedAO= T EigKep=  1.01D-03  NBF=   157    84
 NBsUse=   241 1.00D-06 EigRej= -1.00D+00 NBFU=   157    84
 Initial guess from the checkpoint file:  "/data/hutter/SMG16/PBE/Gau-91627.chk"
 B after Tr=    -0.000000   -0.000000    0.000000
         Rot=    1.000000    0.000000   -0.000000   -0.000016 Ang=  -0.00 deg.
 Initial guess orbital symmetries:
       Occupied  (A') (A') (A') (A') (A') (A') (A') (A") (A') (A')
                 (A') (A') (A') (A') (A") (A') (A") (A') (A") (A')
                 (A') (A")
       Virtual   (A') (A') (A') (A") (A') (A') (A") (A") (A') (A')
                 (A') (A') (A') (A") (A") (A') (A") (A') (A') (A')
                 (A') (A') (A') (A") (A") (A') (A") (A') (A') (A')
                 (A') (A") (A") (A') (A") (A') (A') (A") (A") (A')
                 (A') (A') (A') (A") (A") (A") (A') (A') (A') (A")
                 (A') (A') (A") (A') (A') (A') (A") (A') (A') (A")
                 (A') (A') (A') (A') (A") (A") (A') (A") (A') (A")
                 (A') (A') (A") (A') (A') (A') (A") (A') (A") (A')
                 (A") (A') (A') (A') (A') (A") (A') (A") (A') (A")
                 (A') (A') (A") (A") (A") (A') (A') (A') (A") (A")
                 (A") (A') (A') (A') (A") (A') (A") (A') (A") (A')
                 (A") (A') (A") (A') (A') (A') (A') (A") (A') (A")
                 (A") (A') (A') (A') (A") (A") (A') (A") (A') (A')
                 (A') (A') (A') (A') (A') (A') (A") (A") (A') (A')
                 (A') (A") (A') (A") (A') (A") (A') (A') (A") (A")
                 (A') (A') (A") (A") (A') (A") (A') (A") (A") (A')
                 (A') (A") (A') (A') (A') (A') (A") (A') (A") (A')
                 (A") (A') (A') (A") (A") (A') (A') (A') (A") (A")
                 (A') (A') (A") (A") (A') (A') (A') (A") (A') (A')
                 (A') (A') (A") (A') (A") (A") (A') (A') (A") (A")
                 (A") (A') (A') (A') (A') (A') (A') (A') (A") (A')
                 (A') (A') (A') (A') (A') (A') (A') (A') (A')
 ExpMin= 9.32D-02 ExpMax= 1.47D+06 ExpMxC= 1.67D+03 IAcc=3 IRadAn=         5 AccDes= 0.00D+00
 Harris functional with IExCor= 1009 and IRadAn=       5 diagonalized for initial guess.
 HarFok:  IExCor= 1009 AccDes= 0.00D+00 IRadAn=         5 IDoV= 1 UseB2=F ITyADJ=14
 ICtDFT=  3500011 ScaDFX=  1.000000  1.000000  1.000000  1.000000
 FoFCou: FMM=F IPFlag=           0 FMFlag=      100000 FMFlg1=           0
         NFxFlg=           0 DoJE=T BraDBF=F KetDBF=T FulRan=T
         wScrn=  0.000000 ICntrl=       500 IOpCl=  0 I1Cent=   200000004 NGrid=           0
         NMat0=    1 NMatS0=      1 NMatT0=    0 NMatD0=    1 NMtDS0=    0 NMtDT0=    0
 Petite list used in FoFCou.
 Keep J ints in memory in symmetry-blocked form, NReq=639804687.
 Requested convergence on RMS density matrix=1.00D-08 within 128 cycles.
 Requested convergence on MAX density matrix=1.00D-06.
 Requested convergence on             energy=1.00D-06.
 No special actions if energy rises.
 Integral accuracy reduced to 1.0D-05 until final iterations.
 Initial convergence to 1.0D-05 achieved.  Increase integral accuracy.
 SCF Done:  E(RPBE-PBE) =  -759.263613478     A.U. after   12 cycles
            NFock= 12  Conv=0.94D-09     -V/T= 2.0021
   2 Symmetry operations used in ECPInt.
 ECPInt:  NShTT=    2701 NPrTT=    8450 LenC2=    2553 LenP2D=    6355.
 LDataN:  DoStor=T MaxTD1= 9 Len=  602
 Calling FoFJK, ICntrl=      2527 FMM=F ISym2X=1 I1Cent= 0 IOpClX= 0 NMat=1 NMatS=1 NMatT=0.
 ***** Axes restored to original set *****
 -------------------------------------------------------------------
 Center     Atomic                   Forces (Hartrees/Bohr)
 Number     Number              X              Y              Z
 -------------------------------------------------------------------
      1       17           0.000004193    0.008778718   -0.000000000
      2        9           0.003566456    0.000127970    0.000000000
      3        9          -0.003570972    0.000128119   -0.000000000
      4        9           0.000000324   -0.009034807   -0.000000000
 -------------------------------------------------------------------
 Cartesian Forces:  Max     0.009034807 RMS     0.003917885

 GradGradGradGradGradGradGradGradGradGradGradGradGradGradGradGradGradGrad
 Berny optimization.
 Using GEDIIS/GDIIS optimizer.
 FormGI is forming the generalized inverse of G from B-inverse, IUseBI=4.
 Internal  Forces:  Max     0.009034807 RMS     0.003662945
 Search for a local minimum.
 Step number   2 out of a maximum of   20
 All quantities printed in internal units (Hartrees-Bohrs-Radians)
 Mixed Optimization -- RFO/linear search
 Update second derivatives using D2CorX and points    1    2
 DE= -1.22D-03 DEPred=-8.61D-04 R= 1.42D+00
 TightC=F SS=  1.41D+00  RLast= 7.22D-02 DXNew= 5.0454D-01 2.1651D-01
 Trust test= 1.42D+00 RLast= 7.22D-02 DXMaxT set to 3.00D-01
 The second derivative matrix:
                          R1        R2        R3        A1        A2
           R1           0.27695
           R2          -0.01617   0.27688
           R3          -0.04782  -0.04788   0.26309
           A1           0.00269   0.00269   0.00636   0.24964
           A2           0.00266   0.00267   0.00638  -0.00036   0.24964
           A3          -0.00829  -0.00829  -0.01136   0.00069   0.00071
           A4           0.00000   0.00000   0.00000  -0.00000  -0.00000
           D1           0.00000   0.00000   0.00000  -0.00000  -0.00000
                          A3        A4        D1
           A3           0.00373
           A4          -0.00000   0.00230
           D1          -0.00000   0.00000   0.00230
 ITU=  1  0
 Use linear search instead of GDIIS.
     Eigenvalues ---    0.00230   0.08599   0.19475   0.25000   0.29308
     Eigenvalues ---    0.32961
 RFO step:  Lambda=-5.63186039D-05 EMin= 2.30000000D-03
 Quartic linear search produced a step of  0.62565.
 Iteration  1 RMS(Cart)=  0.01847232 RMS(Int)=  0.00003067
 Iteration  2 RMS(Cart)=  0.00003715 RMS(Int)=  0.00000000
 Iteration  3 RMS(Cart)=  0.00000000 RMS(Int)=  0.00000000
 ClnCor:  largest displacement from symmetrization is 7.82D-14 for atom     1.
 Variable       Old X    -DE/DX   Delta X   Delta X   Delta X     New X
                                 (Linear)    (Quad)   (Total)
    R1        3.29457  -0.00356  -0.02255   0.00339  -0.01916   3.27542
    R2        3.29460  -0.00357  -0.02257   0.00338  -0.01918   3.27542
    R3        3.13932  -0.00903  -0.03122  -0.00773  -0.03895   3.10037
    A1        1.55118  -0.00022   0.00275  -0.00753  -0.00477   1.54640
    A2        1.55118  -0.00022   0.00280  -0.00758  -0.00478   1.54640
    A3        3.10235  -0.00043   0.00555  -0.01510  -0.00955   3.09280
    A4        3.14159   0.00000   0.00000  -0.00000   0.00000   3.14159
    D1        0.00000  -0.00000   0.00000  -0.00000   0.00000   0.00000
         Item               Value     Threshold  Converged?
 Maximum Force            0.009035     0.000450     NO 
 RMS     Force            0.003663     0.000300     NO 
 Maximum Displacement     0.036840     0.001800     NO 
 RMS     Displacement     0.018460     0.001200     NO 
 Predicted change in Energy=-2.688971D-04
 GradGradGradGradGradGradGradGradGradGradGradGradGradGradGradGradGradGrad

                          Input orientation:                          
 ---------------------------------------------------------------------
 Center     Atomic      Atomic             Coordinates (Angstroms)
 Number     Number       Type             X           Y           Z
 ---------------------------------------------------------------------
      1         17           0        8.500004    7.667984    8.500000
      2          9           0        6.767244    7.710253    8.500000
      3          9           0       10.232765    7.710273    8.500000
      4          9           0        8.500000    9.308630    8.500000
 ---------------------------------------------------------------------
                    Distance matrix (angstroms):
                    1          2          3          4
     1  Cl   0.000000
     2  F    1.733275   0.000000
     3  F    1.733277   3.465521   0.000000
     4  F    1.640646   2.357383   2.357376   0.000000
 Stoichiometry    ClF3
 Framework group  CS[SG(ClF3)]
 Deg. of freedom     5
 Full point group                 CS      NOp   2
 Largest Abelian subgroup         CS      NOp   2
 Largest concise Abelian subgroup C1      NOp   1
                         Standard orientation:                         
 ---------------------------------------------------------------------
 Center     Atomic      Atomic             Coordinates (Angstroms)
 Number     Number       Type             X           Y           Z
 ---------------------------------------------------------------------
      1         17           0       -0.000000    0.352883    0.000000
      2          9           0       -1.732760    0.310611   -0.000000
      3          9           0        1.732761    0.310596    0.000000
      4          9           0       -0.000001   -1.287763   -0.000000
 ---------------------------------------------------------------------
 Rotational constants (GHZ):          12.7863649           4.4298907           3.2900417
 Standard basis: def2QZVPP (5D, 7F)
 There are   202 symmetry adapted cartesian basis functions of A'  symmetry.
 There are   100 symmetry adapted cartesian basis functions of A"  symmetry.
 There are   157 symmetry adapted basis functions of A'  symmetry.
 There are    84 symmetry adapted basis functions of A"  symmetry.
   241 basis functions,   397 primitive gaussians,   302 cartesian basis functions
    22 alpha electrons       22 beta electrons
       nuclear repulsion energy       191.5059036116 Hartrees.
 NAtoms=    4 NActive=    4 NUniq=    4 SFac= 1.00D+00 NAtFMM=   60 NAOKFM=F Big=F
 Integral buffers will be    131072 words long.
 Raffenetti 2 integral format.
 Two-electron integral symmetry is turned on.
 One-electron integrals computed using PRISM.
   2 Symmetry operations used in ECPInt.
 ECPInt:  NShTT=    2701 NPrTT=    8450 LenC2=    2557 LenP2D=    6367.
 LDataN:  DoStor=T MaxTD1= 8 Len=  415
 NBasis=   241 RedAO= T EigKep=  9.39D-04  NBF=   157    84
 NBsUse=   241 1.00D-06 EigRej= -1.00D+00 NBFU=   157    84
 Initial guess from the checkpoint file:  "/data/hutter/SMG16/PBE/Gau-91627.chk"
 B after Tr=     0.000000    0.000000    0.000000
         Rot=    1.000000   -0.000000    0.000000   -0.000003 Ang=  -0.00 deg.
 Initial guess orbital symmetries:
       Occupied  (A') (A') (A') (A') (A') (A') (A') (A") (A') (A')
                 (A') (A') (A') (A') (A") (A') (A") (A') (A") (A')
                 (A') (A")
       Virtual   (A') (A') (A') (A") (A') (A') (A") (A") (A') (A')
                 (A') (A') (A') (A") (A") (A') (A") (A') (A') (A')
                 (A') (A') (A') (A") (A") (A') (A") (A') (A') (A')
                 (A') (A") (A") (A') (A") (A') (A') (A") (A") (A')
                 (A') (A') (A') (A") (A") (A") (A') (A') (A") (A')
                 (A') (A') (A') (A") (A') (A') (A") (A') (A') (A")
                 (A') (A') (A') (A') (A") (A") (A') (A") (A') (A")
                 (A') (A') (A") (A') (A') (A') (A") (A") (A') (A')
                 (A") (A') (A') (A') (A') (A") (A') (A") (A') (A")
                 (A') (A') (A") (A") (A") (A') (A') (A') (A") (A")
                 (A") (A') (A') (A') (A") (A') (A") (A') (A") (A')
                 (A") (A") (A') (A') (A') (A') (A') (A") (A') (A")
                 (A") (A') (A') (A') (A") (A") (A') (A") (A') (A')
                 (A') (A') (A') (A') (A') (A') (A") (A") (A') (A')
                 (A') (A") (A') (A") (A') (A") (A') (A') (A") (A")
                 (A') (A') (A") (A") (A') (A") (A') (A") (A") (A')
                 (A') (A") (A') (A') (A') (A') (A") (A') (A") (A')
                 (A") (A') (A') (A") (A") (A') (A') (A') (A") (A")
                 (A') (A') (A") (A") (A') (A') (A') (A") (A') (A')
                 (A') (A') (A") (A") (A') (A") (A') (A') (A") (A")
                 (A") (A') (A') (A') (A') (A') (A') (A') (A") (A')
                 (A') (A') (A') (A') (A') (A') (A') (A') (A')
 ExpMin= 9.32D-02 ExpMax= 1.47D+06 ExpMxC= 1.67D+03 IAcc=3 IRadAn=         5 AccDes= 0.00D+00
 Harris functional with IExCor= 1009 and IRadAn=       5 diagonalized for initial guess.
 HarFok:  IExCor= 1009 AccDes= 0.00D+00 IRadAn=         5 IDoV= 1 UseB2=F ITyADJ=14
 ICtDFT=  3500011 ScaDFX=  1.000000  1.000000  1.000000  1.000000
 FoFCou: FMM=F IPFlag=           0 FMFlag=      100000 FMFlg1=           0
         NFxFlg=           0 DoJE=T BraDBF=F KetDBF=T FulRan=T
         wScrn=  0.000000 ICntrl=       500 IOpCl=  0 I1Cent=   200000004 NGrid=           0
         NMat0=    1 NMatS0=      1 NMatT0=    0 NMatD0=    1 NMtDS0=    0 NMtDT0=    0
 Petite list used in FoFCou.
 Keep J ints in memory in symmetry-blocked form, NReq=639804687.
 Requested convergence on RMS density matrix=1.00D-08 within 128 cycles.
 Requested convergence on MAX density matrix=1.00D-06.
 Requested convergence on             energy=1.00D-06.
 No special actions if energy rises.
 Integral accuracy reduced to 1.0D-05 until final iterations.
 Initial convergence to 1.0D-05 achieved.  Increase integral accuracy.
 SCF Done:  E(RPBE-PBE) =  -759.263858134     A.U. after   12 cycles
            NFock= 12  Conv=0.38D-08     -V/T= 2.0021
   2 Symmetry operations used in ECPInt.
 ECPInt:  NShTT=    2701 NPrTT=    8450 LenC2=    2557 LenP2D=    6367.
 LDataN:  DoStor=T MaxTD1= 9 Len=  602
 Calling FoFJK, ICntrl=      2527 FMM=F ISym2X=1 I1Cent= 0 IOpClX= 0 NMat=1 NMatS=1 NMatT=0.
 ***** Axes restored to original set *****
 -------------------------------------------------------------------
 Center     Atomic                   Forces (Hartrees/Bohr)
 Number     Number              X              Y              Z
 -------------------------------------------------------------------
      1       17           0.000000961    0.000939351    0.000000000
      2        9          -0.000524571   -0.000285167   -0.000000000
      3        9           0.000524234   -0.000285761    0.000000000
      4        9          -0.000000624   -0.000368422    0.000000000
 -------------------------------------------------------------------
 Cartesian Forces:  Max     0.000939351 RMS     0.000379813

 GradGradGradGradGradGradGradGradGradGradGradGradGradGradGradGradGradGrad
 Berny optimization.
 Using GEDIIS/GDIIS optimizer.
 FormGI is forming the generalized inverse of G from B-inverse, IUseBI=4.
 Internal  Forces:  Max     0.000651090 RMS     0.000404162
 Search for a local minimum.
 Step number   3 out of a maximum of   20
 All quantities printed in internal units (Hartrees-Bohrs-Radians)
 Mixed Optimization -- En-DIIS/RFO-DIIS
 Update second derivatives using D2CorX and points    1    2    3
 DE= -2.45D-04 DEPred=-2.69D-04 R= 9.10D-01
 TightC=F SS=  1.41D+00  RLast= 4.89D-02 DXNew= 5.0454D-01 1.4662D-01
 Trust test= 9.10D-01 RLast= 4.89D-02 DXMaxT set to 3.00D-01
 The second derivative matrix:
                          R1        R2        R3        A1        A2
           R1           0.28968
           R2          -0.00344   0.28961
           R3          -0.03650  -0.03656   0.25662
           A1          -0.00513  -0.00514  -0.01157   0.24711
           A2          -0.00515  -0.00515  -0.01154  -0.00288   0.24712
           A3           0.00710   0.00712   0.01911   0.00252   0.00254
           A4           0.00000   0.00000  -0.00000  -0.00000  -0.00000
           D1           0.00000   0.00000   0.00000   0.00000   0.00000
                          A3        A4        D1
           A3           0.00470
           A4           0.00000   0.00230
           D1           0.00000   0.00000   0.00230
 ITU=  1  1  0
 Use linear search instead of GDIIS.
     Eigenvalues ---    0.00230   0.08760   0.21798   0.25000   0.29308
     Eigenvalues ---    0.32517
 RFO step:  Lambda=-8.88993471D-06 EMin= 2.30000000D-03
 Quartic linear search produced a step of -0.02758.
 Iteration  1 RMS(Cart)=  0.00416266 RMS(Int)=  0.00001123
 Iteration  2 RMS(Cart)=  0.00001141 RMS(Int)=  0.00000000
 Iteration  3 RMS(Cart)=  0.00000000 RMS(Int)=  0.00000000
 ClnCor:  largest displacement from symmetrization is 0.00D+00 for atom     0.
 Variable       Old X    -DE/DX   Delta X   Delta X   Delta X     New X
                                 (Linear)    (Quad)   (Total)
    R1        3.27542   0.00052   0.00053   0.00105   0.00158   3.27699
    R2        3.27542   0.00052   0.00053   0.00105   0.00157   3.27699
    R3        3.10037  -0.00037   0.00107  -0.00233  -0.00125   3.09912
    A1        1.54640   0.00032   0.00013   0.00356   0.00369   1.55010
    A2        1.54640   0.00033   0.00013   0.00357   0.00370   1.55010
    A3        3.09280   0.00065   0.00026   0.00713   0.00740   3.10020
    A4        3.14159   0.00000   0.00000   0.00000   0.00000   3.14159
    D1        0.00000   0.00000   0.00000   0.00000   0.00000   0.00000
         Item               Value     Threshold  Converged?
 Maximum Force            0.000651     0.000450     NO 
 RMS     Force            0.000404     0.000300     NO 
 Maximum Displacement     0.006351     0.001800     NO 
 RMS     Displacement     0.004164     0.001200     NO 
 Predicted change in Energy=-4.675926D-06
 GradGradGradGradGradGradGradGradGradGradGradGradGradGradGradGradGradGrad

                          Input orientation:                          
 ---------------------------------------------------------------------
 Center     Atomic      Atomic             Coordinates (Angstroms)
 Number     Number       Type             X           Y           Z
 ---------------------------------------------------------------------
      1         17           0        8.500005    7.671345    8.500000
      2          9           0        6.766267    7.707225    8.500000
      3          9           0       10.233744    7.707242    8.500000
      4          9           0        8.499996    9.311328    8.500000
 ---------------------------------------------------------------------
                    Distance matrix (angstroms):
                    1          2          3          4
     1  Cl   0.000000
     2  F    1.734109   0.000000
     3  F    1.734110   3.467477   0.000000
     4  F    1.639983   2.361983   2.361985   0.000000
 Stoichiometry    ClF3
 Framework group  CS[SG(ClF3)]
 Deg. of freedom     5
 Full point group                 CS      NOp   2
 Largest Abelian subgroup         CS      NOp   2
 Largest concise Abelian subgroup C1      NOp   1
                         Standard orientation:                         
 ---------------------------------------------------------------------
 Center     Atomic      Atomic             Coordinates (Angstroms)
 Number     Number       Type             X           Y           Z
 ---------------------------------------------------------------------
      1         17           0        0.000000    0.350133   -0.000000
      2          9           0       -1.733738    0.314244    0.000000
      3          9           0        1.733739    0.314244   -0.000000
      4          9           0       -0.000001   -1.289850    0.000000
 ---------------------------------------------------------------------
 Rotational constants (GHZ):          12.7473271           4.4248943           3.2846988
 Standard basis: def2QZVPP (5D, 7F)
 There are   202 symmetry adapted cartesian basis functions of A'  symmetry.
 There are   100 symmetry adapted cartesian basis functions of A"  symmetry.
 There are   157 symmetry adapted basis functions of A'  symmetry.
 There are    84 symmetry adapted basis functions of A"  symmetry.
   241 basis functions,   397 primitive gaussians,   302 cartesian basis functions
    22 alpha electrons       22 beta electrons
       nuclear repulsion energy       191.4030655938 Hartrees.
 NAtoms=    4 NActive=    4 NUniq=    4 SFac= 1.00D+00 NAtFMM=   60 NAOKFM=F Big=F
 Integral buffers will be    131072 words long.
 Raffenetti 2 integral format.
 Two-electron integral symmetry is turned on.
 One-electron integrals computed using PRISM.
   2 Symmetry operations used in ECPInt.
 ECPInt:  NShTT=    2701 NPrTT=    8450 LenC2=    2557 LenP2D=    6367.
 LDataN:  DoStor=T MaxTD1= 8 Len=  415
 NBasis=   241 RedAO= T EigKep=  9.37D-04  NBF=   157    84
 NBsUse=   241 1.00D-06 EigRej= -1.00D+00 NBFU=   157    84
 Initial guess from the checkpoint file:  "/data/hutter/SMG16/PBE/Gau-91627.chk"
 B after Tr=     0.000000    0.000000   -0.000000
         Rot=    1.000000   -0.000000   -0.000000   -0.000001 Ang=  -0.00 deg.
 Initial guess orbital symmetries:
       Occupied  (A') (A') (A') (A') (A') (A') (A') (A") (A') (A')
                 (A') (A') (A') (A') (A") (A') (A") (A') (A") (A')
                 (A') (A")
       Virtual   (A') (A') (A') (A") (A') (A') (A") (A") (A') (A')
                 (A') (A') (A') (A") (A") (A') (A") (A') (A') (A')
                 (A') (A') (A') (A") (A") (A') (A") (A') (A') (A')
                 (A') (A") (A") (A') (A") (A') (A') (A") (A") (A')
                 (A') (A') (A') (A") (A") (A") (A') (A') (A") (A')
                 (A') (A') (A') (A") (A') (A') (A") (A') (A') (A")
                 (A') (A') (A') (A') (A") (A") (A') (A") (A') (A")
                 (A') (A') (A") (A') (A') (A') (A") (A") (A') (A')
                 (A") (A') (A') (A') (A") (A') (A') (A") (A') (A")
                 (A') (A') (A") (A") (A") (A') (A') (A') (A") (A")
                 (A") (A') (A') (A') (A') (A") (A") (A') (A") (A')
                 (A") (A") (A') (A') (A') (A') (A') (A") (A') (A")
                 (A") (A') (A') (A') (A') (A") (A") (A") (A') (A')
                 (A') (A') (A') (A') (A') (A') (A") (A") (A') (A')
                 (A') (A") (A') (A") (A") (A') (A') (A') (A") (A")
                 (A') (A') (A") (A") (A') (A") (A') (A") (A") (A')
                 (A') (A") (A') (A') (A') (A") (A') (A') (A") (A')
                 (A") (A') (A") (A') (A") (A') (A') (A') (A") (A")
                 (A') (A') (A") (A') (A") (A') (A') (A") (A') (A')
                 (A') (A') (A") (A") (A') (A") (A') (A') (A") (A")
                 (A") (A') (A') (A') (A') (A') (A') (A') (A") (A')
                 (A') (A') (A') (A') (A') (A') (A') (A') (A')
 Keep J ints in memory in symmetry-blocked form, NReq=639804687.
 Requested convergence on RMS density matrix=1.00D-08 within 128 cycles.
 Requested convergence on MAX density matrix=1.00D-06.
 Requested convergence on             energy=1.00D-06.
 No special actions if energy rises.
 SCF Done:  E(RPBE-PBE) =  -759.263862543     A.U. after    8 cycles
            NFock=  8  Conv=0.93D-08     -V/T= 2.0021
   2 Symmetry operations used in ECPInt.
 ECPInt:  NShTT=    2701 NPrTT=    8450 LenC2=    2557 LenP2D=    6367.
 LDataN:  DoStor=T MaxTD1= 9 Len=  602
 Calling FoFJK, ICntrl=      2527 FMM=F ISym2X=1 I1Cent= 0 IOpClX= 0 NMat=1 NMatS=1 NMatT=0.
 ***** Axes restored to original set *****
 -------------------------------------------------------------------
 Center     Atomic                   Forces (Hartrees/Bohr)
 Number     Number              X              Y              Z
 -------------------------------------------------------------------
      1       17           0.000001012    0.000099239   -0.000000000
      2        9          -0.000343278    0.000084835    0.000000000
      3        9           0.000342258    0.000084839   -0.000000000
      4        9           0.000000008   -0.000268912   -0.000000000
 -------------------------------------------------------------------
 Cartesian Forces:  Max     0.000343278 RMS     0.000166217

 GradGradGradGradGradGradGradGradGradGradGradGradGradGradGradGradGradGrad
 Berny optimization.
 Using GEDIIS/GDIIS optimizer.
 FormGI is forming the generalized inverse of G from B-inverse, IUseBI=4.
 Internal  Forces:  Max     0.000344961 RMS     0.000210016
 Search for a local minimum.
 Step number   4 out of a maximum of   20
 All quantities printed in internal units (Hartrees-Bohrs-Radians)
 Mixed Optimization -- En-DIIS/RFO-DIIS
 Swapping is turned off.
 Update second derivatives using D2CorX and points    1    2    3    4
 DE= -4.41D-06 DEPred=-4.68D-06 R= 9.43D-01
 TightC=F SS=  1.41D+00  RLast= 9.41D-03 DXNew= 5.0454D-01 2.8233D-02
 Trust test= 9.43D-01 RLast= 9.41D-03 DXMaxT set to 3.00D-01
 The second derivative matrix:
                          R1        R2        R3        A1        A2
           R1           0.27013
           R2          -0.02296   0.27011
           R3          -0.01281  -0.01291   0.23082
           A1          -0.04161  -0.04155   0.02970   0.16823
           A2          -0.04170  -0.04164   0.02980  -0.08190   0.16797
           A3           0.01013   0.01020   0.00137   0.03508   0.03527
           A4           0.00000   0.00000  -0.00000   0.00000   0.00000
           D1           0.00000   0.00000  -0.00000   0.00000   0.00000
                          A3        A4        D1
           A3           0.07173
           A4           0.00000   0.00230
           D1           0.00000   0.00000   0.00230
 ITU=  1  1  1  0
     Eigenvalues ---    0.00230   0.11023   0.21907   0.25000   0.27214
     Eigenvalues ---    0.29308
 En-DIIS/RFO-DIIS/Sim-DIIS IScMMF=       -3 using points:     4    3
 RFO step:  Lambda=-1.30748123D-06.
 DidBck=F Rises=F RFO-DIIS coefs:    0.95728    0.04272
 Iteration  1 RMS(Cart)=  0.00090805 RMS(Int)=  0.00000018
 Iteration  2 RMS(Cart)=  0.00000023 RMS(Int)=  0.00000000
 ClnCor:  largest displacement from symmetrization is 1.78D-15 for atom     2.
 Variable       Old X    -DE/DX   Delta X   Delta X   Delta X     New X
                                 (Linear)    (Quad)   (Total)
    R1        3.27699   0.00034  -0.00007   0.00131   0.00125   3.27824
    R2        3.27699   0.00034  -0.00007   0.00131   0.00124   3.27824
    R3        3.09912  -0.00027   0.00005  -0.00097  -0.00092   3.09820
    A1        1.55010  -0.00008  -0.00016  -0.00024  -0.00040   1.54970
    A2        1.55010  -0.00008  -0.00016  -0.00024  -0.00040   1.54970
    A3        3.10020  -0.00017  -0.00032  -0.00048  -0.00080   3.09940
    A4        3.14159  -0.00000   0.00000  -0.00000   0.00000   3.14159
    D1        0.00000  -0.00000   0.00000  -0.00000   0.00000   0.00000
         Item               Value     Threshold  Converged?
 Maximum Force            0.000345     0.000450     YES
 RMS     Force            0.000210     0.000300     YES
 Maximum Displacement     0.001356     0.001800     YES
 RMS     Displacement     0.000908     0.001200     YES
 Predicted change in Energy=-6.537433D-07
 Optimization completed.
    -- Stationary point found.
                           ----------------------------
                           !   Optimized Parameters   !
                           ! (Angstroms and Degrees)  !
 --------------------------                            --------------------------
 ! Name  Definition              Value          Derivative Info.                !
 --------------------------------------------------------------------------------
 ! R1    R(1,2)                  1.7341         -DE/DX =    0.0003              !
 ! R2    R(1,3)                  1.7341         -DE/DX =    0.0003              !
 ! R3    R(1,4)                  1.64           -DE/DX =   -0.0003              !
 ! A1    A(2,1,4)               88.8141         -DE/DX =   -0.0001              !
 ! A2    A(3,1,4)               88.8142         -DE/DX =   -0.0001              !
 ! A3    L(2,1,3,4,-1)         177.6283         -DE/DX =   -0.0002              !
 ! A4    L(2,1,3,4,-2)         180.0            -DE/DX =    0.0                 !
 ! D1    D(2,1,3,4)              0.0            -DE/DX =    0.0                 !
 --------------------------------------------------------------------------------
 GradGradGradGradGradGradGradGradGradGradGradGradGradGradGradGradGradGrad

                          Input orientation:                          
 ---------------------------------------------------------------------
 Center     Atomic      Atomic             Coordinates (Angstroms)
 Number     Number       Type             X           Y           Z
 ---------------------------------------------------------------------
      1         17           0        8.500005    7.671345    8.500000
      2          9           0        6.766267    7.707225    8.500000
      3          9           0       10.233744    7.707242    8.500000
      4          9           0        8.499996    9.311328    8.500000
 ---------------------------------------------------------------------
                    Distance matrix (angstroms):
                    1          2          3          4
     1  Cl   0.000000
     2  F    1.734109   0.000000
     3  F    1.734110   3.467477   0.000000
     4  F    1.639983   2.361983   2.361985   0.000000
 Stoichiometry    ClF3
 Framework group  CS[SG(ClF3)]
 Deg. of freedom     5
 Full point group                 CS      NOp   2
 Largest Abelian subgroup         CS      NOp   2
 Largest concise Abelian subgroup C1      NOp   1
                         Standard orientation:                         
 ---------------------------------------------------------------------
 Center     Atomic      Atomic             Coordinates (Angstroms)
 Number     Number       Type             X           Y           Z
 ---------------------------------------------------------------------
      1         17           0        0.000000    0.350133   -0.000000
      2          9           0       -1.733738    0.314244    0.000000
      3          9           0        1.733739    0.314244   -0.000000
      4          9           0       -0.000001   -1.289850    0.000000
 ---------------------------------------------------------------------
 Rotational constants (GHZ):          12.7473271           4.4248943           3.2846988

 **********************************************************************

            Population analysis using the SCF Density.

 **********************************************************************

 Orbital symmetries:
       Occupied  (A') (A') (A') (A') (A') (A') (A') (A") (A') (A')
                 (A') (A') (A') (A') (A") (A') (A") (A') (A") (A')
                 (A') (A")
       Virtual   (A') (A') (A') (A") (A') (A') (A") (A") (A') (A')
                 (A') (A') (A') (A") (A") (A') (A") (A') (A') (A')
                 (A') (A') (A') (A") (A") (A') (A") (A') (A') (A')
                 (A') (A") (A") (A') (A") (A') (A') (A") (A") (A')
                 (A') (A') (A') (A") (A") (A") (A') (A') (A") (A')
                 (A') (A') (A') (A") (A') (A') (A") (A') (A') (A")
                 (A') (A') (A') (A') (A") (A") (A') (A") (A') (A")
                 (A') (A') (A") (A') (A') (A') (A") (A") (A') (A')
                 (A") (A') (A') (A') (A") (A') (A') (A") (A') (A")
                 (A') (A') (A") (A") (A") (A') (A') (A') (A") (A")
                 (A") (A') (A') (A') (A') (A") (A") (A') (A") (A')
                 (A") (A") (A') (A') (A') (A') (A') (A") (A') (A")
                 (A") (A') (A') (A') (A') (A") (A") (A") (A') (A')
                 (A') (A') (A') (A') (A') (A') (A") (A") (A') (A')
                 (A') (A") (A') (A") (A") (A') (A') (A') (A") (A")
                 (A') (A') (A") (A") (A') (A") (A') (A") (A") (A')
                 (A') (A") (A') (A') (A') (A") (A') (A') (A") (A')
                 (A") (A') (A") (A') (A") (A') (A') (A') (A") (A")
                 (A') (A') (A") (A') (A") (A') (A') (A") (A') (A')
                 (A') (A') (A") (A") (A') (A") (A') (A') (A") (A")
                 (A") (A') (A') (A') (A') (A') (A') (A') (A") (A')
                 (A') (A') (A') (A') (A') (A') (A') (A') (A')
 The electronic state is 1-A'.
 Alpha  occ. eigenvalues -- -100.90144 -24.34775 -24.27720 -24.27720  -9.38964
 Alpha  occ. eigenvalues --   -7.21623  -7.21489  -7.19548  -1.19820  -1.09661
 Alpha  occ. eigenvalues --   -1.09456  -0.82447  -0.56138  -0.55292  -0.49115
 Alpha  occ. eigenvalues --   -0.43701  -0.39588  -0.39068  -0.37693  -0.36237
 Alpha  occ. eigenvalues --   -0.35173  -0.29892
 Alpha virt. eigenvalues --   -0.19828  -0.10898   0.13512   0.13662   0.14279
 Alpha virt. eigenvalues --    0.14363   0.21035   0.22145   0.22321   0.24271
 Alpha virt. eigenvalues --    0.25415   0.31018   0.34342   0.34771   0.35566
 Alpha virt. eigenvalues --    0.38318   0.39840   0.43961   0.44972   0.54645
 Alpha virt. eigenvalues --    0.77598   0.80724   0.89206   0.92886   0.95568
 Alpha virt. eigenvalues --    0.97829   0.99012   0.99865   1.03800   1.06272
 Alpha virt. eigenvalues --    1.07201   1.07895   1.11617   1.14432   1.17283
 Alpha virt. eigenvalues --    1.26098   1.32639   1.34067   1.34456   1.47569
 Alpha virt. eigenvalues --    1.51331   1.53615   1.54607   1.55834   1.56866
 Alpha virt. eigenvalues --    1.57909   1.58567   1.61609   1.63702   1.63916
 Alpha virt. eigenvalues --    1.64310   1.68688   1.69542   1.70558   1.80875
 Alpha virt. eigenvalues --    1.80963   1.97934   2.14614   2.21896   2.22566
 Alpha virt. eigenvalues --    2.44960   2.61913   2.74696   2.96266   2.97733
 Alpha virt. eigenvalues --    2.98718   3.07325   3.21054   3.22805   3.24470
 Alpha virt. eigenvalues --    3.28058   3.30148   3.31382   3.38534   3.47340
 Alpha virt. eigenvalues --    3.51123   3.52078   3.59166   3.60188   3.63446
 Alpha virt. eigenvalues --    3.66254   3.74962   3.79438   3.85712   3.87217
 Alpha virt. eigenvalues --    3.87281   3.93582   3.94943   4.01018   4.03167
 Alpha virt. eigenvalues --    4.04703   4.05213   4.06639   4.09021   4.11113
 Alpha virt. eigenvalues --    4.23286   4.25192   4.30984   4.31847   4.37120
 Alpha virt. eigenvalues --    4.38281   4.43134   4.52420   4.58872   4.74273
 Alpha virt. eigenvalues --    4.75766   4.82231   4.84820   4.85856   4.86177
 Alpha virt. eigenvalues --    4.88422   4.92028   4.94757   5.05057   5.11081
 Alpha virt. eigenvalues --    5.17637   5.23516   5.34517   5.42220   5.51025
 Alpha virt. eigenvalues --    5.52810   5.54907   5.61791   5.89417   6.01328
 Alpha virt. eigenvalues --    6.01829   6.01886   6.13956   6.14844   6.21304
 Alpha virt. eigenvalues --    6.34721   6.50455   6.73525   6.79912   6.91024
 Alpha virt. eigenvalues --    8.35296  10.32942  10.34293  10.38011  10.58826
 Alpha virt. eigenvalues --   10.98881  11.15609  11.15983  11.17448  11.17892
 Alpha virt. eigenvalues --   11.17925  11.18734  11.21451  11.21565  11.21649
 Alpha virt. eigenvalues --   11.21745  11.22609  11.22759  11.23276  11.23278
 Alpha virt. eigenvalues --   11.23281  11.23312  11.23529  11.24239  11.25025
 Alpha virt. eigenvalues --   11.26620  11.32497  11.32894  11.35729  11.41857
 Alpha virt. eigenvalues --   11.44320  11.44388  11.81874  14.29027  14.29385
 Alpha virt. eigenvalues --   14.32082  14.33954  14.34598  14.34638  14.34652
 Alpha virt. eigenvalues --   14.34707  14.38721  14.39165  14.39400  14.44352
 Alpha virt. eigenvalues --   14.47883  14.54631  14.55686  14.65246  14.66347
 Alpha virt. eigenvalues --   14.66727  14.67640  14.69393  14.74962  15.13460
 Alpha virt. eigenvalues --   15.45675  15.47864  15.49721  15.54187  15.54588
 Alpha virt. eigenvalues --   15.54803  15.61653  15.66126  15.77571  15.78671
 Alpha virt. eigenvalues --   15.82777  15.83308  15.87120  15.87725  16.26107
 Alpha virt. eigenvalues --   16.31041  16.41505  28.32773  41.12125  41.21237
 Alpha virt. eigenvalues --   41.23186  53.60008  53.70910  53.77268  97.59357
 Alpha virt. eigenvalues --  283.93662 284.08576 284.15668 524.02150
          Condensed to atoms (all electrons):
               1          2          3          4
     1  Cl  15.957698   0.065569   0.065571   0.143796
     2  F    0.065569   9.256529   0.010509  -0.030069
     3  F    0.065571   0.010509   9.256526  -0.030069
     4  F    0.143796  -0.030069  -0.030069   9.078630
 Mulliken charges:
               1
     1  Cl   0.767366
     2  F   -0.302539
     3  F   -0.302537
     4  F   -0.162289
 Sum of Mulliken charges =  -0.00000
 Mulliken charges with hydrogens summed into heavy atoms:
               1
     1  Cl   0.767366
     2  F   -0.302539
     3  F   -0.302537
     4  F   -0.162289
 Electronic spatial extent (au):  <R**2>=            323.5569
 Charge=             -0.0000 electrons
 Dipole moment (field-independent basis, Debye):
    X=              0.0000    Y=              0.5868    Z=             -0.0000  Tot=              0.5868
 Quadrupole moment (field-independent basis, Debye-Ang):
   XX=            -32.5087   YY=            -25.7971   ZZ=            -26.5422
   XY=              0.0000   XZ=              0.0000   YZ=             -0.0000
 Traceless Quadrupole moment (field-independent basis, Debye-Ang):
   XX=             -4.2260   YY=              2.4855   ZZ=              1.7405
   XY=              0.0000   XZ=              0.0000   YZ=             -0.0000
 Octapole moment (field-independent basis, Debye-Ang**2):
  XXX=              0.0000  YYY=             -1.8053  ZZZ=              0.0000  XYY=             -0.0000
  XXY=             -2.7532  XXZ=             -0.0000  XZZ=             -0.0000  YZZ=             -1.1781
  YYZ=              0.0000  XYZ=              0.0000
 Hexadecapole moment (field-independent basis, Debye-Ang**3):
 XXXX=           -218.3084 YYYY=            -78.5199 ZZZZ=            -21.5453 XXXY=              0.0000
 XXXZ=              0.0000 YYYX=             -0.0000 YYYZ=              0.0000 ZZZX=              0.0000
 ZZZY=              0.0000 XXYY=            -48.8331 XXZZ=            -38.3594 YYZZ=            -17.5826
 XXYZ=             -0.0000 YYXZ=              0.0000 ZZXY=             -0.0000
 N-N= 1.914030655938D+02 E-N=-2.190604085734D+03  KE= 7.576876844011D+02
 Symmetry A'   KE= 6.916024998248D+02
 Symmetry A"   KE= 6.608518457633D+01
 Unable to Open any file for archive entry.
 1\1\GINC-TCOPT10\FOpt\RPBEPBE\def2QZVPP\Cl1F3\HUTTER\30-Jul-2021\0\\#N
  RPBEPBE/Def2QZVPP scf=tight Int(Grid=ultrafine) OPT FREQ\\Mol job 1\\
 0,1\Cl,8.5000049335,7.6713447168,8.5\F,6.766266742,7.7072251092,8.5\F,
 10.2337438079,7.7072421806,8.5\F,8.4999961965,9.3113279334,8.5\\Versio
 n=ES64L-G16RevC.01\State=1-A'\HF=-759.2638625\RMSD=9.257e-09\RMSF=1.66
 2e-04\Dipole=0.0000079,-0.2308756,0.\Quadrupole=-3.1419321,1.8479449,1
 .2939872,-0.0000285,0.,0.\PG=CS [SG(Cl1F3)]\\@
 The archive entry for this job was punched.


 IMAGINATION WILL OFTEN CARRY US TO WORLDS THAT NEVER WERE.
 BUT WITHOUT IT, WE GO NOWHERE. -- CARL SAGAN (COSMOS)
 Job cpu time:       0 days  0 hours 17 minutes  1.4 seconds.
 Elapsed time:       0 days  0 hours  2 minutes 17.5 seconds.
 File lengths (MBytes):  RWF=     34 Int=      0 D2E=      0 Chk=      5 Scr=      1
 Normal termination of Gaussian 16 at Fri Jul 30 11:56:19 2021.
 Link1:  Proceeding to internal job step number  2.
 ----------------------------------------------------------------------
 #N Geom=AllCheck Guess=TCheck SCRF=Check GenChk RPBEPBE/def2QZVPP Freq
 ----------------------------------------------------------------------
 1/10=4,29=7,30=1,38=1,40=1/1,3;
 2/12=2,40=1/2;
 3/5=45,7=202,11=2,14=-4,25=1,30=1,70=2,71=2,74=1009,75=-5,116=1,140=1/1,2,3;
 4/5=101/1;
 5/5=2,32=2,38=6,98=1/2;
 8/6=4,10=90,11=11/1;
 11/6=1,8=1,9=11,15=111,16=1/1,2,10;
 10/6=1/2;
 6/7=2,8=2,9=2,10=2,28=1/1;
 7/8=1,10=1,25=1/1,2,3,16;
 1/10=4,30=1/3;
 99//99;
 Structure from the checkpoint file:  "/data/hutter/SMG16/PBE/Gau-91627.chk"
 ---------
 Mol job 1
 ---------
 Charge =  0 Multiplicity = 1
 Redundant internal coordinates found in file.  (old form).
 Cl,0,8.5000049335,7.6713447168,8.5
 F,0,6.766266742,7.7072251092,8.5
 F,0,10.2337438079,7.7072421806,8.5
 F,0,8.4999961965,9.3113279334,8.5
 Recover connectivity data from disk.

 GradGradGradGradGradGradGradGradGradGradGradGradGradGradGradGradGradGrad
 Berny optimization.
 Initialization pass.
                           ----------------------------
                           !    Initial Parameters    !
                           ! (Angstroms and Degrees)  !
 --------------------------                            --------------------------
 ! Name  Definition              Value          Derivative Info.                !
 --------------------------------------------------------------------------------
 ! R1    R(1,2)                  1.7341         calculate D2E/DX2 analytically  !
 ! R2    R(1,3)                  1.7341         calculate D2E/DX2 analytically  !
 ! R3    R(1,4)                  1.64           calculate D2E/DX2 analytically  !
 ! A1    A(2,1,4)               88.8141         calculate D2E/DX2 analytically  !
 ! A2    A(3,1,4)               88.8142         calculate D2E/DX2 analytically  !
 ! A3    L(2,1,3,4,-1)         177.6283         calculate D2E/DX2 analytically  !
 ! A4    L(2,1,3,4,-2)         180.0            calculate D2E/DX2 analytically  !
 ! D1    D(2,1,3,4)              0.0            calculate D2E/DX2 analytically  !
 --------------------------------------------------------------------------------
 Trust Radius=3.00D-01 FncErr=1.00D-07 GrdErr=1.00D-07 EigMax=2.50D+02 EigMin=1.00D-04
 Number of steps in this run=      2 maximum allowed number of steps=      2.
 GradGradGradGradGradGradGradGradGradGradGradGradGradGradGradGradGradGrad

                          Input orientation:                          
 ---------------------------------------------------------------------
 Center     Atomic      Atomic             Coordinates (Angstroms)
 Number     Number       Type             X           Y           Z
 ---------------------------------------------------------------------
      1         17           0        8.500005    7.671345    8.500000
      2          9           0        6.766267    7.707225    8.500000
      3          9           0       10.233744    7.707242    8.500000
      4          9           0        8.499996    9.311328    8.500000
 ---------------------------------------------------------------------
                    Distance matrix (angstroms):
                    1          2          3          4
     1  Cl   0.000000
     2  F    1.734109   0.000000
     3  F    1.734110   3.467477   0.000000
     4  F    1.639983   2.361983   2.361985   0.000000
 Stoichiometry    ClF3
 Framework group  CS[SG(ClF3)]
 Deg. of freedom     5
 Full point group                 CS      NOp   2
 Largest Abelian subgroup         CS      NOp   2
 Largest concise Abelian subgroup C1      NOp   1
                         Standard orientation:                         
 ---------------------------------------------------------------------
 Center     Atomic      Atomic             Coordinates (Angstroms)
 Number     Number       Type             X           Y           Z
 ---------------------------------------------------------------------
      1         17           0        0.000000    0.350133   -0.000000
      2          9           0       -1.733738    0.314244    0.000000
      3          9           0        1.733739    0.314244   -0.000000
      4          9           0       -0.000001   -1.289850    0.000000
 ---------------------------------------------------------------------
 Rotational constants (GHZ):          12.7473271           4.4248943           3.2846988
 Standard basis: def2QZVPP (5D, 7F)
 There are   202 symmetry adapted cartesian basis functions of A'  symmetry.
 There are   100 symmetry adapted cartesian basis functions of A"  symmetry.
 There are   157 symmetry adapted basis functions of A'  symmetry.
 There are    84 symmetry adapted basis functions of A"  symmetry.
   241 basis functions,   397 primitive gaussians,   302 cartesian basis functions
    22 alpha electrons       22 beta electrons
       nuclear repulsion energy       191.4030655938 Hartrees.
 NAtoms=    4 NActive=    4 NUniq=    4 SFac= 1.00D+00 NAtFMM=   60 NAOKFM=F Big=F
 Integral buffers will be    131072 words long.
 Raffenetti 2 integral format.
 Two-electron integral symmetry is turned on.
 One-electron integrals computed using PRISM.
   2 Symmetry operations used in ECPInt.
 ECPInt:  NShTT=    2701 NPrTT=    8450 LenC2=    2557 LenP2D=    6367.
 LDataN:  DoStor=T MaxTD1= 8 Len=  415
 NBasis=   241 RedAO= T EigKep=  9.37D-04  NBF=   157    84
 NBsUse=   241 1.00D-06 EigRej= -1.00D+00 NBFU=   157    84
 Initial guess from the checkpoint file:  "/data/hutter/SMG16/PBE/Gau-91627.chk"
 B after Tr=    -0.000000    0.000000   -0.000000
         Rot=    1.000000   -0.000000   -0.000000    0.000000 Ang=   0.00 deg.
 Initial guess orbital symmetries:
       Occupied  (A') (A') (A') (A') (A') (A') (A') (A") (A') (A')
                 (A') (A') (A') (A') (A") (A') (A") (A') (A") (A')
                 (A') (A")
       Virtual   (A') (A') (A') (A") (A') (A') (A") (A") (A') (A')
                 (A') (A') (A') (A") (A") (A') (A") (A') (A') (A')
                 (A') (A') (A') (A") (A") (A') (A") (A') (A') (A')
                 (A') (A") (A") (A') (A") (A') (A') (A") (A") (A')
                 (A') (A') (A') (A") (A") (A") (A') (A') (A") (A')
                 (A') (A') (A') (A") (A') (A') (A") (A') (A') (A")
                 (A') (A') (A') (A') (A") (A") (A') (A") (A') (A")
                 (A') (A') (A") (A') (A') (A') (A") (A") (A') (A')
                 (A") (A') (A') (A') (A") (A') (A') (A") (A') (A")
                 (A') (A') (A") (A") (A") (A') (A') (A') (A") (A")
                 (A") (A') (A') (A') (A') (A") (A") (A') (A") (A')
                 (A") (A") (A') (A') (A') (A') (A') (A") (A') (A")
                 (A") (A') (A') (A') (A') (A") (A") (A") (A') (A')
                 (A') (A') (A') (A') (A') (A') (A") (A") (A') (A')
                 (A') (A") (A') (A") (A") (A') (A') (A') (A") (A")
                 (A') (A') (A") (A") (A') (A") (A') (A") (A") (A')
                 (A') (A") (A') (A') (A') (A") (A') (A') (A") (A')
                 (A") (A') (A") (A') (A") (A') (A') (A') (A") (A")
                 (A') (A') (A") (A') (A") (A') (A') (A") (A') (A')
                 (A') (A') (A") (A") (A') (A") (A') (A') (A") (A")
                 (A") (A') (A') (A') (A') (A') (A') (A') (A") (A')
                 (A') (A') (A') (A') (A') (A') (A') (A') (A')
 Keep J ints in memory in symmetry-blocked form, NReq=639804687.
 Requested convergence on RMS density matrix=1.00D-08 within 128 cycles.
 Requested convergence on MAX density matrix=1.00D-06.
 Requested convergence on             energy=1.00D-06.
 No special actions if energy rises.
 SCF Done:  E(RPBE-PBE) =  -759.263862543     A.U. after    3 cycles
            NFock=  3  Conv=0.90D-09     -V/T= 2.0021
 DoSCS=F DFT=T ScalE2(SS,OS)=  1.000000  1.000000
 Range of M.O.s used for correlation:     1   241
 NBasis=   241 NAE=    22 NBE=    22 NFC=     0 NFV=     0
 NROrb=    241 NOA=    22 NOB=    22 NVA=   219 NVB=   219

 **** Warning!!: The largest alpha MO coefficient is  0.11917726D+02

   2 Symmetry operations used in ECPInt.
 ECPInt:  NShTT=    2701 NPrTT=    8450 LenC2=    2557 LenP2D=    6367.
 LDataN:  DoStor=T MaxTD1= 9 Len=  602
 Symmetrizing basis deriv contribution to polar:
 IMax=3 JMax=2 DiffMx= 0.00D+00
 G2DrvN: will do     5 centers at a time, making    1 passes.
 Calling FoFCou, ICntrl=  3507 FMM=F I1Cent=   0 AccDes= 0.00D+00.
 End of G2Drv F.D. properties file   721 does not exist.
 End of G2Drv F.D. properties file   722 does not exist.
 End of G2Drv F.D. properties file   788 does not exist.
          IDoAtm=1111
          Differentiating once with respect to electric field.
                with respect to dipole field.
          Differentiating once with respect to nuclear coordinates.
 Keep J ints in memory in symmetry-blocked form, NReq=639807154.
          There are    15 degrees of freedom in the 1st order CPHF.  IDoFFX=6 NUNeed=     3.
     12 vectors produced by pass  0 Test12= 3.21D-14 6.67D-09 XBig12= 9.62D+01 6.50D+00.
 AX will form    12 AO Fock derivatives at one time.
     12 vectors produced by pass  1 Test12= 3.21D-14 6.67D-09 XBig12= 6.60D+01 2.38D+00.
     12 vectors produced by pass  2 Test12= 3.21D-14 6.67D-09 XBig12= 5.65D-01 2.45D-01.
     12 vectors produced by pass  3 Test12= 3.21D-14 6.67D-09 XBig12= 3.01D-02 5.18D-02.
     12 vectors produced by pass  4 Test12= 3.21D-14 6.67D-09 XBig12= 1.23D-04 2.78D-03.
     11 vectors produced by pass  5 Test12= 3.21D-14 6.67D-09 XBig12= 1.50D-06 1.89D-04.
      8 vectors produced by pass  6 Test12= 3.21D-14 6.67D-09 XBig12= 3.93D-09 1.46D-05.
      5 vectors produced by pass  7 Test12= 3.21D-14 6.67D-09 XBig12= 8.65D-12 6.20D-07.
      1 vectors produced by pass  8 Test12= 3.21D-14 6.67D-09 XBig12= 5.68D-15 1.15D-08.
 InvSVY:  IOpt=1 It=  1 EMax= 1.33D-15
 Solved reduced A of dimension    85 with    12 vectors.
 Isotropic polarizability for W=    0.000000       27.03 Bohr**3.
 End of Minotr F.D. properties file   721 does not exist.
 End of Minotr F.D. properties file   722 does not exist.
 End of Minotr F.D. properties file   788 does not exist.

 **********************************************************************

            Population analysis using the SCF Density.

 **********************************************************************

 Orbital symmetries:
       Occupied  (A') (A') (A') (A') (A') (A') (A') (A") (A') (A')
                 (A') (A') (A') (A') (A") (A') (A") (A') (A") (A')
                 (A') (A")
       Virtual   (A') (A') (A') (A") (A') (A') (A") (A") (A') (A')
                 (A') (A') (A') (A") (A") (A') (A") (A') (A') (A')
                 (A') (A') (A') (A") (A") (A') (A") (A') (A') (A')
                 (A') (A") (A") (A') (A") (A') (A') (A") (A") (A')
                 (A') (A') (A') (A") (A") (A") (A') (A') (A") (A')
                 (A') (A') (A') (A") (A') (A') (A") (A') (A') (A")
                 (A') (A') (A') (A') (A") (A") (A') (A") (A') (A")
                 (A') (A') (A") (A') (A') (A') (A") (A") (A') (A')
                 (A") (A') (A') (A') (A") (A') (A') (A") (A') (A")
                 (A') (A') (A") (A") (A") (A') (A') (A') (A") (A")
                 (A") (A') (A') (A') (A') (A") (A") (A') (A") (A')
                 (A") (A") (A') (A') (A') (A') (A') (A") (A') (A")
                 (A") (A') (A') (A') (A') (A") (A") (A") (A') (A')
                 (A') (A') (A') (A') (A') (A') (A") (A") (A') (A')
                 (A') (A") (A') (A") (A") (A') (A') (A') (A") (A")
                 (A') (A') (A") (A") (A') (A") (A') (A") (A") (A')
                 (A') (A") (A') (A') (A') (A") (A') (A') (A") (A')
                 (A") (A') (A") (A') (A") (A') (A') (A') (A") (A")
                 (A') (A') (A") (A') (A") (A') (A') (A") (A') (A')
                 (A') (A') (A") (A") (A') (A") (A') (A') (A") (A")
                 (A") (A') (A') (A') (A') (A') (A') (A') (A") (A')
                 (A') (A') (A') (A') (A') (A') (A') (A') (A')
 The electronic state is 1-A'.
 Alpha  occ. eigenvalues -- -100.90144 -24.34775 -24.27720 -24.27720  -9.38964
 Alpha  occ. eigenvalues --   -7.21623  -7.21488  -7.19548  -1.19820  -1.09661
 Alpha  occ. eigenvalues --   -1.09456  -0.82447  -0.56138  -0.55292  -0.49115
 Alpha  occ. eigenvalues --   -0.43701  -0.39588  -0.39068  -0.37693  -0.36237
 Alpha  occ. eigenvalues --   -0.35173  -0.29892
 Alpha virt. eigenvalues --   -0.19828  -0.10898   0.13512   0.13662   0.14279
 Alpha virt. eigenvalues --    0.14363   0.21035   0.22145   0.22321   0.24271
 Alpha virt. eigenvalues --    0.25415   0.31018   0.34342   0.34771   0.35566
 Alpha virt. eigenvalues --    0.38318   0.39840   0.43961   0.44972   0.54645
 Alpha virt. eigenvalues --    0.77598   0.80724   0.89206   0.92886   0.95568
 Alpha virt. eigenvalues --    0.97829   0.99012   0.99865   1.03800   1.06272
 Alpha virt. eigenvalues --    1.07201   1.07895   1.11617   1.14432   1.17283
 Alpha virt. eigenvalues --    1.26098   1.32639   1.34067   1.34456   1.47569
 Alpha virt. eigenvalues --    1.51331   1.53615   1.54607   1.55834   1.56866
 Alpha virt. eigenvalues --    1.57909   1.58567   1.61609   1.63702   1.63916
 Alpha virt. eigenvalues --    1.64310   1.68688   1.69542   1.70558   1.80875
 Alpha virt. eigenvalues --    1.80963   1.97934   2.14614   2.21896   2.22566
 Alpha virt. eigenvalues --    2.44960   2.61913   2.74696   2.96266   2.97733
 Alpha virt. eigenvalues --    2.98718   3.07325   3.21054   3.22805   3.24470
 Alpha virt. eigenvalues --    3.28058   3.30148   3.31382   3.38534   3.47340
 Alpha virt. eigenvalues --    3.51123   3.52078   3.59166   3.60188   3.63446
 Alpha virt. eigenvalues --    3.66254   3.74962   3.79438   3.85712   3.87217
 Alpha virt. eigenvalues --    3.87281   3.93582   3.94943   4.01018   4.03167
 Alpha virt. eigenvalues --    4.04703   4.05213   4.06639   4.09021   4.11113
 Alpha virt. eigenvalues --    4.23286   4.25192   4.30984   4.31847   4.37120
 Alpha virt. eigenvalues --    4.38281   4.43134   4.52420   4.58872   4.74273
 Alpha virt. eigenvalues --    4.75766   4.82231   4.84820   4.85856   4.86177
 Alpha virt. eigenvalues --    4.88422   4.92028   4.94757   5.05057   5.11081
 Alpha virt. eigenvalues --    5.17637   5.23516   5.34517   5.42220   5.51025
 Alpha virt. eigenvalues --    5.52810   5.54907   5.61791   5.89417   6.01328
 Alpha virt. eigenvalues --    6.01829   6.01886   6.13956   6.14844   6.21304
 Alpha virt. eigenvalues --    6.34721   6.50455   6.73525   6.79912   6.91024
 Alpha virt. eigenvalues --    8.35296  10.32942  10.34293  10.38011  10.58826
 Alpha virt. eigenvalues --   10.98881  11.15609  11.15983  11.17448  11.17892
 Alpha virt. eigenvalues --   11.17925  11.18734  11.21451  11.21565  11.21649
 Alpha virt. eigenvalues --   11.21745  11.22609  11.22759  11.23276  11.23278
 Alpha virt. eigenvalues --   11.23281  11.23312  11.23529  11.24239  11.25025
 Alpha virt. eigenvalues --   11.26620  11.32497  11.32894  11.35729  11.41857
 Alpha virt. eigenvalues --   11.44320  11.44388  11.81874  14.29027  14.29385
 Alpha virt. eigenvalues --   14.32082  14.33954  14.34598  14.34638  14.34652
 Alpha virt. eigenvalues --   14.34707  14.38721  14.39165  14.39400  14.44352
 Alpha virt. eigenvalues --   14.47883  14.54631  14.55686  14.65246  14.66347
 Alpha virt. eigenvalues --   14.66727  14.67640  14.69393  14.74962  15.13460
 Alpha virt. eigenvalues --   15.45675  15.47864  15.49721  15.54187  15.54588
 Alpha virt. eigenvalues --   15.54803  15.61653  15.66126  15.77571  15.78671
 Alpha virt. eigenvalues --   15.82777  15.83308  15.87120  15.87725  16.26107
 Alpha virt. eigenvalues --   16.31041  16.41505  28.32773  41.12125  41.21237
 Alpha virt. eigenvalues --   41.23186  53.60008  53.70910  53.77268  97.59357
 Alpha virt. eigenvalues --  283.93662 284.08576 284.15668 524.02150
          Condensed to atoms (all electrons):
               1          2          3          4
     1  Cl  15.957698   0.065570   0.065570   0.143796
     2  F    0.065570   9.256528   0.010509  -0.030069
     3  F    0.065570   0.010509   9.256528  -0.030068
     4  F    0.143796  -0.030069  -0.030068   9.078630
 Mulliken charges:
               1
     1  Cl   0.767366
     2  F   -0.302538
     3  F   -0.302538
     4  F   -0.162289
 Sum of Mulliken charges =  -0.00000
 Mulliken charges with hydrogens summed into heavy atoms:
               1
     1  Cl   0.767366
     2  F   -0.302538
     3  F   -0.302538
     4  F   -0.162289
 APT charges:
               1
     1  Cl   1.558431
     2  F   -0.609673
     3  F   -0.609673
     4  F   -0.339086
 Sum of APT charges =  -0.00000
 APT charges with hydrogens summed into heavy atoms:
               1
     1  Cl   1.558431
     2  F   -0.609673
     3  F   -0.609673
     4  F   -0.339086
 Electronic spatial extent (au):  <R**2>=            323.5569
 Charge=              0.0000 electrons
 Dipole moment (field-independent basis, Debye):
    X=             -0.0000    Y=              0.5868    Z=              0.0000  Tot=              0.5868
 Quadrupole moment (field-independent basis, Debye-Ang):
   XX=            -32.5087   YY=            -25.7971   ZZ=            -26.5422
   XY=             -0.0000   XZ=              0.0000   YZ=              0.0000
 Traceless Quadrupole moment (field-independent basis, Debye-Ang):
   XX=             -4.2260   YY=              2.4856   ZZ=              1.7405
   XY=             -0.0000   XZ=              0.0000   YZ=              0.0000
 Octapole moment (field-independent basis, Debye-Ang**2):
  XXX=             -0.0000  YYY=             -1.8053  ZZZ=              0.0000  XYY=             -0.0000
  XXY=             -2.7532  XXZ=              0.0000  XZZ=             -0.0000  YZZ=             -1.1781
  YYZ=              0.0000  XYZ=              0.0000
 Hexadecapole moment (field-independent basis, Debye-Ang**3):
 XXXX=           -218.3085 YYYY=            -78.5199 ZZZZ=            -21.5453 XXXY=             -0.0000
 XXXZ=              0.0000 YYYX=             -0.0000 YYYZ=              0.0000 ZZZX=              0.0000
 ZZZY=              0.0000 XXYY=            -48.8331 XXZZ=            -38.3594 YYZZ=            -17.5826
 XXYZ=              0.0000 YYXZ=              0.0000 ZZXY=             -0.0000
 N-N= 1.914030655938D+02 E-N=-2.190604072621D+03  KE= 7.576876783910D+02
 Symmetry A'   KE= 6.916024957350D+02
 Symmetry A"   KE= 6.608518265598D+01
  Exact polarizability:      41.186       0.000      24.138      -0.000      -0.000      15.760
 Approx polarizability:     102.066      -0.000      49.107      -0.000      -0.000      24.281
   2 Symmetry operations used in ECPInt.
 ECPInt:  NShTT=    2701 NPrTT=    8450 LenC2=    2557 LenP2D=    6367.
 LDataN:  DoStor=T MaxTD1=10 Len=  848
 Calling FoFJK, ICntrl=    100527 FMM=F ISym2X=1 I1Cent= 0 IOpClX= 0 NMat=1 NMatS=1 NMatT=0.
 Full mass-weighted force constant matrix:
 Low frequencies ---  -12.5492   -7.8756    0.0003    0.0020    0.0029   11.6231
 Low frequencies ---  271.9448  314.0347  379.5667
 Diagonal vibrational polarizability:
       25.0235087       6.9704646       3.6846195
 Harmonic frequencies (cm**-1), IR intensities (KM/Mole), Raman scattering
 activities (A**4/AMU), depolarization ratios for plane and unpolarized
 incident light, reduced masses (AMU), force constants (mDyne/A),
 and normal coordinates:
                      1                      2                      3
                     A'                     A"                     A'
 Frequencies --    271.9448               314.0347               379.5665
 Red. masses --     21.3116                24.7592                19.3455
 Frc consts  --      0.9286                 1.4386                 1.6421
 IR Inten    --      8.5548                13.5025                 0.0580
  Atom  AN      X      Y      Z        X      Y      Z        X      Y      Z
     1  17     0.00  -0.38  -0.00    -0.00  -0.00   0.60    -0.15  -0.00   0.00
     2   9    -0.08   0.57   0.00     0.00  -0.00  -0.57    -0.25   0.36  -0.00
     3   9     0.08   0.57   0.00     0.00   0.00  -0.57    -0.25  -0.36  -0.00
     4   9    -0.00  -0.44  -0.00    -0.00  -0.00   0.02     0.77  -0.00   0.00
                      4                      5                      6
                     A'                     A'                     A'
 Frequencies --    501.1337               684.7276               695.2540
 Red. masses --     19.0904                25.4031                22.8810
 Frc consts  --      2.8247                 7.0173                 6.5165
 IR Inten    --      6.9933               435.7753                55.8269
  Atom  AN      X      Y      Z        X      Y      Z        X      Y      Z
     1  17    -0.00  -0.08   0.00     0.63  -0.00   0.00    -0.00  -0.49  -0.00
     2   9    -0.68  -0.05  -0.00    -0.54  -0.05  -0.00     0.19   0.04   0.00
     3   9     0.68  -0.05  -0.00    -0.54   0.05  -0.00    -0.19   0.04   0.00
     4   9     0.00   0.23   0.00    -0.08   0.00   0.00     0.00   0.83  -0.00

 -------------------
 - Thermochemistry -
 -------------------
 Temperature   298.150 Kelvin.  Pressure   1.00000 Atm.
 Atom     1 has atomic number 17 and mass  34.96885
 Atom     2 has atomic number  9 and mass  18.99840
 Atom     3 has atomic number  9 and mass  18.99840
 Atom     4 has atomic number  9 and mass  18.99840
 Molecular mass:    91.96406 amu.
 Principal axes and moments of inertia in atomic units:
                           1         2         3
     Eigenvalues --   141.57801 407.86086 549.43887
           X            1.00000  -0.00000   0.00000
           Y            0.00000   1.00000   0.00000
           Z           -0.00000  -0.00000   1.00000
 This molecule is an asymmetric top.
 Rotational symmetry number  1.
 Rotational temperatures (Kelvin)      0.61178     0.21236     0.15764
 Rotational constants (GHZ):          12.74733     4.42489     3.28470
 Zero-point vibrational energy      17026.8 (Joules/Mol)
                                    4.06951 (Kcal/Mol)
 Warning -- explicit consideration of   4 degrees of freedom as
           vibrations may cause significant error
 Vibrational temperatures:    391.27   451.83   546.11   721.02   985.17
          (Kelvin)           1000.32
 
 Zero-point correction=                           0.006485 (Hartree/Particle)
 Thermal correction to Energy=                    0.010964
 Thermal correction to Enthalpy=                  0.011908
 Thermal correction to Gibbs Free Energy=        -0.021205
 Sum of electronic and zero-point Energies=           -759.257377
 Sum of electronic and thermal Energies=              -759.252899
 Sum of electronic and thermal Enthalpies=            -759.251955
 Sum of electronic and thermal Free Energies=         -759.285067
 
                     E (Thermal)             CV                S
                      KCal/Mol        Cal/Mol-Kelvin    Cal/Mol-Kelvin
 Total                    6.880             13.792             69.691
 Electronic               0.000              0.000              0.000
 Translational            0.889              2.981             39.468
 Rotational               0.889              2.981             24.965
 Vibrational              5.102              7.830              5.257
 Vibration     1          0.675              1.725              1.584
 Vibration     2          0.702              1.647              1.341
 Vibration     3          0.750              1.514              1.041
 Vibration     4          0.857              1.247              0.655
                       Q            Log10(Q)             Ln(Q)
 Total Bot       0.566772D+10          9.753409         22.458053
 Total V=0       0.544977D+13         12.736378         29.326594
 Vib (Bot)       0.256430D-02         -2.591032         -5.966071
 Vib (Bot)    1  0.709957D+00         -0.148768         -0.342551
 Vib (Bot)    2  0.600723D+00         -0.221326         -0.509622
 Vib (Bot)    3  0.476491D+00         -0.321945         -0.741306
 Vib (Bot)    4  0.327632D+00         -0.484614         -1.115865
 Vib (V=0)       0.246568D+01          0.391937          0.902469
 Vib (V=0)    1  0.136835D+01          0.136199          0.313609
 Vib (V=0)    2  0.128158D+01          0.107746          0.248094
 Vib (V=0)    3  0.119068D+01          0.075796          0.174528
 Vib (V=0)    4  0.109778D+01          0.040516          0.093291
 Electronic      0.100000D+01          0.000000          0.000000
 Translational   0.346642D+08          7.539881         17.361218
 Rotational      0.637616D+05          4.804559         11.062906
 ***** Axes restored to original set *****
 -------------------------------------------------------------------
 Center     Atomic                   Forces (Hartrees/Bohr)
 Number     Number              X              Y              Z
 -------------------------------------------------------------------
      1       17           0.000000237    0.000099285    0.000000000
      2        9          -0.000342920    0.000084796   -0.000000000
      3        9           0.000342586    0.000084882    0.000000000
      4        9           0.000000096   -0.000268964   -0.000000000
 -------------------------------------------------------------------
 Cartesian Forces:  Max     0.000342920 RMS     0.000166221
 FormGI is forming the generalized inverse of G from B-inverse, IUseBI=4.

 GradGradGradGradGradGradGradGradGradGradGradGradGradGradGradGradGradGrad
 Berny optimization.
 Internal  Forces:  Max     0.000344601 RMS     0.000210020
 Search for a local minimum.
 Step number   1 out of a maximum of    2
 All quantities printed in internal units (Hartrees-Bohrs-Radians)
 Second derivative matrix not updated -- analytic derivatives used.
 The second derivative matrix:
                          R1        R2        R3        A1        A2
           R1           0.17507
           R2           0.01454   0.17507
           R3           0.01778   0.01778   0.21582
           A1           0.00736  -0.01693   0.00493   0.16850
           A2          -0.01693   0.00736   0.00493  -0.13000   0.16850
           A3          -0.00957  -0.00957   0.00986   0.03850   0.03850
           A4          -0.00000   0.00000  -0.00000  -0.00000   0.00000
           D1          -0.00000   0.00000  -0.00000  -0.00000   0.00000
                          A3        A4        D1
           A3           0.07700
           A4           0.00000   0.00000
           D1           0.00000   0.00001   0.00032
 ITU=  0
     Eigenvalues ---    0.00032   0.10908   0.15637   0.18076   0.23110
     Eigenvalues ---    0.30265
 Angle between quadratic step and forces=   2.09 degrees.
 Linear search not attempted -- first point.
 Iteration  1 RMS(Cart)=  0.00132286 RMS(Int)=  0.00000033
 Iteration  2 RMS(Cart)=  0.00000043 RMS(Int)=  0.00000000
 ClnCor:  largest displacement from symmetrization is 1.85D-12 for atom     1.
 Variable       Old X    -DE/DX   Delta X   Delta X   Delta X     New X
                                 (Linear)    (Quad)   (Total)
    R1        3.27699   0.00034   0.00000   0.00188   0.00188   3.27887
    R2        3.27699   0.00034   0.00000   0.00188   0.00188   3.27887
    R3        3.09912  -0.00027   0.00000  -0.00148  -0.00148   3.09763
    A1        1.55010  -0.00008   0.00000  -0.00052  -0.00052   1.54958
    A2        1.55010  -0.00009   0.00000  -0.00052  -0.00052   1.54958
    A3        3.10020  -0.00017   0.00000  -0.00103  -0.00103   3.09917
    A4        3.14159  -0.00000   0.00000   0.00000   0.00000   3.14159
    D1        0.00000  -0.00000   0.00000   0.00000   0.00000   0.00000
         Item               Value     Threshold  Converged?
 Maximum Force            0.000345     0.000450     YES
 RMS     Force            0.000210     0.000300     YES
 Maximum Displacement     0.001979     0.001800     NO 
 RMS     Displacement     0.001323     0.001200     NO 
 Predicted change in Energy=-9.778635D-07
                           ----------------------------
                           ! Non-Optimized Parameters !
                           ! (Angstroms and Degrees)  !
 --------------------------                            --------------------------
 ! Name  Definition              Value          Derivative Info.                !
 --------------------------------------------------------------------------------
 ! R1    R(1,2)                  1.7351         -DE/DX =    0.0003              !
 ! R2    R(1,3)                  1.7351         -DE/DX =    0.0003              !
 ! R3    R(1,4)                  1.6392         -DE/DX =   -0.0003              !
 ! A1    A(2,1,4)               88.7846         -DE/DX =   -0.0001              !
 ! A2    A(3,1,4)               88.7846         -DE/DX =   -0.0001              !
 ! A3    L(2,1,3,4,-1)         177.5691         -DE/DX =   -0.0002              !
 ! A4    L(2,1,3,4,-2)         180.0            -DE/DX =    0.0                 !
 ! D1    D(2,1,3,4)              0.0            -DE/DX =    0.0                 !
 --------------------------------------------------------------------------------
 GradGradGradGradGradGradGradGradGradGradGradGradGradGradGradGradGradGrad


 ----------------------------------------------------------------------

 Electric dipole moment (input orientation):
 (Debye = 10**-18 statcoulomb cm , SI units = C m)
                  (au)            (Debye)         (10**-30 SI)
   Tot        0.230876D+00      0.586828D+00      0.195745D+01
   x          0.000000D+00      0.000000D+00      0.000000D+00
   y         -0.230876D+00     -0.586828D+00     -0.195745D+01
   z          0.000000D+00      0.000000D+00      0.000000D+00

 Dipole polarizability, Alpha (input orientation).
 (esu units = cm**3 , SI units = C**2 m**2 J**-1)
 Alpha(0;0):
               (au)            (10**-24 esu)      (10**-40 SI)
   iso        0.270281D+02      0.400515D+01      0.445633D+01
   aniso      0.224414D+02      0.332547D+01      0.370009D+01
   xx         0.411855D+02      0.610307D+01      0.679058D+01
   yx         0.796285D-04      0.117997D-04      0.131290D-04
   yy         0.241382D+02      0.357691D+01      0.397985D+01
   zx         0.000000D+00      0.000000D+00      0.000000D+00
   zy         0.000000D+00      0.000000D+00      0.000000D+00
   zz         0.157604D+02      0.233546D+01      0.259855D+01

 ----------------------------------------------------------------------

 Dipole orientation:
    17         16.06268979         16.06258581        -14.49682677
     9         12.78639907         16.06260340        -14.56461329
     9         19.33898107         16.06256822        -14.56468074
     9         16.06265664         16.06258581        -17.59594590

 Electric dipole moment (dipole orientation):
 (Debye = 10**-18 statcoulomb cm , SI units = C m)
                  (au)            (Debye)         (10**-30 SI)
   Tot        0.230876D+00      0.586828D+00      0.195745D+01
   x          0.000000D+00      0.000000D+00      0.000000D+00
   y          0.000000D+00      0.000000D+00      0.000000D+00
   z          0.230876D+00      0.586828D+00      0.195745D+01

 Dipole polarizability, Alpha (dipole orientation).
 (esu units = cm**3 , SI units = C**2 m**2 J**-1)
 Alpha(0;0):
               (au)            (10**-24 esu)      (10**-40 SI)
   iso        0.270281D+02      0.400515D+01      0.445633D+01
   aniso      0.224414D+02      0.332547D+01      0.370009D+01
   xx         0.411855D+02      0.610307D+01      0.679058D+01
   yx        -0.136520D-03     -0.202302D-04     -0.225091D-04
   yy         0.157604D+02      0.233546D+01      0.259855D+01
   zx        -0.171164D-03     -0.253639D-04     -0.282211D-04
   zy         0.000000D+00      0.000000D+00      0.000000D+00
   zz         0.241382D+02      0.357691D+01      0.397985D+01

 ----------------------------------------------------------------------
 Unable to Open any file for archive entry.
 1\1\GINC-TCOPT10\Freq\RPBEPBE\def2QZVPP\Cl1F3\HUTTER\30-Jul-2021\0\\#N
  Geom=AllCheck Guess=TCheck SCRF=Check GenChk RPBEPBE/def2QZVPP Freq\\
 Mol job 1\\0,1\Cl,8.5000049335,7.6713447168,8.5\F,6.766266742,7.707225
 1092,8.5\F,10.2337438079,7.7072421806,8.5\F,8.4999961965,9.3113279334,
 8.5\\Version=ES64L-G16RevC.01\State=1-A'\HF=-759.2638625\RMSD=9.031e-1
 0\RMSF=1.662e-04\ZeroPoint=0.0064852\Thermal=0.0109636\ETot=-759.25289
 89\HTot=-759.2519547\GTot=-759.2850671\Dipole=-0.0000012,-0.2308759,0.
 \DipoleDeriv=2.9563919,0.0000088,0.,0.0000078,1.1840684,0.,0.,0.,0.534
 8335,-1.3525347,-0.1011657,0.,0.1116535,-0.2411554,0.,0.,0.,-0.2353278
 ,-1.3525336,0.1011544,0.,-0.1116638,-0.241156,0.,0.,0.,-0.2353284,-0.2
 513236,0.0000026,0.,0.0000025,-0.701757,0.,0.,0.,-0.0641773\Polar=41.1
 855361,0.0000796,24.138208,0.,0.,15.7604387\Quadrupole=-3.1419351,1.84
 79463,1.2939888,-0.0000233,0.,0.\PG=CS [SG(Cl1F3)]\NImag=0\\0.35002501
 ,0.00000031,0.26443318,0.,0.,0.06650186,-0.15232883,0.02990510,0.,0.17
 497667,0.02458380,-0.02845029,0.,-0.00370089,0.03001353,0.,0.,-0.03397
 749,0.,0.,0.01732302,-0.15232757,-0.02990630,0.,-0.01420467,0.00833448
 ,0.,0.17497579,-0.02458494,-0.02845087,0.,-0.00833464,0.00258100,0.,0.
 00370241,0.03001354,0.,0.,-0.03397754,0.,0.,0.01743629,0.,0.,0.0173231
 0,-0.04536860,0.00000090,0.,-0.00844316,-0.02921739,0.,-0.00844355,0.0
 2921718,0.,0.06225531,0.00000084,-0.20753201,0.,-0.01786956,-0.0041442
 4,0.,0.01786942,-0.00414366,0.,-0.00000069,0.21581991,0.,0.,0.00145317
 ,0.,0.,-0.00078182,0.,0.,-0.00078185,0.,0.,0.00011051\\-0.00000024,-0.
 00009929,0.,0.00034292,-0.00008480,0.,-0.00034259,-0.00008488,0.,-0.00
 000010,0.00026896,0.\\\@
 The archive entry for this job was punched.


 THE MORE PROGRESS PHYSICAL SCIENCES MAKE, THE MORE THEY TEND TO ENTER
 THE DOMAIN OF MATHEMATICS, WHICH IS A KIND OF CENTRE TO WHICH THEY ALL
 CONVERGE.  WE MAY EVEN JUDGE THE DEGREE OF PERFECTION TO WHICH A 
 SCIENCE HAS ARRIVED BY THE FACILITY WITH WHICH IT MAY BE SUBMITTED
 TO CALCULATION.

                               -- ADOLPHE QUETELET, 1796-1874
 Job cpu time:       0 days  0 hours 13 minutes 43.4 seconds.
 Elapsed time:       0 days  0 hours  1 minutes 43.9 seconds.
 File lengths (MBytes):  RWF=     35 Int=      0 D2E=      0 Chk=      6 Scr=      1
 Normal termination of Gaussian 16 at Fri Jul 30 11:58:03 2021.
