 Entering Gaussian System, Link 0=g16
 Initial command:
 /sw-ng/spack/opt/spack/linux-opensuse_leap15-sandybridge/pgi-18.10/gaussian-src-16-C.01-zldqaomctopxhethwccpmxmwefdscg3m/g16/l1.exe "/data/hutter/SMG16/PBE/Gau-52427.inp" -scrdir="/data/hutter/SMG16/PBE/"
 Entering Link 1 = /sw-ng/spack/opt/spack/linux-opensuse_leap15-sandybridge/pgi-18.10/gaussian-src-16-C.01-zldqaomctopxhethwccpmxmwefdscg3m/g16/l1.exe PID=     52438.
  
 Copyright (c) 1988-2019, Gaussian, Inc.  All Rights Reserved.
  
 This is part of the Gaussian(R) 16 program.  It is based on
 the Gaussian(R) 09 system (copyright 2009, Gaussian, Inc.),
 the Gaussian(R) 03 system (copyright 2003, Gaussian, Inc.),
 the Gaussian(R) 98 system (copyright 1998, Gaussian, Inc.),
 the Gaussian(R) 94 system (copyright 1995, Gaussian, Inc.),
 the Gaussian 92(TM) system (copyright 1992, Gaussian, Inc.),
 the Gaussian 90(TM) system (copyright 1990, Gaussian, Inc.),
 the Gaussian 88(TM) system (copyright 1988, Gaussian, Inc.),
 the Gaussian 86(TM) system (copyright 1986, Carnegie Mellon
 University), and the Gaussian 82(TM) system (copyright 1983,
 Carnegie Mellon University). Gaussian is a federally registered
 trademark of Gaussian, Inc.
  
 This software contains proprietary and confidential information,
 including trade secrets, belonging to Gaussian, Inc.
  
 This software is provided under written license and may be
 used, copied, transmitted, or stored only in accord with that
 written license.
  
 The following legend is applicable only to US Government
 contracts under FAR:
  
                    RESTRICTED RIGHTS LEGEND
  
 Use, reproduction and disclosure by the US Government is
 subject to restrictions as set forth in subparagraphs (a)
 and (c) of the Commercial Computer Software - Restricted
 Rights clause in FAR 52.227-19.
  
 Gaussian, Inc.
 340 Quinnipiac St., Bldg. 40, Wallingford CT 06492
  
  
 ---------------------------------------------------------------
 Warning -- This program may not be used in any manner that
 competes with the business of Gaussian, Inc. or will provide
 assistance to any competitor of Gaussian, Inc.  The licensee
 of this program is prohibited from giving any competitor of
 Gaussian, Inc. access to this program.  By using this program,
 the user acknowledges that Gaussian, Inc. is engaged in the
 business of creating and licensing software in the field of
 computational chemistry and represents and warrants to the
 licensee that it is not a competitor of Gaussian, Inc. and that
 it will not use this program in any manner prohibited above.
 ---------------------------------------------------------------
  

 Cite this work as:
 Gaussian 16, Revision C.01,
 M. J. Frisch, G. W. Trucks, H. B. Schlegel, G. E. Scuseria, 
 M. A. Robb, J. R. Cheeseman, G. Scalmani, V. Barone, 
 G. A. Petersson, H. Nakatsuji, X. Li, M. Caricato, A. V. Marenich, 
 J. Bloino, B. G. Janesko, R. Gomperts, B. Mennucci, H. P. Hratchian, 
 J. V. Ortiz, A. F. Izmaylov, J. L. Sonnenberg, D. Williams-Young, 
 F. Ding, F. Lipparini, F. Egidi, J. Goings, B. Peng, A. Petrone, 
 T. Henderson, D. Ranasinghe, V. G. Zakrzewski, J. Gao, N. Rega, 
 G. Zheng, W. Liang, M. Hada, M. Ehara, K. Toyota, R. Fukuda, 
 J. Hasegawa, M. Ishida, T. Nakajima, Y. Honda, O. Kitao, H. Nakai, 
 T. Vreven, K. Throssell, J. A. Montgomery, Jr., J. E. Peralta, 
 F. Ogliaro, M. J. Bearpark, J. J. Heyd, E. N. Brothers, K. N. Kudin, 
 V. N. Staroverov, T. A. Keith, R. Kobayashi, J. Normand, 
 K. Raghavachari, A. P. Rendell, J. C. Burant, S. S. Iyengar, 
 J. Tomasi, M. Cossi, J. M. Millam, M. Klene, C. Adamo, R. Cammi, 
 J. W. Ochterski, R. L. Martin, K. Morokuma, O. Farkas, 
 J. B. Foresman, and D. J. Fox, Gaussian, Inc., Wallingford CT, 2019.
 
 ******************************************
 Gaussian 16:  ES64L-G16RevC.01  3-Jul-2019
                30-Jul-2021 
 ******************************************
 %mem=8GB
 %NProcShare=8
 Will use up to    8 processors via shared memory.
 -----------------------------------------------------------
 #N RPBEPBE/Def2QZVPP scf=tight Int(Grid=ultrafine) OPT FREQ
 -----------------------------------------------------------
 1/18=20,19=15,26=4,38=1/1,3;
 2/9=110,12=2,17=6,18=5,40=1/2;
 3/5=45,7=202,11=2,25=1,30=1,71=1,74=1009,75=-5,116=1/1,2,3;
 4//1;
 5/5=2,32=2,38=5/2;
 6/7=2,8=2,9=2,10=2,28=1/1;
 7//1,2,3,16;
 1/18=20,19=15,26=4/3(2);
 2/9=110/2;
 99//99;
 2/9=110/2;
 3/5=45,7=202,11=2,25=1,30=1,71=1,74=1009,75=-5,116=1/1,2,3;
 4/5=5,16=3,69=1/1;
 5/5=2,32=2,38=5/2;
 7//1,2,3,16;
 1/18=20,19=15,26=4/3(-5);
 2/9=110/2;
 6/7=2,8=2,9=2,10=2,19=2,28=1/1;
 99/9=1/99;
 ---------
 Mol job 1
 ---------
 Symbolic Z-matrix:
 Charge =  0 Multiplicity = 1
 B                     8.79162   8.12745   8.5 
 H                     8.79222   6.91094   8.5 
 H                     9.37493   8.61437   7.48959 
 H                     9.37493   8.61437   9.51041 
 H                     7.62507   8.61381   8.5 
 Li                    8.79177   10.08906   8.5 
 

 GradGradGradGradGradGradGradGradGradGradGradGradGradGradGradGradGradGrad
 Berny optimization.
 Initialization pass.
                           ----------------------------
                           !    Initial Parameters    !
                           ! (Angstroms and Degrees)  !
 --------------------------                            --------------------------
 ! Name  Definition              Value          Derivative Info.                !
 --------------------------------------------------------------------------------
 ! R1    R(1,2)                  1.2165         estimate D2E/DX2                !
 ! R2    R(1,3)                  1.2642         estimate D2E/DX2                !
 ! R3    R(1,4)                  1.2642         estimate D2E/DX2                !
 ! R4    R(1,5)                  1.2639         estimate D2E/DX2                !
 ! R5    R(1,6)                  1.9616         estimate D2E/DX2                !
 ! R6    R(3,6)                  1.8803         estimate D2E/DX2                !
 ! R7    R(4,6)                  1.8803         estimate D2E/DX2                !
 ! R8    R(5,6)                  1.8808         estimate D2E/DX2                !
 ! A1    A(2,1,3)              112.6395         estimate D2E/DX2                !
 ! A2    A(2,1,4)              112.6395         estimate D2E/DX2                !
 ! A3    A(2,1,5)              112.66           estimate D2E/DX2                !
 ! A4    A(3,1,4)              106.1137         estimate D2E/DX2                !
 ! A5    A(3,1,5)              106.1199         estimate D2E/DX2                !
 ! A6    A(4,1,5)              106.1199         estimate D2E/DX2                !
 ! A7    A(3,6,4)               65.0075         estimate D2E/DX2                !
 ! A8    A(3,6,5)               64.9908         estimate D2E/DX2                !
 ! A9    A(4,6,5)               64.9908         estimate D2E/DX2                !
 ! A10   L(2,1,6,3,-1)         179.984          estimate D2E/DX2                !
 ! A11   L(2,1,6,3,-2)         180.0301         estimate D2E/DX2                !
 ! D1    D(2,1,4,3)            123.6842         estimate D2E/DX2                !
 ! D2    D(2,1,5,3)           -123.7012         estimate D2E/DX2                !
 ! D3    D(2,1,5,4)            123.7012         estimate D2E/DX2                !
 ! D4    D(3,1,5,4)           -112.5975         estimate D2E/DX2                !
 ! D5    D(4,3,6,1)            -36.3558         estimate D2E/DX2                !
 ! D6    D(5,3,6,1)             36.3524         estimate D2E/DX2                !
 ! D7    D(5,4,6,1)            -36.3524         estimate D2E/DX2                !
 --------------------------------------------------------------------------------
 Trust Radius=3.00D-01 FncErr=1.00D-07 GrdErr=1.00D-06 EigMax=2.50D+02 EigMin=1.00D-04
 Number of steps in this run=     36 maximum allowed number of steps=    100.
 GradGradGradGradGradGradGradGradGradGradGradGradGradGradGradGradGradGrad

                          Input orientation:                          
 ---------------------------------------------------------------------
 Center     Atomic      Atomic             Coordinates (Angstroms)
 Number     Number       Type             X           Y           Z
 ---------------------------------------------------------------------
      1          5           0        8.791625    8.127448    8.500000
      2          1           0        8.792216    6.910939    8.500000
      3          1           0        9.374930    8.614375    7.489586
      4          1           0        9.374930    8.614375    9.510414
      5          1           0        7.625070    8.613806    8.500000
      6          3           0        8.791769   10.089061    8.500000
 ---------------------------------------------------------------------
                    Distance matrix (angstroms):
                    1          2          3          4          5
     1  B    0.000000
     2  H    1.216509   0.000000
     3  H    1.264230   2.064506   0.000000
     4  H    1.264230   2.064506   2.020828   0.000000
     5  H    1.263880   2.064457   2.020630   2.020630   0.000000
     6  Li   1.961612   3.178122   1.880349   1.880349   1.880841
                    6
     6  Li   0.000000
 Stoichiometry    BH4Li
 Framework group  CS[SG(BH2Li),X(H2)]
 Deg. of freedom     8
 Full point group                 CS      NOp   2
 Largest Abelian subgroup         CS      NOp   2
 Largest concise Abelian subgroup CS      NOp   2
                         Standard orientation:                         
 ---------------------------------------------------------------------
 Center     Atomic      Atomic             Coordinates (Angstroms)
 Number     Number       Type             X           Y           Z
 ---------------------------------------------------------------------
      1          5           0       -0.000052    0.510712    0.000000
      2          1           0        0.000628    1.727221    0.000000
      3          1           0        0.583217    0.023742    1.010414
      4          1           0        0.583217    0.023742   -1.010414
      5          1           0       -1.166643    0.024439    0.000000
      6          3           0       -0.000052   -1.450901   -0.000000
 ---------------------------------------------------------------------
 Rotational constants (GHZ):         122.8090007          22.5964829          22.5959401
 Standard basis: def2QZVPP (5D, 7F)
 There are   159 symmetry adapted cartesian basis functions of A'  symmetry.
 There are    93 symmetry adapted cartesian basis functions of A"  symmetry.
 There are   131 symmetry adapted basis functions of A'  symmetry.
 There are    81 symmetry adapted basis functions of A"  symmetry.
   212 basis functions,   299 primitive gaussians,   252 cartesian basis functions
     6 alpha electrons        6 beta electrons
       nuclear repulsion energy        17.0874373679 Hartrees.
 NAtoms=    6 NActive=    6 NUniq=    5 SFac= 1.44D+00 NAtFMM=   60 NAOKFM=F Big=F
 Integral buffers will be    131072 words long.
 Raffenetti 2 integral format.
 Two-electron integral symmetry is turned on.
 One-electron integrals computed using PRISM.
   2 Symmetry operations used in ECPInt.
 ECPInt:  NShTT=    2485 NPrTT=    5668 LenC2=    2486 LenP2D=    5326.
 LDataN:  DoStor=T MaxTD1= 8 Len=  415
 NBasis=   212 RedAO= T EigKep=  5.56D-05  NBF=   131    81
 NBsUse=   212 1.00D-06 EigRej= -1.00D+00 NBFU=   131    81
 ExpMin= 2.05D-02 ExpMax= 4.64D+04 ExpMxC= 4.48D+02 IAcc=3 IRadAn=         5 AccDes= 0.00D+00
 Harris functional with IExCor= 1009 and IRadAn=       5 diagonalized for initial guess.
 HarFok:  IExCor= 1009 AccDes= 0.00D+00 IRadAn=         5 IDoV= 1 UseB2=F ITyADJ=14
 ICtDFT=  3500011 ScaDFX=  1.000000  1.000000  1.000000  1.000000
 FoFCou: FMM=F IPFlag=           0 FMFlag=      100000 FMFlg1=           0
         NFxFlg=           0 DoJE=T BraDBF=F KetDBF=T FulRan=T
         wScrn=  0.000000 ICntrl=       500 IOpCl=  0 I1Cent=   200000004 NGrid=           0
         NMat0=    1 NMatS0=      1 NMatT0=    0 NMatD0=    1 NMtDS0=    0 NMtDT0=    0
 Petite list used in FoFCou.
 Initial guess orbital symmetries:
       Occupied  (A') (A') (A') (A') (A') (A")
       Virtual   (A') (A") (A') (A') (A") (A') (A') (A') (A') (A")
                 (A') (A') (A") (A') (A") (A') (A') (A') (A") (A')
                 (A") (A') (A') (A') (A') (A") (A') (A') (A") (A')
                 (A") (A') (A') (A") (A") (A') (A') (A') (A') (A")
                 (A") (A') (A') (A") (A') (A") (A') (A") (A') (A")
                 (A') (A') (A') (A") (A') (A") (A') (A') (A') (A")
                 (A') (A') (A') (A") (A') (A') (A") (A') (A") (A')
                 (A") (A') (A") (A') (A') (A") (A') (A') (A") (A")
                 (A') (A') (A") (A') (A') (A") (A') (A") (A') (A")
                 (A') (A') (A") (A') (A") (A') (A") (A') (A") (A')
                 (A") (A') (A") (A') (A') (A') (A") (A') (A') (A")
                 (A') (A') (A") (A') (A") (A") (A') (A') (A") (A')
                 (A") (A') (A") (A') (A') (A') (A") (A') (A') (A")
                 (A') (A") (A') (A") (A') (A') (A") (A') (A") (A")
                 (A") (A') (A') (A') (A") (A') (A") (A') (A') (A")
                 (A') (A") (A') (A') (A") (A') (A') (A") (A') (A")
                 (A') (A') (A") (A') (A") (A') (A") (A') (A') (A")
                 (A') (A") (A') (A") (A') (A") (A') (A") (A") (A')
                 (A') (A") (A') (A") (A') (A") (A') (A') (A") (A")
                 (A') (A') (A") (A') (A') (A") (A') (A") (A') (A')
                 (A") (A') (A') (A') (A') (A')
 The electronic state of the initial guess is 1-A'.
 Keep J ints in memory in symmetry-blocked form, NReq=382856332.
 Requested convergence on RMS density matrix=1.00D-08 within 128 cycles.
 Requested convergence on MAX density matrix=1.00D-06.
 Requested convergence on             energy=1.00D-06.
 No special actions if energy rises.
 SCF Done:  E(RPBE-PBE) =  -34.7157548702     A.U. after    9 cycles
            NFock=  9  Conv=0.26D-08     -V/T= 2.0098

 **********************************************************************

            Population analysis using the SCF Density.

 **********************************************************************

 Orbital symmetries:
       Occupied  (A') (A') (A') (A') (A") (A')
       Virtual   (A') (A') (A") (A') (A') (A") (A') (A') (A") (A')
                 (A') (A') (A") (A') (A") (A') (A') (A') (A") (A')
                 (A") (A') (A') (A') (A") (A') (A') (A') (A") (A')
                 (A") (A') (A') (A") (A") (A') (A') (A') (A") (A')
                 (A") (A') (A') (A') (A") (A") (A') (A") (A') (A")
                 (A') (A') (A') (A") (A') (A") (A') (A') (A') (A")
                 (A') (A') (A') (A') (A") (A') (A") (A") (A') (A')
                 (A") (A") (A') (A') (A') (A") (A') (A') (A") (A')
                 (A") (A') (A") (A') (A') (A") (A') (A") (A') (A")
                 (A') (A') (A") (A') (A") (A') (A") (A') (A") (A')
                 (A") (A') (A") (A') (A') (A') (A") (A') (A') (A")
                 (A') (A') (A") (A') (A") (A") (A') (A') (A") (A')
                 (A') (A") (A") (A') (A') (A') (A") (A') (A') (A")
                 (A') (A") (A') (A") (A') (A') (A') (A") (A") (A")
                 (A") (A') (A') (A') (A") (A') (A") (A') (A') (A")
                 (A') (A") (A') (A') (A") (A') (A') (A") (A') (A")
                 (A') (A') (A") (A') (A") (A') (A") (A') (A') (A")
                 (A') (A") (A') (A") (A') (A") (A') (A") (A") (A')
                 (A') (A") (A') (A") (A') (A") (A') (A') (A") (A")
                 (A') (A') (A") (A') (A') (A") (A') (A") (A') (A')
                 (A") (A') (A') (A') (A') (A')
 The electronic state is 1-A'.
 Alpha  occ. eigenvalues --   -6.42755  -1.89195  -0.43827  -0.25518  -0.25517
 Alpha  occ. eigenvalues --   -0.25392
 Alpha virt. eigenvalues --   -0.06305  -0.00133  -0.00133   0.01673   0.03577
 Alpha virt. eigenvalues --    0.05417   0.05418   0.08557   0.08557   0.08604
 Alpha virt. eigenvalues --    0.11035   0.11724   0.11725   0.12510   0.17906
 Alpha virt. eigenvalues --    0.17908   0.21076   0.21370   0.21371   0.23738
 Alpha virt. eigenvalues --    0.25373   0.25375   0.26288   0.30120   0.30709
 Alpha virt. eigenvalues --    0.30709   0.34036   0.39688   0.41346   0.41349
 Alpha virt. eigenvalues --    0.43097   0.47469   0.48650   0.48651   0.50125
 Alpha virt. eigenvalues --    0.50127   0.51804   0.56450   0.56452   0.58582
 Alpha virt. eigenvalues --    0.61105   0.61110   0.65659   0.69968   0.69970
 Alpha virt. eigenvalues --    0.70234   0.73521   0.73526   0.80495   0.87269
 Alpha virt. eigenvalues --    0.87277   0.88199   0.91253   0.91260   0.99179
 Alpha virt. eigenvalues --    1.00153   1.00156   1.05419   1.08508   1.08510
 Alpha virt. eigenvalues --    1.14129   1.15590   1.26168   1.27667   1.27672
 Alpha virt. eigenvalues --    1.29561   1.33530   1.34268   1.34276   1.41499
 Alpha virt. eigenvalues --    1.41504   1.49194   1.49195   1.50056   1.64808
 Alpha virt. eigenvalues --    1.64814   1.78569   1.90855   2.03508   2.04030
 Alpha virt. eigenvalues --    2.06228   2.06237   2.19199   2.19206   2.28080
 Alpha virt. eigenvalues --    2.28091   2.36783   2.45054   2.45057   2.53683
 Alpha virt. eigenvalues --    2.56679   2.59020   2.59025   2.64015   2.64015
 Alpha virt. eigenvalues --    2.67422   2.69729   2.72345   2.72349   2.82736
 Alpha virt. eigenvalues --    2.83782   2.83800   3.10107   3.10134   3.14990
 Alpha virt. eigenvalues --    3.18118   3.18155   3.18169   3.23106   3.23140
 Alpha virt. eigenvalues --    3.26433   3.37544   3.41666   3.41671   3.71999
 Alpha virt. eigenvalues --    3.81529   3.81529   3.83439   3.83451   4.11904
 Alpha virt. eigenvalues --    4.17547   4.17550   4.21297   4.21317   4.24200
 Alpha virt. eigenvalues --    4.41279   4.41297   4.44743   4.47853   4.68202
 Alpha virt. eigenvalues --    4.68246   4.79152   4.83613   4.85924   4.85951
 Alpha virt. eigenvalues --    5.32586   5.71662   5.71684   5.76747   5.82248
 Alpha virt. eigenvalues --    5.88271   5.88295   6.03129   6.05479   6.05497
 Alpha virt. eigenvalues --    6.16148   6.44338   6.44351   6.46417   6.49065
 Alpha virt. eigenvalues --    6.55134   6.67805   6.67847   6.74933   6.74956
 Alpha virt. eigenvalues --    6.82121   6.88719   6.88725   6.93635   6.96736
 Alpha virt. eigenvalues --    6.96761   7.16739   7.25238   7.26707   7.26708
 Alpha virt. eigenvalues --    7.31624   7.43528   7.43562   7.62344   7.62364
 Alpha virt. eigenvalues --    7.82790   7.98542   7.98543   8.07742   8.14392
 Alpha virt. eigenvalues --    8.14428   8.16727   8.16754   8.27871   8.27874
 Alpha virt. eigenvalues --    8.32037   8.39850   8.39873   8.43032   8.51601
 Alpha virt. eigenvalues --    8.58646   8.58650   8.90535   8.90536   8.95986
 Alpha virt. eigenvalues --    8.96728   8.97615   8.97648   9.05705   9.18014
 Alpha virt. eigenvalues --    9.23704   9.23731   9.29146   9.29168   9.57521
 Alpha virt. eigenvalues --    9.57523   9.64729   9.79802  11.26994  20.23889
 Alpha virt. eigenvalues --  102.71846
          Condensed to atoms (all electrons):
               1          2          3          4          5          6
     1  B    3.392922   0.458375   0.236457   0.236457   0.236621   0.158244
     2  H    0.458375   0.754113  -0.022464  -0.022464  -0.022450  -0.070501
     3  H    0.236457  -0.022464   0.864071  -0.054786  -0.054824   0.159729
     4  H    0.236457  -0.022464  -0.054786   0.864071  -0.054824   0.159729
     5  H    0.236621  -0.022450  -0.054824  -0.054824   0.864207   0.159491
     6  Li   0.158244  -0.070501   0.159729   0.159729   0.159491   2.255037
 Mulliken charges:
               1
     1  B    0.280925
     2  H   -0.074610
     3  H   -0.128183
     4  H   -0.128183
     5  H   -0.128221
     6  Li   0.178273
 Sum of Mulliken charges =  -0.00000
 Mulliken charges with hydrogens summed into heavy atoms:
               1
     1  B   -0.178273
     6  Li   0.178273
 Electronic spatial extent (au):  <R**2>=             77.2780
 Charge=             -0.0000 electrons
 Dipole moment (field-independent basis, Debye):
    X=             -0.0010    Y=             -6.0243    Z=             -0.0000  Tot=              6.0243
 Quadrupole moment (field-independent basis, Debye-Ang):
   XX=            -14.3726   YY=             -4.6473   ZZ=            -14.3737
   XY=              0.0011   XZ=             -0.0000   YZ=              0.0000
 Traceless Quadrupole moment (field-independent basis, Debye-Ang):
   XX=             -3.2414   YY=              6.4839   ZZ=             -3.2425
   XY=              0.0011   XZ=             -0.0000   YZ=              0.0000
 Octapole moment (field-independent basis, Debye-Ang**2):
  XXX=              0.7097  YYY=            -27.3995  ZZZ=             -0.0000  XYY=             -0.0023
  XXY=             -3.0758  XXZ=             -0.0000  XZZ=             -0.7131  YZZ=             -3.0742
  YYZ=             -0.0000  XYZ=             -0.0000
 Hexadecapole moment (field-independent basis, Debye-Ang**3):
 XXXX=            -36.9810 YYYY=            -37.4149 ZZZZ=            -36.9909 XXXY=             -0.0935
 XXXZ=              0.0000 YYYX=              0.0020 YYYZ=             -0.0000 ZZZX=              0.0000
 ZZZY=             -0.0000 XXYY=            -15.9817 XXZZ=            -12.3286 YYZZ=            -15.9837
 XXYZ=             -0.0000 YYXZ=              0.0000 ZZXY=              0.0950
 N-N= 1.708743736787D+01 E-N=-1.136740315078D+02  KE= 3.437862762992D+01
 Symmetry A'   KE= 3.312036682385D+01
 Symmetry A"   KE= 1.258260806064D+00
   2 Symmetry operations used in ECPInt.
 ECPInt:  NShTT=    2485 NPrTT=    5668 LenC2=    2486 LenP2D=    5326.
 LDataN:  DoStor=T MaxTD1= 9 Len=  602
 Calling FoFJK, ICntrl=      2527 FMM=F ISym2X=1 I1Cent= 0 IOpClX= 0 NMat=1 NMatS=1 NMatT=0.
 ***** Axes restored to original set *****
 -------------------------------------------------------------------
 Center     Atomic                   Forces (Hartrees/Bohr)
 Number     Number              X              Y              Z
 -------------------------------------------------------------------
      1        5           0.000092514    0.000752103    0.000000000
      2        1          -0.000010736    0.006628577   -0.000000000
      3        1          -0.002334851   -0.000558449    0.004053581
      4        1          -0.002334851   -0.000558449   -0.004053581
      5        1           0.004606895   -0.000518428   -0.000000000
      6        3          -0.000018972   -0.005745354    0.000000000
 -------------------------------------------------------------------
 Cartesian Forces:  Max     0.006628577 RMS     0.002822567

 GradGradGradGradGradGradGradGradGradGradGradGradGradGradGradGradGradGrad
 Berny optimization.
 FormGI is forming the generalized inverse of G from B-inverse, IUseBI=4.
 Internal  Forces:  Max     0.006628582 RMS     0.001967078
 Search for a local minimum.
 Step number   1 out of a maximum of   36
 All quantities printed in internal units (Hartrees-Bohrs-Radians)
 Mixed Optimization -- RFO/linear search
 Second derivative matrix not updated -- first step.
 ITU=  0
     Eigenvalues ---    0.04111   0.04646   0.05278   0.05899   0.06920
     Eigenvalues ---    0.07932   0.11218   0.11579   0.18868   0.19579
     Eigenvalues ---    0.19819   0.23498
 RFO step:  Lambda=-6.06069461D-04 EMin= 4.11071333D-02
 Linear search not attempted -- first point.
 Iteration  1 RMS(Cart)=  0.00999606 RMS(Int)=  0.00000306
 Iteration  2 RMS(Cart)=  0.00000126 RMS(Int)=  0.00000244
 Iteration  3 RMS(Cart)=  0.00000000 RMS(Int)=  0.00000244
 ClnCor:  largest displacement from symmetrization is 1.84D-06 for atom     2.
 Variable       Old X    -DE/DX   Delta X   Delta X   Delta X     New X
                                 (Linear)    (Quad)   (Total)
    R1        2.29887  -0.00663   0.00000  -0.02814  -0.02814   2.27073
    R2        2.38905  -0.00357   0.00000  -0.01984  -0.01983   2.36922
    R3        2.38905  -0.00353   0.00000  -0.01984  -0.01983   2.36922
    R4        2.38839  -0.00340   0.00000  -0.01942  -0.01942   2.36897
    R5        3.70691  -0.00202   0.00000  -0.02700  -0.02700   3.67991
    R6        3.55334  -0.00199   0.00000  -0.02592  -0.02592   3.52742
    R7        3.55334  -0.00198   0.00000  -0.02592  -0.02592   3.52742
    R8        3.55427  -0.00195   0.00000  -0.02630  -0.02631   3.52797
    A1        1.96593  -0.00017   0.00000  -0.00015  -0.00015   1.96578
    A2        1.96593  -0.00022   0.00000  -0.00015  -0.00015   1.96578
    A3        1.96629  -0.00034   0.00000  -0.00029  -0.00029   1.96600
    A4        1.85203   0.00015   0.00000   0.00022   0.00022   1.85225
    A5        1.85214   0.00032   0.00000   0.00022   0.00022   1.85236
    A6        1.85214   0.00034   0.00000   0.00022   0.00022   1.85236
    A7        1.13459  -0.00111   0.00000  -0.00118  -0.00119   1.13341
    A8        1.13430  -0.00100   0.00000  -0.00100  -0.00101   1.13329
    A9        1.13430  -0.00098   0.00000  -0.00100  -0.00101   1.13329
   A10        3.14131   0.00008   0.00000   0.00012   0.00012   3.14143
   A11        3.14212  -0.00008   0.00000  -0.00022  -0.00022   3.14190
    D1        2.15870  -0.00025   0.00000  -0.00013  -0.00014   2.15856
    D2       -2.15899   0.00020   0.00000   0.00022   0.00022  -2.15878
    D3        2.15899  -0.00026   0.00000  -0.00022  -0.00022   2.15878
    D4       -1.96520  -0.00046   0.00000  -0.00044  -0.00044  -1.96563
    D5       -0.63453   0.00016   0.00000   0.00021   0.00021  -0.63432
    D6        0.63447  -0.00026   0.00000  -0.00020  -0.00020   0.63427
    D7       -0.63447   0.00027   0.00000   0.00020   0.00020  -0.63427
         Item               Value     Threshold  Converged?
 Maximum Force            0.006629     0.000450     NO 
 RMS     Force            0.001967     0.000300     NO 
 Maximum Displacement     0.031955     0.001800     NO 
 RMS     Displacement     0.009996     0.001200     NO 
 Predicted change in Energy=-3.044919D-04
 GradGradGradGradGradGradGradGradGradGradGradGradGradGradGradGradGradGrad

                          Input orientation:                          
 ---------------------------------------------------------------------
 Center     Atomic      Atomic             Coordinates (Angstroms)
 Number     Number       Type             X           Y           Z
 ---------------------------------------------------------------------
      1          5           0        8.791713    8.129469    8.500000
      2          1           0        8.792155    6.927849    8.500000
      3          1           0        9.370238    8.612109    7.497892
      4          1           0        9.370238    8.612109    9.502108
      5          1           0        7.634562    8.611674    8.500000
      6          3           0        8.791632   10.076794    8.500000
 ---------------------------------------------------------------------
                    Distance matrix (angstroms):
                    1          2          3          4          5
     1  B    0.000000
     2  H    1.201620   0.000000
     3  H    1.253735   2.043314   0.000000
     4  H    1.253735   2.043314   2.004216   0.000000
     5  H    1.253603   2.043352   2.004194   2.004194   0.000000
     6  Li   1.947325   3.148945   1.866630   1.866630   1.866920
                    6
     6  Li   0.000000
 Stoichiometry    BH4Li
 Framework group  CS[SG(BH2Li),X(H2)]
 Deg. of freedom     8
 Full point group                 CS      NOp   2
 Largest Abelian subgroup         CS      NOp   2
 Largest concise Abelian subgroup CS      NOp   2
                         Standard orientation:                         
 ---------------------------------------------------------------------
 Center     Atomic      Atomic             Coordinates (Angstroms)
 Number     Number       Type             X           Y           Z
 ---------------------------------------------------------------------
      1          5           0       -0.000029    0.507320    0.000000
      2          1           0        0.000363    1.708940    0.000000
      3          1           0        0.578516    0.024704    1.002108
      4          1           0        0.578516    0.024704   -1.002108
      5          1           0       -1.157161    0.025067    0.000000
      6          3           0       -0.000029   -1.440005   -0.000000
 ---------------------------------------------------------------------
 Rotational constants (GHZ):         124.8387437          22.9553478          22.9552871
 Standard basis: def2QZVPP (5D, 7F)
 There are   159 symmetry adapted cartesian basis functions of A'  symmetry.
 There are    93 symmetry adapted cartesian basis functions of A"  symmetry.
 There are   131 symmetry adapted basis functions of A'  symmetry.
 There are    81 symmetry adapted basis functions of A"  symmetry.
   212 basis functions,   299 primitive gaussians,   252 cartesian basis functions
     6 alpha electrons        6 beta electrons
       nuclear repulsion energy        17.2340383171 Hartrees.
 NAtoms=    6 NActive=    6 NUniq=    5 SFac= 1.44D+00 NAtFMM=   60 NAOKFM=F Big=F
 Integral buffers will be    131072 words long.
 Raffenetti 2 integral format.
 Two-electron integral symmetry is turned on.
 One-electron integrals computed using PRISM.
   2 Symmetry operations used in ECPInt.
 ECPInt:  NShTT=    2485 NPrTT=    5668 LenC2=    2486 LenP2D=    5327.
 LDataN:  DoStor=T MaxTD1= 8 Len=  415
 NBasis=   212 RedAO= T EigKep=  5.21D-05  NBF=   131    81
 NBsUse=   212 1.00D-06 EigRej= -1.00D+00 NBFU=   131    81
 Initial guess from the checkpoint file:  "/data/hutter/SMG16/PBE/Gau-52438.chk"
 B after Tr=    -0.000000    0.000000   -0.000000
         Rot=    1.000000    0.000000    0.000000   -0.000035 Ang=  -0.00 deg.
 Initial guess orbital symmetries:
       Occupied  (A') (A') (A') (A') (A") (A')
       Virtual   (A') (A') (A") (A') (A') (A") (A') (A') (A") (A')
                 (A') (A') (A") (A') (A") (A') (A') (A') (A") (A')
                 (A") (A') (A') (A') (A") (A') (A') (A') (A") (A')
                 (A") (A') (A') (A") (A") (A') (A') (A') (A") (A')
                 (A") (A') (A') (A') (A") (A") (A') (A") (A') (A")
                 (A') (A') (A') (A") (A') (A") (A') (A') (A') (A")
                 (A') (A') (A') (A') (A") (A') (A") (A") (A') (A')
                 (A") (A") (A') (A') (A') (A") (A') (A') (A") (A')
                 (A") (A') (A") (A') (A') (A") (A') (A") (A') (A")
                 (A') (A') (A") (A') (A") (A') (A") (A') (A") (A')
                 (A") (A') (A") (A') (A') (A') (A") (A') (A') (A")
                 (A') (A') (A") (A') (A") (A") (A') (A') (A") (A')
                 (A') (A") (A") (A') (A') (A') (A") (A') (A') (A")
                 (A') (A") (A') (A") (A') (A') (A') (A") (A") (A")
                 (A") (A') (A') (A') (A") (A') (A") (A') (A') (A")
                 (A') (A") (A') (A') (A") (A') (A') (A") (A') (A")
                 (A') (A') (A") (A') (A") (A') (A") (A') (A') (A")
                 (A') (A") (A') (A") (A') (A") (A') (A") (A") (A')
                 (A') (A") (A') (A") (A') (A") (A') (A') (A") (A")
                 (A') (A') (A") (A') (A') (A") (A') (A") (A') (A')
                 (A") (A') (A') (A') (A') (A')
 ExpMin= 2.05D-02 ExpMax= 4.64D+04 ExpMxC= 4.48D+02 IAcc=3 IRadAn=         5 AccDes= 0.00D+00
 Harris functional with IExCor= 1009 and IRadAn=       5 diagonalized for initial guess.
 HarFok:  IExCor= 1009 AccDes= 0.00D+00 IRadAn=         5 IDoV= 1 UseB2=F ITyADJ=14
 ICtDFT=  3500011 ScaDFX=  1.000000  1.000000  1.000000  1.000000
 FoFCou: FMM=F IPFlag=           0 FMFlag=      100000 FMFlg1=           0
         NFxFlg=           0 DoJE=T BraDBF=F KetDBF=T FulRan=T
         wScrn=  0.000000 ICntrl=       500 IOpCl=  0 I1Cent=   200000004 NGrid=           0
         NMat0=    1 NMatS0=      1 NMatT0=    0 NMatD0=    1 NMtDS0=    0 NMtDT0=    0
 Petite list used in FoFCou.
 Keep J ints in memory in symmetry-blocked form, NReq=382856332.
 Requested convergence on RMS density matrix=1.00D-08 within 128 cycles.
 Requested convergence on MAX density matrix=1.00D-06.
 Requested convergence on             energy=1.00D-06.
 No special actions if energy rises.
 SCF Done:  E(RPBE-PBE) =  -34.7161521758     A.U. after    7 cycles
            NFock=  7  Conv=0.36D-08     -V/T= 2.0085
   2 Symmetry operations used in ECPInt.
 ECPInt:  NShTT=    2485 NPrTT=    5668 LenC2=    2486 LenP2D=    5327.
 LDataN:  DoStor=T MaxTD1= 9 Len=  602
 Calling FoFJK, ICntrl=      2527 FMM=F ISym2X=1 I1Cent= 0 IOpClX= 0 NMat=1 NMatS=1 NMatT=0.
 ***** Axes restored to original set *****
 -------------------------------------------------------------------
 Center     Atomic                   Forces (Hartrees/Bohr)
 Number     Number              X              Y              Z
 -------------------------------------------------------------------
      1        5           0.000040521    0.001972608   -0.000000000
      2        1          -0.000005845    0.000390388    0.000000000
      3        1          -0.000730786    0.000537861    0.001267193
      4        1          -0.000730786    0.000537861   -0.001267193
      5        1           0.001444079    0.000556576    0.000000000
      6        3          -0.000017184   -0.003995294    0.000000000
 -------------------------------------------------------------------
 Cartesian Forces:  Max     0.003995294 RMS     0.001230657

 GradGradGradGradGradGradGradGradGradGradGradGradGradGradGradGradGradGrad
 Berny optimization.
 Using GEDIIS/GDIIS optimizer.
 FormGI is forming the generalized inverse of G from B-inverse, IUseBI=4.
 Internal  Forces:  Max     0.001273086 RMS     0.000548595
 Search for a local minimum.
 Step number   2 out of a maximum of   36
 All quantities printed in internal units (Hartrees-Bohrs-Radians)
 Mixed Optimization -- En-DIIS/RFO-DIIS
 Update second derivatives using D2CorX and points    1    2
 DE= -3.97D-04 DEPred=-3.04D-04 R= 1.30D+00
 TightC=F SS=  1.41D+00  RLast= 6.87D-02 DXNew= 5.0454D-01 2.0621D-01
 Trust test= 1.30D+00 RLast= 6.87D-02 DXMaxT set to 3.00D-01
 ITU=  1  0
 Use linear search instead of GDIIS.
     Eigenvalues ---    0.04100   0.04411   0.04642   0.05281   0.06694
     Eigenvalues ---    0.07189   0.11197   0.11552   0.18620   0.19406
     Eigenvalues ---    0.19799   0.25760
 RFO step:  Lambda=-6.80993926D-05 EMin= 4.09981607D-02
 Quartic linear search produced a step of  0.41976.
 Iteration  1 RMS(Cart)=  0.00592591 RMS(Int)=  0.00000943
 Iteration  2 RMS(Cart)=  0.00000432 RMS(Int)=  0.00000761
 Iteration  3 RMS(Cart)=  0.00000000 RMS(Int)=  0.00000761
 ClnCor:  largest displacement from symmetrization is 8.63D-06 for atom     2.
 Variable       Old X    -DE/DX   Delta X   Delta X   Delta X     New X
                                 (Linear)    (Quad)   (Total)
    R1        2.27073  -0.00039  -0.01181   0.00642  -0.00539   2.26535
    R2        2.36922  -0.00083  -0.00832  -0.00127  -0.00961   2.35961
    R3        2.36922  -0.00083  -0.00832  -0.00127  -0.00961   2.35961
    R4        2.36897  -0.00080  -0.00815  -0.00120  -0.00937   2.35960
    R5        3.67991  -0.00127  -0.01133  -0.01427  -0.02561   3.65430
    R6        3.52742  -0.00116  -0.01088  -0.01489  -0.02576   3.50166
    R7        3.52742  -0.00116  -0.01088  -0.01489  -0.02576   3.50166
    R8        3.52797  -0.00116  -0.01104  -0.01530  -0.02633   3.50164
    A1        1.96578  -0.00002  -0.00006   0.00155   0.00150   1.96728
    A2        1.96578  -0.00002  -0.00006   0.00157   0.00150   1.96728
    A3        1.96600  -0.00004  -0.00012   0.00147   0.00135   1.96735
    A4        1.85225   0.00002   0.00009  -0.00166  -0.00157   1.85068
    A5        1.85236   0.00004   0.00009  -0.00172  -0.00163   1.85073
    A6        1.85236   0.00004   0.00009  -0.00172  -0.00163   1.85073
    A7        1.13341  -0.00002  -0.00050   0.00390   0.00341   1.13682
    A8        1.13329  -0.00000  -0.00042   0.00396   0.00355   1.13685
    A9        1.13329  -0.00000  -0.00042   0.00396   0.00355   1.13685
   A10        3.14143   0.00001   0.00005   0.00009   0.00014   3.14157
   A11        3.14190  -0.00002  -0.00009  -0.00018  -0.00027   3.14163
    D1        2.15856  -0.00002  -0.00006   0.00177   0.00172   2.16028
    D2       -2.15878   0.00002   0.00009  -0.00167  -0.00159  -2.16036
    D3        2.15878  -0.00003  -0.00009   0.00169   0.00159   2.16036
    D4       -1.96563  -0.00005  -0.00018   0.00336   0.00317  -1.96246
    D5       -0.63432  -0.00001   0.00009  -0.00094  -0.00085  -0.63517
    D6        0.63427  -0.00000  -0.00008   0.00094   0.00086   0.63513
    D7       -0.63427   0.00000   0.00008  -0.00094  -0.00086  -0.63513
         Item               Value     Threshold  Converged?
 Maximum Force            0.001273     0.000450     NO 
 RMS     Force            0.000549     0.000300     NO 
 Maximum Displacement     0.021981     0.001800     NO 
 RMS     Displacement     0.005928     0.001200     NO 
 Predicted change in Energy=-7.658918D-05
 GradGradGradGradGradGradGradGradGradGradGradGradGradGradGradGradGradGrad

                          Input orientation:                          
 ---------------------------------------------------------------------
 Center     Atomic      Atomic             Coordinates (Angstroms)
 Number     Number       Type             X           Y           Z
 ---------------------------------------------------------------------
      1          5           0        8.791804    8.131388    8.500000
      2          1           0        8.792067    6.932618    8.500000
      3          1           0        9.367631    8.613711    7.502545
      4          1           0        9.367631    8.613711    9.497455
      5          1           0        7.639948    8.613411    8.500000
      6          3           0        8.791458   10.065162    8.500000
 ---------------------------------------------------------------------
                    Distance matrix (angstroms):
                    1          2          3          4          5
     1  B    0.000000
     2  H    1.198770   0.000000
     3  H    1.248651   2.037710   0.000000
     4  H    1.248651   2.037710   1.994910   0.000000
     5  H    1.248646   2.037754   1.994945   1.994945   0.000000
     6  Li   1.933775   3.132544   1.852999   1.852999   1.852986
                    6
     6  Li   0.000000
 Stoichiometry    BH4Li
 Framework group  CS[SG(BH2Li),X(H2)]
 Deg. of freedom     8
 Full point group                 CS      NOp   2
 Largest Abelian subgroup         CS      NOp   2
 Largest concise Abelian subgroup CS      NOp   2
                         Standard orientation:                         
 ---------------------------------------------------------------------
 Center     Atomic      Atomic             Coordinates (Angstroms)
 Number     Number       Type             X           Y           Z
 ---------------------------------------------------------------------
      1          5           0       -0.000009    0.504102    0.000000
      2          1           0        0.000041    1.702871    0.000000
      3          1           0        0.575905    0.021882    0.997455
      4          1           0        0.575905    0.021882   -0.997455
      5          1           0       -1.151778    0.021873    0.000000
      6          3           0       -0.000009   -1.429673    0.000000
 ---------------------------------------------------------------------
 Rotational constants (GHZ):         126.0013846          23.2493763          23.2492763
 Standard basis: def2QZVPP (5D, 7F)
 There are   159 symmetry adapted cartesian basis functions of A'  symmetry.
 There are    93 symmetry adapted cartesian basis functions of A"  symmetry.
 There are   131 symmetry adapted basis functions of A'  symmetry.
 There are    81 symmetry adapted basis functions of A"  symmetry.
   212 basis functions,   299 primitive gaussians,   252 cartesian basis functions
     6 alpha electrons        6 beta electrons
       nuclear repulsion energy        17.3207669585 Hartrees.
 NAtoms=    6 NActive=    6 NUniq=    5 SFac= 1.44D+00 NAtFMM=   60 NAOKFM=F Big=F
 Integral buffers will be    131072 words long.
 Raffenetti 2 integral format.
 Two-electron integral symmetry is turned on.
 One-electron integrals computed using PRISM.
   2 Symmetry operations used in ECPInt.
 ECPInt:  NShTT=    2485 NPrTT=    5668 LenC2=    2486 LenP2D=    5328.
 LDataN:  DoStor=T MaxTD1= 8 Len=  415
 NBasis=   212 RedAO= T EigKep=  5.06D-05  NBF=   131    81
 NBsUse=   212 1.00D-06 EigRej= -1.00D+00 NBFU=   131    81
 Initial guess from the checkpoint file:  "/data/hutter/SMG16/PBE/Gau-52438.chk"
 B after Tr=     0.000000    0.000000    0.000000
         Rot=    1.000000   -0.000000    0.000000   -0.000041 Ang=  -0.00 deg.
 Initial guess orbital symmetries:
       Occupied  (A') (A') (A') (A') (A") (A')
       Virtual   (A') (A') (A") (A') (A') (A") (A') (A') (A") (A')
                 (A') (A') (A") (A') (A") (A') (A') (A') (A") (A')
                 (A") (A') (A') (A') (A") (A') (A') (A') (A") (A')
                 (A") (A') (A') (A") (A") (A') (A') (A') (A") (A')
                 (A") (A') (A') (A') (A") (A") (A') (A") (A') (A")
                 (A') (A') (A') (A") (A') (A") (A') (A') (A") (A')
                 (A') (A') (A') (A') (A") (A') (A") (A") (A') (A')
                 (A") (A") (A') (A') (A') (A") (A') (A') (A') (A")
                 (A") (A') (A") (A') (A') (A") (A') (A") (A') (A")
                 (A') (A') (A") (A") (A') (A') (A") (A') (A") (A')
                 (A") (A') (A") (A') (A') (A") (A') (A') (A') (A")
                 (A') (A') (A") (A') (A") (A') (A") (A') (A") (A')
                 (A") (A') (A") (A') (A') (A') (A") (A') (A') (A")
                 (A') (A") (A') (A") (A') (A') (A') (A") (A") (A")
                 (A") (A') (A') (A') (A") (A') (A") (A') (A') (A")
                 (A') (A") (A') (A') (A") (A') (A') (A") (A') (A")
                 (A') (A') (A") (A') (A") (A') (A") (A') (A') (A")
                 (A') (A') (A") (A") (A') (A") (A') (A") (A") (A')
                 (A') (A") (A') (A") (A') (A") (A') (A") (A') (A')
                 (A') (A") (A") (A') (A') (A") (A') (A") (A') (A')
                 (A") (A') (A') (A') (A') (A')
 ExpMin= 2.05D-02 ExpMax= 4.64D+04 ExpMxC= 4.48D+02 IAcc=3 IRadAn=         5 AccDes= 0.00D+00
 Harris functional with IExCor= 1009 and IRadAn=       5 diagonalized for initial guess.
 HarFok:  IExCor= 1009 AccDes= 0.00D+00 IRadAn=         5 IDoV= 1 UseB2=F ITyADJ=14
 ICtDFT=  3500011 ScaDFX=  1.000000  1.000000  1.000000  1.000000
 FoFCou: FMM=F IPFlag=           0 FMFlag=      100000 FMFlg1=           0
         NFxFlg=           0 DoJE=T BraDBF=F KetDBF=T FulRan=T
         wScrn=  0.000000 ICntrl=       500 IOpCl=  0 I1Cent=   200000004 NGrid=           0
         NMat0=    1 NMatS0=      1 NMatT0=    0 NMatD0=    1 NMtDS0=    0 NMtDT0=    0
 Petite list used in FoFCou.
 Keep J ints in memory in symmetry-blocked form, NReq=382856332.
 Requested convergence on RMS density matrix=1.00D-08 within 128 cycles.
 Requested convergence on MAX density matrix=1.00D-06.
 Requested convergence on             energy=1.00D-06.
 No special actions if energy rises.
 SCF Done:  E(RPBE-PBE) =  -34.7162463842     A.U. after    7 cycles
            NFock=  7  Conv=0.18D-08     -V/T= 2.0079
   2 Symmetry operations used in ECPInt.
 ECPInt:  NShTT=    2485 NPrTT=    5668 LenC2=    2486 LenP2D=    5328.
 LDataN:  DoStor=T MaxTD1= 9 Len=  602
 Calling FoFJK, ICntrl=      2527 FMM=F ISym2X=1 I1Cent= 0 IOpClX= 0 NMat=1 NMatS=1 NMatT=0.
 ***** Axes restored to original set *****
 -------------------------------------------------------------------
 Center     Atomic                   Forces (Hartrees/Bohr)
 Number     Number              X              Y              Z
 -------------------------------------------------------------------
      1        5           0.000005870    0.000302568   -0.000000000
      2        1          -0.000002205   -0.000826957    0.000000000
      3        1           0.000108493    0.000853949   -0.000187873
      4        1           0.000108493    0.000853949    0.000187873
      5        1          -0.000207589    0.000857145    0.000000000
      6        3          -0.000013064   -0.002040653   -0.000000000
 -------------------------------------------------------------------
 Cartesian Forces:  Max     0.002040653 RMS     0.000635534

 GradGradGradGradGradGradGradGradGradGradGradGradGradGradGradGradGradGrad
 Berny optimization.
 Using GEDIIS/GDIIS optimizer.
 FormGI is forming the generalized inverse of G from B-inverse, IUseBI=4.
 Internal  Forces:  Max     0.000826957 RMS     0.000338482
 Search for a local minimum.
 Step number   3 out of a maximum of   36
 All quantities printed in internal units (Hartrees-Bohrs-Radians)
 Mixed Optimization -- En-DIIS/RFO-DIIS
 Swapping is turned off.
 Update second derivatives using D2CorX and points    1    2    3
 DE= -9.42D-05 DEPred=-7.66D-05 R= 1.23D+00
 TightC=F SS=  1.41D+00  RLast= 5.52D-02 DXNew= 5.0454D-01 1.6565D-01
 Trust test= 1.23D+00 RLast= 5.52D-02 DXMaxT set to 3.00D-01
 ITU=  1  1  0
     Eigenvalues ---    0.02730   0.04109   0.04636   0.05282   0.06712
     Eigenvalues ---    0.07239   0.11218   0.11576   0.19083   0.19771
     Eigenvalues ---    0.21347   0.31164
 En-DIIS/RFO-DIIS/Sim-DIIS IScMMF=       -3 using points:     3    2
 RFO step:  Lambda=-4.08848433D-05.
 DidBck=F Rises=F RFO-DIIS coefs:    1.61008   -0.61008
 Iteration  1 RMS(Cart)=  0.00348865 RMS(Int)=  0.00001391
 Iteration  2 RMS(Cart)=  0.00000524 RMS(Int)=  0.00001238
 Iteration  3 RMS(Cart)=  0.00000000 RMS(Int)=  0.00001238
 ClnCor:  largest displacement from symmetrization is 8.06D-06 for atom     2.
 Variable       Old X    -DE/DX   Delta X   Delta X   Delta X     New X
                                 (Linear)    (Quad)   (Total)
    R1        2.26535   0.00083  -0.00329   0.00387   0.00058   2.26593
    R2        2.35961   0.00050  -0.00586   0.00478  -0.00110   2.35851
    R3        2.35961   0.00048  -0.00586   0.00478  -0.00110   2.35851
    R4        2.35960   0.00046  -0.00572   0.00469  -0.00105   2.35855
    R5        3.65430  -0.00053  -0.01562   0.00034  -0.01528   3.63902
    R6        3.50166  -0.00048  -0.01572  -0.00136  -0.01706   3.48460
    R7        3.50166  -0.00048  -0.01572  -0.00136  -0.01706   3.48460
    R8        3.50164  -0.00051  -0.01606  -0.00152  -0.01757   3.48407
    A1        1.96728   0.00006   0.00091   0.00130   0.00223   1.96950
    A2        1.96728   0.00009   0.00091   0.00132   0.00223   1.96950
    A3        1.96735   0.00012   0.00082   0.00130   0.00213   1.96947
    A4        1.85068  -0.00006  -0.00096  -0.00144  -0.00240   1.84828
    A5        1.85073  -0.00012  -0.00099  -0.00146  -0.00246   1.84827
    A6        1.85073  -0.00013  -0.00099  -0.00146  -0.00246   1.84827
    A7        1.13682   0.00041   0.00208   0.00239   0.00450   1.14132
    A8        1.13685   0.00038   0.00217   0.00239   0.00458   1.14142
    A9        1.13685   0.00038   0.00217   0.00239   0.00458   1.14142
   A10        3.14157  -0.00002   0.00009   0.00002   0.00011   3.14168
   A11        3.14163   0.00002  -0.00016  -0.00005  -0.00021   3.14143
    D1        2.16028   0.00009   0.00105   0.00145   0.00251   2.16279
    D2       -2.16036  -0.00007  -0.00097  -0.00143  -0.00240  -2.16277
    D3        2.16036   0.00010   0.00097   0.00144   0.00240   2.16277
    D4       -1.96246   0.00017   0.00194   0.00287   0.00481  -1.95765
    D5       -0.63517  -0.00006  -0.00052  -0.00057  -0.00110  -0.63627
    D6        0.63513   0.00010   0.00053   0.00055   0.00109   0.63622
    D7       -0.63513  -0.00011  -0.00053  -0.00055  -0.00109  -0.63622
         Item               Value     Threshold  Converged?
 Maximum Force            0.000827     0.000450     NO 
 RMS     Force            0.000338     0.000300     NO 
 Maximum Displacement     0.014816     0.001800     NO 
 RMS     Displacement     0.003490     0.001200     NO 
 Predicted change in Energy=-2.045821D-05
 GradGradGradGradGradGradGradGradGradGradGradGradGradGradGradGradGradGrad

                          Input orientation:                          
 ---------------------------------------------------------------------
 Center     Atomic      Atomic             Coordinates (Angstroms)
 Number     Number       Type             X           Y           Z
 ---------------------------------------------------------------------
      1          5           0        8.791861    8.131635    8.500000
      2          1           0        8.791988    6.932556    8.500000
      3          1           0        9.366888    8.616230    7.503913
      4          1           0        9.366888    8.616230    9.496087
      5          1           0        7.641599    8.616024    8.500000
      6          3           0        8.791315   10.057322    8.500000
 ---------------------------------------------------------------------
                    Distance matrix (angstroms):
                    1          2          3          4          5
     1  B    0.000000
     2  H    1.199079   0.000000
     3  H    1.248070   2.038984   0.000000
     4  H    1.248070   2.038984   1.992174   0.000000
     5  H    1.248092   2.038984   1.992187   1.992187   0.000000
     6  Li   1.925687   3.124766   1.843968   1.843968   1.843689
                    6
     6  Li   0.000000
 Stoichiometry    BH4Li
 Framework group  CS[SG(BH2Li),X(H2)]
 Deg. of freedom     8
 Full point group                 CS      NOp   2
 Largest Abelian subgroup         CS      NOp   2
 Largest concise Abelian subgroup CS      NOp   2
                         Standard orientation:                         
 ---------------------------------------------------------------------
 Center     Atomic      Atomic             Coordinates (Angstroms)
 Number     Number       Type             X           Y           Z
 ---------------------------------------------------------------------
      1          5           0        0.000001    0.502630    0.000000
      2          1           0       -0.000212    1.701709    0.000000
      3          1           0        0.575165    0.018198    0.996087
      4          1           0        0.575165    0.018198   -0.996087
      5          1           0       -1.150124    0.017915    0.000000
      6          3           0        0.000001   -1.423057    0.000000
 ---------------------------------------------------------------------
 Rotational constants (GHZ):         126.3495126          23.4156604          23.4156226
 Standard basis: def2QZVPP (5D, 7F)
 There are   159 symmetry adapted cartesian basis functions of A'  symmetry.
 There are    93 symmetry adapted cartesian basis functions of A"  symmetry.
 There are   131 symmetry adapted basis functions of A'  symmetry.
 There are    81 symmetry adapted basis functions of A"  symmetry.
   212 basis functions,   299 primitive gaussians,   252 cartesian basis functions
     6 alpha electrons        6 beta electrons
       nuclear repulsion energy        17.3549405054 Hartrees.
 NAtoms=    6 NActive=    6 NUniq=    5 SFac= 1.44D+00 NAtFMM=   60 NAOKFM=F Big=F
 Integral buffers will be    131072 words long.
 Raffenetti 2 integral format.
 Two-electron integral symmetry is turned on.
 One-electron integrals computed using PRISM.
   2 Symmetry operations used in ECPInt.
 ECPInt:  NShTT=    2485 NPrTT=    5668 LenC2=    2486 LenP2D=    5329.
 LDataN:  DoStor=T MaxTD1= 8 Len=  415
 NBasis=   212 RedAO= T EigKep=  5.04D-05  NBF=   131    81
 NBsUse=   212 1.00D-06 EigRej= -1.00D+00 NBFU=   131    81
 Initial guess from the checkpoint file:  "/data/hutter/SMG16/PBE/Gau-52438.chk"
 B after Tr=    -0.000000   -0.000000   -0.000000
         Rot=    1.000000    0.000000   -0.000000   -0.000031 Ang=  -0.00 deg.
 Initial guess orbital symmetries:
       Occupied  (A') (A') (A') (A') (A") (A')
       Virtual   (A') (A') (A") (A') (A') (A') (A") (A') (A") (A')
                 (A') (A') (A") (A') (A') (A") (A') (A") (A') (A')
                 (A') (A") (A') (A') (A") (A') (A') (A') (A') (A")
                 (A") (A') (A') (A") (A") (A') (A') (A") (A') (A')
                 (A') (A") (A') (A') (A") (A") (A') (A") (A') (A")
                 (A') (A') (A') (A") (A') (A") (A') (A') (A") (A')
                 (A') (A') (A') (A') (A") (A') (A") (A') (A") (A")
                 (A') (A") (A') (A') (A') (A") (A') (A') (A') (A")
                 (A") (A') (A") (A') (A') (A") (A') (A") (A') (A")
                 (A') (A") (A') (A") (A') (A') (A") (A') (A") (A")
                 (A') (A') (A") (A') (A') (A") (A') (A') (A') (A")
                 (A') (A') (A") (A') (A") (A") (A') (A") (A') (A')
                 (A") (A') (A') (A") (A') (A') (A") (A') (A') (A")
                 (A') (A") (A') (A') (A") (A') (A") (A') (A") (A")
                 (A') (A") (A') (A") (A') (A') (A') (A") (A') (A")
                 (A') (A") (A') (A") (A') (A') (A') (A") (A') (A")
                 (A') (A') (A") (A') (A") (A') (A") (A') (A') (A")
                 (A') (A') (A") (A") (A') (A") (A') (A") (A") (A')
                 (A') (A") (A") (A') (A') (A") (A') (A") (A') (A')
                 (A') (A") (A") (A') (A') (A") (A') (A") (A') (A')
                 (A") (A') (A') (A') (A') (A')
 Keep J ints in memory in symmetry-blocked form, NReq=382856332.
 Requested convergence on RMS density matrix=1.00D-08 within 128 cycles.
 Requested convergence on MAX density matrix=1.00D-06.
 Requested convergence on             energy=1.00D-06.
 No special actions if energy rises.
 SCF Done:  E(RPBE-PBE) =  -34.7162744033     A.U. after    6 cycles
            NFock=  6  Conv=0.78D-08     -V/T= 2.0077
   2 Symmetry operations used in ECPInt.
 ECPInt:  NShTT=    2485 NPrTT=    5668 LenC2=    2486 LenP2D=    5329.
 LDataN:  DoStor=T MaxTD1= 9 Len=  602
 Calling FoFJK, ICntrl=      2527 FMM=F ISym2X=1 I1Cent= 0 IOpClX= 0 NMat=1 NMatS=1 NMatT=0.
 ***** Axes restored to original set *****
 -------------------------------------------------------------------
 Center     Atomic                   Forces (Hartrees/Bohr)
 Number     Number              X              Y              Z
 -------------------------------------------------------------------
      1        5          -0.000003303   -0.000588701    0.000000000
      2        1           0.000000538   -0.000622615   -0.000000000
      3        1           0.000258308    0.000641635   -0.000445851
      4        1           0.000258308    0.000641635    0.000445851
      5        1          -0.000505203    0.000639062    0.000000000
      6        3          -0.000008648   -0.000711015    0.000000000
 -------------------------------------------------------------------
 Cartesian Forces:  Max     0.000711015 RMS     0.000425433

 GradGradGradGradGradGradGradGradGradGradGradGradGradGradGradGradGradGrad
 Berny optimization.
 Using GEDIIS/GDIIS optimizer.
 FormGI is forming the generalized inverse of G from B-inverse, IUseBI=4.
 Internal  Forces:  Max     0.000622616 RMS     0.000281097
 Search for a local minimum.
 Step number   4 out of a maximum of   36
 All quantities printed in internal units (Hartrees-Bohrs-Radians)
 Mixed Optimization -- En-DIIS/RFO-DIIS
 Swapping is turned off.
 Update second derivatives using D2CorX and points    1    2    3    4
 DE= -2.80D-05 DEPred=-2.05D-05 R= 1.37D+00
 TightC=F SS=  1.41D+00  RLast= 3.56D-02 DXNew= 5.0454D-01 1.0681D-01
 Trust test= 1.37D+00 RLast= 3.56D-02 DXMaxT set to 3.00D-01
 ITU=  1  1  1  0
     Eigenvalues ---    0.01934   0.04105   0.04635   0.05284   0.06787
     Eigenvalues ---    0.07476   0.11250   0.11646   0.19093   0.19772
     Eigenvalues ---    0.22172   0.27396
 En-DIIS/RFO-DIIS/Sim-DIIS IScMMF=       -3 using points:     4    3    2
 RFO step:  Lambda=-1.79763144D-05.
 DidBck=F Rises=F RFO-DIIS coefs:    2.43794   -2.00000    0.56206
 Iteration  1 RMS(Cart)=  0.00292734 RMS(Int)=  0.00001291
 Iteration  2 RMS(Cart)=  0.00000764 RMS(Int)=  0.00000800
 Iteration  3 RMS(Cart)=  0.00000000 RMS(Int)=  0.00000800
 ClnCor:  largest displacement from symmetrization is 2.71D-06 for atom     2.
 Variable       Old X    -DE/DX   Delta X   Delta X   Delta X     New X
                                 (Linear)    (Quad)   (Total)
    R1        2.26593   0.00062   0.00387  -0.00147   0.00240   2.26833
    R2        2.35851   0.00062   0.00382   0.00027   0.00409   2.36260
    R3        2.35851   0.00061   0.00382   0.00027   0.00409   2.36260
    R4        2.35855   0.00059   0.00376   0.00029   0.00406   2.36261
    R5        3.63902  -0.00008  -0.00758   0.00099  -0.00658   3.63244
    R6        3.48460  -0.00013  -0.01006  -0.00104  -0.01111   3.47348
    R7        3.48460  -0.00013  -0.01006  -0.00104  -0.01111   3.47348
    R8        3.48407  -0.00016  -0.01046  -0.00109  -0.01156   3.47250
    A1        1.96950   0.00008   0.00236   0.00084   0.00321   1.97271
    A2        1.96950   0.00010   0.00236   0.00085   0.00321   1.97271
    A3        1.96947   0.00015   0.00230   0.00084   0.00314   1.97261
    A4        1.84828  -0.00007  -0.00258  -0.00095  -0.00354   1.84474
    A5        1.84827  -0.00014  -0.00263  -0.00094  -0.00357   1.84470
    A6        1.84827  -0.00015  -0.00263  -0.00094  -0.00357   1.84470
    A7        1.14132   0.00035   0.00455   0.00007   0.00462   1.14594
    A8        1.14142   0.00031   0.00459   0.00009   0.00468   1.14610
    A9        1.14142   0.00031   0.00459   0.00009   0.00468   1.14610
   A10        3.14168  -0.00003   0.00008   0.00000   0.00009   3.14177
   A11        3.14143   0.00002  -0.00015  -0.00002  -0.00016   3.14126
    D1        2.16279   0.00011   0.00264   0.00092   0.00354   2.16633
    D2       -2.16277  -0.00009  -0.00256  -0.00092  -0.00348  -2.16625
    D3        2.16277   0.00011   0.00256   0.00093   0.00348   2.16625
    D4       -1.95765   0.00020   0.00513   0.00186   0.00696  -1.95069
    D5       -0.63627  -0.00004  -0.00110  -0.00003  -0.00114  -0.63742
    D6        0.63622   0.00009   0.00108   0.00002   0.00110   0.63732
    D7       -0.63622  -0.00009  -0.00108  -0.00002  -0.00110  -0.63732
         Item               Value     Threshold  Converged?
 Maximum Force            0.000623     0.000450     NO 
 RMS     Force            0.000281     0.000300     YES
 Maximum Displacement     0.009338     0.001800     NO 
 RMS     Displacement     0.002928     0.001200     NO 
 Predicted change in Energy=-6.746272D-06
 GradGradGradGradGradGradGradGradGradGradGradGradGradGradGradGradGradGrad

                          Input orientation:                          
 ---------------------------------------------------------------------
 Center     Atomic      Atomic             Coordinates (Angstroms)
 Number     Number       Type             X           Y           Z
 ---------------------------------------------------------------------
      1          5           0        8.791897    8.130176    8.500000
      2          1           0        8.791917    6.929825    8.500000
      3          1           0        9.367154    8.619251    7.503519
      4          1           0        9.367154    8.619251    9.496481
      5          1           0        7.641229    8.619114    8.500000
      6          3           0        8.791190   10.052381    8.500000
 ---------------------------------------------------------------------
                    Distance matrix (angstroms):
                    1          2          3          4          5
     1  B    0.000000
     2  H    1.200350   0.000000
     3  H    1.250236   2.044023   0.000000
     4  H    1.250236   2.044023   1.992962   0.000000
     5  H    1.250239   2.043962   1.992936   1.992936   0.000000
     6  Li   1.922205   3.122556   1.838089   1.838089   1.837570
                    6
     6  Li   0.000000
 Stoichiometry    BH4Li
 Framework group  CS[SG(BH2Li),X(H2)]
 Deg. of freedom     8
 Full point group                 CS      NOp   2
 Largest Abelian subgroup         CS      NOp   2
 Largest concise Abelian subgroup CS      NOp   2
                         Standard orientation:                         
 ---------------------------------------------------------------------
 Center     Atomic      Atomic             Coordinates (Angstroms)
 Number     Number       Type             X           Y           Z
 ---------------------------------------------------------------------
      1          5           0        0.000003    0.502780    0.000000
      2          1           0       -0.000419    1.703130    0.000000
      3          1           0        0.575440    0.013916    0.996481
      4          1           0        0.575440    0.013916   -0.996481
      5          1           0       -1.150485    0.013418    0.000000
      6          3           0        0.000003   -1.419426   -0.000000
 ---------------------------------------------------------------------
 Rotational constants (GHZ):         126.2529515          23.4821002          23.4820248
 Standard basis: def2QZVPP (5D, 7F)
 There are   159 symmetry adapted cartesian basis functions of A'  symmetry.
 There are    93 symmetry adapted cartesian basis functions of A"  symmetry.
 There are   131 symmetry adapted basis functions of A'  symmetry.
 There are    81 symmetry adapted basis functions of A"  symmetry.
   212 basis functions,   299 primitive gaussians,   252 cartesian basis functions
     6 alpha electrons        6 beta electrons
       nuclear repulsion energy        17.3556008404 Hartrees.
 NAtoms=    6 NActive=    6 NUniq=    5 SFac= 1.44D+00 NAtFMM=   60 NAOKFM=F Big=F
 Integral buffers will be    131072 words long.
 Raffenetti 2 integral format.
 Two-electron integral symmetry is turned on.
 One-electron integrals computed using PRISM.
   2 Symmetry operations used in ECPInt.
 ECPInt:  NShTT=    2485 NPrTT=    5668 LenC2=    2486 LenP2D=    5329.
 LDataN:  DoStor=T MaxTD1= 8 Len=  415
 NBasis=   212 RedAO= T EigKep=  5.08D-05  NBF=   131    81
 NBsUse=   212 1.00D-06 EigRej= -1.00D+00 NBFU=   131    81
 Initial guess from the checkpoint file:  "/data/hutter/SMG16/PBE/Gau-52438.chk"
 B after Tr=     0.000000    0.000000    0.000000
         Rot=    1.000000   -0.000000    0.000000   -0.000024 Ang=  -0.00 deg.
 Initial guess orbital symmetries:
       Occupied  (A') (A') (A') (A') (A") (A')
       Virtual   (A') (A") (A') (A') (A') (A') (A") (A') (A") (A')
                 (A') (A") (A') (A') (A') (A") (A') (A") (A') (A')
                 (A') (A") (A') (A') (A") (A') (A') (A') (A') (A")
                 (A") (A') (A") (A') (A') (A") (A') (A") (A') (A')
                 (A') (A") (A') (A") (A') (A") (A") (A') (A') (A')
                 (A") (A') (A") (A') (A') (A") (A') (A') (A") (A')
                 (A') (A') (A') (A') (A") (A') (A") (A') (A") (A")
                 (A') (A') (A") (A') (A") (A') (A') (A') (A') (A")
                 (A') (A") (A') (A") (A") (A') (A') (A') (A") (A")
                 (A') (A") (A') (A") (A') (A') (A") (A") (A') (A')
                 (A") (A') (A') (A") (A') (A') (A") (A') (A") (A')
                 (A') (A') (A') (A") (A") (A") (A') (A") (A') (A')
                 (A') (A") (A") (A') (A') (A") (A') (A') (A') (A')
                 (A") (A") (A') (A') (A") (A') (A") (A') (A") (A")
                 (A') (A") (A') (A") (A') (A') (A') (A') (A") (A")
                 (A') (A') (A") (A") (A') (A') (A") (A') (A') (A')
                 (A") (A') (A") (A") (A') (A') (A') (A") (A") (A')
                 (A') (A") (A') (A") (A") (A') (A") (A') (A") (A')
                 (A') (A") (A') (A") (A') (A') (A") (A') (A") (A")
                 (A') (A') (A") (A') (A') (A') (A") (A') (A") (A")
                 (A') (A') (A') (A') (A') (A')
 Keep J ints in memory in symmetry-blocked form, NReq=382856332.
 Requested convergence on RMS density matrix=1.00D-08 within 128 cycles.
 Requested convergence on MAX density matrix=1.00D-06.
 Requested convergence on             energy=1.00D-06.
 No special actions if energy rises.
 SCF Done:  E(RPBE-PBE) =  -34.7162871968     A.U. after    6 cycles
            NFock=  6  Conv=0.71D-08     -V/T= 2.0078
   2 Symmetry operations used in ECPInt.
 ECPInt:  NShTT=    2485 NPrTT=    5668 LenC2=    2486 LenP2D=    5329.
 LDataN:  DoStor=T MaxTD1= 9 Len=  602
 Calling FoFJK, ICntrl=      2527 FMM=F ISym2X=1 I1Cent= 0 IOpClX= 0 NMat=1 NMatS=1 NMatT=0.
 ***** Axes restored to original set *****
 -------------------------------------------------------------------
 Center     Atomic                   Forces (Hartrees/Bohr)
 Number     Number              X              Y              Z
 -------------------------------------------------------------------
      1        5           0.000001356   -0.000292538    0.000000000
      2        1           0.000002714    0.000044061    0.000000000
      3        1           0.000005137    0.000077590   -0.000006530
      4        1           0.000005137    0.000077590    0.000006530
      5        1          -0.000010231    0.000074290    0.000000000
      6        3          -0.000004114    0.000019006   -0.000000000
 -------------------------------------------------------------------
 Cartesian Forces:  Max     0.000292538 RMS     0.000076634

 GradGradGradGradGradGradGradGradGradGradGradGradGradGradGradGradGradGrad
 Berny optimization.
 Using GEDIIS/GDIIS optimizer.
 FormGI is forming the generalized inverse of G from B-inverse, IUseBI=4.
 Internal  Forces:  Max     0.000053845 RMS     0.000027953
 Search for a local minimum.
 Step number   5 out of a maximum of   36
 All quantities printed in internal units (Hartrees-Bohrs-Radians)
 Mixed Optimization -- En-DIIS/RFO-DIIS
 Swapping is turned off.
 Update second derivatives using D2CorX and points    1    2    3    4    5
 DE= -1.28D-05 DEPred=-6.75D-06 R= 1.90D+00
 TightC=F SS=  1.41D+00  RLast= 2.65D-02 DXNew= 5.0454D-01 7.9498D-02
 Trust test= 1.90D+00 RLast= 2.65D-02 DXMaxT set to 3.00D-01
 ITU=  1  1  1  1  0
     Eigenvalues ---    0.01918   0.04101   0.04635   0.05284   0.06751
     Eigenvalues ---    0.07351   0.11127   0.11482   0.16085   0.19171
     Eigenvalues ---    0.19780   0.25711
 En-DIIS/RFO-DIIS/Sim-DIIS IScMMF=       -3 using points:     5    4    3    2
 RFO step:  Lambda=-2.98315082D-07.
 DIIS inversion failure, remove point   4.
 RFO-DIIS uses    3 points instead of    4
 DidBck=F Rises=F RFO-DIIS coefs:    1.13241   -0.16172    0.02932    0.00000
 Iteration  1 RMS(Cart)=  0.00029954 RMS(Int)=  0.00000072
 Iteration  2 RMS(Cart)=  0.00000014 RMS(Int)=  0.00000070
 ClnCor:  largest displacement from symmetrization is 1.42D-06 for atom     4.
 Variable       Old X    -DE/DX   Delta X   Delta X   Delta X     New X
                                 (Linear)    (Quad)   (Total)
    R1        2.26833  -0.00004   0.00030  -0.00047  -0.00017   2.26816
    R2        2.36260   0.00004   0.00057  -0.00024   0.00034   2.36294
    R3        2.36260   0.00004   0.00057  -0.00024   0.00034   2.36294
    R4        2.36261   0.00004   0.00057  -0.00022   0.00034   2.36295
    R5        3.63244   0.00005  -0.00042   0.00056   0.00014   3.63258
    R6        3.47348  -0.00001  -0.00097  -0.00005  -0.00102   3.47246
    R7        3.47348  -0.00001  -0.00097  -0.00005  -0.00102   3.47246
    R8        3.47250  -0.00002  -0.00102  -0.00005  -0.00107   3.47144
    A1        1.97271   0.00002   0.00036   0.00019   0.00055   1.97325
    A2        1.97271   0.00003   0.00036   0.00019   0.00055   1.97325
    A3        1.97261   0.00004   0.00035   0.00019   0.00054   1.97315
    A4        1.84474  -0.00002  -0.00040  -0.00022  -0.00062   1.84412
    A5        1.84470  -0.00004  -0.00040  -0.00020  -0.00061   1.84409
    A6        1.84470  -0.00004  -0.00040  -0.00020  -0.00061   1.84409
    A7        1.14594   0.00001   0.00048  -0.00022   0.00026   1.14620
    A8        1.14610   0.00001   0.00049  -0.00021   0.00028   1.14638
    A9        1.14610   0.00001   0.00049  -0.00021   0.00028   1.14638
   A10        3.14177  -0.00001   0.00001   0.00000   0.00001   3.14178
   A11        3.14126   0.00001  -0.00002  -0.00000  -0.00002   3.14124
    D1        2.16633   0.00003   0.00040   0.00020   0.00059   2.16693
    D2       -2.16625  -0.00002  -0.00039  -0.00021  -0.00060  -2.16684
    D3        2.16625   0.00003   0.00039   0.00021   0.00060   2.16684
    D4       -1.95069   0.00005   0.00078   0.00041   0.00119  -1.94950
    D5       -0.63742   0.00001  -0.00012   0.00004  -0.00008  -0.63749
    D6        0.63732   0.00001   0.00011  -0.00005   0.00006   0.63738
    D7       -0.63732  -0.00001  -0.00011   0.00005  -0.00006  -0.63738
         Item               Value     Threshold  Converged?
 Maximum Force            0.000054     0.000450     YES
 RMS     Force            0.000028     0.000300     YES
 Maximum Displacement     0.000709     0.001800     YES
 RMS     Displacement     0.000300     0.001200     YES
 Predicted change in Energy=-1.486592D-07
 Optimization completed.
    -- Stationary point found.
                           ----------------------------
                           !   Optimized Parameters   !
                           ! (Angstroms and Degrees)  !
 --------------------------                            --------------------------
 ! Name  Definition              Value          Derivative Info.                !
 --------------------------------------------------------------------------------
 ! R1    R(1,2)                  1.2004         -DE/DX =    0.0                 !
 ! R2    R(1,3)                  1.2502         -DE/DX =    0.0                 !
 ! R3    R(1,4)                  1.2502         -DE/DX =    0.0                 !
 ! R4    R(1,5)                  1.2502         -DE/DX =    0.0                 !
 ! R5    R(1,6)                  1.9222         -DE/DX =    0.0001              !
 ! R6    R(3,6)                  1.8381         -DE/DX =    0.0                 !
 ! R7    R(4,6)                  1.8381         -DE/DX =    0.0                 !
 ! R8    R(5,6)                  1.8376         -DE/DX =    0.0                 !
 ! A1    A(2,1,3)              113.0279         -DE/DX =    0.0                 !
 ! A2    A(2,1,4)              113.0279         -DE/DX =    0.0                 !
 ! A3    A(2,1,5)              113.0224         -DE/DX =    0.0                 !
 ! A4    A(3,1,4)              105.6956         -DE/DX =    0.0                 !
 ! A5    A(3,1,5)              105.6935         -DE/DX =    0.0                 !
 ! A6    A(4,1,5)              105.6935         -DE/DX =    0.0                 !
 ! A7    A(3,6,4)               65.6574         -DE/DX =    0.0                 !
 ! A8    A(3,6,5)               65.6668         -DE/DX =    0.0                 !
 ! A9    A(4,6,5)               65.6668         -DE/DX =    0.0                 !
 ! A10   L(2,1,6,3,-1)         180.0101         -DE/DX =    0.0                 !
 ! A11   L(2,1,6,3,-2)         179.9811         -DE/DX =    0.0                 !
 ! D1    D(2,1,4,3)            124.1217         -DE/DX =    0.0                 !
 ! D2    D(2,1,5,3)           -124.1168         -DE/DX =    0.0                 !
 ! D3    D(2,1,5,4)            124.1168         -DE/DX =    0.0                 !
 ! D4    D(3,1,5,4)           -111.7664         -DE/DX =    0.0001              !
 ! D5    D(4,3,6,1)            -36.5213         -DE/DX =    0.0                 !
 ! D6    D(5,3,6,1)             36.5158         -DE/DX =    0.0                 !
 ! D7    D(5,4,6,1)            -36.5158         -DE/DX =    0.0                 !
 --------------------------------------------------------------------------------
 GradGradGradGradGradGradGradGradGradGradGradGradGradGradGradGradGradGrad

                          Input orientation:                          
 ---------------------------------------------------------------------
 Center     Atomic      Atomic             Coordinates (Angstroms)
 Number     Number       Type             X           Y           Z
 ---------------------------------------------------------------------
      1          5           0        8.791897    8.130176    8.500000
      2          1           0        8.791917    6.929825    8.500000
      3          1           0        9.367154    8.619251    7.503519
      4          1           0        9.367154    8.619251    9.496481
      5          1           0        7.641229    8.619114    8.500000
      6          3           0        8.791190   10.052381    8.500000
 ---------------------------------------------------------------------
                    Distance matrix (angstroms):
                    1          2          3          4          5
     1  B    0.000000
     2  H    1.200350   0.000000
     3  H    1.250236   2.044023   0.000000
     4  H    1.250236   2.044023   1.992962   0.000000
     5  H    1.250239   2.043962   1.992936   1.992936   0.000000
     6  Li   1.922205   3.122556   1.838089   1.838089   1.837570
                    6
     6  Li   0.000000
 Stoichiometry    BH4Li
 Framework group  CS[SG(BH2Li),X(H2)]
 Deg. of freedom     8
 Full point group                 CS      NOp   2
 Largest Abelian subgroup         CS      NOp   2
 Largest concise Abelian subgroup CS      NOp   2
                         Standard orientation:                         
 ---------------------------------------------------------------------
 Center     Atomic      Atomic             Coordinates (Angstroms)
 Number     Number       Type             X           Y           Z
 ---------------------------------------------------------------------
      1          5           0        0.000003    0.502780    0.000000
      2          1           0       -0.000419    1.703130    0.000000
      3          1           0        0.575440    0.013916    0.996481
      4          1           0        0.575440    0.013916   -0.996481
      5          1           0       -1.150485    0.013418    0.000000
      6          3           0        0.000003   -1.419426   -0.000000
 ---------------------------------------------------------------------
 Rotational constants (GHZ):         126.2529515          23.4821002          23.4820248

 **********************************************************************

            Population analysis using the SCF Density.

 **********************************************************************

 Orbital symmetries:
       Occupied  (A') (A') (A') (A') (A") (A')
       Virtual   (A') (A") (A') (A') (A') (A') (A") (A') (A") (A')
                 (A') (A") (A') (A') (A') (A") (A') (A") (A') (A')
                 (A') (A") (A') (A') (A") (A') (A') (A') (A') (A")
                 (A") (A') (A") (A') (A') (A") (A') (A") (A') (A')
                 (A') (A") (A') (A") (A') (A") (A") (A') (A') (A')
                 (A") (A') (A") (A') (A') (A") (A') (A') (A") (A')
                 (A') (A') (A') (A') (A") (A') (A") (A') (A") (A")
                 (A') (A') (A') (A") (A") (A') (A') (A') (A') (A")
                 (A') (A") (A') (A") (A") (A') (A') (A') (A") (A")
                 (A') (A") (A') (A') (A") (A') (A") (A") (A') (A')
                 (A") (A') (A') (A") (A') (A') (A") (A') (A") (A')
                 (A') (A') (A') (A") (A") (A") (A') (A") (A') (A')
                 (A') (A") (A") (A') (A') (A') (A") (A') (A') (A')
                 (A") (A") (A') (A") (A') (A') (A") (A') (A") (A")
                 (A') (A") (A') (A") (A') (A') (A') (A") (A') (A")
                 (A') (A') (A") (A') (A") (A') (A") (A') (A') (A')
                 (A") (A') (A") (A") (A') (A') (A') (A") (A") (A')
                 (A') (A") (A') (A") (A") (A') (A") (A') (A') (A")
                 (A') (A") (A') (A") (A') (A') (A") (A') (A") (A")
                 (A') (A') (A") (A') (A') (A') (A") (A') (A") (A")
                 (A') (A') (A') (A') (A') (A')
 The electronic state is 1-A'.
 Alpha  occ. eigenvalues --   -6.42315  -1.88722  -0.44249  -0.25758  -0.25757
 Alpha  occ. eigenvalues --   -0.25654
 Alpha virt. eigenvalues --   -0.06182   0.00004   0.00005   0.01720   0.03654
 Alpha virt. eigenvalues --    0.05492   0.05492   0.08639   0.08652   0.08654
 Alpha virt. eigenvalues --    0.11066   0.11758   0.11759   0.13005   0.18147
 Alpha virt. eigenvalues --    0.18147   0.21094   0.21548   0.21550   0.23941
 Alpha virt. eigenvalues --    0.25289   0.25291   0.26399   0.30698   0.30880
 Alpha virt. eigenvalues --    0.30883   0.34151   0.40105   0.41769   0.41771
 Alpha virt. eigenvalues --    0.43147   0.47861   0.48808   0.48808   0.50380
 Alpha virt. eigenvalues --    0.50381   0.52431   0.56589   0.56591   0.59287
 Alpha virt. eigenvalues --    0.60795   0.60797   0.65645   0.70737   0.70738
 Alpha virt. eigenvalues --    0.71087   0.74411   0.74417   0.79597   0.87674
 Alpha virt. eigenvalues --    0.87677   0.89583   0.91235   0.91238   0.99684
 Alpha virt. eigenvalues --    1.01290   1.01291   1.06545   1.09227   1.09230
 Alpha virt. eigenvalues --    1.14806   1.16237   1.26435   1.27987   1.27988
 Alpha virt. eigenvalues --    1.29405   1.33628   1.34272   1.34275   1.42364
 Alpha virt. eigenvalues --    1.42371   1.49921   1.50168   1.50170   1.65705
 Alpha virt. eigenvalues --    1.65707   1.78754   1.93880   2.02707   2.04459
 Alpha virt. eigenvalues --    2.07225   2.07230   2.19631   2.19631   2.29626
 Alpha virt. eigenvalues --    2.29641   2.39077   2.45893   2.45895   2.53976
 Alpha virt. eigenvalues --    2.58734   2.59715   2.59717   2.65307   2.65309
 Alpha virt. eigenvalues --    2.70893   2.71355   2.73983   2.73993   2.84587
 Alpha virt. eigenvalues --    2.84596   2.85049   3.10922   3.10924   3.15011
 Alpha virt. eigenvalues --    3.18273   3.18279   3.18956   3.23471   3.23473
 Alpha virt. eigenvalues --    3.27816   3.39549   3.44961   3.44966   3.71941
 Alpha virt. eigenvalues --    3.81930   3.81938   3.84117   3.84119   4.11662
 Alpha virt. eigenvalues --    4.18258   4.18261   4.21355   4.21362   4.24766
 Alpha virt. eigenvalues --    4.43805   4.43875   4.43879   4.49487   4.70534
 Alpha virt. eigenvalues --    4.70538   4.82948   4.86718   4.90093   4.90094
 Alpha virt. eigenvalues --    5.36186   5.73183   5.73203   5.76803   5.83217
 Alpha virt. eigenvalues --    5.90437   5.90449   6.05882   6.09311   6.09332
 Alpha virt. eigenvalues --    6.18717   6.46520   6.46521   6.46571   6.51618
 Alpha virt. eigenvalues --    6.61352   6.70831   6.70840   6.76852   6.76856
 Alpha virt. eigenvalues --    6.84305   6.94062   6.94065   6.98084   6.98969
 Alpha virt. eigenvalues --    6.98971   7.21736   7.25293   7.30651   7.30654
 Alpha virt. eigenvalues --    7.37261   7.45621   7.45638   7.67094   7.67098
 Alpha virt. eigenvalues --    7.86037   7.99860   7.99864   8.10805   8.16389
 Alpha virt. eigenvalues --    8.16409   8.19960   8.19964   8.29286   8.29290
 Alpha virt. eigenvalues --    8.35586   8.42452   8.43236   8.43241   8.55114
 Alpha virt. eigenvalues --    8.59192   8.59197   8.91923   8.91926   8.97506
 Alpha virt. eigenvalues --    8.97511   8.97701   9.02636   9.07320   9.22559
 Alpha virt. eigenvalues --    9.29118   9.29122   9.36438   9.36439   9.59834
 Alpha virt. eigenvalues --    9.59836   9.71276   9.84233  11.38731  20.28492
 Alpha virt. eigenvalues --  102.77841
          Condensed to atoms (all electrons):
               1          2          3          4          5          6
     1  B    3.406813   0.464041   0.234545   0.234545   0.234452   0.163198
     2  H    0.464041   0.743100  -0.022173  -0.022173  -0.022178  -0.073752
     3  H    0.234545  -0.022173   0.842286  -0.054294  -0.054263   0.165715
     4  H    0.234545  -0.022173  -0.054294   0.842286  -0.054263   0.165715
     5  H    0.234452  -0.022178  -0.054263  -0.054263   0.842023   0.165869
     6  Li   0.163198  -0.073752   0.165715   0.165715   0.165869   2.273521
 Mulliken charges:
               1
     1  B    0.262406
     2  H   -0.066865
     3  H   -0.111816
     4  H   -0.111816
     5  H   -0.111641
     6  Li   0.139732
 Sum of Mulliken charges =  -0.00000
 Mulliken charges with hydrogens summed into heavy atoms:
               1
     1  B   -0.139732
     6  Li   0.139732
 Electronic spatial extent (au):  <R**2>=             75.4544
 Charge=             -0.0000 electrons
 Dipole moment (field-independent basis, Debye):
    X=              0.0001    Y=             -5.8648    Z=             -0.0000  Tot=              5.8648
 Quadrupole moment (field-independent basis, Debye-Ang):
   XX=            -14.2264   YY=             -4.9204   ZZ=            -14.2263
   XY=             -0.0002   XZ=              0.0000   YZ=              0.0000
 Traceless Quadrupole moment (field-independent basis, Debye-Ang):
   XX=             -3.1020   YY=              6.2039   ZZ=             -3.1019
   XY=             -0.0002   XZ=              0.0000   YZ=              0.0000
 Octapole moment (field-independent basis, Debye-Ang**2):
  XXX=              0.6876  YYY=            -26.0959  ZZZ=             -0.0000  XYY=              0.0006
  XXY=             -2.9613  XXZ=              0.0000  XZZ=             -0.6881  YZZ=             -2.9621
  YYZ=             -0.0000  XYZ=              0.0000
 Hexadecapole moment (field-independent basis, Debye-Ang**3):
 XXXX=            -35.9919 YYYY=            -37.3349 ZZZZ=            -35.9926 XXXY=             -0.0914
 XXXZ=             -0.0000 YYYX=              0.0001 YYYZ=              0.0000 ZZZX=              0.0000
 ZZZY=             -0.0000 XXYY=            -15.4979 XXZZ=            -11.9974 YYZZ=            -15.4979
 XXYZ=             -0.0000 YYXZ=             -0.0000 ZZXY=              0.0914
 N-N= 1.735560084037D+01 E-N=-1.142610945967D+02  KE= 3.444716112702D+01
 Symmetry A'   KE= 3.317539536197D+01
 Symmetry A"   KE= 1.271765765044D+00
 Unable to Open any file for archive entry.
 1\1\GINC-TCOPT10\FOpt\RPBEPBE\def2QZVPP\B1H4Li1\HUTTER\30-Jul-2021\0\\
 #N RPBEPBE/Def2QZVPP scf=tight Int(Grid=ultrafine) OPT FREQ\\Mol job 1
 \\0,1\B,8.7918968356,8.1301755761,8.5\H,8.791916954,6.929825181,8.5\H,
 9.3671544881,8.619250857,7.5035190304\H,9.3671544881,8.619250857,9.496
 4809696\H,7.6412286297,8.619113907,8.5\Li,8.7911897197,10.052380659,8.
 5\\Version=ES64L-G16RevC.01\State=1-A'\HF=-34.7162872\RMSD=7.096e-09\R
 MSF=7.663e-05\Dipole=-0.0008049,2.3073915,0.\Quadrupole=-2.3062677,4.6
 12472,-2.3062043,-0.0023787,0.,0.\PG=CS [SG(B1H2Li1),X(H2)]\\@
 The archive entry for this job was punched.


 BULLDOZER: SOMEONE WHO SLEEPS THROUGH SPEECHES.
 Job cpu time:       0 days  0 hours 11 minutes  6.6 seconds.
 Elapsed time:       0 days  0 hours  1 minutes 27.0 seconds.
 File lengths (MBytes):  RWF=     22 Int=      0 D2E=      0 Chk=      4 Scr=      1
 Normal termination of Gaussian 16 at Fri Jul 30 16:05:40 2021.
 Link1:  Proceeding to internal job step number  2.
 ----------------------------------------------------------------------
 #N Geom=AllCheck Guess=TCheck SCRF=Check GenChk RPBEPBE/def2QZVPP Freq
 ----------------------------------------------------------------------
 1/10=4,29=7,30=1,38=1,40=1/1,3;
 2/12=2,40=1/2;
 3/5=45,7=202,11=2,14=-4,25=1,30=1,70=2,71=2,74=1009,75=-5,116=1,140=1/1,2,3;
 4/5=101/1;
 5/5=2,32=2,38=6,98=1/2;
 8/6=4,10=90,11=11/1;
 11/6=1,8=1,9=11,15=111,16=1/1,2,10;
 10/6=1/2;
 6/7=2,8=2,9=2,10=2,28=1/1;
 7/8=1,10=1,25=1/1,2,3,16;
 1/10=4,30=1/3;
 99//99;
 Structure from the checkpoint file:  "/data/hutter/SMG16/PBE/Gau-52438.chk"
 ---------
 Mol job 1
 ---------
 Charge =  0 Multiplicity = 1
 Redundant internal coordinates found in file.  (old form).
 B,0,8.7918968356,8.1301755761,8.5
 H,0,8.791916954,6.929825181,8.5
 H,0,9.3671544881,8.619250857,7.5035190304
 H,0,9.3671544881,8.619250857,9.4964809696
 H,0,7.6412286297,8.619113907,8.5
 Li,0,8.7911897197,10.052380659,8.5
 Recover connectivity data from disk.

 GradGradGradGradGradGradGradGradGradGradGradGradGradGradGradGradGradGrad
 Berny optimization.
 Initialization pass.
                           ----------------------------
                           !    Initial Parameters    !
                           ! (Angstroms and Degrees)  !
 --------------------------                            --------------------------
 ! Name  Definition              Value          Derivative Info.                !
 --------------------------------------------------------------------------------
 ! R1    R(1,2)                  1.2004         calculate D2E/DX2 analytically  !
 ! R2    R(1,3)                  1.2502         calculate D2E/DX2 analytically  !
 ! R3    R(1,4)                  1.2502         calculate D2E/DX2 analytically  !
 ! R4    R(1,5)                  1.2502         calculate D2E/DX2 analytically  !
 ! R5    R(1,6)                  1.9222         calculate D2E/DX2 analytically  !
 ! R6    R(3,6)                  1.8381         calculate D2E/DX2 analytically  !
 ! R7    R(4,6)                  1.8381         calculate D2E/DX2 analytically  !
 ! R8    R(5,6)                  1.8376         calculate D2E/DX2 analytically  !
 ! A1    A(2,1,3)              113.0279         calculate D2E/DX2 analytically  !
 ! A2    A(2,1,4)              113.0279         calculate D2E/DX2 analytically  !
 ! A3    A(2,1,5)              113.0224         calculate D2E/DX2 analytically  !
 ! A4    A(3,1,4)              105.6956         calculate D2E/DX2 analytically  !
 ! A5    A(3,1,5)              105.6935         calculate D2E/DX2 analytically  !
 ! A6    A(4,1,5)              105.6935         calculate D2E/DX2 analytically  !
 ! A7    A(3,6,4)               65.6574         calculate D2E/DX2 analytically  !
 ! A8    A(3,6,5)               65.6668         calculate D2E/DX2 analytically  !
 ! A9    A(4,6,5)               65.6668         calculate D2E/DX2 analytically  !
 ! A10   L(2,1,6,3,-1)         180.0101         calculate D2E/DX2 analytically  !
 ! A11   L(2,1,6,3,-2)         179.9811         calculate D2E/DX2 analytically  !
 ! D1    D(2,1,4,3)            124.1217         calculate D2E/DX2 analytically  !
 ! D2    D(2,1,5,3)           -124.1168         calculate D2E/DX2 analytically  !
 ! D3    D(2,1,5,4)            124.1168         calculate D2E/DX2 analytically  !
 ! D4    D(3,1,5,4)           -111.7664         calculate D2E/DX2 analytically  !
 ! D5    D(4,3,6,1)            -36.5213         calculate D2E/DX2 analytically  !
 ! D6    D(5,3,6,1)             36.5158         calculate D2E/DX2 analytically  !
 ! D7    D(5,4,6,1)            -36.5158         calculate D2E/DX2 analytically  !
 --------------------------------------------------------------------------------
 Trust Radius=3.00D-01 FncErr=1.00D-07 GrdErr=1.00D-07 EigMax=2.50D+02 EigMin=1.00D-04
 Number of steps in this run=      2 maximum allowed number of steps=      2.
 GradGradGradGradGradGradGradGradGradGradGradGradGradGradGradGradGradGrad

                          Input orientation:                          
 ---------------------------------------------------------------------
 Center     Atomic      Atomic             Coordinates (Angstroms)
 Number     Number       Type             X           Y           Z
 ---------------------------------------------------------------------
      1          5           0        8.791897    8.130176    8.500000
      2          1           0        8.791917    6.929825    8.500000
      3          1           0        9.367154    8.619251    7.503519
      4          1           0        9.367154    8.619251    9.496481
      5          1           0        7.641229    8.619114    8.500000
      6          3           0        8.791190   10.052381    8.500000
 ---------------------------------------------------------------------
                    Distance matrix (angstroms):
                    1          2          3          4          5
     1  B    0.000000
     2  H    1.200350   0.000000
     3  H    1.250236   2.044023   0.000000
     4  H    1.250236   2.044023   1.992962   0.000000
     5  H    1.250239   2.043962   1.992936   1.992936   0.000000
     6  Li   1.922205   3.122556   1.838089   1.838089   1.837570
                    6
     6  Li   0.000000
 Stoichiometry    BH4Li
 Framework group  CS[SG(BH2Li),X(H2)]
 Deg. of freedom     8
 Full point group                 CS      NOp   2
 Largest Abelian subgroup         CS      NOp   2
 Largest concise Abelian subgroup CS      NOp   2
                         Standard orientation:                         
 ---------------------------------------------------------------------
 Center     Atomic      Atomic             Coordinates (Angstroms)
 Number     Number       Type             X           Y           Z
 ---------------------------------------------------------------------
      1          5           0        0.000003    0.502780    0.000000
      2          1           0       -0.000419    1.703130    0.000000
      3          1           0        0.575440    0.013916    0.996481
      4          1           0        0.575440    0.013916   -0.996481
      5          1           0       -1.150485    0.013418    0.000000
      6          3           0        0.000003   -1.419426   -0.000000
 ---------------------------------------------------------------------
 Rotational constants (GHZ):         126.2529515          23.4821002          23.4820248
 Standard basis: def2QZVPP (5D, 7F)
 There are   159 symmetry adapted cartesian basis functions of A'  symmetry.
 There are    93 symmetry adapted cartesian basis functions of A"  symmetry.
 There are   131 symmetry adapted basis functions of A'  symmetry.
 There are    81 symmetry adapted basis functions of A"  symmetry.
   212 basis functions,   299 primitive gaussians,   252 cartesian basis functions
     6 alpha electrons        6 beta electrons
       nuclear repulsion energy        17.3556008404 Hartrees.
 NAtoms=    6 NActive=    6 NUniq=    5 SFac= 1.44D+00 NAtFMM=   60 NAOKFM=F Big=F
 Integral buffers will be    131072 words long.
 Raffenetti 2 integral format.
 Two-electron integral symmetry is turned on.
 One-electron integrals computed using PRISM.
   2 Symmetry operations used in ECPInt.
 ECPInt:  NShTT=    2485 NPrTT=    5668 LenC2=    2486 LenP2D=    5329.
 LDataN:  DoStor=T MaxTD1= 8 Len=  415
 NBasis=   212 RedAO= T EigKep=  5.08D-05  NBF=   131    81
 NBsUse=   212 1.00D-06 EigRej= -1.00D+00 NBFU=   131    81
 Initial guess from the checkpoint file:  "/data/hutter/SMG16/PBE/Gau-52438.chk"
 B after Tr=     0.000000    0.000000    0.000000
         Rot=    1.000000    0.000000    0.000000    0.000000 Ang=   0.00 deg.
 Initial guess orbital symmetries:
       Occupied  (A') (A') (A') (A') (A") (A')
       Virtual   (A') (A") (A') (A') (A') (A') (A") (A') (A") (A')
                 (A') (A") (A') (A') (A') (A") (A') (A") (A') (A')
                 (A') (A") (A') (A') (A") (A') (A') (A') (A') (A")
                 (A") (A') (A") (A') (A') (A") (A') (A") (A') (A')
                 (A') (A") (A') (A") (A') (A") (A") (A') (A') (A')
                 (A") (A') (A") (A') (A') (A") (A') (A') (A") (A')
                 (A') (A') (A') (A') (A") (A') (A") (A') (A") (A")
                 (A') (A') (A') (A") (A") (A') (A') (A') (A') (A")
                 (A') (A") (A') (A") (A") (A') (A') (A') (A") (A")
                 (A') (A") (A') (A') (A") (A') (A") (A") (A') (A')
                 (A") (A') (A') (A") (A') (A') (A") (A') (A") (A')
                 (A') (A') (A') (A") (A") (A") (A') (A") (A') (A')
                 (A') (A") (A") (A') (A') (A') (A") (A') (A') (A')
                 (A") (A") (A') (A") (A') (A') (A") (A') (A") (A")
                 (A') (A") (A') (A") (A') (A') (A') (A") (A') (A")
                 (A') (A') (A") (A') (A") (A') (A") (A') (A') (A')
                 (A") (A') (A") (A") (A') (A') (A') (A") (A") (A')
                 (A') (A") (A') (A") (A") (A') (A") (A') (A') (A")
                 (A') (A") (A') (A") (A') (A') (A") (A') (A") (A")
                 (A') (A') (A") (A') (A') (A') (A") (A') (A") (A")
                 (A') (A') (A') (A') (A') (A')
 Keep J ints in memory in symmetry-blocked form, NReq=382856332.
 Requested convergence on RMS density matrix=1.00D-08 within 128 cycles.
 Requested convergence on MAX density matrix=1.00D-06.
 Requested convergence on             energy=1.00D-06.
 No special actions if energy rises.
 SCF Done:  E(RPBE-PBE) =  -34.7162871968     A.U. after    1 cycles
            NFock=  1  Conv=0.12D-08     -V/T= 2.0078
 DoSCS=F DFT=T ScalE2(SS,OS)=  1.000000  1.000000
 Range of M.O.s used for correlation:     1   212
 NBasis=   212 NAE=     6 NBE=     6 NFC=     0 NFV=     0
 NROrb=    212 NOA=     6 NOB=     6 NVA=   206 NVB=   206

 **** Warning!!: The largest alpha MO coefficient is  0.42720248D+02

   2 Symmetry operations used in ECPInt.
 ECPInt:  NShTT=    2485 NPrTT=    5668 LenC2=    2486 LenP2D=    5329.
 LDataN:  DoStor=T MaxTD1= 9 Len=  602
 Symmetrizing basis deriv contribution to polar:
 IMax=3 JMax=2 DiffMx= 0.00D+00
 G2DrvN: will do     7 centers at a time, making    1 passes.
 Calling FoFCou, ICntrl=  3507 FMM=F I1Cent=   0 AccDes= 0.00D+00.
 End of G2Drv F.D. properties file   721 does not exist.
 End of G2Drv F.D. properties file   722 does not exist.
 End of G2Drv F.D. properties file   788 does not exist.
          IDoAtm=111111
          Differentiating once with respect to electric field.
                with respect to dipole field.
          Differentiating once with respect to nuclear coordinates.
 Keep J ints in memory in symmetry-blocked form, NReq=382859520.
          There are    18 degrees of freedom in the 1st order CPHF.  IDoFFX=4 NUNeed=    18.
     18 vectors produced by pass  0 Test12= 6.87D-15 5.56D-09 XBig12= 3.95D+01 2.35D+00.
 AX will form    18 AO Fock derivatives at one time.
     18 vectors produced by pass  1 Test12= 6.87D-15 5.56D-09 XBig12= 1.66D+00 3.49D-01.
     18 vectors produced by pass  2 Test12= 6.87D-15 5.56D-09 XBig12= 1.16D-02 2.30D-02.
     18 vectors produced by pass  3 Test12= 6.87D-15 5.56D-09 XBig12= 3.59D-05 1.34D-03.
     14 vectors produced by pass  4 Test12= 6.87D-15 5.56D-09 XBig12= 3.11D-08 3.34D-05.
      4 vectors produced by pass  5 Test12= 6.87D-15 5.56D-09 XBig12= 8.10D-12 7.01D-07.
      1 vectors produced by pass  6 Test12= 6.87D-15 5.56D-09 XBig12= 2.26D-15 1.17D-08.
 InvSVY:  IOpt=1 It=  1 EMax= 1.78D-15
 Solved reduced A of dimension    91 with    18 vectors.
 Isotropic polarizability for W=    0.000000       32.46 Bohr**3.
 End of Minotr F.D. properties file   721 does not exist.
 End of Minotr F.D. properties file   722 does not exist.
 End of Minotr F.D. properties file   788 does not exist.

 **********************************************************************

            Population analysis using the SCF Density.

 **********************************************************************

 Orbital symmetries:
       Occupied  (A') (A') (A') (A') (A") (A')
       Virtual   (A') (A") (A') (A') (A') (A') (A") (A') (A") (A')
                 (A') (A") (A') (A') (A') (A") (A') (A") (A') (A')
                 (A') (A") (A') (A') (A") (A') (A') (A') (A') (A")
                 (A") (A') (A") (A') (A') (A") (A') (A") (A') (A')
                 (A') (A") (A') (A") (A') (A") (A") (A') (A') (A')
                 (A") (A') (A") (A') (A') (A") (A') (A') (A") (A')
                 (A') (A') (A') (A') (A") (A') (A") (A') (A") (A")
                 (A') (A') (A') (A") (A") (A') (A') (A') (A') (A")
                 (A') (A") (A') (A") (A") (A') (A') (A') (A") (A")
                 (A') (A") (A') (A') (A") (A') (A") (A") (A') (A')
                 (A") (A') (A') (A") (A') (A') (A") (A') (A") (A')
                 (A') (A') (A') (A") (A") (A") (A') (A") (A') (A')
                 (A') (A") (A") (A') (A') (A') (A") (A') (A') (A')
                 (A") (A") (A') (A") (A') (A') (A") (A') (A") (A")
                 (A') (A") (A') (A") (A') (A') (A') (A") (A') (A")
                 (A') (A') (A") (A') (A") (A') (A") (A') (A') (A')
                 (A") (A') (A") (A") (A') (A') (A') (A") (A") (A')
                 (A') (A") (A') (A") (A") (A') (A") (A') (A') (A")
                 (A') (A") (A') (A") (A') (A') (A") (A') (A") (A")
                 (A') (A') (A") (A') (A') (A') (A") (A') (A") (A")
                 (A') (A') (A') (A') (A') (A')
 The electronic state is 1-A'.
 Alpha  occ. eigenvalues --   -6.42315  -1.88722  -0.44249  -0.25758  -0.25757
 Alpha  occ. eigenvalues --   -0.25654
 Alpha virt. eigenvalues --   -0.06182   0.00004   0.00005   0.01720   0.03654
 Alpha virt. eigenvalues --    0.05492   0.05492   0.08639   0.08652   0.08654
 Alpha virt. eigenvalues --    0.11066   0.11758   0.11759   0.13005   0.18147
 Alpha virt. eigenvalues --    0.18147   0.21094   0.21548   0.21550   0.23941
 Alpha virt. eigenvalues --    0.25289   0.25291   0.26399   0.30698   0.30880
 Alpha virt. eigenvalues --    0.30883   0.34151   0.40105   0.41769   0.41771
 Alpha virt. eigenvalues --    0.43147   0.47861   0.48808   0.48808   0.50380
 Alpha virt. eigenvalues --    0.50381   0.52431   0.56589   0.56591   0.59287
 Alpha virt. eigenvalues --    0.60795   0.60797   0.65645   0.70737   0.70738
 Alpha virt. eigenvalues --    0.71087   0.74411   0.74417   0.79597   0.87674
 Alpha virt. eigenvalues --    0.87677   0.89583   0.91235   0.91238   0.99684
 Alpha virt. eigenvalues --    1.01290   1.01291   1.06545   1.09227   1.09230
 Alpha virt. eigenvalues --    1.14806   1.16237   1.26435   1.27987   1.27988
 Alpha virt. eigenvalues --    1.29405   1.33628   1.34272   1.34275   1.42364
 Alpha virt. eigenvalues --    1.42371   1.49921   1.50168   1.50170   1.65705
 Alpha virt. eigenvalues --    1.65707   1.78754   1.93880   2.02707   2.04459
 Alpha virt. eigenvalues --    2.07225   2.07230   2.19631   2.19631   2.29626
 Alpha virt. eigenvalues --    2.29641   2.39077   2.45893   2.45895   2.53976
 Alpha virt. eigenvalues --    2.58734   2.59715   2.59717   2.65307   2.65309
 Alpha virt. eigenvalues --    2.70893   2.71355   2.73983   2.73993   2.84587
 Alpha virt. eigenvalues --    2.84596   2.85049   3.10922   3.10924   3.15011
 Alpha virt. eigenvalues --    3.18273   3.18279   3.18956   3.23471   3.23473
 Alpha virt. eigenvalues --    3.27816   3.39549   3.44961   3.44966   3.71941
 Alpha virt. eigenvalues --    3.81930   3.81938   3.84117   3.84119   4.11662
 Alpha virt. eigenvalues --    4.18258   4.18261   4.21355   4.21362   4.24766
 Alpha virt. eigenvalues --    4.43805   4.43875   4.43879   4.49487   4.70534
 Alpha virt. eigenvalues --    4.70538   4.82948   4.86718   4.90093   4.90094
 Alpha virt. eigenvalues --    5.36186   5.73183   5.73203   5.76803   5.83217
 Alpha virt. eigenvalues --    5.90437   5.90449   6.05882   6.09311   6.09332
 Alpha virt. eigenvalues --    6.18717   6.46520   6.46521   6.46571   6.51618
 Alpha virt. eigenvalues --    6.61352   6.70831   6.70840   6.76852   6.76856
 Alpha virt. eigenvalues --    6.84305   6.94062   6.94065   6.98084   6.98969
 Alpha virt. eigenvalues --    6.98971   7.21736   7.25293   7.30651   7.30654
 Alpha virt. eigenvalues --    7.37261   7.45621   7.45638   7.67094   7.67098
 Alpha virt. eigenvalues --    7.86037   7.99860   7.99864   8.10805   8.16389
 Alpha virt. eigenvalues --    8.16409   8.19960   8.19964   8.29286   8.29290
 Alpha virt. eigenvalues --    8.35586   8.42452   8.43236   8.43241   8.55114
 Alpha virt. eigenvalues --    8.59192   8.59197   8.91923   8.91926   8.97506
 Alpha virt. eigenvalues --    8.97511   8.97701   9.02636   9.07320   9.22559
 Alpha virt. eigenvalues --    9.29118   9.29122   9.36438   9.36439   9.59834
 Alpha virt. eigenvalues --    9.59836   9.71276   9.84233  11.38731  20.28492
 Alpha virt. eigenvalues --  102.77841
          Condensed to atoms (all electrons):
               1          2          3          4          5          6
     1  B    3.406812   0.464041   0.234545   0.234545   0.234452   0.163198
     2  H    0.464041   0.743101  -0.022173  -0.022173  -0.022178  -0.073752
     3  H    0.234545  -0.022173   0.842286  -0.054294  -0.054263   0.165715
     4  H    0.234545  -0.022173  -0.054294   0.842286  -0.054263   0.165715
     5  H    0.234452  -0.022178  -0.054263  -0.054263   0.842023   0.165869
     6  Li   0.163198  -0.073752   0.165715   0.165715   0.165869   2.273521
 Mulliken charges:
               1
     1  B    0.262407
     2  H   -0.066866
     3  H   -0.111816
     4  H   -0.111816
     5  H   -0.111641
     6  Li   0.139733
 Sum of Mulliken charges =  -0.00000
 Mulliken charges with hydrogens summed into heavy atoms:
               1
     1  B   -0.139733
     6  Li   0.139733
 APT charges:
               1
     1  B    0.271862
     2  H   -0.175371
     3  H   -0.264954
     4  H   -0.264954
     5  H   -0.265003
     6  Li   0.698419
 Sum of APT charges =  -0.00000
 APT charges with hydrogens summed into heavy atoms:
               1
     1  B   -0.698419
     6  Li   0.698419
 Electronic spatial extent (au):  <R**2>=             75.4544
 Charge=             -0.0000 electrons
 Dipole moment (field-independent basis, Debye):
    X=              0.0001    Y=             -5.8648    Z=             -0.0000  Tot=              5.8648
 Quadrupole moment (field-independent basis, Debye-Ang):
   XX=            -14.2264   YY=             -4.9204   ZZ=            -14.2263
   XY=             -0.0002   XZ=              0.0000   YZ=              0.0000
 Traceless Quadrupole moment (field-independent basis, Debye-Ang):
   XX=             -3.1020   YY=              6.2039   ZZ=             -3.1019
   XY=             -0.0002   XZ=              0.0000   YZ=              0.0000
 Octapole moment (field-independent basis, Debye-Ang**2):
  XXX=              0.6876  YYY=            -26.0959  ZZZ=             -0.0000  XYY=              0.0006
  XXY=             -2.9613  XXZ=             -0.0000  XZZ=             -0.6881  YZZ=             -2.9621
  YYZ=             -0.0000  XYZ=              0.0000
 Hexadecapole moment (field-independent basis, Debye-Ang**3):
 XXXX=            -35.9919 YYYY=            -37.3350 ZZZZ=            -35.9926 XXXY=             -0.0914
 XXXZ=             -0.0000 YYYX=              0.0001 YYYZ=              0.0000 ZZZX=             -0.0000
 ZZZY=             -0.0000 XXYY=            -15.4979 XXZZ=            -11.9974 YYZZ=            -15.4979
 XXYZ=             -0.0000 YYXZ=             -0.0000 ZZXY=              0.0914
 N-N= 1.735560084037D+01 E-N=-1.142610937751D+02  KE= 3.444716081201D+01
 Symmetry A'   KE= 3.317539509062D+01
 Symmetry A"   KE= 1.271765721394D+00
  Exact polarizability:      31.262       0.001      34.851      -0.000      -0.000      31.262
 Approx polarizability:      44.420       0.001      51.653      -0.000      -0.000      44.421
   2 Symmetry operations used in ECPInt.
 ECPInt:  NShTT=    2485 NPrTT=    5668 LenC2=    2486 LenP2D=    5329.
 LDataN:  DoStor=T MaxTD1=10 Len=  848
 Calling FoFJK, ICntrl=    100527 FMM=F ISym2X=1 I1Cent= 0 IOpClX= 0 NMat=1 NMatS=1 NMatT=0.
 Full mass-weighted force constant matrix:
 Low frequencies ---   -8.2942   -5.2486   -0.0006   -0.0005   -0.0002   12.8977
 Low frequencies ---  490.2715  490.3135  688.8316
 Diagonal vibrational polarizability:
        2.6528166      11.2905843       2.6528565
 Harmonic frequencies (cm**-1), IR intensities (KM/Mole), Raman scattering
 activities (A**4/AMU), depolarization ratios for plane and unpolarized
 incident light, reduced masses (AMU), force constants (mDyne/A),
 and normal coordinates:
                      1                      2                      3
                     A"                     A'                     A'
 Frequencies --    490.2713               490.3135               688.8316
 Red. masses --      1.2167                 1.2167                 4.7962
 Frc consts  --      0.1723                 0.1723                 1.3408
 IR Inten    --      4.4524                 4.4496               149.3881
  Atom  AN      X      Y      Z        X      Y      Z        X      Y      Z
     1   5     0.00   0.00  -0.09    -0.09  -0.00  -0.00     0.00  -0.31   0.00
     2   1    -0.00  -0.00   0.68     0.68   0.00   0.00    -0.00  -0.35  -0.00
     3   1     0.01  -0.40  -0.25    -0.25  -0.23   0.01    -0.01  -0.32  -0.02
     4   1    -0.01   0.40  -0.25    -0.25  -0.23  -0.01    -0.01  -0.32   0.02
     5   1     0.00  -0.00  -0.26    -0.24   0.46  -0.00     0.02  -0.32   0.00
     6   3    -0.00  -0.00   0.15     0.15   0.00   0.00    -0.00   0.68  -0.00
                      4                      5                      6
                     A"                     A'                     A'
 Frequencies --   1060.9376              1061.0216              1177.3670
 Red. masses --      1.1646                 1.1646                 1.1875
 Frc consts  --      0.7723                 0.7724                 0.9699
 IR Inten    --     23.1141                23.1211                84.5098
  Atom  AN      X      Y      Z        X      Y      Z        X      Y      Z
     1   5    -0.00   0.00  -0.12    -0.12  -0.00   0.00     0.00  -0.13  -0.00
     2   1     0.00   0.00   0.52     0.52   0.00  -0.00     0.00  -0.13   0.00
     3   1    -0.26   0.23   0.19     0.49   0.14  -0.26     0.11   0.52   0.19
     4   1     0.26  -0.23   0.19     0.49   0.14   0.26     0.11   0.52  -0.19
     5   1     0.00  -0.00   0.64     0.04  -0.27  -0.00    -0.22   0.52   0.00
     6   3    -0.00   0.00  -0.03    -0.03   0.00   0.00    -0.00   0.00  -0.00
                      7                      8                      9
                     A"                     A'                     A'
 Frequencies --   1232.3692              1232.3772              2199.4045
 Red. masses --      1.0105                 1.0105                 1.0938
 Frc consts  --      0.9042                 0.9042                 3.1174
 IR Inten    --      0.9607                 0.9566               284.9246
  Atom  AN      X      Y      Z        X      Y      Z        X      Y      Z
     1   5     0.00   0.00  -0.01    -0.01  -0.00  -0.00    -0.09  -0.00  -0.00
     2   1     0.00   0.00  -0.43    -0.43  -0.00  -0.00    -0.02  -0.00  -0.00
     3   1    -0.28  -0.47  -0.02     0.30  -0.27  -0.28     0.15  -0.14   0.35
     4   1     0.28   0.47  -0.02     0.30  -0.27   0.28     0.15  -0.14  -0.35
     5   1     0.00  -0.00   0.46    -0.18   0.55   0.00     0.76   0.28  -0.00
     6   3    -0.00   0.00   0.02     0.02  -0.00   0.00    -0.01  -0.00  -0.00
                     10                     11                     12
                     A"                     A'                     A'
 Frequencies --   2199.4988              2213.6342              2554.9401
 Red. masses --      1.0938                 1.0212                 1.1011
 Frc consts  --      3.1177                 2.9482                 4.2347
 IR Inten    --    284.8844               133.0505               108.3030
  Atom  AN      X      Y      Z        X      Y      Z        X      Y      Z
     1   5     0.00  -0.00  -0.09     0.00  -0.04   0.00     0.00  -0.10  -0.00
     2   1     0.00  -0.00  -0.02     0.00  -0.12   0.00    -0.00   0.99  -0.00
     3   1     0.35  -0.24   0.56    -0.27   0.18  -0.47    -0.02   0.01  -0.04
     4   1    -0.35   0.24   0.56    -0.27   0.18   0.47    -0.02   0.01   0.04
     5   1    -0.00  -0.00  -0.05     0.54   0.18   0.00     0.05   0.01  -0.00
     6   3     0.00  -0.00  -0.01     0.00  -0.00   0.00    -0.00   0.00  -0.00

 -------------------
 - Thermochemistry -
 -------------------
 Temperature   298.150 Kelvin.  Pressure   1.00000 Atm.
 Atom     1 has atomic number  5 and mass  11.00931
 Atom     2 has atomic number  1 and mass   1.00783
 Atom     3 has atomic number  1 and mass   1.00783
 Atom     4 has atomic number  1 and mass   1.00783
 Atom     5 has atomic number  1 and mass   1.00783
 Atom     6 has atomic number  3 and mass   7.01600
 Molecular mass:    22.05661 amu.
 Principal axes and moments of inertia in atomic units:
                           1         2         3
     Eigenvalues --    14.29465  76.85604  76.85629
           X           -0.00001   0.00000   1.00000
           Y            1.00000  -0.00000   0.00001
           Z            0.00000   1.00000  -0.00000
 This molecule is an asymmetric top.
 Rotational symmetry number  1.
 Rotational temperatures (Kelvin)      6.05919     1.12696     1.12696
 Rotational constants (GHZ):         126.25295    23.48210    23.48202
 Zero-point vibrational energy      99295.8 (Joules/Mol)
                                   23.73227 (Kcal/Mol)
 Warning -- explicit consideration of   2 degrees of freedom as
           vibrations may cause significant error
 Vibrational temperatures:    705.39   705.45   991.08  1526.45  1526.57
          (Kelvin)           1693.97  1773.10  1773.12  3164.45  3164.59
                             3184.93  3675.99
 
 Zero-point correction=                           0.037820 (Hartree/Particle)
 Thermal correction to Energy=                    0.041339
 Thermal correction to Enthalpy=                  0.042283
 Thermal correction to Gibbs Free Energy=         0.015563
 Sum of electronic and zero-point Energies=            -34.678467
 Sum of electronic and thermal Energies=               -34.674948
 Sum of electronic and thermal Enthalpies=             -34.674004
 Sum of electronic and thermal Free Energies=          -34.700724
 
                     E (Thermal)             CV                S
                      KCal/Mol        Cal/Mol-Kelvin    Cal/Mol-Kelvin
 Total                   25.941             10.593             56.237
 Electronic               0.000              0.000              0.000
 Translational            0.889              2.981             35.212
 Rotational               0.889              2.981             19.074
 Vibrational             24.163              4.631              1.951
 Vibration     1          0.846              1.272              0.683
 Vibration     2          0.846              1.272              0.683
                       Q            Log10(Q)             Ln(Q)
 Total Bot       0.694259D-07         -7.158479        -16.483006
 Total V=0       0.172743D+11         10.237399         23.572483
 Vib (Bot)       0.518380D-17        -17.285352        -39.800993
 Vib (Bot)    1  0.338112D+00         -0.470940         -1.084379
 Vib (Bot)    2  0.338070D+00         -0.470993         -1.084502
 Vib (V=0)       0.128981D+01          0.110526          0.254496
 Vib (V=0)    1  0.110359D+01          0.042807          0.098567
 Vib (V=0)    2  0.110357D+01          0.042798          0.098546
 Electronic      0.100000D+01          0.000000          0.000000
 Translational   0.407157D+07          6.609762         15.219540
 Rotational      0.328936D+04          3.517111          8.098447
 ***** Axes restored to original set *****
 -------------------------------------------------------------------
 Center     Atomic                   Forces (Hartrees/Bohr)
 Number     Number              X              Y              Z
 -------------------------------------------------------------------
      1        5           0.000001355   -0.000292473   -0.000000000
      2        1           0.000002714    0.000044028   -0.000000000
      3        1           0.000005132    0.000077588   -0.000006522
      4        1           0.000005132    0.000077588    0.000006522
      5        1          -0.000010220    0.000074288    0.000000000
      6        3          -0.000004114    0.000018980    0.000000000
 -------------------------------------------------------------------
 Cartesian Forces:  Max     0.000292473 RMS     0.000076618
 FormGI is forming the generalized inverse of G from B-inverse, IUseBI=4.

 GradGradGradGradGradGradGradGradGradGradGradGradGradGradGradGradGradGrad
 Berny optimization.
 Internal  Forces:  Max     0.000053834 RMS     0.000027948
 Search for a local minimum.
 Step number   1 out of a maximum of    2
 All quantities printed in internal units (Hartrees-Bohrs-Radians)
 Second derivative matrix not updated -- analytic derivatives used.
 ITU=  0
     Eigenvalues ---    0.01283   0.01319   0.01853   0.02297   0.03415
     Eigenvalues ---    0.04380   0.06365   0.06766   0.14187   0.14883
     Eigenvalues ---    0.15134   0.22841
 Angle between quadratic step and forces=  36.18 degrees.
 Linear search not attempted -- first point.
 Iteration  1 RMS(Cart)=  0.00035880 RMS(Int)=  0.00000040
 Iteration  2 RMS(Cart)=  0.00000021 RMS(Int)=  0.00000030
 ClnCor:  largest displacement from symmetrization is 9.06D-08 for atom     4.
 Variable       Old X    -DE/DX   Delta X   Delta X   Delta X     New X
                                 (Linear)    (Quad)   (Total)
    R1        2.26833  -0.00004   0.00000  -0.00028  -0.00028   2.26805
    R2        2.36260   0.00004   0.00000   0.00035   0.00035   2.36295
    R3        2.36260   0.00004   0.00000   0.00035   0.00035   2.36295
    R4        2.36261   0.00004   0.00000   0.00036   0.00036   2.36297
    R5        3.63244   0.00005   0.00000   0.00055   0.00055   3.63299
    R6        3.47348  -0.00001   0.00000  -0.00105  -0.00105   3.47244
    R7        3.47348  -0.00001   0.00000  -0.00105  -0.00105   3.47244
    R8        3.47250  -0.00002   0.00000  -0.00112  -0.00112   3.47139
    A1        1.97271   0.00002   0.00000   0.00071   0.00071   1.97342
    A2        1.97271   0.00003   0.00000   0.00071   0.00071   1.97342
    A3        1.97261   0.00004   0.00000   0.00069   0.00069   1.97330
    A4        1.84474  -0.00002   0.00000  -0.00080  -0.00081   1.84393
    A5        1.84470  -0.00004   0.00000  -0.00078  -0.00078   1.84392
    A6        1.84470  -0.00004   0.00000  -0.00078  -0.00078   1.84392
    A7        1.14594   0.00001   0.00000   0.00018   0.00018   1.14612
    A8        1.14610   0.00001   0.00000   0.00021   0.00021   1.14632
    A9        1.14610   0.00001   0.00000   0.00021   0.00021   1.14632
   A10        3.14177  -0.00001   0.00000   0.00002   0.00002   3.14179
   A11        3.14126   0.00001   0.00000  -0.00003  -0.00003   3.14123
    D1        2.16633   0.00003   0.00000   0.00076   0.00076   2.16710
    D2       -2.16625  -0.00002   0.00000  -0.00077  -0.00077  -2.16702
    D3        2.16625   0.00003   0.00000   0.00077   0.00077   2.16702
    D4       -1.95069   0.00005   0.00000   0.00154   0.00154  -1.94915
    D5       -0.63742   0.00001   0.00000  -0.00007  -0.00007  -0.63749
    D6        0.63732   0.00001   0.00000   0.00004   0.00004   0.63736
    D7       -0.63732  -0.00001   0.00000  -0.00004  -0.00004  -0.63736
         Item               Value     Threshold  Converged?
 Maximum Force            0.000054     0.000450     YES
 RMS     Force            0.000028     0.000300     YES
 Maximum Displacement     0.000969     0.001800     YES
 RMS     Displacement     0.000359     0.001200     YES
 Predicted change in Energy=-1.976928D-07
 Optimization completed.
    -- Stationary point found.
                           ----------------------------
                           !   Optimized Parameters   !
                           ! (Angstroms and Degrees)  !
 --------------------------                            --------------------------
 ! Name  Definition              Value          Derivative Info.                !
 --------------------------------------------------------------------------------
 ! R1    R(1,2)                  1.2004         -DE/DX =    0.0                 !
 ! R2    R(1,3)                  1.2502         -DE/DX =    0.0                 !
 ! R3    R(1,4)                  1.2502         -DE/DX =    0.0                 !
 ! R4    R(1,5)                  1.2502         -DE/DX =    0.0                 !
 ! R5    R(1,6)                  1.9222         -DE/DX =    0.0001              !
 ! R6    R(3,6)                  1.8381         -DE/DX =    0.0                 !
 ! R7    R(4,6)                  1.8381         -DE/DX =    0.0                 !
 ! R8    R(5,6)                  1.8376         -DE/DX =    0.0                 !
 ! A1    A(2,1,3)              113.0279         -DE/DX =    0.0                 !
 ! A2    A(2,1,4)              113.0279         -DE/DX =    0.0                 !
 ! A3    A(2,1,5)              113.0224         -DE/DX =    0.0                 !
 ! A4    A(3,1,4)              105.6956         -DE/DX =    0.0                 !
 ! A5    A(3,1,5)              105.6935         -DE/DX =    0.0                 !
 ! A6    A(4,1,5)              105.6935         -DE/DX =    0.0                 !
 ! A7    A(3,6,4)               65.6574         -DE/DX =    0.0                 !
 ! A8    A(3,6,5)               65.6668         -DE/DX =    0.0                 !
 ! A9    A(4,6,5)               65.6668         -DE/DX =    0.0                 !
 ! A10   L(2,1,6,3,-1)         180.0101         -DE/DX =    0.0                 !
 ! A11   L(2,1,6,3,-2)         179.9811         -DE/DX =    0.0                 !
 ! D1    D(2,1,4,3)            124.1217         -DE/DX =    0.0                 !
 ! D2    D(2,1,5,3)           -124.1168         -DE/DX =    0.0                 !
 ! D3    D(2,1,5,4)            124.1168         -DE/DX =    0.0                 !
 ! D4    D(3,1,5,4)           -111.7664         -DE/DX =    0.0001              !
 ! D5    D(4,3,6,1)            -36.5213         -DE/DX =    0.0                 !
 ! D6    D(5,3,6,1)             36.5158         -DE/DX =    0.0                 !
 ! D7    D(5,4,6,1)            -36.5158         -DE/DX =    0.0                 !
 --------------------------------------------------------------------------------
 GradGradGradGradGradGradGradGradGradGradGradGradGradGradGradGradGradGrad


 ----------------------------------------------------------------------

 Electric dipole moment (input orientation):
 (Debye = 10**-18 statcoulomb cm , SI units = C m)
                  (au)            (Debye)         (10**-30 SI)
   Tot        0.230739D+01      0.586481D+01      0.195629D+02
   x         -0.804901D-03     -0.204585D-02     -0.682423D-02
   y          0.230739D+01      0.586481D+01      0.195629D+02
   z          0.000000D+00      0.000000D+00      0.000000D+00

 Dipole polarizability, Alpha (input orientation).
 (esu units = cm**3 , SI units = C**2 m**2 J**-1)
 Alpha(0;0):
               (au)            (10**-24 esu)      (10**-40 SI)
   iso        0.324583D+02      0.480982D+01      0.535165D+01
   aniso      0.358949D+01      0.531908D+00      0.591827D+00
   xx         0.312615D+02      0.463248D+01      0.515433D+01
   yx        -0.281244D-02     -0.416760D-03     -0.463708D-03
   yy         0.348513D+02      0.516443D+01      0.574620D+01
   zx         0.000000D+00      0.000000D+00      0.000000D+00
   zy         0.000000D+00      0.000000D+00      0.000000D+00
   zz         0.312621D+02      0.463256D+01      0.515442D+01

 ----------------------------------------------------------------------

 Dipole orientation:
     5         16.62523778        -16.05687356         15.35800860
     1         16.62448453        -16.05687382         13.08967522
     1         17.71198258        -14.17341823         16.28184767
     1         17.71329635        -17.93957024         16.28184767
     1         14.45111259        -16.05763197         16.28272660
     3         16.62516865        -16.05687359         18.99045001

 Electric dipole moment (dipole orientation):
 (Debye = 10**-18 statcoulomb cm , SI units = C m)
                  (au)            (Debye)         (10**-30 SI)
   Tot        0.230739D+01      0.586481D+01      0.195629D+02
   x          0.000000D+00      0.000000D+00      0.000000D+00
   y          0.000000D+00      0.000000D+00      0.000000D+00
   z          0.230739D+01      0.586481D+01      0.195629D+02

 Dipole polarizability, Alpha (dipole orientation).
 (esu units = cm**3 , SI units = C**2 m**2 J**-1)
 Alpha(0;0):
               (au)            (10**-24 esu)      (10**-40 SI)
   iso        0.324583D+02      0.480982D+01      0.535165D+01
   aniso      0.358949D+01      0.531908D+00      0.591827D+00
   xx         0.312615D+02      0.463248D+01      0.515433D+01
   yx         0.000000D+00      0.000000D+00      0.000000D+00
   yy         0.312621D+02      0.463256D+01      0.515442D+01
   zx        -0.156021D-02     -0.231199D-03     -0.257243D-03
   zy         0.000000D+00      0.000000D+00      0.000000D+00
   zz         0.348513D+02      0.516443D+01      0.574620D+01

 ----------------------------------------------------------------------
 Unable to Open any file for archive entry.
 1\1\GINC-TCOPT10\Freq\RPBEPBE\def2QZVPP\B1H4Li1\HUTTER\30-Jul-2021\0\\
 #N Geom=AllCheck Guess=TCheck SCRF=Check GenChk RPBEPBE/def2QZVPP Freq
 \\Mol job 1\\0,1\B,8.7918968356,8.1301755761,8.5\H,8.791916954,6.92982
 5181,8.5\H,9.3671544881,8.619250857,7.5035190304\H,9.3671544881,8.6192
 50857,9.4964809696\H,7.6412286297,8.619113907,8.5\Li,8.7911897197,10.0
 52380659,8.5\\Version=ES64L-G16RevC.01\State=1-A'\HF=-34.7162872\RMSD=
 1.180e-09\RMSF=7.662e-05\ZeroPoint=0.0378198\Thermal=0.041339\ETot=-34
 .6749482\HTot=-34.674004\GTot=-34.7007242\Dipole=-0.0008049,2.3073928,
 0.\DipoleDeriv=0.2759815,0.0000569,0.,-0.0000877,0.2636871,0.,0.,0.,0.
 2759182,-0.1126958,-0.0000384,0.,0.0000333,-0.3007259,0.,0.,0.,-0.1126
 921,-0.1824087,-0.0758035,0.1371735,-0.0794343,-0.2715747,0.13769,0.13
 71542,0.1314005,-0.3408777,-0.1824087,-0.0758035,-0.1371735,-0.0794343
 ,-0.2715747,-0.13769,-0.1371542,-0.1314005,-0.3408777,-0.4201867,0.151
 7153,0.,0.1590776,-0.2715679,0.,0.,0.,-0.1032534,0.6217183,-0.0001267,
 0.,-0.0001546,0.8517562,0.,0.,0.,0.6217826\Polar=31.2615431,-0.0028124
 ,34.8512844,0.,0.,31.2620502\Quadrupole=-2.3062665,4.6124695,-2.306203
 1,-0.0023787,0.,0.\PG=CS [SG(B1H2Li1),X(H2)]\NImag=0\\0.24939694,-0.00
 000222,0.42337235,0.,0.,0.24940331,-0.02475555,0.00000067,0.,0.0240670
 7,0.00000557,-0.21647192,0.,-0.00000553,0.22808834,0.,0.,-0.02475479,0
 .,0.,0.02406674,-0.05076293,-0.01837722,0.04587515,0.00006041,-0.00018
 081,-0.00075693,0.06083418,-0.02030215,-0.04613864,0.03517167,-0.00859
 458,-0.00424258,0.01488682,0.02099190,0.05323971,0.04587142,0.03183103
 ,-0.10374457,-0.00075559,0.00031361,0.00093192,-0.05633156,-0.03637071
 ,0.12589641,-0.05076293,-0.01837722,-0.04587515,0.00006041,-0.00018081
 ,0.00075693,0.00466286,0.00317499,0.00776179,0.06083418,-0.02030215,-0
 .04613864,-0.03517167,-0.00859458,-0.00424258,-0.01488682,0.00317499,0
 .00171369,0.00310101,0.02099190,0.05323971,-0.04587142,-0.03183103,-0.
 10374457,0.00075559,-0.00031361,0.00093192,-0.00776179,-0.00310101,-0.
 01574088,0.05633156,0.03637071,0.12589641,-0.13023783,0.03675643,0.,0.
 00136730,0.00036170,0.,-0.01064503,0.00109632,0.00107607,-0.01064503,0
 .00109632,-0.00107607,0.15840260,0.04059741,-0.04611351,0.,0.01719013,
 -0.00424235,0.,-0.00427076,0.00171027,-0.00119970,-0.00427076,0.001710
 27,0.00119970,-0.04198508,0.05325045,0.,0.,-0.02427968,0.,0.,-0.000377
 02,0.01659908,-0.00430007,-0.00044063,-0.01659908,0.00430007,-0.000440
 63,0.,0.,0.02831369,0.00712230,-0.00000043,0.,-0.00079964,-0.00000012,
 0.,-0.00414950,0.00363351,0.00237787,-0.00414950,0.00363351,-0.0023778
 7,-0.00824202,-0.00726094,0.,0.01021835,0.00000353,-0.06850964,0.,0.00
 000389,0.00111108,0.,-0.00133809,-0.00628245,0.00232477,-0.00133809,-0
 .00628245,-0.00232477,0.00267430,-0.00631513,0.,-0.00000554,0.08627859
 ,0.,0.,0.00712030,0.,0.,-0.00079877,0.00237606,-0.00628669,-0.00690225
 ,-0.00237606,0.00628669,-0.00690225,0.,0.,-0.00277572,0.,0.,0.01025868
 \\-0.00000136,0.00029247,0.,-0.00000271,-0.00004403,0.,-0.00000513,-0.
 00007759,0.00000652,-0.00000513,-0.00007759,-0.00000652,0.00001022,-0.
 00007429,0.,0.00000411,-0.00001898,0.\\\@
 The archive entry for this job was punched.


 I CLAIM NOT TO HAVE CONTROLLED EVENTS,
 BUT CONFESS PLAINLY THAT EVENTS HAVE CONTROLLED ME.

                                         A. LINCOLN
 Job cpu time:       0 days  0 hours 11 minutes  0.3 seconds.
 Elapsed time:       0 days  0 hours  1 minutes 23.0 seconds.
 File lengths (MBytes):  RWF=     22 Int=      0 D2E=      0 Chk=      5 Scr=      1
 Normal termination of Gaussian 16 at Fri Jul 30 16:07:03 2021.
