 Entering Gaussian System, Link 0=g16
 Initial command:
 /sw-ng/spack/opt/spack/linux-opensuse_leap15-sandybridge/pgi-18.10/gaussian-src-16-C.01-zldqaomctopxhethwccpmxmwefdscg3m/g16/l1.exe "/data/hutter/SMG16/PBE/Gau-19182.inp" -scrdir="/data/hutter/SMG16/PBE/"
 Entering Link 1 = /sw-ng/spack/opt/spack/linux-opensuse_leap15-sandybridge/pgi-18.10/gaussian-src-16-C.01-zldqaomctopxhethwccpmxmwefdscg3m/g16/l1.exe PID=     19183.
  
 Copyright (c) 1988-2019, Gaussian, Inc.  All Rights Reserved.
  
 This is part of the Gaussian(R) 16 program.  It is based on
 the Gaussian(R) 09 system (copyright 2009, Gaussian, Inc.),
 the Gaussian(R) 03 system (copyright 2003, Gaussian, Inc.),
 the Gaussian(R) 98 system (copyright 1998, Gaussian, Inc.),
 the Gaussian(R) 94 system (copyright 1995, Gaussian, Inc.),
 the Gaussian 92(TM) system (copyright 1992, Gaussian, Inc.),
 the Gaussian 90(TM) system (copyright 1990, Gaussian, Inc.),
 the Gaussian 88(TM) system (copyright 1988, Gaussian, Inc.),
 the Gaussian 86(TM) system (copyright 1986, Carnegie Mellon
 University), and the Gaussian 82(TM) system (copyright 1983,
 Carnegie Mellon University). Gaussian is a federally registered
 trademark of Gaussian, Inc.
  
 This software contains proprietary and confidential information,
 including trade secrets, belonging to Gaussian, Inc.
  
 This software is provided under written license and may be
 used, copied, transmitted, or stored only in accord with that
 written license.
  
 The following legend is applicable only to US Government
 contracts under FAR:
  
                    RESTRICTED RIGHTS LEGEND
  
 Use, reproduction and disclosure by the US Government is
 subject to restrictions as set forth in subparagraphs (a)
 and (c) of the Commercial Computer Software - Restricted
 Rights clause in FAR 52.227-19.
  
 Gaussian, Inc.
 340 Quinnipiac St., Bldg. 40, Wallingford CT 06492
  
  
 ---------------------------------------------------------------
 Warning -- This program may not be used in any manner that
 competes with the business of Gaussian, Inc. or will provide
 assistance to any competitor of Gaussian, Inc.  The licensee
 of this program is prohibited from giving any competitor of
 Gaussian, Inc. access to this program.  By using this program,
 the user acknowledges that Gaussian, Inc. is engaged in the
 business of creating and licensing software in the field of
 computational chemistry and represents and warrants to the
 licensee that it is not a competitor of Gaussian, Inc. and that
 it will not use this program in any manner prohibited above.
 ---------------------------------------------------------------
  

 Cite this work as:
 Gaussian 16, Revision C.01,
 M. J. Frisch, G. W. Trucks, H. B. Schlegel, G. E. Scuseria, 
 M. A. Robb, J. R. Cheeseman, G. Scalmani, V. Barone, 
 G. A. Petersson, H. Nakatsuji, X. Li, M. Caricato, A. V. Marenich, 
 J. Bloino, B. G. Janesko, R. Gomperts, B. Mennucci, H. P. Hratchian, 
 J. V. Ortiz, A. F. Izmaylov, J. L. Sonnenberg, D. Williams-Young, 
 F. Ding, F. Lipparini, F. Egidi, J. Goings, B. Peng, A. Petrone, 
 T. Henderson, D. Ranasinghe, V. G. Zakrzewski, J. Gao, N. Rega, 
 G. Zheng, W. Liang, M. Hada, M. Ehara, K. Toyota, R. Fukuda, 
 J. Hasegawa, M. Ishida, T. Nakajima, Y. Honda, O. Kitao, H. Nakai, 
 T. Vreven, K. Throssell, J. A. Montgomery, Jr., J. E. Peralta, 
 F. Ogliaro, M. J. Bearpark, J. J. Heyd, E. N. Brothers, K. N. Kudin, 
 V. N. Staroverov, T. A. Keith, R. Kobayashi, J. Normand, 
 K. Raghavachari, A. P. Rendell, J. C. Burant, S. S. Iyengar, 
 J. Tomasi, M. Cossi, J. M. Millam, M. Klene, C. Adamo, R. Cammi, 
 J. W. Ochterski, R. L. Martin, K. Morokuma, O. Farkas, 
 J. B. Foresman, and D. J. Fox, Gaussian, Inc., Wallingford CT, 2019.
 
 ******************************************
 Gaussian 16:  ES64L-G16RevC.01  3-Jul-2019
                31-Jul-2021 
 ******************************************
 %mem=8GB
 %NProcShare=8
 Will use up to    8 processors via shared memory.
 -------------------------------------------------------------------
 #N RPBEPBE/Def2QZVPP scf=tight scf=XQC Int(Grid=ultrafine) OPT FREQ
 -------------------------------------------------------------------
 1/18=20,19=15,26=4,38=1/1,3;
 2/9=110,12=2,17=6,18=5,40=1/2;
 3/5=45,7=202,11=2,25=1,30=1,71=1,74=1009,75=-5,116=1/1,2,3;
 4//1;
 5/5=2,8=3,13=1,32=2,38=5/2,8;
 6/7=2,8=2,9=2,10=2,28=1/1;
 7//1,2,3,16;
 1/18=20,19=15,26=4/3(2);
 2/9=110/2;
 99//99;
 2/9=110/2;
 3/5=45,7=202,11=2,25=1,30=1,71=1,74=1009,75=-5,116=1/1,2,3;
 4/5=5,16=3,69=1/1;
 5/5=2,8=3,13=1,32=2,38=5/2,8;
 7//1,2,3,16;
 1/18=20,19=15,26=4/3(-5);
 2/9=110/2;
 6/7=2,8=2,9=2,10=2,19=2,28=1/1;
 99/9=1/99;
 ---------
 Mol job 1
 ---------
 Symbolic Z-matrix:
 Charge =  0 Multiplicity = 1
 S                     8.        8.        7.03269 
 S                     8.        8.        8.96731 
 

 GradGradGradGradGradGradGradGradGradGradGradGradGradGradGradGradGradGrad
 Berny optimization.
 Initialization pass.
                           ----------------------------
                           !    Initial Parameters    !
                           ! (Angstroms and Degrees)  !
 --------------------------                            --------------------------
 ! Name  Definition              Value          Derivative Info.                !
 --------------------------------------------------------------------------------
 ! R1    R(1,2)                  1.9346         estimate D2E/DX2                !
 --------------------------------------------------------------------------------
 Trust Radius=3.00D-01 FncErr=1.00D-07 GrdErr=1.00D-06 EigMax=2.50D+02 EigMin=1.00D-04
 Number of steps in this run=     20 maximum allowed number of steps=    100.
 GradGradGradGradGradGradGradGradGradGradGradGradGradGradGradGradGradGrad

                          Input orientation:                          
 ---------------------------------------------------------------------
 Center     Atomic      Atomic             Coordinates (Angstroms)
 Number     Number       Type             X           Y           Z
 ---------------------------------------------------------------------
      1         16           0        8.000000    8.000000    7.032689
      2         16           0        8.000000    8.000000    8.967311
 ---------------------------------------------------------------------
 Stoichiometry    S2
 Framework group  D*H[C*(S.S)]
 Deg. of freedom     1
 Full point group                 D*H     NOp   8
 Largest Abelian subgroup         D2H     NOp   8
 Largest concise Abelian subgroup C2      NOp   2
                         Standard orientation:                         
 ---------------------------------------------------------------------
 Center     Atomic      Atomic             Coordinates (Angstroms)
 Number     Number       Type             X           Y           Z
 ---------------------------------------------------------------------
      1         16           0        0.000000    0.000000    0.967311
      2         16           0        0.000000    0.000000   -0.967311
 ---------------------------------------------------------------------
 Rotational constants (GHZ):           0.0000000           8.4466501           8.4466501
 Standard basis: def2QZVPP (5D, 7F)
 There are    39 symmetry adapted cartesian basis functions of AG  symmetry.
 There are     9 symmetry adapted cartesian basis functions of B1G symmetry.
 There are    19 symmetry adapted cartesian basis functions of B2G symmetry.
 There are    19 symmetry adapted cartesian basis functions of B3G symmetry.
 There are     9 symmetry adapted cartesian basis functions of AU  symmetry.
 There are    39 symmetry adapted cartesian basis functions of B1U symmetry.
 There are    19 symmetry adapted cartesian basis functions of B2U symmetry.
 There are    19 symmetry adapted cartesian basis functions of B3U symmetry.
 There are    30 symmetry adapted basis functions of AG  symmetry.
 There are     8 symmetry adapted basis functions of B1G symmetry.
 There are    16 symmetry adapted basis functions of B2G symmetry.
 There are    16 symmetry adapted basis functions of B3G symmetry.
 There are     8 symmetry adapted basis functions of AU  symmetry.
 There are    30 symmetry adapted basis functions of B1U symmetry.
 There are    16 symmetry adapted basis functions of B2U symmetry.
 There are    16 symmetry adapted basis functions of B3U symmetry.
   140 basis functions,   242 primitive gaussians,   172 cartesian basis functions
    16 alpha electrons       16 beta electrons
       nuclear repulsion energy        70.0237140966 Hartrees.
 NAtoms=    2 NActive=    2 NUniq=    1 SFac= 4.00D+00 NAtFMM=   60 NAOKFM=F Big=F
 Integral buffers will be    131072 words long.
 Raffenetti 2 integral format.
 Two-electron integral symmetry is turned on.
 One-electron integrals computed using PRISM.
   8 Symmetry operations used in ECPInt.
 ECPInt:  NShTT=     990 NPrTT=    3557 LenC2=     976 LenP2D=    3000.
 LDataN:  DoStor=T MaxTD1= 8 Len=  415
 NBasis=   140 RedAO= T EigKep=  2.56D-04  NBF=    30     8    16    16     8    30    16    16
 NBsUse=   140 1.00D-06 EigRej= -1.00D+00 NBFU=    30     8    16    16     8    30    16    16
 ExpMin= 8.07D-02 ExpMax= 1.27D+06 ExpMxC= 1.45D+03 IAcc=3 IRadAn=         5 AccDes= 0.00D+00
 Harris functional with IExCor= 1009 and IRadAn=       5 diagonalized for initial guess.
 HarFok:  IExCor= 1009 AccDes= 0.00D+00 IRadAn=         5 IDoV= 1 UseB2=F ITyADJ=14
 ICtDFT=  3500011 ScaDFX=  1.000000  1.000000  1.000000  1.000000
 FoFCou: FMM=F IPFlag=           0 FMFlag=      100000 FMFlg1=           0
         NFxFlg=           0 DoJE=T BraDBF=F KetDBF=T FulRan=T
         wScrn=  0.000000 ICntrl=       500 IOpCl=  0 I1Cent=   200000004 NGrid=           0
         NMat0=    1 NMatS0=      1 NMatT0=    0 NMatD0=    1 NMtDS0=    0 NMtDT0=    0
 Petite list used in FoFCou.
 Initial guess orbital symmetries:
       Occupied  (SGU) (SGG) (SGG) (SGU) (SGG) (SGU) (PIU) (PIU)
                 (PIG) (PIG) (SGG) (SGU) (SGG) (PIU) (PIU) (PIG)
       Virtual   (PIG) (SGU) (SGG) (SGU) (PIU) (PIU) (SGG) (DLTG)
                 (DLTG) (PIG) (PIG) (PIU) (PIU) (DLTU) (DLTU) (SGU)
                 (SGG) (PIG) (PIG) (SGU) (SGG) (PIU) (PIU) (DLTG)
                 (DLTG) (DLTG) (DLTG) (PIU) (PIU) (PHIU) (PHIU)
                 (DLTU) (DLTU) (SGG) (PIG) (PIG) (PIG) (PIG) (SGU)
                 (PHIG) (PHIG) (SGU) (PIU) (PIU) (DLTU) (DLTU)
                 (SGU) (SGG) (PIG) (PIG) (SGG) (SGU) (DLTG) (DLTG)
                 (PIU) (PIU) (DLTU) (DLTU) (SGG) (PIU) (PIU) (DLTG)
                 (DLTG) (PHIU) (PHIU) (PIG) (PIG) (?A) (?A) (SGG)
                 (?B) (?B) (PHIG) (PHIG) (PHIU) (PHIU) (SGU) (DLTG)
                 (DLTG) (PHIG) (PHIG) (DLTU) (DLTU) (SGU) (PIG)
                 (PIG) (PIU) (PIU) (SGG) (SGU) (PIG) (PIG) (DLTU)
                 (DLTU) (PIU) (PIU) (SGG) (PIG) (PIG) (SGU) (SGG)
                 (SGU) (DLTG) (DLTG) (PIU) (PIU) (DLTU) (DLTU)
                 (PIG) (PIG) (SGG) (SGU) (SGG) (SGU) (PIU) (PIU)
                 (PIG) (PIG) (SGG) (SGU) (SGG) (SGU) (SGG) (SGU)
 Keep J ints in memory in symmetry-blocked form, NReq=57847010.
 Requested convergence on RMS density matrix=1.00D-08 within  32 cycles.
 Requested convergence on MAX density matrix=1.00D-06.
 Requested convergence on             energy=1.00D-06.
 No special actions if energy rises.
 Integral accuracy reduced to 1.0D-05 until final iterations.
 Rare condition: small coef for last iteration:  0.000D+00
 Rare condition: small coef for last iteration:  0.000D+00
 EnCoef did   100 forward-backward iterations
 EnCoef did   100 forward-backward iterations
 Rare condition: small coef for last iteration:  0.333D-14
 Failed to achieve initial convergence to 1.0D-08 in 10 cycles.
 Switch to full accuracy anyway.
 Rare condition: small coef for last iteration:  0.000D+00
 EnCoef did   100 forward-backward iterations
 EnCoef did   100 forward-backward iterations
 Rare condition: small coef for last iteration:  0.759D-15
 EnCoef did   100 forward-backward iterations
 Rare condition: small coef for last iteration:  0.000D+00
 EnCoef did   100 forward-backward iterations
 Rare condition: small coef for last iteration:  0.000D+00
 EnCoef did   100 forward-backward iterations
 EnCoef did   100 forward-backward iterations
 Rare condition: small coef for last iteration: -0.647D-15
 EnCoef did   100 forward-backward iterations
 EnCoef did   100 forward-backward iterations
 Rare condition: small coef for last iteration:  0.146D-14
 EnCoef did   100 forward-backward iterations
 EnCoef did   100 forward-backward iterations
 EnCoef did   100 forward-backward iterations
 EnCoef did   100 forward-backward iterations
 Rare condition: small coef for last iteration:  0.222D-15
 EnCoef did   100 forward-backward iterations
 EnCoef did   100 forward-backward iterations
 Rare condition: small coef for last iteration:  0.675D-15
 EnCoef did   100 forward-backward iterations
 Rare condition: small coef for last iteration:  0.000D+00
 EnCoef did   100 forward-backward iterations
 EnCoef did   100 forward-backward iterations
 >>>>>>>>>> Convergence criterion not met.
 SCF Done:  E(RPBE-PBE) =  -796.048324469     A.U. after   33 cycles
            NFock= 32  Conv=0.61D-02     -V/T= 2.0014
 Keep J ints in memory in symmetry-blocked form, NReq=57847410.
 Gradient too large for Newton-Raphson -- use scaled steepest descent instead.
     Accept linear search using points  3 and  4.
 Gradient too large for Newton-Raphson -- use scaled steepest descent instead.
     Minimum is close to point  2 DX=  3.22D-02 DF= -5.40D-07 DXR=  6.04D-02 DFR=  3.67D-03 which will be used.
 LinEq1:  Iter=  0 NonCon=     1 RMS=7.96D-05 Max=1.31D-03 NDo=     1
 AX will form     1 AO Fock derivatives at one time.
 LinEq1:  Iter=  1 NonCon=     1 RMS=4.72D-05 Max=1.03D-03 NDo=     1
 LinEq1:  Iter=  2 NonCon=     1 RMS=7.59D-06 Max=1.53D-04 NDo=     1
 LinEq1:  Iter=  3 NonCon=     1 RMS=2.08D-06 Max=3.83D-05 NDo=     1
 LinEq1:  Iter=  4 NonCon=     1 RMS=2.45D-07 Max=5.85D-06 NDo=     1
 LinEq1:  Iter=  5 NonCon=     1 RMS=9.82D-09 Max=1.53D-07 NDo=     1
 LinEq1:  Iter=  6 NonCon=     0 RMS=1.37D-09 Max=1.93D-08 NDo=     1
 Linear equations converged to 6.299D-09 6.299D-08 after     6 iterations.
     Accept linear search using points  1 and  2.
     Minimum is close to point  2 DX= -2.72D-04 DF= -1.36D-12 DXR=  2.72D-04 DFR=  7.33D-08 which will be used.
 LinEq1:  Iter=  0 NonCon=     1 RMS=2.92D-08 Max=5.02D-07 NDo=     1
 LinEq1:  Iter=  1 NonCon=     1 RMS=8.16D-09 Max=1.73D-07 NDo=     1
 LinEq1:  Iter=  2 NonCon=     1 RMS=3.45D-09 Max=6.26D-08 NDo=     1
 LinEq1:  Iter=  3 NonCon=     1 RMS=1.11D-09 Max=2.09D-08 NDo=     1
 LinEq1:  Iter=  4 NonCon=     1 RMS=7.93D-11 Max=1.28D-09 NDo=     1
 LinEq1:  Iter=  5 NonCon=     0 RMS=5.44D-12 Max=8.67D-11 NDo=     1
 Linear equations converged to 2.301D-11 2.301D-10 after     5 iterations.
 SCF Done:  E(RPBE-PBE) =  -796.050962340     a.u. after    5 cycles
            Convg  =    0.1732D-09                    20 Fock formations.
              S**2 =  0.0000                  -V/T =  2.0015

 **********************************************************************

            Population analysis using the SCF Density.

 **********************************************************************

 Orbital symmetries:
       Occupied  (SGU) (SGG) (SGG) (SGU) (PIU) (PIG) (SGG) (SGU)
                 (PIU) (PIG) (SGG) (SGU) (SGG) (PIU) (PIU) (PIG)
       Virtual   (PIG) (SGU) (?A) (SGU) (PIU) (PIU) (?A) (?A) (?A)
                 (PIU) (PIG) (PIG) (PIU) (?B) (?B) (?B) (SGG) (PIG)
                 (PIG) (SGU) (?C) (?D) (?C) (?D) (?D) (?C) (?D)
                 (?D) (?C) (?E) (?E) (?C) (?C) (?F) (?D) (?F) (PIG)
                 (PIG) (?E) (?F) (?F) (?G) (PIU) (PIU) (?G) (?G)
                 (?G) (SGG) (PIG) (PIG) (SGG) (?H) (DLTG) (DLTG)
                 (PIU) (PIU) (?H) (?H) (?H) (?H) (?H) (?H) (?H)
                 (PIG) (?H) (?H) (PIG) (?H) (?H) (?H) (?H) (?H)
                 (PHIG) (PHIG) (PHIU) (PHIU) (?G) (?H) (?H) (PHIG)
                 (PHIG) (?G) (?G) (PIG) (?G) (PIG) (PIU) (PIU)
                 (SGG) (PIG) (?H) (PIG) (PIU) (?H) (?H) (PIU) (SGG)
                 (PIG) (PIG) (SGU) (SGG) (SGU) (DLTG) (DLTG) (PIU)
                 (DLTU) (DLTU) (PIU) (PIG) (PIG) (SGG) (SGU) (SGG)
                 (SGU) (PIU) (PIU) (PIG) (PIG) (SGG) (SGU) (SGG)
                 (SGU) (SGG) (SGU)
 Unable to determine electronic state:  partially filled degenerate orbitals.
 Alpha  occ. eigenvalues --  -88.10341 -88.10341  -7.72783  -7.72772  -5.75217
 Alpha  occ. eigenvalues --   -5.75212  -5.74828  -5.74768  -5.73648  -5.73643
 Alpha  occ. eigenvalues --   -0.75292  -0.56061  -0.35747  -0.33348  -0.30820
 Alpha  occ. eigenvalues --   -0.18531
 Alpha virt. eigenvalues --   -0.20963  -0.05012   0.08528   0.10749   0.10779
 Alpha virt. eigenvalues --    0.11876   0.13711   0.15549   0.15815   0.16860
 Alpha virt. eigenvalues --    0.17375   0.18135   0.18798   0.28023   0.28159
 Alpha virt. eigenvalues --    0.34103   0.38959   0.44933   0.46420   0.55771
 Alpha virt. eigenvalues --    0.76380   0.77295   0.77987   0.82828   0.83008
 Alpha virt. eigenvalues --    0.87560   0.88753   0.88860   0.89205   0.89713
 Alpha virt. eigenvalues --    0.89786   0.90171   0.90300   0.93943   0.94335
 Alpha virt. eigenvalues --    0.95735   0.97965   0.99457   1.01059   1.04975
 Alpha virt. eigenvalues --    1.04979   1.17885   1.19679   1.21674   1.29710
 Alpha virt. eigenvalues --    1.29769   1.33153   1.39903   1.65297   1.66815
 Alpha virt. eigenvalues --    1.74034   2.17361   2.42457   2.42546   2.45648
 Alpha virt. eigenvalues --    2.47400   2.54424   2.54583   2.55746   2.61955
 Alpha virt. eigenvalues --    2.63881   2.64742   2.65030   2.66973   2.68393
 Alpha virt. eigenvalues --    2.68427   2.69080   2.82600   2.82602   2.84956
 Alpha virt. eigenvalues --    2.88497   2.88499   3.00097   3.00107   3.00457
 Alpha virt. eigenvalues --    3.00472   3.05493   3.06743   3.06862   3.12561
 Alpha virt. eigenvalues --    3.12578   3.12985   3.13038   3.25971   3.26399
 Alpha virt. eigenvalues --    3.27973   3.29201   3.31556   3.36438   3.45489
 Alpha virt. eigenvalues --    3.45813   3.47586   3.56548   3.58196   3.58412
 Alpha virt. eigenvalues --    3.58700   4.02812   4.29167   4.31082   5.41967
 Alpha virt. eigenvalues --    6.65976   7.11308   8.40740   8.40792   8.45219
 Alpha virt. eigenvalues --    8.46662   8.46725   8.46833   8.68629   8.70282
 Alpha virt. eigenvalues --    8.91134   9.03509  23.62532  24.16455  28.27667
 Alpha virt. eigenvalues --   28.28856  28.32549  28.33740  28.36746  28.90843
 Alpha virt. eigenvalues --   82.91837  83.43357 448.72316 449.59265
          Condensed to atoms (all electrons):
               1          2
     1  S   15.725269   0.274731
     2  S    0.274731  15.725269
 Mulliken charges:
               1
     1  S    0.000000
     2  S    0.000000
 Sum of Mulliken charges =   0.00000
 Mulliken charges with hydrogens summed into heavy atoms:
               1
     1  S    0.000000
     2  S    0.000000
 Electronic spatial extent (au):  <R**2>=            163.5852
 Charge=             -0.0000 electrons
 Dipole moment (field-independent basis, Debye):
    X=              0.0000    Y=              0.0000    Z=             -0.0000  Tot=              0.0000
 Quadrupole moment (field-independent basis, Debye-Ang):
   XX=            -28.4094   YY=            -23.6315   ZZ=            -24.1688
   XY=              0.0000   XZ=              0.0000   YZ=              0.0000
 Traceless Quadrupole moment (field-independent basis, Debye-Ang):
   XX=             -3.0062   YY=              1.7718   ZZ=              1.2344
   XY=              0.0000   XZ=              0.0000   YZ=              0.0000
 Octapole moment (field-independent basis, Debye-Ang**2):
  XXX=              0.0000  YYY=              0.0000  ZZZ=             -0.0000  XYY=              0.0000
  XXY=              0.0000  XXZ=             -0.0000  XZZ=              0.0000  YZZ=              0.0000
  YYZ=             -0.0000  XYZ=              0.0000
 Hexadecapole moment (field-independent basis, Debye-Ang**3):
 XXXX=            -41.0835 YYYY=            -29.0871 ZZZZ=           -165.2438 XXXY=              0.0000
 XXXZ=              0.0000 YYYX=              0.0000 YYYZ=              0.0000 ZZZX=              0.0000
 ZZZY=              0.0000 XXYY=            -11.7291 XXZZ=            -40.7084 YYZZ=            -31.2583
 XXYZ=              0.0000 YYXZ=              0.0000 ZZXY=              0.0000
 N-N= 7.002371409664D+01 E-N=-2.033706488432D+03  KE= 7.948796204019D+02
 Symmetry AG   KE= 3.233599474623D+02
 Symmetry B1G  KE= 5.363993815593D-34
 Symmetry B2G  KE= 3.932942607028D+01
 Symmetry B3G  KE= 3.512837887415D+01
 Symmetry AU   KE= 6.034083530332D-33
 Symmetry B1U  KE= 3.197376994581D+02
 Symmetry B2U  KE= 3.865616476615D+01
 Symmetry B3U  KE= 3.866800377092D+01
   8 Symmetry operations used in ECPInt.
 ECPInt:  NShTT=     990 NPrTT=    3557 LenC2=     976 LenP2D=    3000.
 LDataN:  DoStor=T MaxTD1= 9 Len=  602
 Calling FoFJK, ICntrl=      2527 FMM=F ISym2X=1 I1Cent= 0 IOpClX= 0 NMat=1 NMatS=1 NMatT=0.
 ***** Axes restored to original set *****
 -------------------------------------------------------------------
 Center     Atomic                   Forces (Hartrees/Bohr)
 Number     Number              X              Y              Z
 -------------------------------------------------------------------
      1       16          -0.000000000    0.000000000    0.011589718
      2       16           0.000000000   -0.000000000   -0.011589718
 -------------------------------------------------------------------
 Cartesian Forces:  Max     0.011589718 RMS     0.006691327

 GradGradGradGradGradGradGradGradGradGradGradGradGradGradGradGradGradGrad
 Berny optimization.
 FormGI is forming the generalized inverse of G from B-inverse, IUseBI=4.
 Internal  Forces:  Max     0.011589718 RMS     0.011589718
 Search for a local minimum.
 Step number   1 out of a maximum of   20
 All quantities printed in internal units (Hartrees-Bohrs-Radians)
 Mixed Optimization -- RFO/linear search
 Second derivative matrix not updated -- first step.
 The second derivative matrix:
                          R1
           R1           0.43309
 ITU=  0
     Eigenvalues ---    0.43309
 RFO step:  Lambda=-3.09926707D-04 EMin= 4.33087939D-01
 Linear search not attempted -- first point.
 Iteration  1 RMS(Cart)=  0.01890911 RMS(Int)=  0.00000000
 Iteration  2 RMS(Cart)=  0.00000000 RMS(Int)=  0.00000000
 ClnCor:  largest displacement from symmetrization is 0.00D+00 for atom     0.
 Variable       Old X    -DE/DX   Delta X   Delta X   Delta X     New X
                                 (Linear)    (Quad)   (Total)
    R1        3.65590  -0.01159   0.00000  -0.02674  -0.02674   3.62916
         Item               Value     Threshold  Converged?
 Maximum Force            0.011590     0.000450     NO 
 RMS     Force            0.011590     0.000300     NO 
 Maximum Displacement     0.013371     0.001800     NO 
 RMS     Displacement     0.018909     0.001200     NO 
 Predicted change in Energy=-1.550742D-04
 GradGradGradGradGradGradGradGradGradGradGradGradGradGradGradGradGradGrad

                          Input orientation:                          
 ---------------------------------------------------------------------
 Center     Atomic      Atomic             Coordinates (Angstroms)
 Number     Number       Type             X           Y           Z
 ---------------------------------------------------------------------
      1         16           0        8.000000    8.000000    7.039765
      2         16           0        8.000000    8.000000    8.960235
 ---------------------------------------------------------------------
 Stoichiometry    S2
 Framework group  D*H[C*(S.S)]
 Deg. of freedom     1
 Full point group                 D*H     NOp   8
 Largest Abelian subgroup         D2H     NOp   8
 Largest concise Abelian subgroup C2      NOp   2
                         Standard orientation:                         
 ---------------------------------------------------------------------
 Center     Atomic      Atomic             Coordinates (Angstroms)
 Number     Number       Type             X           Y           Z
 ---------------------------------------------------------------------
      1         16           0        0.000000    0.000000    0.960235
      2         16           0        0.000000    0.000000   -0.960235
 ---------------------------------------------------------------------
 Rotational constants (GHZ):           0.0000000           8.5715872           8.5715872
 Standard basis: def2QZVPP (5D, 7F)
 There are    39 symmetry adapted cartesian basis functions of AG  symmetry.
 There are     9 symmetry adapted cartesian basis functions of B1G symmetry.
 There are    19 symmetry adapted cartesian basis functions of B2G symmetry.
 There are    19 symmetry adapted cartesian basis functions of B3G symmetry.
 There are     9 symmetry adapted cartesian basis functions of AU  symmetry.
 There are    39 symmetry adapted cartesian basis functions of B1U symmetry.
 There are    19 symmetry adapted cartesian basis functions of B2U symmetry.
 There are    19 symmetry adapted cartesian basis functions of B3U symmetry.
 There are    30 symmetry adapted basis functions of AG  symmetry.
 There are     8 symmetry adapted basis functions of B1G symmetry.
 There are    16 symmetry adapted basis functions of B2G symmetry.
 There are    16 symmetry adapted basis functions of B3G symmetry.
 There are     8 symmetry adapted basis functions of AU  symmetry.
 There are    30 symmetry adapted basis functions of B1U symmetry.
 There are    16 symmetry adapted basis functions of B2U symmetry.
 There are    16 symmetry adapted basis functions of B3U symmetry.
   140 basis functions,   242 primitive gaussians,   172 cartesian basis functions
    16 alpha electrons       16 beta electrons
       nuclear repulsion energy        70.5396845193 Hartrees.
 NAtoms=    2 NActive=    2 NUniq=    1 SFac= 4.00D+00 NAtFMM=   60 NAOKFM=F Big=F
 Integral buffers will be    131072 words long.
 Raffenetti 2 integral format.
 Two-electron integral symmetry is turned on.
 One-electron integrals computed using PRISM.
   8 Symmetry operations used in ECPInt.
 ECPInt:  NShTT=     990 NPrTT=    3557 LenC2=     976 LenP2D=    3000.
 LDataN:  DoStor=T MaxTD1= 8 Len=  415
 NBasis=   140 RedAO= T EigKep=  2.45D-04  NBF=    30     8    16    16     8    30    16    16
 NBsUse=   140 1.00D-06 EigRej= -1.00D+00 NBFU=    30     8    16    16     8    30    16    16
 Initial guess from the checkpoint file:  "/data/hutter/SMG16/PBE/Gau-19183.chk"
 B after Tr=     0.000000    0.000000   -0.000000
         Rot=    1.000000    0.000000    0.000000    0.000000 Ang=   0.00 deg.
 Initial guess orbital symmetries:
       Occupied  (SGU) (SGG) (SGG) (SGU) (PIU) (PIG) (SGG) (SGU)
                 (PIU) (PIG) (SGG) (SGU) (SGG) (PIU) (PIU) (PIG)
       Virtual   (PIG) (SGU) (?A) (SGU) (PIU) (PIU) (?A) (?A) (?A)
                 (PIU) (PIG) (PIG) (PIU) (?B) (?B) (?B) (SGG) (PIG)
                 (PIG) (SGU) (?C) (?D) (?C) (?D) (?D) (?C) (?D)
                 (?D) (?C) (?E) (?E) (?C) (?C) (?F) (?D) (?F) (PIG)
                 (PIG) (?E) (?F) (?F) (?G) (PIU) (PIU) (?G) (?G)
                 (?G) (SGG) (PIG) (PIG) (SGG) (?H) (DLTG) (DLTG)
                 (PIU) (PIU) (?H) (?H) (?H) (?H) (?H) (?H) (?H)
                 (PIG) (?H) (?H) (PIG) (?H) (?H) (?H) (?H) (?H)
                 (PHIG) (PHIG) (PHIU) (PHIU) (?G) (?H) (?H) (PHIG)
                 (PHIG) (?G) (?G) (PIG) (?G) (PIG) (PIU) (PIU)
                 (SGG) (PIG) (?H) (PIG) (PIU) (?H) (?H) (PIU) (SGG)
                 (PIG) (PIG) (SGU) (SGG) (SGU) (DLTG) (DLTG) (PIU)
                 (DLTU) (DLTU) (PIU) (PIG) (PIG) (SGG) (SGU) (SGG)
                 (SGU) (PIU) (PIU) (PIG) (PIG) (SGG) (SGU) (SGG)
                 (SGU) (SGG) (SGU)
 Keep J ints in memory in symmetry-blocked form, NReq=57847074.
 Requested convergence on RMS density matrix=1.00D-08 within  32 cycles.
 Requested convergence on MAX density matrix=1.00D-06.
 Requested convergence on             energy=1.00D-06.
 No special actions if energy rises.
 EnCoef did   100 forward-backward iterations
 EnCoef did   100 forward-backward iterations
 EnCoef did   100 forward-backward iterations
 EnCoef did   100 forward-backward iterations
 EnCoef did   100 forward-backward iterations
 EnCoef did   100 forward-backward iterations
 Rare condition: small coef for last iteration: -0.211D-14
 EnCoef did   100 forward-backward iterations
 Rare condition: small coef for last iteration:  0.000D+00
 EnCoef did   100 forward-backward iterations
 EnCoef did   100 forward-backward iterations
 EnCoef did   100 forward-backward iterations
 EnCoef did   100 forward-backward iterations
 Rare condition: small coef for last iteration: -0.274D-14
 EnCoef did   100 forward-backward iterations
 Rare condition: small coef for last iteration:  0.102D-15
 EnCoef did   100 forward-backward iterations
 EnCoef did   100 forward-backward iterations
 EnCoef did   100 forward-backward iterations
 Rare condition: small coef for last iteration:  0.218D-15
 EnCoef did   100 forward-backward iterations
 Rare condition: small coef for last iteration:  0.000D+00
 EnCoef did   100 forward-backward iterations
 EnCoef did   100 forward-backward iterations
 Rare condition: small coef for last iteration: -0.220D-15
 EnCoef did   100 forward-backward iterations
 Rare condition: small coef for last iteration:  0.000D+00
 EnCoef did   100 forward-backward iterations
 EnCoef did   100 forward-backward iterations
 Rare condition: small coef for last iteration:  0.865D-15
 EnCoef did   100 forward-backward iterations
 Rare condition: small coef for last iteration:  0.000D+00
 EnCoef did   100 forward-backward iterations
 EnCoef did   100 forward-backward iterations
 EnCoef did   100 forward-backward iterations
 Rare condition: small coef for last iteration: -0.195D-14
 EnCoef did   100 forward-backward iterations
 Rare condition: small coef for last iteration:  0.000D+00
 EnCoef did   100 forward-backward iterations
 EnCoef did   100 forward-backward iterations
 EnCoef did   100 forward-backward iterations
 Rare condition: small coef for last iteration:  0.162D-14
 >>>>>>>>>> Convergence criterion not met.
 SCF Done:  E(RPBE-PBE) =  -796.048074746     A.U. after   33 cycles
            NFock= 32  Conv=0.16D-03     -V/T= 2.0013
 Keep J ints in memory in symmetry-blocked form, NReq=57847474.
 Gradient too large for Newton-Raphson -- use scaled steepest descent instead.
 Gradient too large for Newton-Raphson -- use scaled steepest descent instead.
     Accept linear search using points  1 and  2.
 LinEq1:  Iter=  0 NonCon=     1 RMS=7.58D-05 Max=1.49D-03 NDo=     1
 AX will form     1 AO Fock derivatives at one time.
 LinEq1:  Iter=  1 NonCon=     1 RMS=3.62D-05 Max=7.44D-04 NDo=     1
 LinEq1:  Iter=  2 NonCon=     1 RMS=1.08D-05 Max=2.30D-04 NDo=     1
 LinEq1:  Iter=  3 NonCon=     1 RMS=2.94D-06 Max=4.21D-05 NDo=     1
 LinEq1:  Iter=  4 NonCon=     1 RMS=2.14D-07 Max=4.32D-06 NDo=     1
 LinEq1:  Iter=  5 NonCon=     1 RMS=1.85D-08 Max=3.73D-07 NDo=     1
 LinEq1:  Iter=  6 NonCon=     0 RMS=1.15D-09 Max=1.35D-08 NDo=     1
 Linear equations converged to 6.299D-09 6.299D-08 after     6 iterations.
     Minimum is close to point  2 DX=  3.68D-04 DF= -1.36D-12 DXR=  3.68D-04 DFR=  1.38D-07 which will be used.
 LinEq1:  Iter=  0 NonCon=     1 RMS=4.90D-08 Max=1.29D-06 NDo=     1
 LinEq1:  Iter=  1 NonCon=     1 RMS=2.01D-08 Max=2.66D-07 NDo=     1
 LinEq1:  Iter=  2 NonCon=     1 RMS=8.13D-09 Max=1.20D-07 NDo=     1
 LinEq1:  Iter=  3 NonCon=     1 RMS=1.05D-09 Max=1.90D-08 NDo=     1
 LinEq1:  Iter=  4 NonCon=     1 RMS=1.11D-10 Max=1.64D-09 NDo=     1
 LinEq1:  Iter=  5 NonCon=     1 RMS=1.41D-11 Max=2.86D-10 NDo=     1
 LinEq1:  Iter=  6 NonCon=     1 RMS=2.44D-11 Max=8.82D-10 NDo=     1
 LinEq1:  Iter=  7 NonCon=     0 RMS=7.51D-12 Max=1.29D-10 NDo=     1
 Linear equations converged to 1.797D-11 1.797D-10 after     7 iterations.
 SCF Done:  E(RPBE-PBE) =  -796.051175802     a.u. after    5 cycles
            Convg  =    0.4209D-10                    23 Fock formations.
              S**2 =  0.0000                  -V/T =  2.0014
   8 Symmetry operations used in ECPInt.
 ECPInt:  NShTT=     990 NPrTT=    3557 LenC2=     976 LenP2D=    3000.
 LDataN:  DoStor=T MaxTD1= 9 Len=  602
 Calling FoFJK, ICntrl=      2527 FMM=F ISym2X=1 I1Cent= 0 IOpClX= 0 NMat=1 NMatS=1 NMatT=0.
 ***** Axes restored to original set *****
 -------------------------------------------------------------------
 Center     Atomic                   Forces (Hartrees/Bohr)
 Number     Number              X              Y              Z
 -------------------------------------------------------------------
      1       16          -0.000000000    0.000000000    0.004291034
      2       16           0.000000000   -0.000000000   -0.004291034
 -------------------------------------------------------------------
 Cartesian Forces:  Max     0.004291034 RMS     0.002477429

 GradGradGradGradGradGradGradGradGradGradGradGradGradGradGradGradGradGrad
 Berny optimization.
 Using GEDIIS/GDIIS optimizer.
 Internal  Forces:  Max     0.004291034 RMS     0.004291034
 Search for a local minimum.
 Step number   2 out of a maximum of   20
 All quantities printed in internal units (Hartrees-Bohrs-Radians)
 Mixed Optimization -- RFO/linear search
 Update second derivatives using D2CorX and points    1    2
 DE= -2.13D-04 DEPred=-1.55D-04 R= 1.38D+00
 TightC=F SS=  1.41D+00  RLast= 2.67D-02 DXNew= 5.0454D-01 8.0225D-02
 Trust test= 1.38D+00 RLast= 2.67D-02 DXMaxT set to 3.00D-01
 The second derivative matrix:
                          R1
           R1           0.27293
 ITU=  1  0
 Use linear search instead of GDIIS.
     Eigenvalues ---    0.27293
 RFO step:  Lambda= 0.00000000D+00 EMin= 2.72934535D-01
 Quartic linear search produced a step of  0.55753.
 Iteration  1 RMS(Cart)=  0.01054242 RMS(Int)=  0.00000000
 Iteration  2 RMS(Cart)=  0.00000000 RMS(Int)=  0.00000000
 ClnCor:  largest displacement from symmetrization is 0.00D+00 for atom     0.
 Variable       Old X    -DE/DX   Delta X   Delta X   Delta X     New X
                                 (Linear)    (Quad)   (Total)
    R1        3.62916  -0.00429  -0.01491   0.00000  -0.01491   3.61425
         Item               Value     Threshold  Converged?
 Maximum Force            0.004291     0.000450     NO 
 RMS     Force            0.004291     0.000300     NO 
 Maximum Displacement     0.007455     0.001800     NO 
 RMS     Displacement     0.010542     0.001200     NO 
 Predicted change in Energy=-3.364136D-05
 GradGradGradGradGradGradGradGradGradGradGradGradGradGradGradGradGradGrad

                          Input orientation:                          
 ---------------------------------------------------------------------
 Center     Atomic      Atomic             Coordinates (Angstroms)
 Number     Number       Type             X           Y           Z
 ---------------------------------------------------------------------
      1         16           0        8.000000    8.000000    7.043710
      2         16           0        8.000000    8.000000    8.956290
 ---------------------------------------------------------------------
 Stoichiometry    S2
 Framework group  D*H[C*(S.S)]
 Deg. of freedom     1
 Full point group                 D*H     NOp   8
 Largest Abelian subgroup         D2H     NOp   8
 Largest concise Abelian subgroup C2      NOp   2
                         Standard orientation:                         
 ---------------------------------------------------------------------
 Center     Atomic      Atomic             Coordinates (Angstroms)
 Number     Number       Type             X           Y           Z
 ---------------------------------------------------------------------
      1         16           0        0.000000    0.000000    0.956290
      2         16           0        0.000000    0.000000   -0.956290
 ---------------------------------------------------------------------
 Rotational constants (GHZ):           0.0000000           8.6424506           8.6424506
 Standard basis: def2QZVPP (5D, 7F)
 There are    39 symmetry adapted cartesian basis functions of AG  symmetry.
 There are     9 symmetry adapted cartesian basis functions of B1G symmetry.
 There are    19 symmetry adapted cartesian basis functions of B2G symmetry.
 There are    19 symmetry adapted cartesian basis functions of B3G symmetry.
 There are     9 symmetry adapted cartesian basis functions of AU  symmetry.
 There are    39 symmetry adapted cartesian basis functions of B1U symmetry.
 There are    19 symmetry adapted cartesian basis functions of B2U symmetry.
 There are    19 symmetry adapted cartesian basis functions of B3U symmetry.
 There are    30 symmetry adapted basis functions of AG  symmetry.
 There are     8 symmetry adapted basis functions of B1G symmetry.
 There are    16 symmetry adapted basis functions of B2G symmetry.
 There are    16 symmetry adapted basis functions of B3G symmetry.
 There are     8 symmetry adapted basis functions of AU  symmetry.
 There are    30 symmetry adapted basis functions of B1U symmetry.
 There are    16 symmetry adapted basis functions of B2U symmetry.
 There are    16 symmetry adapted basis functions of B3U symmetry.
   140 basis functions,   242 primitive gaussians,   172 cartesian basis functions
    16 alpha electrons       16 beta electrons
       nuclear repulsion energy        70.8306691253 Hartrees.
 NAtoms=    2 NActive=    2 NUniq=    1 SFac= 4.00D+00 NAtFMM=   60 NAOKFM=F Big=F
 Integral buffers will be    131072 words long.
 Raffenetti 2 integral format.
 Two-electron integral symmetry is turned on.
 One-electron integrals computed using PRISM.
   8 Symmetry operations used in ECPInt.
 ECPInt:  NShTT=     990 NPrTT=    3557 LenC2=     976 LenP2D=    3000.
 LDataN:  DoStor=T MaxTD1= 8 Len=  415
 NBasis=   140 RedAO= T EigKep=  2.39D-04  NBF=    30     8    16    16     8    30    16    16
 NBsUse=   140 1.00D-06 EigRej= -1.00D+00 NBFU=    30     8    16    16     8    30    16    16
 Initial guess from the checkpoint file:  "/data/hutter/SMG16/PBE/Gau-19183.chk"
 B after Tr=     0.000000    0.000000    0.000000
         Rot=    1.000000    0.000000    0.000000    0.000000 Ang=   0.00 deg.
 Initial guess orbital symmetries:
       Occupied  (SGU) (SGG) (SGG) (SGU) (PIU) (PIG) (SGG) (SGU)
                 (PIU) (PIG) (SGG) (SGU) (SGG) (PIU) (PIU) (PIG)
       Virtual   (PIG) (SGU) (?A) (PIU) (SGU) (PIU) (?A) (?A) (?A)
                 (PIU) (PIG) (PIG) (PIU) (?B) (?B) (?B) (SGG) (PIG)
                 (PIG) (SGU) (?C) (?D) (?C) (?D) (?D) (?C) (?D)
                 (?D) (?C) (?E) (?E) (?C) (?C) (?F) (?D) (?F) (PIG)
                 (PIG) (?E) (?F) (?F) (?G) (PIU) (PIU) (?G) (?G)
                 (?G) (SGG) (PIG) (PIG) (SGG) (?H) (DLTG) (DLTG)
                 (PIU) (PIU) (?H) (?H) (?H) (?H) (?H) (?H) (?H)
                 (PIG) (?H) (?H) (PIG) (?H) (?H) (?H) (?H) (?H)
                 (PHIU) (PHIU) (PHIG) (PHIG) (?G) (?H) (?H) (PHIG)
                 (PHIG) (?G) (?G) (PIG) (?G) (PIG) (PIU) (PIU)
                 (SGG) (PIG) (?H) (PIG) (PIU) (?H) (PIU) (?H) (SGG)
                 (PIG) (PIG) (SGU) (SGG) (SGU) (DLTG) (DLTG) (PIU)
                 (DLTU) (DLTU) (PIU) (PIG) (PIG) (SGG) (SGU) (SGG)
                 (SGU) (PIU) (PIU) (PIG) (PIG) (SGG) (SGU) (SGG)
                 (SGU) (SGG) (SGU)
 Keep J ints in memory in symmetry-blocked form, NReq=57847176.
 Requested convergence on RMS density matrix=1.00D-08 within  32 cycles.
 Requested convergence on MAX density matrix=1.00D-06.
 Requested convergence on             energy=1.00D-06.
 No special actions if energy rises.
 Rare condition: small coef for last iteration:  0.000D+00
 EnCoef did   100 forward-backward iterations
 EnCoef did   100 forward-backward iterations
 EnCoef did   100 forward-backward iterations
 EnCoef did   100 forward-backward iterations
 Rare condition: small coef for last iteration:  0.113D-15
 EnCoef did   100 forward-backward iterations
 EnCoef did   100 forward-backward iterations
 EnCoef did   100 forward-backward iterations
 EnCoef did   100 forward-backward iterations
 Rare condition: small coef for last iteration:  0.431D-15
 EnCoef did   100 forward-backward iterations
 Rare condition: small coef for last iteration:  0.000D+00
 EnCoef did   100 forward-backward iterations
 EnCoef did   100 forward-backward iterations
 Rare condition: small coef for last iteration:  0.000D+00
 EnCoef did   100 forward-backward iterations
 Rare condition: small coef for last iteration:  0.000D+00
 EnCoef did   100 forward-backward iterations
 Rare condition: small coef for last iteration:  0.000D+00
 EnCoef did   100 forward-backward iterations
 Rare condition: small coef for last iteration:  0.000D+00
 EnCoef did   100 forward-backward iterations
 Rare condition: small coef for last iteration:  0.000D+00
 EnCoef did   100 forward-backward iterations
 Rare condition: small coef for last iteration:  0.000D+00
 EnCoef did   100 forward-backward iterations
 EnCoef did   100 forward-backward iterations
 EnCoef did   100 forward-backward iterations
 EnCoef did   100 forward-backward iterations
 Rare condition: small coef for last iteration: -0.420D-15
 EnCoef did   100 forward-backward iterations
 Rare condition: small coef for last iteration:  0.000D+00
 EnCoef did   100 forward-backward iterations
 >>>>>>>>>> Convergence criterion not met.
 SCF Done:  E(RPBE-PBE) =  -796.048470882     A.U. after   33 cycles
            NFock= 32  Conv=0.61D-02     -V/T= 2.0014
 Keep J ints in memory in symmetry-blocked form, NReq=57847576.
 Gradient too large for Newton-Raphson -- use scaled steepest descent instead.
 LinEq1:  Iter=  0 NonCon=     1 RMS=1.48D-04 Max=2.87D-03 NDo=     1
 AX will form     1 AO Fock derivatives at one time.
 LinEq1:  Iter=  1 NonCon=     1 RMS=4.47D-05 Max=1.10D-03 NDo=     1
 LinEq1:  Iter=  2 NonCon=     1 RMS=1.21D-05 Max=2.72D-04 NDo=     1
 LinEq1:  Iter=  3 NonCon=     1 RMS=2.54D-06 Max=3.86D-05 NDo=     1
 LinEq1:  Iter=  4 NonCon=     1 RMS=1.91D-07 Max=3.86D-06 NDo=     1
 LinEq1:  Iter=  5 NonCon=     1 RMS=1.51D-08 Max=2.66D-07 NDo=     1
 LinEq1:  Iter=  6 NonCon=     0 RMS=1.07D-09 Max=1.26D-08 NDo=     1
 Linear equations converged to 6.299D-09 6.299D-08 after     6 iterations.
     Minimum is close to point  2 DX=  6.12D-04 DF= -8.53D-12 DXR=  6.12D-04 DFR=  3.75D-07 which will be used.
 LinEq1:  Iter=  0 NonCon=     1 RMS=1.30D-07 Max=3.23D-06 NDo=     1
 LinEq1:  Iter=  1 NonCon=     1 RMS=4.54D-08 Max=6.94D-07 NDo=     1
 LinEq1:  Iter=  2 NonCon=     1 RMS=2.02D-08 Max=3.67D-07 NDo=     1
 LinEq1:  Iter=  3 NonCon=     1 RMS=2.88D-09 Max=5.85D-08 NDo=     1
 LinEq1:  Iter=  4 NonCon=     1 RMS=2.54D-10 Max=4.24D-09 NDo=     1
 LinEq1:  Iter=  5 NonCon=     0 RMS=3.52D-11 Max=4.97D-10 NDo=     1
 Linear equations converged to 5.431D-11 5.431D-10 after     5 iterations.
 SCF Done:  E(RPBE-PBE) =  -796.051207978     a.u. after    4 cycles
            Convg  =    0.3639D-08                    19 Fock formations.
              S**2 =  0.0000                  -V/T =  2.0014
   8 Symmetry operations used in ECPInt.
 ECPInt:  NShTT=     990 NPrTT=    3557 LenC2=     976 LenP2D=    3000.
 LDataN:  DoStor=T MaxTD1= 9 Len=  602
 Calling FoFJK, ICntrl=      2527 FMM=F ISym2X=1 I1Cent= 0 IOpClX= 0 NMat=1 NMatS=1 NMatT=0.
 ***** Axes restored to original set *****
 -------------------------------------------------------------------
 Center     Atomic                   Forces (Hartrees/Bohr)
 Number     Number              X              Y              Z
 -------------------------------------------------------------------
      1       16          -0.000000000    0.000000000   -0.000002266
      2       16           0.000000000   -0.000000000    0.000002266
 -------------------------------------------------------------------
 Cartesian Forces:  Max     0.000002266 RMS     0.000001308

 GradGradGradGradGradGradGradGradGradGradGradGradGradGradGradGradGradGrad
 Berny optimization.
 Using GEDIIS/GDIIS optimizer.
 Internal  Forces:  Max     0.000002266 RMS     0.000002266
 Search for a local minimum.
 Step number   3 out of a maximum of   20
 All quantities printed in internal units (Hartrees-Bohrs-Radians)
 Mixed Optimization -- En-DIIS/RFO-DIIS
 Update second derivatives using D2CorX and points    2    3
 DE= -3.22D-05 DEPred=-3.36D-05 R= 9.56D-01
 TightC=F SS=  1.41D+00  RLast= 1.49D-02 DXNew= 5.0454D-01 4.4728D-02
 Trust test= 9.56D-01 RLast= 1.49D-02 DXMaxT set to 3.00D-01
 The second derivative matrix:
                          R1
           R1           0.28796
 ITU=  1  1
 Use linear search instead of GDIIS.
     Eigenvalues ---    0.28796
 RFO step:  Lambda= 0.00000000D+00 EMin= 2.87962597D-01
 Quartic linear search produced a step of -0.00052.
 Iteration  1 RMS(Cart)=  0.00000546 RMS(Int)=  0.00000000
 Iteration  2 RMS(Cart)=  0.00000000 RMS(Int)=  0.00000000
 ClnCor:  largest displacement from symmetrization is 0.00D+00 for atom     0.
 Variable       Old X    -DE/DX   Delta X   Delta X   Delta X     New X
                                 (Linear)    (Quad)   (Total)
    R1        3.61425   0.00000   0.00001  -0.00000   0.00001   3.61426
         Item               Value     Threshold  Converged?
 Maximum Force            0.000002     0.000450     YES
 RMS     Force            0.000002     0.000300     YES
 Maximum Displacement     0.000004     0.001800     YES
 RMS     Displacement     0.000005     0.001200     YES
 Predicted change in Energy=-8.912721D-12
 Optimization completed.
    -- Stationary point found.
                           ----------------------------
                           !   Optimized Parameters   !
                           ! (Angstroms and Degrees)  !
 --------------------------                            --------------------------
 ! Name  Definition              Value          Derivative Info.                !
 --------------------------------------------------------------------------------
 ! R1    R(1,2)                  1.9126         -DE/DX =    0.0                 !
 --------------------------------------------------------------------------------
 GradGradGradGradGradGradGradGradGradGradGradGradGradGradGradGradGradGrad

                          Input orientation:                          
 ---------------------------------------------------------------------
 Center     Atomic      Atomic             Coordinates (Angstroms)
 Number     Number       Type             X           Y           Z
 ---------------------------------------------------------------------
      1         16           0        8.000000    8.000000    7.043710
      2         16           0        8.000000    8.000000    8.956290
 ---------------------------------------------------------------------
 Stoichiometry    S2
 Framework group  D*H[C*(S.S)]
 Deg. of freedom     1
 Full point group                 D*H     NOp   8
 Largest Abelian subgroup         D2H     NOp   8
 Largest concise Abelian subgroup C2      NOp   2
                         Standard orientation:                         
 ---------------------------------------------------------------------
 Center     Atomic      Atomic             Coordinates (Angstroms)
 Number     Number       Type             X           Y           Z
 ---------------------------------------------------------------------
      1         16           0        0.000000    0.000000    0.956290
      2         16           0        0.000000    0.000000   -0.956290
 ---------------------------------------------------------------------
 Rotational constants (GHZ):           0.0000000           8.6424506           8.6424506

 **********************************************************************

            Population analysis using the SCF Density.

 **********************************************************************

 Orbital symmetries:
       Occupied  (SGU) (SGG) (SGG) (SGU) (PIU) (PIG) (SGG) (SGU)
                 (PIU) (PIG) (SGG) (SGU) (SGG) (PIU) (PIU) (PIG)
       Virtual   (PIG) (SGU) (?A) (PIU) (SGU) (PIU) (?A) (?A) (?A)
                 (PIU) (PIG) (PIG) (PIU) (?B) (?B) (?B) (SGG) (PIG)
                 (PIG) (SGU) (?C) (?D) (?C) (?D) (?D) (?C) (?D)
                 (?C) (?D) (?E) (?E) (?C) (?C) (?F) (?D) (?F) (PIG)
                 (PIG) (?E) (?F) (?F) (?G) (PIU) (PIU) (?G) (?G)
                 (?G) (SGG) (PIG) (PIG) (SGG) (?H) (DLTG) (DLTG)
                 (PIU) (PIU) (?H) (?H) (?H) (?H) (?H) (?H) (?H)
                 (?H) (PIG) (?H) (PIG) (?H) (?H) (?H) (?H) (?H)
                 (PHIU) (PHIU) (PHIG) (PHIG) (?G) (?H) (?H) (PHIG)
                 (PHIG) (?G) (?G) (PIG) (?G) (PIG) (PIU) (PIU)
                 (SGG) (PIG) (?H) (PIG) (PIU) (?H) (PIU) (?H) (SGG)
                 (PIG) (PIG) (SGU) (SGG) (SGU) (DLTG) (DLTG) (PIU)
                 (DLTU) (DLTU) (PIU) (PIG) (PIG) (SGG) (SGU) (SGG)
                 (SGU) (PIU) (PIU) (PIG) (PIG) (SGG) (SGU) (SGG)
                 (SGU) (SGG) (SGU)
 Unable to determine electronic state:  partially filled degenerate orbitals.
 Alpha  occ. eigenvalues --  -88.10184 -88.10184  -7.72675  -7.72662  -5.75107
 Alpha  occ. eigenvalues --   -5.75102  -5.74710  -5.74641  -5.73540  -5.73534
 Alpha  occ. eigenvalues --   -0.75816  -0.55824  -0.35802  -0.33609  -0.31073
 Alpha  occ. eigenvalues --   -0.18324
 Alpha virt. eigenvalues --   -0.20754  -0.04442   0.08384   0.10645   0.10856
 Alpha virt. eigenvalues --    0.11745   0.13720   0.15414   0.15682   0.17036
 Alpha virt. eigenvalues --    0.17441   0.18194   0.18975   0.28209   0.28350
 Alpha virt. eigenvalues --    0.34310   0.39209   0.45424   0.46903   0.56207
 Alpha virt. eigenvalues --    0.76084   0.77188   0.77704   0.82617   0.82800
 Alpha virt. eigenvalues --    0.87611   0.89134   0.89201   0.89233   0.89829
 Alpha virt. eigenvalues --    0.89908   0.89959   0.90138   0.94127   0.94446
 Alpha virt. eigenvalues --    0.95919   0.98152   0.99649   1.02091   1.05235
 Alpha virt. eigenvalues --    1.05239   1.17927   1.20746   1.22744   1.30357
 Alpha virt. eigenvalues --    1.30462   1.33559   1.39400   1.65774   1.67275
 Alpha virt. eigenvalues --    1.75478   2.18150   2.42362   2.42454   2.46749
 Alpha virt. eigenvalues --    2.48522   2.54529   2.54689   2.55029   2.61464
 Alpha virt. eigenvalues --    2.63378   2.64580   2.64860   2.67713   2.67725
 Alpha virt. eigenvalues --    2.67748   2.69846   2.82333   2.82335   2.87636
 Alpha virt. eigenvalues --    2.88731   2.88734   3.00397   3.00413   3.00725
 Alpha virt. eigenvalues --    3.00735   3.05668   3.07383   3.07514   3.13309
 Alpha virt. eigenvalues --    3.13326   3.13914   3.13957   3.26663   3.27253
 Alpha virt. eigenvalues --    3.28684   3.29397   3.31764   3.38670   3.45406
 Alpha virt. eigenvalues --    3.46465   3.47472   3.58331   3.60465   3.60476
 Alpha virt. eigenvalues --    3.60676   4.01546   4.33349   4.35274   5.51113
 Alpha virt. eigenvalues --    6.67256   7.11923   8.40810   8.40863   8.45821
 Alpha virt. eigenvalues --    8.46855   8.46917   8.47438   8.69434   8.71088
 Alpha virt. eigenvalues --    8.94682   9.00073  23.63647  24.17392  28.27770
 Alpha virt. eigenvalues --   28.28958  28.33008  28.34198  28.36881  28.95665
 Alpha virt. eigenvalues --   82.92960  83.44270 448.74255 449.60639
          Condensed to atoms (all electrons):
               1          2
     1  S   15.729951   0.270049
     2  S    0.270049  15.729951
 Mulliken charges:
               1
     1  S   -0.000000
     2  S   -0.000000
 Sum of Mulliken charges =  -0.00000
 Mulliken charges with hydrogens summed into heavy atoms:
               1
     1  S   -0.000000
     2  S   -0.000000
 Electronic spatial extent (au):  <R**2>=            161.1458
 Charge=             -0.0000 electrons
 Dipole moment (field-independent basis, Debye):
    X=              0.0000    Y=              0.0000    Z=             -0.0000  Tot=              0.0000
 Quadrupole moment (field-independent basis, Debye-Ang):
   XX=            -28.3641   YY=            -23.5767   ZZ=            -24.2463
   XY=              0.0000   XZ=              0.0000   YZ=              0.0000
 Traceless Quadrupole moment (field-independent basis, Debye-Ang):
   XX=             -2.9684   YY=              1.8190   ZZ=              1.1494
   XY=              0.0000   XZ=              0.0000   YZ=              0.0000
 Octapole moment (field-independent basis, Debye-Ang**2):
  XXX=              0.0000  YYY=              0.0000  ZZZ=              0.0000  XYY=              0.0000
  XXY=              0.0000  XXZ=             -0.0000  XZZ=              0.0000  YZZ=              0.0000
  YYZ=             -0.0000  XYZ=              0.0000
 Hexadecapole moment (field-independent basis, Debye-Ang**3):
 XXXX=            -40.9654 YYYY=            -28.9154 ZZZZ=           -162.5613 XXXY=              0.0000
 XXXZ=              0.0000 YYYX=              0.0000 YYYZ=              0.0000 ZZZX=              0.0000
 ZZZY=              0.0000 XXYY=            -11.6808 XXZZ=            -40.1593 YYZZ=            -30.7463
 XXYZ=              0.0000 YYXZ=              0.0000 ZZXY=              0.0000
 N-N= 7.083066912535D+01 E-N=-2.035367629464D+03  KE= 7.949218983206D+02
 Symmetry AG   KE= 3.234068179786D+02
 Symmetry B1G  KE= 5.616725650676D-34
 Symmetry B2G  KE= 3.932520528669D+01
 Symmetry B3G  KE= 3.512682912866D+01
 Symmetry AU   KE= 6.706400968617D-33
 Symmetry B1U  KE= 3.197288627031D+02
 Symmetry B2U  KE= 3.866059902981D+01
 Symmetry B3U  KE= 3.867358419368D+01
 Unable to Open any file for archive entry.
 1\1\GINC-TCOPT10\FOpt\RPBEPBE\def2QZVPP\S2\HUTTER\31-Jul-2021\0\\#N RP
 BEPBE/Def2QZVPP scf=tight scf=XQC Int(Grid=ultrafine) OPT FREQ\\Mol jo
 b 1\\0,1\S,8.,8.,7.0437096835\S,8.,8.,8.9562903165\\Version=ES64L-G16R
 evC.01\HF=-796.051208\RMSD=5.778e-11\RMSF=1.308e-06\Dipole=0.,0.,0.\Qu
 adrupole=-2.2069159,1.3523498,0.8545662,0.,0.,0.\PG=D*H [C*(S1.S1)]\\@
 The archive entry for this job was punched.


 Time has a wonderful way of weeding out the trivial.
                                -- Richard Ben Sapir
 Job cpu time:       0 days  0 hours  4 minutes 16.4 seconds.
 Elapsed time:       0 days  0 hours  0 minutes 33.4 seconds.
 File lengths (MBytes):  RWF=     14 Int=      0 D2E=      0 Chk=      3 Scr=      1
 Normal termination of Gaussian 16 at Sat Jul 31 10:43:27 2021.
 Link1:  Proceeding to internal job step number  2.
 ----------------------------------------------------------------------
 #N Geom=AllCheck Guess=TCheck SCRF=Check GenChk RPBEPBE/def2QZVPP Freq
 ----------------------------------------------------------------------
 1/10=4,29=7,30=1,38=1,40=1/1,3;
 2/12=2,40=1/2;
 3/5=45,7=202,11=2,14=-4,25=1,30=1,70=2,71=2,74=1009,75=-5,116=1,140=1/1,2,3;
 4/5=101/1;
 5/5=2,8=3,13=1,32=2,38=6,98=1/2,8;
 8/6=4,10=90,11=11/1;
 11/6=1,8=1,9=11,15=111,16=1/1,2,10;
 10/6=1/2;
 6/7=2,8=2,9=2,10=2,28=1/1;
 7/8=1,10=1,25=1/1,2,3,16;
 1/10=4,30=1/3;
 99//99;
 Structure from the checkpoint file:  "/data/hutter/SMG16/PBE/Gau-19183.chk"
 ---------
 Mol job 1
 ---------
 Charge =  0 Multiplicity = 1
 Redundant internal coordinates found in file.  (old form).
 S,0,8.,8.,7.0437096835
 S,0,8.,8.,8.9562903165
 Recover connectivity data from disk.

 GradGradGradGradGradGradGradGradGradGradGradGradGradGradGradGradGradGrad
 Berny optimization.
 Initialization pass.
                           ----------------------------
                           !    Initial Parameters    !
                           ! (Angstroms and Degrees)  !
 --------------------------                            --------------------------
 ! Name  Definition              Value          Derivative Info.                !
 --------------------------------------------------------------------------------
 ! R1    R(1,2)                  1.9126         calculate D2E/DX2 analytically  !
 --------------------------------------------------------------------------------
 Trust Radius=3.00D-01 FncErr=1.00D-07 GrdErr=1.00D-07 EigMax=2.50D+02 EigMin=1.00D-04
 Number of steps in this run=      2 maximum allowed number of steps=      2.
 GradGradGradGradGradGradGradGradGradGradGradGradGradGradGradGradGradGrad

                          Input orientation:                          
 ---------------------------------------------------------------------
 Center     Atomic      Atomic             Coordinates (Angstroms)
 Number     Number       Type             X           Y           Z
 ---------------------------------------------------------------------
      1         16           0        8.000000    8.000000    7.043710
      2         16           0        8.000000    8.000000    8.956290
 ---------------------------------------------------------------------
 Stoichiometry    S2
 Framework group  D*H[C*(S.S)]
 Deg. of freedom     1
 Full point group                 D*H     NOp   8
 Largest Abelian subgroup         D2H     NOp   8
 Largest concise Abelian subgroup C2      NOp   2
                         Standard orientation:                         
 ---------------------------------------------------------------------
 Center     Atomic      Atomic             Coordinates (Angstroms)
 Number     Number       Type             X           Y           Z
 ---------------------------------------------------------------------
      1         16           0        0.000000    0.000000    0.956290
      2         16           0        0.000000    0.000000   -0.956290
 ---------------------------------------------------------------------
 Rotational constants (GHZ):           0.0000000           8.6424506           8.6424506
 Standard basis: def2QZVPP (5D, 7F)
 There are    39 symmetry adapted cartesian basis functions of AG  symmetry.
 There are     9 symmetry adapted cartesian basis functions of B1G symmetry.
 There are    19 symmetry adapted cartesian basis functions of B2G symmetry.
 There are    19 symmetry adapted cartesian basis functions of B3G symmetry.
 There are     9 symmetry adapted cartesian basis functions of AU  symmetry.
 There are    39 symmetry adapted cartesian basis functions of B1U symmetry.
 There are    19 symmetry adapted cartesian basis functions of B2U symmetry.
 There are    19 symmetry adapted cartesian basis functions of B3U symmetry.
 There are    30 symmetry adapted basis functions of AG  symmetry.
 There are     8 symmetry adapted basis functions of B1G symmetry.
 There are    16 symmetry adapted basis functions of B2G symmetry.
 There are    16 symmetry adapted basis functions of B3G symmetry.
 There are     8 symmetry adapted basis functions of AU  symmetry.
 There are    30 symmetry adapted basis functions of B1U symmetry.
 There are    16 symmetry adapted basis functions of B2U symmetry.
 There are    16 symmetry adapted basis functions of B3U symmetry.
   140 basis functions,   242 primitive gaussians,   172 cartesian basis functions
    16 alpha electrons       16 beta electrons
       nuclear repulsion energy        70.8306691253 Hartrees.
 NAtoms=    2 NActive=    2 NUniq=    1 SFac= 4.00D+00 NAtFMM=   60 NAOKFM=F Big=F
 Integral buffers will be    131072 words long.
 Raffenetti 2 integral format.
 Two-electron integral symmetry is turned on.
 One-electron integrals computed using PRISM.
   8 Symmetry operations used in ECPInt.
 ECPInt:  NShTT=     990 NPrTT=    3557 LenC2=     976 LenP2D=    3000.
 LDataN:  DoStor=T MaxTD1= 8 Len=  415
 NBasis=   140 RedAO= T EigKep=  2.39D-04  NBF=    30     8    16    16     8    30    16    16
 NBsUse=   140 1.00D-06 EigRej= -1.00D+00 NBFU=    30     8    16    16     8    30    16    16
 Initial guess from the checkpoint file:  "/data/hutter/SMG16/PBE/Gau-19183.chk"
 B after Tr=     0.000000    0.000000    0.000000
         Rot=    1.000000    0.000000    0.000000    0.000000 Ang=   0.00 deg.
 Initial guess orbital symmetries:
       Occupied  (SGU) (SGG) (SGG) (SGU) (PIU) (PIG) (SGG) (SGU)
                 (PIU) (PIG) (SGG) (SGU) (SGG) (PIU) (PIU) (PIG)
       Virtual   (PIG) (SGU) (?A) (PIU) (SGU) (PIU) (?A) (?A) (?A)
                 (PIU) (PIG) (PIG) (PIU) (?B) (?B) (?B) (SGG) (PIG)
                 (PIG) (SGU) (?C) (?D) (?C) (?D) (?D) (?C) (?D)
                 (?C) (?D) (?E) (?E) (?C) (?C) (?F) (?D) (?F) (PIG)
                 (PIG) (?E) (?F) (?F) (?G) (PIU) (PIU) (?G) (?G)
                 (?G) (SGG) (PIG) (PIG) (SGG) (?H) (DLTG) (DLTG)
                 (PIU) (PIU) (?H) (?H) (?H) (?H) (?H) (?H) (?H)
                 (?H) (PIG) (?H) (PIG) (?H) (?H) (?H) (?H) (?H)
                 (PHIU) (PHIU) (PHIG) (PHIG) (?G) (?H) (?H) (PHIG)
                 (PHIG) (?G) (?G) (PIG) (?G) (PIG) (PIU) (PIU)
                 (SGG) (PIG) (?H) (PIG) (PIU) (?H) (PIU) (?H) (SGG)
                 (PIG) (PIG) (SGU) (SGG) (SGU) (DLTG) (DLTG) (PIU)
                 (DLTU) (DLTU) (PIU) (PIG) (PIG) (SGG) (SGU) (SGG)
                 (SGU) (PIU) (PIU) (PIG) (PIG) (SGG) (SGU) (SGG)
                 (SGU) (SGG) (SGU)
 Keep J ints in memory in symmetry-blocked form, NReq=57847176.
 Requested convergence on RMS density matrix=1.00D-08 within  32 cycles.
 Requested convergence on MAX density matrix=1.00D-06.
 Requested convergence on             energy=1.00D-06.
 No special actions if energy rises.
 Skip diagonalization as Alpha Fock matrix is already diagonal.
 Rare condition: small coef for last iteration:  0.000D+00
 EnCoef did   100 forward-backward iterations
 Rare condition: small coef for last iteration:  0.000D+00
 Rare condition: small coef for last iteration:  0.000D+00
 EnCoef did   100 forward-backward iterations
 Rare condition: small coef for last iteration:  0.000D+00
 Rare condition: small coef for last iteration:  0.000D+00
 EnCoef did   100 forward-backward iterations
 Rare condition: small coef for last iteration:  0.000D+00
 Rare condition: small coef for last iteration:  0.000D+00
 EnCoef did   100 forward-backward iterations
 Rare condition: small coef for last iteration:  0.000D+00
 Rare condition: small coef for last iteration:  0.000D+00
 EnCoef did   100 forward-backward iterations
 Rare condition: small coef for last iteration:  0.000D+00
 Rare condition: small coef for last iteration:  0.000D+00
 EnCoef did   100 forward-backward iterations
 Rare condition: small coef for last iteration:  0.000D+00
 Rare condition: small coef for last iteration:  0.000D+00
 EnCoef did   100 forward-backward iterations
 Rare condition: small coef for last iteration:  0.000D+00
 Rare condition: small coef for last iteration:  0.000D+00
 EnCoef did   100 forward-backward iterations
 Rare condition: small coef for last iteration:  0.000D+00
 Rare condition: small coef for last iteration:  0.000D+00
 EnCoef did   100 forward-backward iterations
 Rare condition: small coef for last iteration:  0.000D+00
 Rare condition: small coef for last iteration:  0.000D+00
 EnCoef did   100 forward-backward iterations
 Rare condition: small coef for last iteration:  0.000D+00
 >>>>>>>>>> Convergence criterion not met.
 SCF Done:  E(RPBE-PBE) =  -796.040563971     A.U. after   33 cycles
            NFock= 32  Conv=0.25D-03     -V/T= 2.0014
 Keep J ints in memory in symmetry-blocked form, NReq=57847576.
 Gradient too large for Newton-Raphson -- use scaled steepest descent instead.
 LinEq1:  Iter=  0 NonCon=     1 RMS=5.03D-05 Max=9.26D-04 NDo=     1
 AX will form     1 AO Fock derivatives at one time.
 LinEq1:  Iter=  1 NonCon=     1 RMS=1.69D-05 Max=3.04D-04 NDo=     1
 LinEq1:  Iter=  2 NonCon=     1 RMS=8.14D-06 Max=1.53D-04 NDo=     1
 LinEq1:  Iter=  3 NonCon=     1 RMS=2.38D-06 Max=3.63D-05 NDo=     1
 LinEq1:  Iter=  4 NonCon=     1 RMS=2.01D-07 Max=4.24D-06 NDo=     1
 LinEq1:  Iter=  5 NonCon=     1 RMS=1.12D-08 Max=1.78D-07 NDo=     1
 LinEq1:  Iter=  6 NonCon=     0 RMS=1.15D-09 Max=1.31D-08 NDo=     1
 Linear equations converged to 6.299D-09 6.299D-08 after     6 iterations.
     Minimum is close to point  2 DX=  2.51D-04 DF= -3.41D-13 DXR=  2.51D-04 DFR=  6.42D-08 which will be used.
 LinEq1:  Iter=  0 NonCon=     1 RMS=2.48D-08 Max=5.73D-07 NDo=     1
 LinEq1:  Iter=  1 NonCon=     1 RMS=1.05D-08 Max=1.80D-07 NDo=     1
 LinEq1:  Iter=  2 NonCon=     1 RMS=3.68D-09 Max=5.69D-08 NDo=     1
 LinEq1:  Iter=  3 NonCon=     1 RMS=4.40D-10 Max=7.23D-09 NDo=     1
 LinEq1:  Iter=  4 NonCon=     1 RMS=5.02D-11 Max=6.46D-10 NDo=     1
 LinEq1:  Iter=  5 NonCon=     1 RMS=7.04D-12 Max=1.45D-10 NDo=     1
 LinEq1:  Iter=  6 NonCon=     1 RMS=1.22D-11 Max=4.37D-10 NDo=     1
 LinEq1:  Iter=  7 NonCon=     0 RMS=3.24D-12 Max=5.51D-11 NDo=     1
 Linear equations converged to 8.263D-12 8.263D-11 after     7 iterations.
 SCF Done:  E(RPBE-PBE) =  -796.051207978     a.u. after    4 cycles
            Convg  =    0.2316D-10                    21 Fock formations.
              S**2 =  0.0000                  -V/T =  2.0014
 DoSCS=F DFT=T ScalE2(SS,OS)=  1.000000  1.000000
 Range of M.O.s used for correlation:     1   140
 NBasis=   140 NAE=    16 NBE=    16 NFC=     0 NFV=     0
 NROrb=    140 NOA=    16 NOB=    16 NVA=   124 NVB=   124

 **** Warning!!: The largest alpha MO coefficient is  0.14382598D+02


 **** Warning!!: The smallest alpha delta epsilon is -0.24304625D-01

   8 Symmetry operations used in ECPInt.
 ECPInt:  NShTT=     990 NPrTT=    3557 LenC2=     976 LenP2D=    3000.
 LDataN:  DoStor=T MaxTD1= 9 Len=  602
 Symmetrizing basis deriv contribution to polar:
 IMax=3 JMax=2 DiffMx= 0.00D+00
 G2DrvN: will do     3 centers at a time, making    1 passes.
 Calling FoFCou, ICntrl=  3507 FMM=F I1Cent=   0 AccDes= 0.00D+00.
 End of G2Drv F.D. properties file   721 does not exist.
 End of G2Drv F.D. properties file   722 does not exist.
 End of G2Drv F.D. properties file   788 does not exist.
          IDoAtm=11
          Differentiating once with respect to electric field.
                with respect to dipole field.
          Differentiating once with respect to nuclear coordinates.
 Keep J ints in memory in symmetry-blocked form, NReq=57848207.
          There are     6 degrees of freedom in the 1st order CPHF.  IDoFFX=4 NUNeed=     6.
      6 vectors produced by pass  0 Test12= 3.31D-14 1.67D-08 XBig12= 2.43D+02 1.36D+01.
 AX will form     6 AO Fock derivatives at one time.
      6 vectors produced by pass  1 Test12= 3.31D-14 1.67D-08 XBig12= 2.69D+02 9.66D+00.
      6 vectors produced by pass  2 Test12= 3.31D-14 1.67D-08 XBig12= 1.62D+01 2.04D+00.
      6 vectors produced by pass  3 Test12= 3.31D-14 1.67D-08 XBig12= 2.79D-01 1.83D-01.
      6 vectors produced by pass  4 Test12= 3.31D-14 1.67D-08 XBig12= 4.24D-03 3.32D-02.
      6 vectors produced by pass  5 Test12= 3.31D-14 1.67D-08 XBig12= 2.53D-05 1.24D-03.
      4 vectors produced by pass  6 Test12= 3.31D-14 1.67D-08 XBig12= 4.75D-07 3.19D-04.
      4 vectors produced by pass  7 Test12= 3.31D-14 1.67D-08 XBig12= 2.37D-09 1.97D-05.
      1 vectors produced by pass  8 Test12= 3.31D-14 1.67D-08 XBig12= 1.19D-11 1.06D-06.
      1 vectors produced by pass  9 Test12= 3.31D-14 1.67D-08 XBig12= 2.72D-13 1.76D-07.
 InvSVY:  IOpt=1 It=  1 EMax= 5.83D-16
 Solved reduced A of dimension    46 with     6 vectors.
 Isotropic polarizability for W=    0.000000       36.70 Bohr**3.
 End of Minotr F.D. properties file   721 does not exist.
 End of Minotr F.D. properties file   722 does not exist.
 End of Minotr F.D. properties file   788 does not exist.

 **********************************************************************

            Population analysis using the SCF Density.

 **********************************************************************

 Orbital symmetries:
       Occupied  (SGU) (SGG) (SGG) (SGU) (PIU) (PIG) (SGG) (SGU)
                 (PIU) (PIG) (SGG) (SGU) (SGG) (PIU) (PIU) (PIG)
       Virtual   (PIG) (SGU) (?A) (PIU) (SGU) (PIU) (?A) (?A) (?A)
                 (PIU) (PIG) (PIG) (PIU) (?B) (?B) (?B) (SGG) (PIG)
                 (PIG) (SGU) (?C) (?D) (?C) (?D) (?D) (?C) (?D)
                 (?C) (?D) (?E) (?E) (?C) (?C) (?F) (?D) (?F) (PIG)
                 (PIG) (?E) (?F) (?F) (?G) (PIU) (PIU) (?G) (?G)
                 (?G) (SGG) (PIG) (PIG) (SGG) (?H) (DLTG) (DLTG)
                 (PIU) (PIU) (?H) (?H) (?H) (?H) (?H) (?H) (?H)
                 (?H) (PIG) (?H) (PIG) (?H) (?H) (?H) (?H) (?H)
                 (PHIU) (PHIU) (PHIG) (PHIG) (?G) (?H) (?H) (PHIG)
                 (PHIG) (?G) (?G) (PIG) (?G) (PIG) (PIU) (PIU)
                 (SGG) (PIG) (?H) (PIG) (PIU) (?H) (PIU) (?H) (SGG)
                 (PIG) (PIG) (SGU) (SGG) (SGU) (DLTG) (DLTG) (PIU)
                 (DLTU) (DLTU) (PIU) (PIG) (PIG) (SGG) (SGU) (SGG)
                 (SGU) (PIU) (PIU) (PIG) (PIG) (SGG) (SGU) (SGG)
                 (SGU) (SGG) (SGU)
 Unable to determine electronic state:  partially filled degenerate orbitals.
 Alpha  occ. eigenvalues --  -88.10184 -88.10184  -7.72675  -7.72662  -5.75107
 Alpha  occ. eigenvalues --   -5.75102  -5.74710  -5.74641  -5.73540  -5.73534
 Alpha  occ. eigenvalues --   -0.75816  -0.55824  -0.35802  -0.33609  -0.31073
 Alpha  occ. eigenvalues --   -0.18324
 Alpha virt. eigenvalues --   -0.20754  -0.04442   0.08384   0.10645   0.10856
 Alpha virt. eigenvalues --    0.11745   0.13720   0.15414   0.15682   0.17036
 Alpha virt. eigenvalues --    0.17441   0.18194   0.18975   0.28209   0.28350
 Alpha virt. eigenvalues --    0.34310   0.39209   0.45424   0.46903   0.56207
 Alpha virt. eigenvalues --    0.76084   0.77188   0.77704   0.82617   0.82800
 Alpha virt. eigenvalues --    0.87611   0.89134   0.89201   0.89233   0.89829
 Alpha virt. eigenvalues --    0.89908   0.89959   0.90138   0.94127   0.94446
 Alpha virt. eigenvalues --    0.95919   0.98152   0.99649   1.02091   1.05235
 Alpha virt. eigenvalues --    1.05239   1.17927   1.20746   1.22744   1.30357
 Alpha virt. eigenvalues --    1.30462   1.33559   1.39400   1.65774   1.67275
 Alpha virt. eigenvalues --    1.75478   2.18150   2.42362   2.42454   2.46749
 Alpha virt. eigenvalues --    2.48522   2.54529   2.54689   2.55029   2.61464
 Alpha virt. eigenvalues --    2.63378   2.64580   2.64860   2.67713   2.67725
 Alpha virt. eigenvalues --    2.67748   2.69846   2.82333   2.82335   2.87636
 Alpha virt. eigenvalues --    2.88731   2.88734   3.00397   3.00413   3.00725
 Alpha virt. eigenvalues --    3.00735   3.05668   3.07383   3.07514   3.13309
 Alpha virt. eigenvalues --    3.13326   3.13914   3.13957   3.26663   3.27253
 Alpha virt. eigenvalues --    3.28684   3.29397   3.31764   3.38670   3.45406
 Alpha virt. eigenvalues --    3.46465   3.47472   3.58331   3.60465   3.60476
 Alpha virt. eigenvalues --    3.60676   4.01546   4.33349   4.35274   5.51113
 Alpha virt. eigenvalues --    6.67256   7.11923   8.40810   8.40863   8.45821
 Alpha virt. eigenvalues --    8.46855   8.46917   8.47438   8.69434   8.71088
 Alpha virt. eigenvalues --    8.94682   9.00073  23.63647  24.17392  28.27770
 Alpha virt. eigenvalues --   28.28958  28.33008  28.34198  28.36881  28.95665
 Alpha virt. eigenvalues --   82.92960  83.44270 448.74255 449.60639
          Condensed to atoms (all electrons):
               1          2
     1  S   15.729951   0.270049
     2  S    0.270049  15.729951
 Mulliken charges:
               1
     1  S   -0.000000
     2  S   -0.000000
 Sum of Mulliken charges =  -0.00000
 Mulliken charges with hydrogens summed into heavy atoms:
               1
     1  S   -0.000000
     2  S   -0.000000
 APT charges:
               1
     1  S   -0.000000
     2  S   -0.000000
 Sum of APT charges =  -0.00000
 APT charges with hydrogens summed into heavy atoms:
               1
     1  S   -0.000000
     2  S   -0.000000
 Electronic spatial extent (au):  <R**2>=            161.1458
 Charge=              0.0000 electrons
 Dipole moment (field-independent basis, Debye):
    X=              0.0000    Y=              0.0000    Z=             -0.0000  Tot=              0.0000
 Quadrupole moment (field-independent basis, Debye-Ang):
   XX=            -23.5767   YY=            -28.3641   ZZ=            -24.2463
   XY=              0.0000   XZ=              0.0000   YZ=              0.0000
 Traceless Quadrupole moment (field-independent basis, Debye-Ang):
   XX=              1.8190   YY=             -2.9684   ZZ=              1.1494
   XY=              0.0000   XZ=              0.0000   YZ=              0.0000
 Octapole moment (field-independent basis, Debye-Ang**2):
  XXX=              0.0000  YYY=              0.0000  ZZZ=              0.0000  XYY=              0.0000
  XXY=              0.0000  XXZ=              0.0000  XZZ=              0.0000  YZZ=              0.0000
  YYZ=             -0.0000  XYZ=              0.0000
 Hexadecapole moment (field-independent basis, Debye-Ang**3):
 XXXX=            -28.9154 YYYY=            -40.9654 ZZZZ=           -162.5613 XXXY=              0.0000
 XXXZ=              0.0000 YYYX=              0.0000 YYYZ=              0.0000 ZZZX=              0.0000
 ZZZY=              0.0000 XXYY=            -11.6808 XXZZ=            -30.7463 YYZZ=            -40.1593
 XXYZ=              0.0000 YYXZ=              0.0000 ZZXY=              0.0000
 N-N= 7.083066912535D+01 E-N=-2.035367629500D+03  KE= 7.949218983490D+02
 Symmetry AG   KE= 3.234068179868D+02
 Symmetry B1G  KE= 5.616725649843D-34
 Symmetry B2G  KE= 3.512682913185D+01
 Symmetry B3G  KE= 3.932520528972D+01
 Symmetry AU   KE= 6.706400967911D-33
 Symmetry B1U  KE= 3.197288627114D+02
 Symmetry B2U  KE= 3.867358419666D+01
 Symmetry B3U  KE= 3.866059903253D+01
 PrtPol skips out because HOMO and LUMO are degenerate.
   8 Symmetry operations used in ECPInt.
 ECPInt:  NShTT=     990 NPrTT=    3557 LenC2=     976 LenP2D=    3000.
 LDataN:  DoStor=T MaxTD1=10 Len=  848
 Calling FoFJK, ICntrl=    100527 FMM=F ISym2X=1 I1Cent= 0 IOpClX= 0 NMat=1 NMatS=1 NMatT=0.
 Full mass-weighted force constant matrix:
 Low frequencies ---   -4.1921   -0.0047   -0.0042   -0.0035    2.4045  696.5402
 Diagonal vibrational polarizability:
        0.0000000       0.0000000       0.0000000
 Harmonic frequencies (cm**-1), IR intensities (KM/Mole), Raman scattering
 activities (A**4/AMU), depolarization ratios for plane and unpolarized
 incident light, reduced masses (AMU), force constants (mDyne/A),
 and normal coordinates:
                      1
                     SGG
 Frequencies --    696.5402
 Red. masses --     31.9721
 Frc consts  --      9.1393
 IR Inten    --      0.0000
  Atom  AN      X      Y      Z
     1  16     0.00   0.00   0.71
     2  16     0.00   0.00  -0.71

 -------------------
 - Thermochemistry -
 -------------------
 Temperature   298.150 Kelvin.  Pressure   1.00000 Atm.
 Atom     1 has atomic number 16 and mass  31.97207
 Atom     2 has atomic number 16 and mass  31.97207
 Molecular mass:    63.94414 amu.
 Principal axes and moments of inertia in atomic units:
                           1         2         3
     Eigenvalues --     0.00000 208.82285 208.82285
           X            0.00000  -0.00000   1.00000
           Y            0.00000   1.00000   0.00000
           Z            1.00000   0.00000   0.00000
 This molecule is a prolate symmetric top.
 Rotational symmetry number  2.
 Rotational temperature (Kelvin)      0.41477
 Rotational constant (GHZ):           8.642451
 Zero-point vibrational energy       4166.2 (Joules/Mol)
                                    0.99575 (Kcal/Mol)
 Vibrational temperatures:   1002.17
          (Kelvin)
 
 Zero-point correction=                           0.001587 (Hartree/Particle)
 Thermal correction to Energy=                    0.004061
 Thermal correction to Enthalpy=                  0.005006
 Thermal correction to Gibbs Free Energy=        -0.019880
 Sum of electronic and zero-point Energies=           -796.049621
 Sum of electronic and thermal Energies=              -796.047147
 Sum of electronic and thermal Enthalpies=            -796.046202
 Sum of electronic and thermal Free Energies=         -796.071088
 
                     E (Thermal)             CV                S
                      KCal/Mol        Cal/Mol-Kelvin    Cal/Mol-Kelvin
 Total                    2.549              5.804             52.376
 Electronic               0.000              0.000              0.000
 Translational            0.889              2.981             38.385
 Rotational               0.592              1.987             13.681
 Vibrational              1.067              0.836              0.310
                       Q            Log10(Q)             Ln(Q)
 Total Bot       0.139377D+10          9.144191         21.055277
 Total V=0       0.748314D+10          9.874084         22.735918
 Vib (Bot)       0.192948D+00         -0.714559         -1.645334
 Vib (V=0)       0.103594D+01          0.015334          0.035307
 Electronic      0.100000D+01          0.000000          0.000000
 Translational   0.200981D+08          7.303155         16.816136
 Rotational      0.359414D+03          2.555595          5.884475
 ***** Axes restored to original set *****
 -------------------------------------------------------------------
 Center     Atomic                   Forces (Hartrees/Bohr)
 Number     Number              X              Y              Z
 -------------------------------------------------------------------
      1       16          -0.000000000    0.000000000   -0.000002266
      2       16           0.000000000   -0.000000000    0.000002266
 -------------------------------------------------------------------
 Cartesian Forces:  Max     0.000002266 RMS     0.000001308
 FormGI is forming the generalized inverse of G from B-inverse, IUseBI=4.

 GradGradGradGradGradGradGradGradGradGradGradGradGradGradGradGradGradGrad
 Berny optimization.
 Internal  Forces:  Max     0.000002266 RMS     0.000002266
 Search for a local minimum.
 Step number   1 out of a maximum of    2
 All quantities printed in internal units (Hartrees-Bohrs-Radians)
 Second derivative matrix not updated -- analytic derivatives used.
 The second derivative matrix:
                          R1
           R1           0.29351
 ITU=  0
     Eigenvalues ---    0.29351
 Angle between quadratic step and forces=   0.00 degrees.
 Linear search not attempted -- first point.
 Iteration  1 RMS(Cart)=  0.00000546 RMS(Int)=  0.00000000
 Iteration  2 RMS(Cart)=  0.00000000 RMS(Int)=  0.00000000
 ClnCor:  largest displacement from symmetrization is 0.00D+00 for atom     0.
 Variable       Old X    -DE/DX   Delta X   Delta X   Delta X     New X
                                 (Linear)    (Quad)   (Total)
    R1        3.61425   0.00000   0.00000   0.00001   0.00001   3.61426
         Item               Value     Threshold  Converged?
 Maximum Force            0.000002     0.000450     YES
 RMS     Force            0.000002     0.000300     YES
 Maximum Displacement     0.000004     0.001800     YES
 RMS     Displacement     0.000005     0.001200     YES
 Predicted change in Energy=-8.747763D-12
 Optimization completed.
    -- Stationary point found.
                           ----------------------------
                           !   Optimized Parameters   !
                           ! (Angstroms and Degrees)  !
 --------------------------                            --------------------------
 ! Name  Definition              Value          Derivative Info.                !
 --------------------------------------------------------------------------------
 ! R1    R(1,2)                  1.9126         -DE/DX =    0.0                 !
 --------------------------------------------------------------------------------
 GradGradGradGradGradGradGradGradGradGradGradGradGradGradGradGradGradGrad

 Dipole is zero, so no output in dipole orientation.

 ----------------------------------------------------------------------

 Electric dipole moment (input orientation):
 (Debye = 10**-18 statcoulomb cm , SI units = C m)
                  (au)            (Debye)         (10**-30 SI)
   Tot        0.000000D+00      0.000000D+00      0.000000D+00
   x          0.000000D+00      0.000000D+00      0.000000D+00
   y          0.000000D+00      0.000000D+00      0.000000D+00
   z          0.000000D+00      0.000000D+00      0.000000D+00

 Dipole polarizability, Alpha (input orientation).
 (esu units = cm**3 , SI units = C**2 m**2 J**-1)
 Alpha(0;0):
               (au)            (10**-24 esu)      (10**-40 SI)
   iso        0.366972D+02      0.543797D+01      0.605056D+01
   aniso      0.271990D+02      0.403047D+01      0.448450D+01
   xx         0.259580D+02      0.384659D+01      0.427990D+01
   yx         0.000000D+00      0.000000D+00      0.000000D+00
   yy         0.294139D+02      0.435868D+01      0.484969D+01
   zx         0.000000D+00      0.000000D+00      0.000000D+00
   zy         0.000000D+00      0.000000D+00      0.000000D+00
   zz         0.547198D+02      0.810863D+01      0.902207D+01

 ----------------------------------------------------------------------
 Unable to Open any file for archive entry.
 1\1\GINC-TCOPT10\Freq\RPBEPBE\def2QZVPP\S2\HUTTER\31-Jul-2021\0\\#N Ge
 om=AllCheck Guess=TCheck SCRF=Check GenChk RPBEPBE/def2QZVPP Freq\\Mol
  job 1\\0,1\S,8.,8.,7.0437096835\S,8.,8.,8.9562903165\\Version=ES64L-G
 16RevC.01\HF=-796.051208\RMSD=3.676e-13\RMSF=1.308e-06\ZeroPoint=0.001
 5868\Thermal=0.0040614\ETot=-796.0471466\HTot=-796.0462024\GTot=-796.0
 710881\Dipole=0.,0.,0.\DipoleDeriv=0.,0.,0.,0.,0.,0.,0.,0.,0.,0.,0.,0.
 ,0.,0.,0.,0.,0.,0.\Polar=25.9580493,0.,29.4138579,0.,0.,54.7197695\Qua
 drupole=1.3523498,-2.2069159,0.8545662,0.,0.,0.\PG=D*H [C*(S1.S1)]\NIm
 ag=0\\-0.00001063,0.,0.00000350,0.,0.,0.29351113,0.00001063,0.,0.,-0.0
 0001063,0.,-0.00000350,0.,0.,0.00000350,0.,0.,-0.29351113,0.,0.,0.2935
 1113\\0.,0.,0.00000227,0.,0.,-0.00000227\\\@
 The archive entry for this job was punched.


 The lyf so short, the craft so long to lerne.
                             -- Chaucer
 Job cpu time:       0 days  0 hours  2 minutes 59.7 seconds.
 Elapsed time:       0 days  0 hours  0 minutes 23.0 seconds.
 File lengths (MBytes):  RWF=     14 Int=      0 D2E=      0 Chk=      3 Scr=      1
 Normal termination of Gaussian 16 at Sat Jul 31 10:43:50 2021.
