 Entering Gaussian System, Link 0=g16
 Initial command:
 /sw-ng/spack/opt/spack/linux-opensuse_leap15-sandybridge/pgi-18.10/gaussian-src-16-C.01-zldqaomctopxhethwccpmxmwefdscg3m/g16/l1.exe "/data/hutter/SMG16/PBE/Gau-88277.inp" -scrdir="/data/hutter/SMG16/PBE/"
 Entering Link 1 = /sw-ng/spack/opt/spack/linux-opensuse_leap15-sandybridge/pgi-18.10/gaussian-src-16-C.01-zldqaomctopxhethwccpmxmwefdscg3m/g16/l1.exe PID=     88282.
  
 Copyright (c) 1988-2019, Gaussian, Inc.  All Rights Reserved.
  
 This is part of the Gaussian(R) 16 program.  It is based on
 the Gaussian(R) 09 system (copyright 2009, Gaussian, Inc.),
 the Gaussian(R) 03 system (copyright 2003, Gaussian, Inc.),
 the Gaussian(R) 98 system (copyright 1998, Gaussian, Inc.),
 the Gaussian(R) 94 system (copyright 1995, Gaussian, Inc.),
 the Gaussian 92(TM) system (copyright 1992, Gaussian, Inc.),
 the Gaussian 90(TM) system (copyright 1990, Gaussian, Inc.),
 the Gaussian 88(TM) system (copyright 1988, Gaussian, Inc.),
 the Gaussian 86(TM) system (copyright 1986, Carnegie Mellon
 University), and the Gaussian 82(TM) system (copyright 1983,
 Carnegie Mellon University). Gaussian is a federally registered
 trademark of Gaussian, Inc.
  
 This software contains proprietary and confidential information,
 including trade secrets, belonging to Gaussian, Inc.
  
 This software is provided under written license and may be
 used, copied, transmitted, or stored only in accord with that
 written license.
  
 The following legend is applicable only to US Government
 contracts under FAR:
  
                    RESTRICTED RIGHTS LEGEND
  
 Use, reproduction and disclosure by the US Government is
 subject to restrictions as set forth in subparagraphs (a)
 and (c) of the Commercial Computer Software - Restricted
 Rights clause in FAR 52.227-19.
  
 Gaussian, Inc.
 340 Quinnipiac St., Bldg. 40, Wallingford CT 06492
  
  
 ---------------------------------------------------------------
 Warning -- This program may not be used in any manner that
 competes with the business of Gaussian, Inc. or will provide
 assistance to any competitor of Gaussian, Inc.  The licensee
 of this program is prohibited from giving any competitor of
 Gaussian, Inc. access to this program.  By using this program,
 the user acknowledges that Gaussian, Inc. is engaged in the
 business of creating and licensing software in the field of
 computational chemistry and represents and warrants to the
 licensee that it is not a competitor of Gaussian, Inc. and that
 it will not use this program in any manner prohibited above.
 ---------------------------------------------------------------
  

 Cite this work as:
 Gaussian 16, Revision C.01,
 M. J. Frisch, G. W. Trucks, H. B. Schlegel, G. E. Scuseria, 
 M. A. Robb, J. R. Cheeseman, G. Scalmani, V. Barone, 
 G. A. Petersson, H. Nakatsuji, X. Li, M. Caricato, A. V. Marenich, 
 J. Bloino, B. G. Janesko, R. Gomperts, B. Mennucci, H. P. Hratchian, 
 J. V. Ortiz, A. F. Izmaylov, J. L. Sonnenberg, D. Williams-Young, 
 F. Ding, F. Lipparini, F. Egidi, J. Goings, B. Peng, A. Petrone, 
 T. Henderson, D. Ranasinghe, V. G. Zakrzewski, J. Gao, N. Rega, 
 G. Zheng, W. Liang, M. Hada, M. Ehara, K. Toyota, R. Fukuda, 
 J. Hasegawa, M. Ishida, T. Nakajima, Y. Honda, O. Kitao, H. Nakai, 
 T. Vreven, K. Throssell, J. A. Montgomery, Jr., J. E. Peralta, 
 F. Ogliaro, M. J. Bearpark, J. J. Heyd, E. N. Brothers, K. N. Kudin, 
 V. N. Staroverov, T. A. Keith, R. Kobayashi, J. Normand, 
 K. Raghavachari, A. P. Rendell, J. C. Burant, S. S. Iyengar, 
 J. Tomasi, M. Cossi, J. M. Millam, M. Klene, C. Adamo, R. Cammi, 
 J. W. Ochterski, R. L. Martin, K. Morokuma, O. Farkas, 
 J. B. Foresman, and D. J. Fox, Gaussian, Inc., Wallingford CT, 2019.
 
 ******************************************
 Gaussian 16:  ES64L-G16RevC.01  3-Jul-2019
                30-Jul-2021 
 ******************************************
 %mem=8GB
 %NProcShare=8
 Will use up to    8 processors via shared memory.
 -----------------------------------------------------------
 #N RPBEPBE/Def2QZVPP scf=tight Int(Grid=ultrafine) OPT FREQ
 -----------------------------------------------------------
 1/18=20,19=15,26=4,38=1/1,3;
 2/9=110,12=2,17=6,18=5,40=1/2;
 3/5=45,7=202,11=2,25=1,30=1,71=1,74=1009,75=-5,116=1/1,2,3;
 4//1;
 5/5=2,32=2,38=5/2;
 6/7=2,8=2,9=2,10=2,28=1/1;
 7//1,2,3,16;
 1/18=20,19=15,26=4/3(2);
 2/9=110/2;
 99//99;
 2/9=110/2;
 3/5=45,7=202,11=2,25=1,30=1,71=1,74=1009,75=-5,116=1/1,2,3;
 4/5=5,16=3,69=1/1;
 5/5=2,32=2,38=5/2;
 7//1,2,3,16;
 1/18=20,19=15,26=4/3(-5);
 2/9=110/2;
 6/7=2,8=2,9=2,10=2,19=2,28=1/1;
 99/9=1/99;
 ---------
 Mol job 1
 ---------
 Symbolic Z-matrix:
 Charge =  0 Multiplicity = 1
 C                     7.50001   7.79863   7.5 
 O                     7.50001   6.58969   7.5 
 H                     6.54775   8.41031   7.5 
 H                     8.45225   8.41029   7.5 
 

 GradGradGradGradGradGradGradGradGradGradGradGradGradGradGradGradGradGrad
 Berny optimization.
 Initialization pass.
                           ----------------------------
                           !    Initial Parameters    !
                           ! (Angstroms and Degrees)  !
 --------------------------                            --------------------------
 ! Name  Definition              Value          Derivative Info.                !
 --------------------------------------------------------------------------------
 ! R1    R(1,2)                  1.2089         estimate D2E/DX2                !
 ! R2    R(1,3)                  1.1318         estimate D2E/DX2                !
 ! R3    R(1,4)                  1.1318         estimate D2E/DX2                !
 ! A1    A(2,1,3)              122.7144         estimate D2E/DX2                !
 ! A2    A(2,1,4)              122.7142         estimate D2E/DX2                !
 ! A3    A(3,1,4)              114.5714         estimate D2E/DX2                !
 ! D1    D(2,1,4,3)            180.0            estimate D2E/DX2                !
 --------------------------------------------------------------------------------
 Trust Radius=3.00D-01 FncErr=1.00D-07 GrdErr=1.00D-06 EigMax=2.50D+02 EigMin=1.00D-04
 Number of steps in this run=     20 maximum allowed number of steps=    100.
 GradGradGradGradGradGradGradGradGradGradGradGradGradGradGradGradGradGrad

                          Input orientation:                          
 ---------------------------------------------------------------------
 Center     Atomic      Atomic             Coordinates (Angstroms)
 Number     Number       Type             X           Y           Z
 ---------------------------------------------------------------------
      1          6           0        7.500012    7.798632    7.500000
      2          8           0        7.500012    6.589687    7.500000
      3          1           0        6.547748    8.410313    7.500000
      4          1           0        8.452252    8.410293    7.500000
 ---------------------------------------------------------------------
                    Distance matrix (angstroms):
                    1          2          3          4
     1  C    0.000000
     2  O    1.208944   0.000000
     3  H    1.131795   2.054625   0.000000
     4  H    1.131765   2.054597   1.904505   0.000000
 Stoichiometry    CH2O
 Framework group  CS[SG(CH2O)]
 Deg. of freedom     5
 Full point group                 CS      NOp   2
 Largest Abelian subgroup         CS      NOp   2
 Largest concise Abelian subgroup C1      NOp   1
                         Standard orientation:                         
 ---------------------------------------------------------------------
 Center     Atomic      Atomic             Coordinates (Angstroms)
 Number     Number       Type             X           Y           Z
 ---------------------------------------------------------------------
      1          6           0        0.000002   -0.528013    0.000000
      2          8           0        0.000002    0.680931   -0.000000
      3          1           0       -0.952263   -1.139694    0.000000
      4          1           0        0.952242   -1.139675    0.000000
 ---------------------------------------------------------------------
 Rotational constants (GHZ):         276.5017367          38.2570741          33.6071528
 Standard basis: def2QZVPP (5D, 7F)
 There are   144 symmetry adapted cartesian basis functions of A'  symmetry.
 There are    70 symmetry adapted cartesian basis functions of A"  symmetry.
 There are   114 symmetry adapted basis functions of A'  symmetry.
 There are    60 symmetry adapted basis functions of A"  symmetry.
   174 basis functions,   260 primitive gaussians,   214 cartesian basis functions
     8 alpha electrons        8 beta electrons
       nuclear repulsion energy        31.0199749928 Hartrees.
 NAtoms=    4 NActive=    4 NUniq=    4 SFac= 1.00D+00 NAtFMM=   60 NAOKFM=F Big=F
 Integral buffers will be    131072 words long.
 Raffenetti 2 integral format.
 Two-electron integral symmetry is turned on.
 One-electron integrals computed using PRISM.
   2 Symmetry operations used in ECPInt.
 ECPInt:  NShTT=    1485 NPrTT=    3660 LenC2=    1486 LenP2D=    3379.
 LDataN:  DoStor=T MaxTD1= 8 Len=  415
 NBasis=   174 RedAO= T EigKep=  1.70D-04  NBF=   114    60
 NBsUse=   174 1.00D-06 EigRej= -1.00D+00 NBFU=   114    60
 ExpMin= 7.60D-02 ExpMax= 1.17D+05 ExpMxC= 1.13D+03 IAcc=3 IRadAn=         5 AccDes= 0.00D+00
 Harris functional with IExCor= 1009 and IRadAn=       5 diagonalized for initial guess.
 HarFok:  IExCor= 1009 AccDes= 0.00D+00 IRadAn=         5 IDoV= 1 UseB2=F ITyADJ=14
 ICtDFT=  3500011 ScaDFX=  1.000000  1.000000  1.000000  1.000000
 FoFCou: FMM=F IPFlag=           0 FMFlag=      100000 FMFlg1=           0
         NFxFlg=           0 DoJE=T BraDBF=F KetDBF=T FulRan=T
         wScrn=  0.000000 ICntrl=       500 IOpCl=  0 I1Cent=   200000004 NGrid=           0
         NMat0=    1 NMatS0=      1 NMatT0=    0 NMatD0=    1 NMtDS0=    0 NMtDT0=    0
 Petite list used in FoFCou.
 Initial guess orbital symmetries:
       Occupied  (A') (A') (A') (A') (A') (A') (A") (A')
       Virtual   (A") (A') (A') (A') (A") (A') (A') (A') (A') (A')
                 (A") (A') (A") (A') (A") (A') (A') (A') (A') (A")
                 (A") (A') (A") (A') (A') (A') (A') (A') (A') (A')
                 (A") (A") (A') (A') (A") (A') (A") (A') (A') (A")
                 (A") (A') (A') (A") (A') (A') (A') (A") (A') (A")
                 (A') (A') (A") (A') (A') (A") (A') (A") (A') (A")
                 (A') (A') (A") (A') (A') (A') (A") (A') (A') (A")
                 (A') (A') (A") (A") (A') (A") (A') (A') (A') (A")
                 (A') (A') (A') (A") (A') (A") (A') (A') (A") (A')
                 (A") (A") (A") (A') (A') (A') (A") (A') (A') (A")
                 (A") (A') (A') (A') (A") (A') (A") (A') (A') (A")
                 (A') (A') (A') (A") (A") (A") (A") (A') (A') (A')
                 (A') (A') (A') (A") (A') (A") (A') (A") (A") (A')
                 (A") (A') (A') (A") (A') (A') (A') (A') (A') (A")
                 (A") (A') (A") (A') (A") (A') (A") (A') (A') (A")
                 (A') (A') (A") (A') (A") (A') (A') (A') (A") (A')
                 (A') (A') (A') (A') (A') (A')
 The electronic state of the initial guess is 1-A'.
 Keep J ints in memory in symmetry-blocked form, NReq=174496733.
 Requested convergence on RMS density matrix=1.00D-08 within 128 cycles.
 Requested convergence on MAX density matrix=1.00D-06.
 Requested convergence on             energy=1.00D-06.
 No special actions if energy rises.
 Integral accuracy reduced to 1.0D-05 until final iterations.
 Initial convergence to 1.0D-05 achieved.  Increase integral accuracy.
 SCF Done:  E(RPBE-PBE) =  -114.427317268     A.U. after   11 cycles
            NFock= 11  Conv=0.28D-08     -V/T= 2.0044

 **********************************************************************

            Population analysis using the SCF Density.

 **********************************************************************

 Orbital symmetries:
       Occupied  (A') (A') (A') (A') (A') (A') (A") (A')
       Virtual   (A") (A') (A') (A') (A") (A') (A') (A') (A') (A')
                 (A") (A') (A") (A') (A") (A') (A') (A') (A") (A")
                 (A') (A') (A") (A') (A') (A') (A') (A') (A') (A')
                 (A") (A") (A') (A') (A") (A') (A") (A') (A') (A")
                 (A") (A') (A") (A') (A') (A') (A') (A") (A') (A")
                 (A') (A') (A") (A') (A') (A") (A') (A") (A') (A")
                 (A') (A') (A") (A') (A') (A') (A") (A') (A') (A")
                 (A') (A') (A") (A") (A') (A') (A") (A') (A') (A")
                 (A') (A') (A') (A") (A') (A") (A') (A') (A") (A')
                 (A") (A") (A") (A') (A') (A") (A') (A') (A') (A")
                 (A") (A') (A') (A') (A") (A') (A") (A') (A') (A")
                 (A') (A') (A') (A") (A") (A") (A') (A") (A') (A')
                 (A') (A') (A') (A") (A') (A") (A') (A") (A") (A')
                 (A") (A') (A') (A") (A') (A') (A') (A') (A") (A')
                 (A") (A') (A") (A') (A") (A') (A") (A') (A') (A")
                 (A') (A') (A") (A') (A") (A') (A') (A') (A") (A')
                 (A') (A') (A') (A') (A') (A')
 The electronic state is 1-A'.
 Alpha  occ. eigenvalues --  -18.77715  -9.98903  -0.97894  -0.57445  -0.44163
 Alpha  occ. eigenvalues --   -0.40488  -0.37080  -0.23091
 Alpha virt. eigenvalues --   -0.09899   0.00771   0.06284   0.06773   0.11054
 Alpha virt. eigenvalues --    0.15743   0.16376   0.23780   0.28646   0.29541
 Alpha virt. eigenvalues --    0.30662   0.34768   0.35507   0.40392   0.53215
 Alpha virt. eigenvalues --    0.54243   0.57911   0.66361   0.67994   0.68171
 Alpha virt. eigenvalues --    0.70757   0.71908   0.73677   0.77389   0.79452
 Alpha virt. eigenvalues --    0.81910   1.00524   1.01566   1.08431   1.14146
 Alpha virt. eigenvalues --    1.21940   1.29133   1.31356   1.36287   1.37048
 Alpha virt. eigenvalues --    1.41417   1.56799   1.60206   1.62019   1.73891
 Alpha virt. eigenvalues --    1.78384   1.81498   1.81973   1.83743   1.87118
 Alpha virt. eigenvalues --    1.95955   1.99561   2.07691   2.10823   2.15864
 Alpha virt. eigenvalues --    2.17139   2.28099   2.28529   2.37591   2.40631
 Alpha virt. eigenvalues --    2.47530   2.50230   2.56001   2.57801   2.62667
 Alpha virt. eigenvalues --    2.82820   2.94937   3.03512   3.06332   3.09403
 Alpha virt. eigenvalues --    3.12725   3.16228   3.28155   3.46899   3.48021
 Alpha virt. eigenvalues --    3.49702   3.58892   3.64280   3.84868   3.86389
 Alpha virt. eigenvalues --    3.88755   3.88976   4.16252   4.27181   4.29269
 Alpha virt. eigenvalues --    4.38664   4.54002   4.56068   4.82721   4.92485
 Alpha virt. eigenvalues --    5.09404   5.12594   5.19028   5.19929   5.30112
 Alpha virt. eigenvalues --    5.32564   5.48347   5.52423   5.61842   5.62504
 Alpha virt. eigenvalues --    5.73341   5.74400   5.74507   5.86685   5.89614
 Alpha virt. eigenvalues --    5.89939   5.99097   6.10458   6.14833   6.24912
 Alpha virt. eigenvalues --    6.36652   6.46457   6.52112   6.57599   6.88897
 Alpha virt. eigenvalues --    6.99461   7.14906   7.18270   7.23268   7.29442
 Alpha virt. eigenvalues --    7.38974   7.41293   7.42507   7.49138   7.66760
 Alpha virt. eigenvalues --    7.75581   7.77825   7.94463   7.98426   7.99360
 Alpha virt. eigenvalues --    8.02518   8.22366   8.30086   8.38398   8.65540
 Alpha virt. eigenvalues --    8.71661   8.72387   8.79462   8.88026   8.94427
 Alpha virt. eigenvalues --    9.10362   9.29393   9.34312   9.39974   9.42097
 Alpha virt. eigenvalues --    9.59691   9.73290   9.95875  10.03984  10.11776
 Alpha virt. eigenvalues --   10.54866  10.84298  10.85621  10.86771  11.22655
 Alpha virt. eigenvalues --   11.32974  11.59881  11.60263  11.62519  11.92416
 Alpha virt. eigenvalues --   11.93833  12.06224  12.25833  12.93697  13.36653
 Alpha virt. eigenvalues --   13.77958  14.21101  28.16971  47.65531 146.82465
 Alpha virt. eigenvalues --  252.24265
          Condensed to atoms (all electrons):
               1          2          3          4
     1  C    4.509525   0.624896   0.387367   0.387361
     2  O    0.624896   7.761567  -0.073377  -0.073377
     3  H    0.387367  -0.073377   0.752719  -0.141135
     4  H    0.387361  -0.073377  -0.141135   0.752719
 Mulliken charges:
               1
     1  C    0.090851
     2  O   -0.239709
     3  H    0.074426
     4  H    0.074432
 Sum of Mulliken charges =  -0.00000
 Mulliken charges with hydrogens summed into heavy atoms:
               1
     1  C    0.239709
     2  O   -0.239709
 Electronic spatial extent (au):  <R**2>=             61.7925
 Charge=             -0.0000 electrons
 Dipole moment (field-independent basis, Debye):
    X=              0.0000    Y=             -2.1909    Z=              0.0000  Tot=              2.1909
 Quadrupole moment (field-independent basis, Debye-Ang):
   XX=            -11.8425   YY=            -12.4285   ZZ=            -11.8020
   XY=             -0.0000   XZ=              0.0000   YZ=              0.0000
 Traceless Quadrupole moment (field-independent basis, Debye-Ang):
   XX=              0.1818   YY=             -0.4042   ZZ=              0.2223
   XY=             -0.0000   XZ=              0.0000   YZ=              0.0000
 Octapole moment (field-independent basis, Debye-Ang**2):
  XXX=              0.0001  YYY=              1.1526  ZZZ=             -0.0000  XYY=              0.0001
  XXY=             -0.1769  XXZ=              0.0000  XZZ=              0.0000  YZZ=              0.8579
  YYZ=              0.0000  XYZ=             -0.0000
 Hexadecapole moment (field-independent basis, Debye-Ang**3):
 XXXX=            -20.2346 YYYY=            -48.6155 ZZZZ=            -10.7465 XXXY=             -0.0003
 XXXZ=              0.0000 YYYX=             -0.0003 YYYZ=              0.0000 ZZZX=              0.0000
 ZZZY=              0.0000 XXYY=            -11.3210 XXZZ=             -5.4693 YYZZ=             -9.8361
 XXYZ=              0.0000 YYXZ=              0.0000 ZZXY=             -0.0001
 N-N= 3.101997499284D+01 E-N=-3.308939050499D+02  KE= 1.139305601814D+02
 Symmetry A'   KE= 1.101954695063D+02
 Symmetry A"   KE= 3.735090675089D+00
   2 Symmetry operations used in ECPInt.
 ECPInt:  NShTT=    1485 NPrTT=    3660 LenC2=    1486 LenP2D=    3379.
 LDataN:  DoStor=T MaxTD1= 9 Len=  602
 Calling FoFJK, ICntrl=      2527 FMM=F ISym2X=1 I1Cent= 0 IOpClX= 0 NMat=1 NMatS=1 NMatT=0.
 ***** Axes restored to original set *****
 -------------------------------------------------------------------
 Center     Atomic                   Forces (Hartrees/Bohr)
 Number     Number              X              Y              Z
 -------------------------------------------------------------------
      1        6          -0.000011424    0.005500213    0.000000000
      2        8          -0.000000506    0.005355437   -0.000000000
      3        1           0.005241112   -0.005431962    0.000000000
      4        1          -0.005229182   -0.005423688    0.000000000
 -------------------------------------------------------------------
 Cartesian Forces:  Max     0.005500213 RMS     0.003793299

 GradGradGradGradGradGradGradGradGradGradGradGradGradGradGradGradGradGrad
 Berny optimization.
 FormGI is forming the generalized inverse of G from B-inverse, IUseBI=4.
 Internal  Forces:  Max     0.007345454 RMS     0.004560472
 Search for a local minimum.
 Step number   1 out of a maximum of   20
 All quantities printed in internal units (Hartrees-Bohrs-Radians)
 Mixed Optimization -- RFO/linear search
 Second derivative matrix not updated -- first step.
 The second derivative matrix:
                          R1        R2        R3        A1        A2
           R1           1.00454
           R2           0.00000   0.30397
           R3           0.00000   0.00000   0.30400
           A1           0.00000   0.00000   0.00000   0.16000
           A2           0.00000   0.00000   0.00000   0.00000   0.16000
           A3           0.00000   0.00000   0.00000   0.00000   0.00000
           D1           0.00000   0.00000   0.00000   0.00000   0.00000
                          A3        D1
           A3           0.16000
           D1           0.00000   0.00230
 ITU=  0
     Eigenvalues ---    0.00230   0.16000   0.16000   0.30397   0.30400
     Eigenvalues ---    1.00454
 RFO step:  Lambda=-4.39693555D-04 EMin= 2.30000000D-03
 Linear search not attempted -- first point.
 Iteration  1 RMS(Cart)=  0.01279483 RMS(Int)=  0.00008773
 Iteration  2 RMS(Cart)=  0.00009457 RMS(Int)=  0.00000000
 Iteration  3 RMS(Cart)=  0.00000000 RMS(Int)=  0.00000000
 ClnCor:  largest displacement from symmetrization is 1.43D-10 for atom     1.
 Variable       Old X    -DE/DX   Delta X   Delta X   Delta X     New X
                                 (Linear)    (Quad)   (Total)
    R1        2.28457  -0.00536   0.00000  -0.00533  -0.00533   2.27925
    R2        2.13878  -0.00735   0.00000  -0.02413  -0.02413   2.11465
    R3        2.13873  -0.00733   0.00000  -0.02408  -0.02408   2.11465
    A1        2.14177  -0.00124   0.00000  -0.00772  -0.00772   2.13405
    A2        2.14177  -0.00124   0.00000  -0.00772  -0.00772   2.13405
    A3        1.99965   0.00248   0.00000   0.01544   0.01544   2.01509
    D1        3.14159  -0.00000   0.00000  -0.00000   0.00000   3.14159
         Item               Value     Threshold  Converged?
 Maximum Force            0.007345     0.000450     NO 
 RMS     Force            0.004560     0.000300     NO 
 Maximum Displacement     0.017396     0.001800     NO 
 RMS     Displacement     0.012802     0.001200     NO 
 Predicted change in Energy=-2.201877D-04
 GradGradGradGradGradGradGradGradGradGradGradGradGradGradGradGradGradGrad

                          Input orientation:                          
 ---------------------------------------------------------------------
 Center     Atomic      Atomic             Coordinates (Angstroms)
 Number     Number       Type             X           Y           Z
 ---------------------------------------------------------------------
      1          6           0        7.500008    7.805017    7.500000
      2          8           0        7.500005    6.598893    7.500000
      3          1           0        6.553845    8.402509    7.500000
      4          1           0        8.446167    8.402506    7.500000
 ---------------------------------------------------------------------
                    Distance matrix (angstroms):
                    1          2          3          4
     1  C    0.000000
     2  O    1.206125   0.000000
     3  H    1.119026   2.036725   0.000000
     4  H    1.119022   2.036724   1.892322   0.000000
 Stoichiometry    CH2O
 Framework group  CS[SG(CH2O)]
 Deg. of freedom     5
 Full point group                 CS      NOp   2
 Largest Abelian subgroup         CS      NOp   2
 Largest concise Abelian subgroup C1      NOp   1
                         Standard orientation:                         
 ---------------------------------------------------------------------
 Center     Atomic      Atomic             Coordinates (Angstroms)
 Number     Number       Type             X           Y           Z
 ---------------------------------------------------------------------
      1          6           0        0.000000   -0.528376   -0.000000
      2          8           0        0.000000    0.677749    0.000000
      3          1           0       -0.946164   -1.125865   -0.000000
      4          1           0        0.946158   -1.125867   -0.000000
 ---------------------------------------------------------------------
 Rotational constants (GHZ):         280.0733676          38.6183178          33.9386398
 Standard basis: def2QZVPP (5D, 7F)
 There are   144 symmetry adapted cartesian basis functions of A'  symmetry.
 There are    70 symmetry adapted cartesian basis functions of A"  symmetry.
 There are   114 symmetry adapted basis functions of A'  symmetry.
 There are    60 symmetry adapted basis functions of A"  symmetry.
   174 basis functions,   260 primitive gaussians,   214 cartesian basis functions
     8 alpha electrons        8 beta electrons
       nuclear repulsion energy        31.1710329197 Hartrees.
 NAtoms=    4 NActive=    4 NUniq=    4 SFac= 1.00D+00 NAtFMM=   60 NAOKFM=F Big=F
 Integral buffers will be    131072 words long.
 Raffenetti 2 integral format.
 Two-electron integral symmetry is turned on.
 One-electron integrals computed using PRISM.
   2 Symmetry operations used in ECPInt.
 ECPInt:  NShTT=    1485 NPrTT=    3660 LenC2=    1486 LenP2D=    3380.
 LDataN:  DoStor=T MaxTD1= 8 Len=  415
 NBasis=   174 RedAO= T EigKep=  1.67D-04  NBF=   114    60
 NBsUse=   174 1.00D-06 EigRej= -1.00D+00 NBFU=   114    60
 Initial guess from the checkpoint file:  "/data/hutter/SMG16/PBE/Gau-88282.chk"
 B after Tr=     0.000000   -0.000000    0.000000
         Rot=    1.000000    0.000000    0.000000   -0.000000 Ang=   0.00 deg.
 Initial guess orbital symmetries:
       Occupied  (A') (A') (A') (A') (A') (A') (A") (A')
       Virtual   (A") (A') (A') (A') (A") (A') (A') (A') (A') (A')
                 (A") (A') (A") (A') (A") (A') (A') (A') (A") (A")
                 (A') (A') (A") (A') (A') (A') (A') (A') (A') (A')
                 (A") (A") (A') (A') (A") (A') (A") (A') (A') (A")
                 (A") (A') (A") (A') (A') (A') (A') (A") (A') (A")
                 (A') (A') (A") (A') (A') (A") (A') (A") (A') (A")
                 (A') (A') (A") (A') (A') (A') (A") (A') (A') (A")
                 (A') (A') (A") (A") (A') (A') (A") (A') (A') (A")
                 (A') (A') (A') (A") (A') (A") (A') (A') (A") (A')
                 (A") (A") (A") (A') (A') (A") (A') (A') (A') (A")
                 (A") (A') (A') (A') (A") (A') (A") (A') (A') (A")
                 (A') (A') (A') (A") (A") (A") (A') (A") (A') (A')
                 (A') (A') (A') (A") (A') (A") (A') (A") (A") (A')
                 (A") (A') (A') (A") (A') (A') (A') (A') (A") (A')
                 (A") (A') (A") (A') (A") (A') (A") (A') (A') (A")
                 (A') (A') (A") (A') (A") (A') (A') (A') (A") (A')
                 (A') (A') (A') (A') (A') (A')
 Keep J ints in memory in symmetry-blocked form, NReq=174496733.
 Requested convergence on RMS density matrix=1.00D-08 within 128 cycles.
 Requested convergence on MAX density matrix=1.00D-06.
 Requested convergence on             energy=1.00D-06.
 No special actions if energy rises.
 SCF Done:  E(RPBE-PBE) =  -114.427561299     A.U. after    7 cycles
            NFock=  7  Conv=0.75D-08     -V/T= 2.0040
   2 Symmetry operations used in ECPInt.
 ECPInt:  NShTT=    1485 NPrTT=    3660 LenC2=    1486 LenP2D=    3380.
 LDataN:  DoStor=T MaxTD1= 9 Len=  602
 Calling FoFJK, ICntrl=      2527 FMM=F ISym2X=1 I1Cent= 0 IOpClX= 0 NMat=1 NMatS=1 NMatT=0.
 ***** Axes restored to original set *****
 -------------------------------------------------------------------
 Center     Atomic                   Forces (Hartrees/Bohr)
 Number     Number              X              Y              Z
 -------------------------------------------------------------------
      1        6          -0.000002233    0.003347952    0.000000000
      2        8           0.000000301   -0.001616587   -0.000000000
      3        1           0.000284860   -0.000866097    0.000000000
      4        1          -0.000282928   -0.000865268    0.000000000
 -------------------------------------------------------------------
 Cartesian Forces:  Max     0.003347952 RMS     0.001135860

 GradGradGradGradGradGradGradGradGradGradGradGradGradGradGradGradGradGrad
 Berny optimization.
 Using GEDIIS/GDIIS optimizer.
 FormGI is forming the generalized inverse of G from B-inverse, IUseBI=4.
 Internal  Forces:  Max     0.001616587 RMS     0.000810982
 Search for a local minimum.
 Step number   2 out of a maximum of   20
 All quantities printed in internal units (Hartrees-Bohrs-Radians)
 Mixed Optimization -- En-DIIS/RFO-DIIS
 Update second derivatives using D2CorX and points    1    2
 DE= -2.44D-04 DEPred=-2.20D-04 R= 1.11D+00
 TightC=F SS=  1.41D+00  RLast= 3.93D-02 DXNew= 5.0454D-01 1.1804D-01
 Trust test= 1.11D+00 RLast= 3.93D-02 DXMaxT set to 3.00D-01
 The second derivative matrix:
                          R1        R2        R3        A1        A2
           R1           1.06217
           R2           0.02765   0.29297
           R3           0.02761  -0.01096   0.29307
           A1          -0.00043  -0.00670  -0.00669   0.15826
           A2          -0.00045  -0.00671  -0.00670  -0.00174   0.15826
           A3           0.00088   0.01341   0.01338   0.00347   0.00347
           D1           0.00000   0.00000   0.00000   0.00000   0.00000
                          A3        D1
           A3           0.15306
           D1          -0.00000   0.00230
 ITU=  1  0
 Use linear search instead of GDIIS.
     Eigenvalues ---    0.00230   0.14560   0.16000   0.28408   0.30399
     Eigenvalues ---    1.06413
 RFO step:  Lambda=-9.27212871D-06 EMin= 2.30000000D-03
 Quartic linear search produced a step of  0.10793.
 Iteration  1 RMS(Cart)=  0.00236076 RMS(Int)=  0.00000619
 Iteration  2 RMS(Cart)=  0.00000656 RMS(Int)=  0.00000000
 Iteration  3 RMS(Cart)=  0.00000000 RMS(Int)=  0.00000000
 ClnCor:  largest displacement from symmetrization is 2.60D-09 for atom     1.
 Variable       Old X    -DE/DX   Delta X   Delta X   Delta X     New X
                                 (Linear)    (Quad)   (Total)
    R1        2.27925   0.00162  -0.00058   0.00225   0.00168   2.28092
    R2        2.11465  -0.00070  -0.00260  -0.00039  -0.00300   2.11166
    R3        2.11465  -0.00070  -0.00260  -0.00039  -0.00299   2.11166
    A1        2.13405  -0.00041  -0.00083  -0.00211  -0.00295   2.13110
    A2        2.13405  -0.00041  -0.00083  -0.00212  -0.00295   2.13110
    A3        2.01509   0.00082   0.00167   0.00423   0.00589   2.02098
    D1        3.14159  -0.00000   0.00000  -0.00000   0.00000   3.14159
         Item               Value     Threshold  Converged?
 Maximum Force            0.001617     0.000450     NO 
 RMS     Force            0.000811     0.000300     NO 
 Maximum Displacement     0.003851     0.001800     NO 
 RMS     Displacement     0.002359     0.001200     NO 
 Predicted change in Energy=-7.204082D-06
 GradGradGradGradGradGradGradGradGradGradGradGradGradGradGradGradGradGrad

                          Input orientation:                          
 ---------------------------------------------------------------------
 Center     Atomic      Atomic             Coordinates (Angstroms)
 Number     Number       Type             X           Y           Z
 ---------------------------------------------------------------------
      1          6           0        7.500006    7.807055    7.500000
      2          8           0        7.500005    6.600044    7.500000
      3          1           0        6.553429    8.400914    7.500000
      4          1           0        8.446584    8.400912    7.500000
 ---------------------------------------------------------------------
                    Distance matrix (angstroms):
                    1          2          3          4
     1  C    0.000000
     2  O    1.207011   0.000000
     3  H    1.117441   2.034487   0.000000
     4  H    1.117442   2.034487   1.893155   0.000000
 Stoichiometry    CH2O
 Framework group  CS[SG(CH2O)]
 Deg. of freedom     5
 Full point group                 CS      NOp   2
 Largest Abelian subgroup         CS      NOp   2
 Largest concise Abelian subgroup C1      NOp   1
                         Standard orientation:                         
 ---------------------------------------------------------------------
 Center     Atomic      Atomic             Coordinates (Angstroms)
 Number     Number       Type             X           Y           Z
 ---------------------------------------------------------------------
      1          6           0       -0.000000   -0.529273    0.000000
      2          8           0       -0.000000    0.677738    0.000000
      3          1           0       -0.946577   -1.123131    0.000000
      4          1           0        0.946578   -1.123131    0.000000
 ---------------------------------------------------------------------
 Rotational constants (GHZ):         279.8270454          38.6196159          33.9360224
 Standard basis: def2QZVPP (5D, 7F)
 There are   144 symmetry adapted cartesian basis functions of A'  symmetry.
 There are    70 symmetry adapted cartesian basis functions of A"  symmetry.
 There are   114 symmetry adapted basis functions of A'  symmetry.
 There are    60 symmetry adapted basis functions of A"  symmetry.
   174 basis functions,   260 primitive gaussians,   214 cartesian basis functions
     8 alpha electrons        8 beta electrons
       nuclear repulsion energy        31.1680525491 Hartrees.
 NAtoms=    4 NActive=    4 NUniq=    4 SFac= 1.00D+00 NAtFMM=   60 NAOKFM=F Big=F
 Integral buffers will be    131072 words long.
 Raffenetti 2 integral format.
 Two-electron integral symmetry is turned on.
 One-electron integrals computed using PRISM.
   2 Symmetry operations used in ECPInt.
 ECPInt:  NShTT=    1485 NPrTT=    3660 LenC2=    1486 LenP2D=    3379.
 LDataN:  DoStor=T MaxTD1= 8 Len=  415
 NBasis=   174 RedAO= T EigKep=  1.68D-04  NBF=   114    60
 NBsUse=   174 1.00D-06 EigRej= -1.00D+00 NBFU=   114    60
 Initial guess from the checkpoint file:  "/data/hutter/SMG16/PBE/Gau-88282.chk"
 B after Tr=     0.000000    0.000000   -0.000000
         Rot=    1.000000   -0.000000   -0.000000   -0.000000 Ang=  -0.00 deg.
 Initial guess orbital symmetries:
       Occupied  (A') (A') (A') (A') (A') (A') (A") (A')
       Virtual   (A") (A') (A') (A') (A") (A') (A') (A') (A') (A')
                 (A") (A') (A") (A') (A") (A') (A') (A') (A") (A")
                 (A') (A') (A") (A') (A') (A') (A') (A') (A') (A')
                 (A") (A") (A') (A') (A") (A') (A") (A') (A') (A")
                 (A") (A') (A") (A') (A') (A') (A') (A") (A') (A")
                 (A') (A") (A') (A') (A') (A") (A') (A") (A') (A")
                 (A') (A') (A") (A') (A') (A') (A") (A') (A') (A")
                 (A') (A') (A") (A") (A') (A') (A") (A') (A') (A")
                 (A') (A') (A') (A") (A') (A") (A') (A') (A") (A')
                 (A") (A") (A") (A') (A') (A') (A") (A') (A') (A")
                 (A") (A') (A') (A') (A") (A') (A") (A') (A') (A")
                 (A') (A') (A') (A") (A") (A") (A') (A") (A') (A')
                 (A') (A') (A') (A') (A") (A") (A') (A") (A") (A')
                 (A") (A') (A') (A") (A') (A') (A') (A') (A') (A")
                 (A") (A') (A") (A") (A') (A') (A") (A') (A') (A")
                 (A') (A') (A") (A') (A") (A') (A') (A') (A") (A')
                 (A') (A') (A') (A') (A') (A')
 Keep J ints in memory in symmetry-blocked form, NReq=174496733.
 Requested convergence on RMS density matrix=1.00D-08 within 128 cycles.
 Requested convergence on MAX density matrix=1.00D-06.
 Requested convergence on             energy=1.00D-06.
 No special actions if energy rises.
 SCF Done:  E(RPBE-PBE) =  -114.427569868     A.U. after    7 cycles
            NFock=  7  Conv=0.33D-08     -V/T= 2.0040
   2 Symmetry operations used in ECPInt.
 ECPInt:  NShTT=    1485 NPrTT=    3660 LenC2=    1486 LenP2D=    3379.
 LDataN:  DoStor=T MaxTD1= 9 Len=  602
 Calling FoFJK, ICntrl=      2527 FMM=F ISym2X=1 I1Cent= 0 IOpClX= 0 NMat=1 NMatS=1 NMatT=0.
 ***** Axes restored to original set *****
 -------------------------------------------------------------------
 Center     Atomic                   Forces (Hartrees/Bohr)
 Number     Number              X              Y              Z
 -------------------------------------------------------------------
      1        6           0.000000226    0.000982639   -0.000000000
      2        8          -0.000000019   -0.000751568    0.000000000
      3        1          -0.000095963   -0.000115482    0.000000000
      4        1           0.000095756   -0.000115589   -0.000000000
 -------------------------------------------------------------------
 Cartesian Forces:  Max     0.000982639 RMS     0.000362343

 GradGradGradGradGradGradGradGradGradGradGradGradGradGradGradGradGradGrad
 Berny optimization.
 Using GEDIIS/GDIIS optimizer.
 FormGI is forming the generalized inverse of G from B-inverse, IUseBI=4.
 Internal  Forces:  Max     0.000751568 RMS     0.000300350
 Search for a local minimum.
 Step number   3 out of a maximum of   20
 All quantities printed in internal units (Hartrees-Bohrs-Radians)
 Mixed Optimization -- En-DIIS/RFO-DIIS
 Swapping is turned off.
 Update second derivatives using D2CorX and points    1    2    3
 DE= -8.57D-06 DEPred=-7.20D-06 R= 1.19D+00
 TightC=F SS=  1.41D+00  RLast= 8.53D-03 DXNew= 5.0454D-01 2.5600D-02
 Trust test= 1.19D+00 RLast= 8.53D-03 DXMaxT set to 3.00D-01
 The second derivative matrix:
                          R1        R2        R3        A1        A2
           R1           0.96201
           R2           0.05971   0.31000
           R3           0.05959   0.00601   0.30998
           A1           0.02203  -0.00697  -0.00695   0.15498
           A2           0.02204  -0.00696  -0.00695  -0.00502   0.15498
           A3          -0.04407   0.01393   0.01391   0.01003   0.01003
           D1          -0.00000   0.00000   0.00000   0.00000   0.00000
                          A3        D1
           A3           0.13994
           D1          -0.00000   0.00230
 ITU=  1  1  0
     Eigenvalues ---    0.00230   0.12174   0.16000   0.30399   0.31031
     Eigenvalues ---    0.97586
 En-DIIS/RFO-DIIS/Sim-DIIS IScMMF=       -3 using points:     3    2
 RFO step:  Lambda=-1.32765668D-06.
 DidBck=F Rises=F RFO-DIIS coefs:    1.28352   -0.28352
 Iteration  1 RMS(Cart)=  0.00076983 RMS(Int)=  0.00000057
 Iteration  2 RMS(Cart)=  0.00000055 RMS(Int)=  0.00000000
 ClnCor:  largest displacement from symmetrization is 1.99D-11 for atom     1.
 Variable       Old X    -DE/DX   Delta X   Delta X   Delta X     New X
                                 (Linear)    (Quad)   (Total)
    R1        2.28092   0.00075   0.00047   0.00047   0.00095   2.28187
    R2        2.11166   0.00002  -0.00085   0.00060  -0.00025   2.11141
    R3        2.11166   0.00002  -0.00085   0.00060  -0.00025   2.11141
    A1        2.13110  -0.00010  -0.00083  -0.00016  -0.00099   2.13011
    A2        2.13110  -0.00010  -0.00084  -0.00016  -0.00099   2.13011
    A3        2.02098   0.00021   0.00167   0.00032   0.00199   2.02297
    D1        3.14159   0.00000   0.00000   0.00000   0.00000   3.14159
         Item               Value     Threshold  Converged?
 Maximum Force            0.000752     0.000450     NO 
 RMS     Force            0.000300     0.000300     NO 
 Maximum Displacement     0.001192     0.001800     YES
 RMS     Displacement     0.000770     0.001200     YES
 Predicted change in Energy=-6.638321D-07
 GradGradGradGradGradGradGradGradGradGradGradGradGradGradGradGradGradGrad

                          Input orientation:                          
 ---------------------------------------------------------------------
 Center     Atomic      Atomic             Coordinates (Angstroms)
 Number     Number       Type             X           Y           Z
 ---------------------------------------------------------------------
      1          6           0        7.500006    7.807686    7.500000
      2          8           0        7.500005    6.600173    7.500000
      3          1           0        6.552951    8.400534    7.500000
      4          1           0        8.447063    8.400532    7.500000
 ---------------------------------------------------------------------
                    Distance matrix (angstroms):
                    1          2          3          4
     1  C    0.000000
     2  O    1.207513   0.000000
     3  H    1.117310   2.034259   0.000000
     4  H    1.117311   2.034260   1.894112   0.000000
 Stoichiometry    CH2O
 Framework group  CS[SG(CH2O)]
 Deg. of freedom     5
 Full point group                 CS      NOp   2
 Largest Abelian subgroup         CS      NOp   2
 Largest concise Abelian subgroup C1      NOp   1
                         Standard orientation:                         
 ---------------------------------------------------------------------
 Center     Atomic      Atomic             Coordinates (Angstroms)
 Number     Number       Type             X           Y           Z
 ---------------------------------------------------------------------
      1          6           0       -0.000000   -0.529651    0.000000
      2          8           0       -0.000000    0.677862    0.000000
      3          1           0       -0.947056   -1.122498    0.000000
      4          1           0        0.947056   -1.122498    0.000000
 ---------------------------------------------------------------------
 Rotational constants (GHZ):         279.5442982          38.6054047          33.9208890
 Standard basis: def2QZVPP (5D, 7F)
 There are   144 symmetry adapted cartesian basis functions of A'  symmetry.
 There are    70 symmetry adapted cartesian basis functions of A"  symmetry.
 There are   114 symmetry adapted basis functions of A'  symmetry.
 There are    60 symmetry adapted basis functions of A"  symmetry.
   174 basis functions,   260 primitive gaussians,   214 cartesian basis functions
     8 alpha electrons        8 beta electrons
       nuclear repulsion energy        31.1602954724 Hartrees.
 NAtoms=    4 NActive=    4 NUniq=    4 SFac= 1.00D+00 NAtFMM=   60 NAOKFM=F Big=F
 Integral buffers will be    131072 words long.
 Raffenetti 2 integral format.
 Two-electron integral symmetry is turned on.
 One-electron integrals computed using PRISM.
   2 Symmetry operations used in ECPInt.
 ECPInt:  NShTT=    1485 NPrTT=    3660 LenC2=    1486 LenP2D=    3379.
 LDataN:  DoStor=T MaxTD1= 8 Len=  415
 NBasis=   174 RedAO= T EigKep=  1.68D-04  NBF=   114    60
 NBsUse=   174 1.00D-06 EigRej= -1.00D+00 NBFU=   114    60
 Initial guess from the checkpoint file:  "/data/hutter/SMG16/PBE/Gau-88282.chk"
 B after Tr=    -0.000000   -0.000000    0.000000
         Rot=    1.000000    0.000000   -0.000000    0.000000 Ang=   0.00 deg.
 Initial guess orbital symmetries:
       Occupied  (A') (A') (A') (A') (A') (A') (A") (A')
       Virtual   (A") (A') (A') (A') (A") (A') (A') (A') (A') (A')
                 (A") (A') (A") (A') (A") (A') (A') (A') (A") (A")
                 (A') (A') (A") (A') (A') (A') (A') (A') (A') (A')
                 (A") (A") (A') (A') (A") (A') (A") (A') (A') (A")
                 (A") (A') (A") (A') (A') (A') (A') (A") (A') (A")
                 (A') (A") (A') (A') (A') (A") (A') (A") (A') (A")
                 (A') (A') (A") (A') (A') (A') (A") (A') (A') (A")
                 (A') (A') (A") (A") (A') (A') (A") (A') (A') (A")
                 (A') (A') (A') (A") (A') (A") (A') (A') (A") (A')
                 (A") (A") (A") (A') (A') (A') (A") (A') (A') (A")
                 (A") (A') (A') (A') (A") (A') (A") (A') (A') (A")
                 (A') (A') (A') (A") (A") (A") (A') (A") (A') (A')
                 (A') (A') (A') (A') (A") (A") (A') (A") (A") (A')
                 (A") (A') (A') (A") (A') (A') (A') (A') (A') (A")
                 (A") (A') (A") (A") (A') (A') (A") (A') (A') (A")
                 (A') (A') (A") (A') (A") (A') (A') (A') (A") (A')
                 (A') (A') (A') (A') (A') (A')
 Keep J ints in memory in symmetry-blocked form, NReq=174496733.
 Requested convergence on RMS density matrix=1.00D-08 within 128 cycles.
 Requested convergence on MAX density matrix=1.00D-06.
 Requested convergence on             energy=1.00D-06.
 No special actions if energy rises.
 SCF Done:  E(RPBE-PBE) =  -114.427570573     A.U. after    6 cycles
            NFock=  6  Conv=0.35D-08     -V/T= 2.0040
   2 Symmetry operations used in ECPInt.
 ECPInt:  NShTT=    1485 NPrTT=    3660 LenC2=    1486 LenP2D=    3379.
 LDataN:  DoStor=T MaxTD1= 9 Len=  602
 Calling FoFJK, ICntrl=      2527 FMM=F ISym2X=1 I1Cent= 0 IOpClX= 0 NMat=1 NMatS=1 NMatT=0.
 ***** Axes restored to original set *****
 -------------------------------------------------------------------
 Center     Atomic                   Forces (Hartrees/Bohr)
 Number     Number              X              Y              Z
 -------------------------------------------------------------------
      1        6           0.000000164    0.000061034   -0.000000000
      2        8          -0.000000004   -0.000087369    0.000000000
      3        1          -0.000028823    0.000013215   -0.000000000
      4        1           0.000028663    0.000013120   -0.000000000
 -------------------------------------------------------------------
 Cartesian Forces:  Max     0.000087369 RMS     0.000033364

 GradGradGradGradGradGradGradGradGradGradGradGradGradGradGradGradGradGrad
 Berny optimization.
 Using GEDIIS/GDIIS optimizer.
 FormGI is forming the generalized inverse of G from B-inverse, IUseBI=4.
 Internal  Forces:  Max     0.000087369 RMS     0.000037127
 Search for a local minimum.
 Step number   4 out of a maximum of   20
 All quantities printed in internal units (Hartrees-Bohrs-Radians)
 Mixed Optimization -- En-DIIS/RFO-DIIS
 Swapping is turned off.
 Update second derivatives using D2CorX and points    1    2    3    4
 DE= -7.06D-07 DEPred=-6.64D-07 R= 1.06D+00
 Trust test= 1.06D+00 RLast= 2.64D-03 DXMaxT set to 3.00D-01
 The second derivative matrix:
                          R1        R2        R3        A1        A2
           R1           0.87715
           R2           0.02971   0.29877
           R3           0.02972  -0.00520   0.29880
           A1           0.02568  -0.00553  -0.00553   0.15496
           A2           0.02567  -0.00553  -0.00553  -0.00504   0.15496
           A3          -0.05135   0.01106   0.01107   0.01008   0.01008
           D1           0.00000   0.00000   0.00000   0.00000   0.00000
                          A3        D1
           A3           0.13985
           D1          -0.00000   0.00230
 ITU=  0  1  1  0
     Eigenvalues ---    0.00230   0.12151   0.16000   0.29384   0.30399
     Eigenvalues ---    0.88515
 En-DIIS/RFO-DIIS/Sim-DIIS IScMMF=       -3 using points:     4    3    2
 RFO step:  Lambda=-1.36812776D-08.
 DidBck=F Rises=F RFO-DIIS coefs:    1.17553   -0.22262    0.04709
 Iteration  1 RMS(Cart)=  0.00006985 RMS(Int)=  0.00000000
 Iteration  2 RMS(Cart)=  0.00000000 RMS(Int)=  0.00000000
 ClnCor:  largest displacement from symmetrization is 1.43D-14 for atom     1.
 Variable       Old X    -DE/DX   Delta X   Delta X   Delta X     New X
                                 (Linear)    (Quad)   (Total)
    R1        2.28187   0.00009   0.00009   0.00001   0.00010   2.28197
    R2        2.11141   0.00003   0.00010  -0.00000   0.00009   2.11151
    R3        2.11141   0.00003   0.00010  -0.00000   0.00009   2.11151
    A1        2.13011  -0.00000  -0.00004   0.00000  -0.00003   2.13007
    A2        2.13011  -0.00000  -0.00004   0.00000  -0.00003   2.13007
    A3        2.02297   0.00001   0.00007  -0.00000   0.00007   2.02304
    D1        3.14159  -0.00000  -0.00000  -0.00000   0.00000   3.14159
         Item               Value     Threshold  Converged?
 Maximum Force            0.000087     0.000450     YES
 RMS     Force            0.000037     0.000300     YES
 Maximum Displacement     0.000117     0.001800     YES
 RMS     Displacement     0.000070     0.001200     YES
 Predicted change in Energy=-7.540159D-09
 Optimization completed.
    -- Stationary point found.
                           ----------------------------
                           !   Optimized Parameters   !
                           ! (Angstroms and Degrees)  !
 --------------------------                            --------------------------
 ! Name  Definition              Value          Derivative Info.                !
 --------------------------------------------------------------------------------
 ! R1    R(1,2)                  1.2075         -DE/DX =    0.0001              !
 ! R2    R(1,3)                  1.1173         -DE/DX =    0.0                 !
 ! R3    R(1,4)                  1.1173         -DE/DX =    0.0                 !
 ! A1    A(2,1,3)              122.0461         -DE/DX =    0.0                 !
 ! A2    A(2,1,4)              122.0461         -DE/DX =    0.0                 !
 ! A3    A(3,1,4)              115.9077         -DE/DX =    0.0                 !
 ! D1    D(2,1,4,3)            180.0            -DE/DX =    0.0                 !
 --------------------------------------------------------------------------------
 GradGradGradGradGradGradGradGradGradGradGradGradGradGradGradGradGradGrad

                          Input orientation:                          
 ---------------------------------------------------------------------
 Center     Atomic      Atomic             Coordinates (Angstroms)
 Number     Number       Type             X           Y           Z
 ---------------------------------------------------------------------
      1          6           0        7.500006    7.807686    7.500000
      2          8           0        7.500005    6.600173    7.500000
      3          1           0        6.552951    8.400534    7.500000
      4          1           0        8.447063    8.400532    7.500000
 ---------------------------------------------------------------------
                    Distance matrix (angstroms):
                    1          2          3          4
     1  C    0.000000
     2  O    1.207513   0.000000
     3  H    1.117310   2.034259   0.000000
     4  H    1.117311   2.034260   1.894112   0.000000
 Stoichiometry    CH2O
 Framework group  CS[SG(CH2O)]
 Deg. of freedom     5
 Full point group                 CS      NOp   2
 Largest Abelian subgroup         CS      NOp   2
 Largest concise Abelian subgroup C1      NOp   1
                         Standard orientation:                         
 ---------------------------------------------------------------------
 Center     Atomic      Atomic             Coordinates (Angstroms)
 Number     Number       Type             X           Y           Z
 ---------------------------------------------------------------------
      1          6           0       -0.000000   -0.529651    0.000000
      2          8           0       -0.000000    0.677862    0.000000
      3          1           0       -0.947056   -1.122498    0.000000
      4          1           0        0.947056   -1.122498    0.000000
 ---------------------------------------------------------------------
 Rotational constants (GHZ):         279.5442982          38.6054047          33.9208890

 **********************************************************************

            Population analysis using the SCF Density.

 **********************************************************************

 Orbital symmetries:
       Occupied  (A') (A') (A') (A') (A') (A') (A") (A')
       Virtual   (A") (A') (A') (A') (A") (A') (A') (A') (A') (A')
                 (A") (A') (A") (A') (A") (A') (A') (A') (A") (A")
                 (A') (A') (A") (A') (A') (A') (A') (A') (A') (A')
                 (A") (A") (A') (A') (A") (A') (A") (A') (A') (A")
                 (A") (A') (A") (A') (A') (A') (A') (A") (A') (A")
                 (A') (A") (A') (A') (A') (A") (A') (A") (A') (A")
                 (A') (A') (A") (A') (A') (A') (A") (A') (A') (A")
                 (A') (A') (A") (A") (A') (A') (A") (A') (A') (A")
                 (A') (A') (A') (A") (A') (A") (A') (A') (A") (A')
                 (A") (A") (A") (A') (A') (A') (A") (A') (A') (A")
                 (A") (A') (A') (A') (A") (A') (A") (A') (A') (A")
                 (A') (A') (A') (A") (A") (A") (A') (A") (A') (A')
                 (A') (A') (A') (A') (A") (A") (A') (A") (A") (A')
                 (A") (A') (A') (A") (A') (A') (A') (A') (A') (A")
                 (A") (A') (A") (A") (A') (A') (A") (A') (A') (A")
                 (A') (A') (A") (A') (A") (A') (A') (A') (A") (A')
                 (A') (A') (A') (A') (A') (A')
 The electronic state is 1-A'.
 Alpha  occ. eigenvalues --  -18.77541  -9.98572  -0.97881  -0.57651  -0.44546
 Alpha  occ. eigenvalues --   -0.40379  -0.37053  -0.23000
 Alpha virt. eigenvalues --   -0.09826   0.00979   0.06373   0.06845   0.11079
 Alpha virt. eigenvalues --    0.15822   0.16346   0.23908   0.29340   0.29815
 Alpha virt. eigenvalues --    0.30719   0.34946   0.35569   0.40592   0.53520
 Alpha virt. eigenvalues --    0.54263   0.57782   0.66803   0.68186   0.68341
 Alpha virt. eigenvalues --    0.71168   0.71601   0.73454   0.77691   0.79499
 Alpha virt. eigenvalues --    0.81179   1.00499   1.02573   1.08468   1.15415
 Alpha virt. eigenvalues --    1.22423   1.29225   1.31375   1.36493   1.37257
 Alpha virt. eigenvalues --    1.41796   1.56672   1.60259   1.61581   1.74199
 Alpha virt. eigenvalues --    1.78696   1.81525   1.81670   1.84255   1.87891
 Alpha virt. eigenvalues --    1.95914   1.99335   2.08279   2.10878   2.16275
 Alpha virt. eigenvalues --    2.17366   2.28532   2.29599   2.38019   2.40896
 Alpha virt. eigenvalues --    2.48800   2.50668   2.57440   2.57724   2.63215
 Alpha virt. eigenvalues --    2.84168   2.95816   3.03954   3.08825   3.10358
 Alpha virt. eigenvalues --    3.13684   3.18650   3.28739   3.48258   3.49532
 Alpha virt. eigenvalues --    3.53670   3.59206   3.64574   3.85397   3.86983
 Alpha virt. eigenvalues --    3.89281   3.89649   4.16700   4.27018   4.29283
 Alpha virt. eigenvalues --    4.39735   4.54755   4.55902   4.82834   4.93091
 Alpha virt. eigenvalues --    5.09811   5.13767   5.17435   5.21693   5.31700
 Alpha virt. eigenvalues --    5.33502   5.45912   5.52765   5.62353   5.65194
 Alpha virt. eigenvalues --    5.72840   5.74092   5.76265   5.89062   5.90967
 Alpha virt. eigenvalues --    5.91798   6.00338   6.13032   6.21923   6.27429
 Alpha virt. eigenvalues --    6.41187   6.49367   6.56942   6.59475   6.92411
 Alpha virt. eigenvalues --    6.98557   7.18468   7.22853   7.23019   7.32338
 Alpha virt. eigenvalues --    7.41104   7.42161   7.43289   7.48811   7.65100
 Alpha virt. eigenvalues --    7.76841   7.81175   7.99588   8.01766   8.02459
 Alpha virt. eigenvalues --    8.03625   8.25009   8.29862   8.38948   8.67276
 Alpha virt. eigenvalues --    8.72056   8.74475   8.82443   8.92302   8.95859
 Alpha virt. eigenvalues --    9.15828   9.29194   9.39997   9.47220   9.49119
 Alpha virt. eigenvalues --    9.66308   9.73865   9.97356  10.12339  10.14825
 Alpha virt. eigenvalues --   10.55770  10.84768  10.85531  10.92692  11.23222
 Alpha virt. eigenvalues --   11.33825  11.59029  11.60500  11.62013  11.92924
 Alpha virt. eigenvalues --   11.95736  12.07548  12.36036  12.94438  13.38034
 Alpha virt. eigenvalues --   13.78439  14.23631  28.22144  47.66123 146.88290
 Alpha virt. eigenvalues --  252.24923
          Condensed to atoms (all electrons):
               1          2          3          4
     1  C    4.500890   0.626847   0.389624   0.389624
     2  O    0.626847   7.766632  -0.075524  -0.075525
     3  H    0.389624  -0.075524   0.755270  -0.144078
     4  H    0.389624  -0.075525  -0.144078   0.755270
 Mulliken charges:
               1
     1  C    0.093014
     2  O   -0.242430
     3  H    0.074708
     4  H    0.074708
 Sum of Mulliken charges =  -0.00000
 Mulliken charges with hydrogens summed into heavy atoms:
               1
     1  C    0.242430
     2  O   -0.242430
 Electronic spatial extent (au):  <R**2>=             61.3022
 Charge=             -0.0000 electrons
 Dipole moment (field-independent basis, Debye):
    X=             -0.0000    Y=             -2.2052    Z=              0.0000  Tot=              2.2052
 Quadrupole moment (field-independent basis, Debye-Ang):
   XX=            -11.7860   YY=            -12.4358   ZZ=            -11.7703
   XY=              0.0000   XZ=              0.0000   YZ=              0.0000
 Traceless Quadrupole moment (field-independent basis, Debye-Ang):
   XX=              0.2113   YY=             -0.4384   ZZ=              0.2271
   XY=              0.0000   XZ=              0.0000   YZ=              0.0000
 Octapole moment (field-independent basis, Debye-Ang**2):
  XXX=             -0.0000  YYY=              1.0966  ZZZ=              0.0000  XYY=             -0.0000
  XXY=             -0.2249  XXZ=              0.0000  XZZ=             -0.0000  YZZ=              0.8140
  YYZ=              0.0000  XYZ=              0.0000
 Hexadecapole moment (field-independent basis, Debye-Ang**3):
 XXXX=            -19.8779 YYYY=            -48.0838 ZZZZ=            -10.6995 XXXY=              0.0000
 XXXZ=              0.0000 YYYX=              0.0000 YYYZ=              0.0000 ZZZX=              0.0000
 ZZZY=              0.0000 XXYY=            -11.2004 XXZZ=             -5.4024 YYZZ=             -9.7085
 XXYZ=              0.0000 YYXZ=              0.0000 ZZXY=              0.0000
 N-N= 3.116029547245D+01 E-N=-3.312139547035D+02  KE= 1.139743843126D+02
 Symmetry A'   KE= 1.102450835139D+02
 Symmetry A"   KE= 3.729300798768D+00
 Unable to Open any file for archive entry.
 1\1\GINC-TCOPT10\FOpt\RPBEPBE\def2QZVPP\C1H2O1\HUTTER\30-Jul-2021\0\\#
 N RPBEPBE/Def2QZVPP scf=tight Int(Grid=ultrafine) OPT FREQ\\Mol job 1\
 \0,1\C,7.5000059001,7.807686026,7.5\O,7.5000047448,6.6001730774,7.5\H,
 6.5529505357,8.4005339035,7.5\H,8.4470627594,8.4005321931,7.5\\Version
 =ES64L-G16RevC.01\State=1-A'\HF=-114.4275706\RMSD=3.539e-09\RMSF=3.336
 e-05\Dipole=0.0000007,0.8675752,0.\Quadrupole=0.1571281,-0.3259522,0.1
 688241,-0.0000009,0.,0.\PG=CS [SG(C1H2O1)]\\@
 The archive entry for this job was punched.


 A BIRD IN THE HAND IS SAFER THAN ONE OVERHEAD.

                       -- NEWTON'S SEVENTH LAW
 Job cpu time:       0 days  0 hours  6 minutes 46.1 seconds.
 Elapsed time:       0 days  0 hours  0 minutes 53.6 seconds.
 File lengths (MBytes):  RWF=     16 Int=      0 D2E=      0 Chk=      3 Scr=      1
 Normal termination of Gaussian 16 at Fri Jul 30 11:47:44 2021.
 Link1:  Proceeding to internal job step number  2.
 ----------------------------------------------------------------------
 #N Geom=AllCheck Guess=TCheck SCRF=Check GenChk RPBEPBE/def2QZVPP Freq
 ----------------------------------------------------------------------
 1/10=4,29=7,30=1,38=1,40=1/1,3;
 2/12=2,40=1/2;
 3/5=45,7=202,11=2,14=-4,25=1,30=1,70=2,71=2,74=1009,75=-5,116=1,140=1/1,2,3;
 4/5=101/1;
 5/5=2,32=2,38=6,98=1/2;
 8/6=4,10=90,11=11/1;
 11/6=1,8=1,9=11,15=111,16=1/1,2,10;
 10/6=1/2;
 6/7=2,8=2,9=2,10=2,28=1/1;
 7/8=1,10=1,25=1/1,2,3,16;
 1/10=4,30=1/3;
 99//99;
 Structure from the checkpoint file:  "/data/hutter/SMG16/PBE/Gau-88282.chk"
 ---------
 Mol job 1
 ---------
 Charge =  0 Multiplicity = 1
 Redundant internal coordinates found in file.  (old form).
 C,0,7.5000059001,7.807686026,7.5
 O,0,7.5000047448,6.6001730774,7.5
 H,0,6.5529505357,8.4005339035,7.5
 H,0,8.4470627594,8.4005321931,7.5
 Recover connectivity data from disk.

 GradGradGradGradGradGradGradGradGradGradGradGradGradGradGradGradGradGrad
 Berny optimization.
 Initialization pass.
                           ----------------------------
                           !    Initial Parameters    !
                           ! (Angstroms and Degrees)  !
 --------------------------                            --------------------------
 ! Name  Definition              Value          Derivative Info.                !
 --------------------------------------------------------------------------------
 ! R1    R(1,2)                  1.2075         calculate D2E/DX2 analytically  !
 ! R2    R(1,3)                  1.1173         calculate D2E/DX2 analytically  !
 ! R3    R(1,4)                  1.1173         calculate D2E/DX2 analytically  !
 ! A1    A(2,1,3)              122.0461         calculate D2E/DX2 analytically  !
 ! A2    A(2,1,4)              122.0461         calculate D2E/DX2 analytically  !
 ! A3    A(3,1,4)              115.9077         calculate D2E/DX2 analytically  !
 ! D1    D(2,1,4,3)            180.0            calculate D2E/DX2 analytically  !
 --------------------------------------------------------------------------------
 Trust Radius=3.00D-01 FncErr=1.00D-07 GrdErr=1.00D-07 EigMax=2.50D+02 EigMin=1.00D-04
 Number of steps in this run=      2 maximum allowed number of steps=      2.
 GradGradGradGradGradGradGradGradGradGradGradGradGradGradGradGradGradGrad

                          Input orientation:                          
 ---------------------------------------------------------------------
 Center     Atomic      Atomic             Coordinates (Angstroms)
 Number     Number       Type             X           Y           Z
 ---------------------------------------------------------------------
      1          6           0        7.500006    7.807686    7.500000
      2          8           0        7.500005    6.600173    7.500000
      3          1           0        6.552951    8.400534    7.500000
      4          1           0        8.447063    8.400532    7.500000
 ---------------------------------------------------------------------
                    Distance matrix (angstroms):
                    1          2          3          4
     1  C    0.000000
     2  O    1.207513   0.000000
     3  H    1.117310   2.034259   0.000000
     4  H    1.117311   2.034260   1.894112   0.000000
 Stoichiometry    CH2O
 Framework group  CS[SG(CH2O)]
 Deg. of freedom     5
 Full point group                 CS      NOp   2
 Largest Abelian subgroup         CS      NOp   2
 Largest concise Abelian subgroup C1      NOp   1
                         Standard orientation:                         
 ---------------------------------------------------------------------
 Center     Atomic      Atomic             Coordinates (Angstroms)
 Number     Number       Type             X           Y           Z
 ---------------------------------------------------------------------
      1          6           0       -0.000000   -0.529651    0.000000
      2          8           0       -0.000000    0.677862    0.000000
      3          1           0       -0.947056   -1.122498    0.000000
      4          1           0        0.947056   -1.122498    0.000000
 ---------------------------------------------------------------------
 Rotational constants (GHZ):         279.5442982          38.6054047          33.9208890
 Standard basis: def2QZVPP (5D, 7F)
 There are   144 symmetry adapted cartesian basis functions of A'  symmetry.
 There are    70 symmetry adapted cartesian basis functions of A"  symmetry.
 There are   114 symmetry adapted basis functions of A'  symmetry.
 There are    60 symmetry adapted basis functions of A"  symmetry.
   174 basis functions,   260 primitive gaussians,   214 cartesian basis functions
     8 alpha electrons        8 beta electrons
       nuclear repulsion energy        31.1602954724 Hartrees.
 NAtoms=    4 NActive=    4 NUniq=    4 SFac= 1.00D+00 NAtFMM=   60 NAOKFM=F Big=F
 Integral buffers will be    131072 words long.
 Raffenetti 2 integral format.
 Two-electron integral symmetry is turned on.
 One-electron integrals computed using PRISM.
   2 Symmetry operations used in ECPInt.
 ECPInt:  NShTT=    1485 NPrTT=    3660 LenC2=    1486 LenP2D=    3379.
 LDataN:  DoStor=T MaxTD1= 8 Len=  415
 NBasis=   174 RedAO= T EigKep=  1.68D-04  NBF=   114    60
 NBsUse=   174 1.00D-06 EigRej= -1.00D+00 NBFU=   114    60
 Initial guess from the checkpoint file:  "/data/hutter/SMG16/PBE/Gau-88282.chk"
 B after Tr=     0.000000   -0.000000    0.000000
         Rot=    1.000000    0.000000    0.000000    0.000000 Ang=   0.00 deg.
 Initial guess orbital symmetries:
       Occupied  (A') (A') (A') (A') (A') (A') (A") (A')
       Virtual   (A") (A') (A') (A') (A") (A') (A') (A') (A') (A')
                 (A") (A') (A") (A') (A") (A') (A') (A') (A") (A")
                 (A') (A') (A") (A') (A') (A') (A') (A') (A') (A')
                 (A") (A") (A') (A') (A") (A') (A") (A') (A') (A")
                 (A") (A') (A") (A') (A') (A') (A') (A") (A') (A")
                 (A') (A") (A') (A') (A') (A") (A') (A") (A') (A")
                 (A') (A') (A") (A') (A') (A') (A") (A') (A') (A")
                 (A') (A') (A") (A") (A') (A') (A") (A') (A') (A")
                 (A') (A') (A') (A") (A') (A") (A') (A') (A") (A')
                 (A") (A") (A") (A') (A') (A') (A") (A') (A') (A")
                 (A") (A') (A') (A') (A") (A') (A") (A') (A') (A")
                 (A') (A') (A') (A") (A") (A") (A') (A") (A') (A')
                 (A') (A') (A') (A') (A") (A") (A') (A") (A") (A')
                 (A") (A') (A') (A") (A') (A') (A') (A') (A') (A")
                 (A") (A') (A") (A") (A') (A') (A") (A') (A') (A")
                 (A') (A') (A") (A') (A") (A') (A') (A') (A") (A')
                 (A') (A') (A') (A') (A') (A')
 Keep J ints in memory in symmetry-blocked form, NReq=174496733.
 Requested convergence on RMS density matrix=1.00D-08 within 128 cycles.
 Requested convergence on MAX density matrix=1.00D-06.
 Requested convergence on             energy=1.00D-06.
 No special actions if energy rises.
 SCF Done:  E(RPBE-PBE) =  -114.427570573     A.U. after    1 cycles
            NFock=  1  Conv=0.22D-08     -V/T= 2.0040
 DoSCS=F DFT=T ScalE2(SS,OS)=  1.000000  1.000000
 Range of M.O.s used for correlation:     1   174
 NBasis=   174 NAE=     8 NBE=     8 NFC=     0 NFV=     0
 NROrb=    174 NOA=     8 NOB=     8 NVA=   166 NVB=   166

 **** Warning!!: The largest alpha MO coefficient is  0.19087437D+02

   2 Symmetry operations used in ECPInt.
 ECPInt:  NShTT=    1485 NPrTT=    3660 LenC2=    1486 LenP2D=    3379.
 LDataN:  DoStor=T MaxTD1= 9 Len=  602
 Symmetrizing basis deriv contribution to polar:
 IMax=3 JMax=2 DiffMx= 0.00D+00
 G2DrvN: will do     5 centers at a time, making    1 passes.
 Calling FoFCou, ICntrl=  3507 FMM=F I1Cent=   0 AccDes= 0.00D+00.
 End of G2Drv F.D. properties file   721 does not exist.
 End of G2Drv F.D. properties file   722 does not exist.
 End of G2Drv F.D. properties file   788 does not exist.
          IDoAtm=1111
          Differentiating once with respect to electric field.
                with respect to dipole field.
          Differentiating once with respect to nuclear coordinates.
 Keep J ints in memory in symmetry-blocked form, NReq=174498985.
          There are    15 degrees of freedom in the 1st order CPHF.  IDoFFX=6 NUNeed=     3.
     12 vectors produced by pass  0 Test12= 8.85D-15 6.67D-09 XBig12= 3.06D+01 4.15D+00.
 AX will form    12 AO Fock derivatives at one time.
     12 vectors produced by pass  1 Test12= 8.85D-15 6.67D-09 XBig12= 1.97D+01 1.78D+00.
     12 vectors produced by pass  2 Test12= 8.85D-15 6.67D-09 XBig12= 6.43D-02 9.40D-02.
     12 vectors produced by pass  3 Test12= 8.85D-15 6.67D-09 XBig12= 2.29D-04 6.11D-03.
     11 vectors produced by pass  4 Test12= 8.85D-15 6.67D-09 XBig12= 1.28D-06 2.67D-04.
      6 vectors produced by pass  5 Test12= 8.85D-15 6.67D-09 XBig12= 1.20D-09 1.05D-05.
      1 vectors produced by pass  6 Test12= 8.85D-15 6.67D-09 XBig12= 3.49D-13 1.99D-07.
 InvSVY:  IOpt=1 It=  1 EMax= 5.55D-16
 Solved reduced A of dimension    66 with    12 vectors.
 Isotropic polarizability for W=    0.000000       17.71 Bohr**3.
 End of Minotr F.D. properties file   721 does not exist.
 End of Minotr F.D. properties file   722 does not exist.
 End of Minotr F.D. properties file   788 does not exist.

 **********************************************************************

            Population analysis using the SCF Density.

 **********************************************************************

 Orbital symmetries:
       Occupied  (A') (A') (A') (A') (A') (A') (A") (A')
       Virtual   (A") (A') (A') (A') (A") (A') (A') (A') (A') (A')
                 (A") (A') (A") (A') (A") (A') (A') (A') (A") (A")
                 (A') (A') (A") (A') (A') (A') (A') (A') (A') (A')
                 (A") (A") (A') (A') (A") (A') (A") (A') (A') (A")
                 (A") (A') (A") (A') (A') (A') (A') (A") (A') (A")
                 (A') (A") (A') (A') (A') (A") (A') (A") (A') (A")
                 (A') (A') (A") (A') (A') (A') (A") (A') (A') (A")
                 (A') (A') (A") (A") (A') (A') (A") (A') (A') (A")
                 (A') (A') (A') (A") (A') (A") (A') (A') (A") (A')
                 (A") (A") (A") (A') (A') (A') (A") (A') (A') (A")
                 (A") (A') (A') (A') (A") (A') (A") (A') (A') (A")
                 (A') (A') (A') (A") (A") (A") (A') (A") (A') (A')
                 (A') (A') (A') (A') (A") (A") (A') (A") (A") (A')
                 (A") (A') (A') (A") (A') (A') (A') (A') (A') (A")
                 (A") (A') (A") (A") (A') (A') (A") (A') (A') (A")
                 (A') (A') (A") (A') (A") (A') (A') (A') (A") (A')
                 (A') (A') (A') (A') (A') (A')
 The electronic state is 1-A'.
 Alpha  occ. eigenvalues --  -18.77541  -9.98572  -0.97881  -0.57651  -0.44546
 Alpha  occ. eigenvalues --   -0.40379  -0.37053  -0.23000
 Alpha virt. eigenvalues --   -0.09826   0.00979   0.06373   0.06845   0.11079
 Alpha virt. eigenvalues --    0.15822   0.16346   0.23908   0.29340   0.29815
 Alpha virt. eigenvalues --    0.30719   0.34946   0.35569   0.40592   0.53520
 Alpha virt. eigenvalues --    0.54263   0.57782   0.66803   0.68186   0.68341
 Alpha virt. eigenvalues --    0.71168   0.71601   0.73454   0.77691   0.79499
 Alpha virt. eigenvalues --    0.81179   1.00499   1.02573   1.08468   1.15415
 Alpha virt. eigenvalues --    1.22423   1.29225   1.31375   1.36493   1.37257
 Alpha virt. eigenvalues --    1.41796   1.56672   1.60259   1.61581   1.74199
 Alpha virt. eigenvalues --    1.78696   1.81525   1.81670   1.84255   1.87891
 Alpha virt. eigenvalues --    1.95914   1.99335   2.08279   2.10878   2.16275
 Alpha virt. eigenvalues --    2.17366   2.28532   2.29599   2.38019   2.40896
 Alpha virt. eigenvalues --    2.48800   2.50668   2.57440   2.57724   2.63215
 Alpha virt. eigenvalues --    2.84168   2.95816   3.03954   3.08825   3.10358
 Alpha virt. eigenvalues --    3.13684   3.18650   3.28739   3.48258   3.49532
 Alpha virt. eigenvalues --    3.53670   3.59206   3.64574   3.85397   3.86983
 Alpha virt. eigenvalues --    3.89281   3.89649   4.16700   4.27018   4.29283
 Alpha virt. eigenvalues --    4.39735   4.54755   4.55902   4.82834   4.93091
 Alpha virt. eigenvalues --    5.09811   5.13767   5.17435   5.21693   5.31700
 Alpha virt. eigenvalues --    5.33502   5.45912   5.52765   5.62353   5.65194
 Alpha virt. eigenvalues --    5.72840   5.74092   5.76265   5.89062   5.90967
 Alpha virt. eigenvalues --    5.91798   6.00338   6.13032   6.21923   6.27429
 Alpha virt. eigenvalues --    6.41187   6.49367   6.56942   6.59475   6.92411
 Alpha virt. eigenvalues --    6.98557   7.18468   7.22853   7.23019   7.32338
 Alpha virt. eigenvalues --    7.41104   7.42161   7.43289   7.48811   7.65100
 Alpha virt. eigenvalues --    7.76841   7.81175   7.99588   8.01766   8.02459
 Alpha virt. eigenvalues --    8.03625   8.25009   8.29862   8.38948   8.67276
 Alpha virt. eigenvalues --    8.72056   8.74475   8.82443   8.92302   8.95859
 Alpha virt. eigenvalues --    9.15828   9.29194   9.39997   9.47220   9.49119
 Alpha virt. eigenvalues --    9.66308   9.73865   9.97356  10.12339  10.14825
 Alpha virt. eigenvalues --   10.55770  10.84768  10.85531  10.92692  11.23222
 Alpha virt. eigenvalues --   11.33825  11.59029  11.60500  11.62013  11.92924
 Alpha virt. eigenvalues --   11.95736  12.07548  12.36036  12.94438  13.38034
 Alpha virt. eigenvalues --   13.78439  14.23631  28.22144  47.66123 146.88290
 Alpha virt. eigenvalues --  252.24923
          Condensed to atoms (all electrons):
               1          2          3          4
     1  C    4.500890   0.626847   0.389624   0.389624
     2  O    0.626847   7.766631  -0.075525  -0.075525
     3  H    0.389624  -0.075525   0.755270  -0.144078
     4  H    0.389624  -0.075525  -0.144078   0.755270
 Mulliken charges:
               1
     1  C    0.093014
     2  O   -0.242430
     3  H    0.074708
     4  H    0.074708
 Sum of Mulliken charges =  -0.00000
 Mulliken charges with hydrogens summed into heavy atoms:
               1
     1  C    0.242430
     2  O   -0.242430
 APT charges:
               1
     1  C    0.663305
     2  O   -0.536267
     3  H   -0.063519
     4  H   -0.063519
 Sum of APT charges =  -0.00000
 APT charges with hydrogens summed into heavy atoms:
               1
     1  C    0.536267
     2  O   -0.536267
 Electronic spatial extent (au):  <R**2>=             61.3022
 Charge=             -0.0000 electrons
 Dipole moment (field-independent basis, Debye):
    X=             -0.0000    Y=             -2.2052    Z=              0.0000  Tot=              2.2052
 Quadrupole moment (field-independent basis, Debye-Ang):
   XX=            -11.7860   YY=            -12.4358   ZZ=            -11.7703
   XY=              0.0000   XZ=              0.0000   YZ=              0.0000
 Traceless Quadrupole moment (field-independent basis, Debye-Ang):
   XX=              0.2113   YY=             -0.4384   ZZ=              0.2271
   XY=              0.0000   XZ=              0.0000   YZ=              0.0000
 Octapole moment (field-independent basis, Debye-Ang**2):
  XXX=             -0.0000  YYY=              1.0966  ZZZ=              0.0000  XYY=             -0.0000
  XXY=             -0.2249  XXZ=              0.0000  XZZ=             -0.0000  YZZ=              0.8140
  YYZ=              0.0000  XYZ=              0.0000
 Hexadecapole moment (field-independent basis, Debye-Ang**3):
 XXXX=            -19.8780 YYYY=            -48.0839 ZZZZ=            -10.6995 XXXY=              0.0000
 XXXZ=              0.0000 YYYX=              0.0000 YYYZ=              0.0000 ZZZX=              0.0000
 ZZZY=              0.0000 XXYY=            -11.2004 XXZZ=             -5.4024 YYZZ=             -9.7085
 XXYZ=              0.0000 YYXZ=              0.0000 ZZXY=              0.0000
 N-N= 3.116029547245D+01 E-N=-3.312139490744D+02  KE= 1.139743819113D+02
 Symmetry A'   KE= 1.102450821571D+02
 Symmetry A"   KE= 3.729299754183D+00
  Exact polarizability:      18.310      -0.000      22.949      -0.000      -0.000      11.876
 Approx polarizability:      25.565      -0.000      43.160      -0.000      -0.000      17.638
   2 Symmetry operations used in ECPInt.
 ECPInt:  NShTT=    1485 NPrTT=    3660 LenC2=    1486 LenP2D=    3379.
 LDataN:  DoStor=T MaxTD1=10 Len=  848
 Calling FoFJK, ICntrl=    100527 FMM=F ISym2X=1 I1Cent= 0 IOpClX= 0 NMat=1 NMatS=1 NMatT=0.
 Full mass-weighted force constant matrix:
 Low frequencies ---  -17.2407  -12.9285  -11.9362   -0.0017   -0.0009   -0.0004
 Low frequencies --- 1152.3570 1223.2289 1480.7869
 Diagonal vibrational polarizability:
        0.6689287       1.2802542       0.1023764
 Harmonic frequencies (cm**-1), IR intensities (KM/Mole), Raman scattering
 activities (A**4/AMU), depolarization ratios for plane and unpolarized
 incident light, reduced masses (AMU), force constants (mDyne/A),
 and normal coordinates:
                      1                      2                      3
                     A"                     A'                     A'
 Frequencies --   1152.3570              1223.2289              1480.7869
 Red. masses --      1.3692                 1.3444                 1.1042
 Frc consts  --      1.0712                 1.1852                 1.4265
 IR Inten    --      5.0517                 9.4093                 8.9077
  Atom  AN      X      Y      Z        X      Y      Z        X      Y      Z
     1   6    -0.00   0.00  -0.17     0.15  -0.00  -0.00    -0.00   0.00   0.00
     2   8     0.00  -0.00   0.04    -0.08  -0.00   0.00     0.00  -0.08  -0.00
     3   1     0.00  -0.00   0.70    -0.25   0.65   0.00    -0.35   0.61  -0.00
     4   1    -0.00  -0.00   0.70    -0.25  -0.65   0.00     0.35   0.61  -0.00
                      4                      5                      6
                     A'                     A'                     A'
 Frequencies --   1763.8155              2790.8518              2837.2967
 Red. masses --      7.6017                 1.0419                 1.1215
 Frc consts  --     13.9338                 4.7812                 5.3195
 IR Inten    --    103.5480                79.6558               149.4807
  Atom  AN      X      Y      Z        X      Y      Z        X      Y      Z
     1   6     0.00   0.60   0.00    -0.00   0.06   0.00    -0.10  -0.00  -0.00
     2   8    -0.00  -0.42  -0.00     0.00   0.00  -0.00     0.00  -0.00   0.00
     3   1     0.43  -0.21  -0.00    -0.61  -0.35  -0.00     0.60   0.37   0.00
     4   1    -0.43  -0.21  -0.00     0.61  -0.35  -0.00     0.60  -0.37   0.00

 -------------------
 - Thermochemistry -
 -------------------
 Temperature   298.150 Kelvin.  Pressure   1.00000 Atm.
 Atom     1 has atomic number  6 and mass  12.00000
 Atom     2 has atomic number  8 and mass  15.99491
 Atom     3 has atomic number  1 and mass   1.00783
 Atom     4 has atomic number  1 and mass   1.00783
 Molecular mass:    30.01056 amu.
 Principal axes and moments of inertia in atomic units:
                           1         2         3
     Eigenvalues --     6.45601  46.74841  53.20442
           X           -0.00000   1.00000   0.00000
           Y            1.00000   0.00000   0.00000
           Z           -0.00000   0.00000   1.00000
 This molecule is an asymmetric top.
 Rotational symmetry number  1.
 Rotational temperatures (Kelvin)     13.41601     1.85277     1.62795
 Rotational constants (GHZ):         279.54430    38.60540    33.92089
 Zero-point vibrational energy      67280.0 (Joules/Mol)
                                   16.08030 (Kcal/Mol)
 Vibrational temperatures:   1657.98  1759.95  2130.52  2537.74  4015.41
          (Kelvin)           4082.24
 
 Zero-point correction=                           0.025626 (Hartree/Particle)
 Thermal correction to Energy=                    0.028501
 Thermal correction to Enthalpy=                  0.029445
 Thermal correction to Gibbs Free Energy=         0.003949
 Sum of electronic and zero-point Energies=           -114.401945
 Sum of electronic and thermal Energies=              -114.399070
 Sum of electronic and thermal Enthalpies=            -114.398126
 Sum of electronic and thermal Free Energies=         -114.423621
 
                     E (Thermal)             CV                S
                      KCal/Mol        Cal/Mol-Kelvin    Cal/Mol-Kelvin
 Total                   17.884              6.500             53.660
 Electronic               0.000              0.000              0.000
 Translational            0.889              2.981             36.130
 Rotational               0.889              2.981             17.425
 Vibrational             16.107              0.538              0.105
                       Q            Log10(Q)             Ln(Q)
 Total Bot       0.152544D-01         -1.816604         -4.182884
 Total V=0       0.933990D+10          9.970342         22.957561
 Vib (Bot)       0.164568D-11        -11.783654        -27.132866
 Vib (V=0)       0.100761D+01          0.003292          0.007580
 Electronic      0.100000D+01          0.000000          0.000000
 Translational   0.646197D+07          6.810365         15.681445
 Rotational      0.143445D+04          3.156685          7.268536
 ***** Axes restored to original set *****
 -------------------------------------------------------------------
 Center     Atomic                   Forces (Hartrees/Bohr)
 Number     Number              X              Y              Z
 -------------------------------------------------------------------
      1        6           0.000000164    0.000060763   -0.000000000
      2        8          -0.000000004   -0.000087188    0.000000000
      3        1          -0.000028849    0.000013260   -0.000000000
      4        1           0.000028689    0.000013165   -0.000000000
 -------------------------------------------------------------------
 Cartesian Forces:  Max     0.000087188 RMS     0.000033290
 FormGI is forming the generalized inverse of G from B-inverse, IUseBI=4.

 GradGradGradGradGradGradGradGradGradGradGradGradGradGradGradGradGradGrad
 Berny optimization.
 Internal  Forces:  Max     0.000087188 RMS     0.000037076
 Search for a local minimum.
 Step number   1 out of a maximum of    2
 All quantities printed in internal units (Hartrees-Bohrs-Radians)
 Second derivative matrix not updated -- analytic derivatives used.
 The second derivative matrix:
                          R1        R2        R3        A1        A2
           R1           0.82808
           R2           0.03728   0.28136
           R3           0.03728   0.00678   0.28136
           A1           0.01745   0.00162  -0.00979   0.10947
           A2           0.01745  -0.00979   0.00162  -0.06910   0.10947
           A3          -0.03490   0.00817   0.00817  -0.04037  -0.04037
           D1          -0.00000   0.00000   0.00000   0.00000   0.00000
                          A3        D1
           A3           0.08074
           D1          -0.00000   0.06508
 ITU=  0
     Eigenvalues ---    0.06508   0.11675   0.17724   0.27591   0.28503
     Eigenvalues ---    0.83555
 Angle between quadratic step and forces=  32.37 degrees.
 Linear search not attempted -- first point.
 Iteration  1 RMS(Cart)=  0.00006892 RMS(Int)=  0.00000000
 Iteration  2 RMS(Cart)=  0.00000000 RMS(Int)=  0.00000000
 ClnCor:  largest displacement from symmetrization is 2.51D-15 for atom     3.
 Variable       Old X    -DE/DX   Delta X   Delta X   Delta X     New X
                                 (Linear)    (Quad)   (Total)
    R1        2.28187   0.00009   0.00000   0.00010   0.00010   2.28197
    R2        2.11141   0.00003   0.00000   0.00009   0.00009   2.11150
    R3        2.11141   0.00003   0.00000   0.00009   0.00009   2.11150
    A1        2.13011  -0.00000   0.00000  -0.00003  -0.00003   2.13007
    A2        2.13011  -0.00000   0.00000  -0.00003  -0.00003   2.13007
    A3        2.02297   0.00001   0.00000   0.00006   0.00006   2.02304
    D1        3.14159  -0.00000   0.00000   0.00000   0.00000   3.14159
         Item               Value     Threshold  Converged?
 Maximum Force            0.000087     0.000450     YES
 RMS     Force            0.000037     0.000300     YES
 Maximum Displacement     0.000115     0.001800     YES
 RMS     Displacement     0.000069     0.001200     YES
 Predicted change in Energy=-7.599433D-09
 Optimization completed.
    -- Stationary point found.
                           ----------------------------
                           !   Optimized Parameters   !
                           ! (Angstroms and Degrees)  !
 --------------------------                            --------------------------
 ! Name  Definition              Value          Derivative Info.                !
 --------------------------------------------------------------------------------
 ! R1    R(1,2)                  1.2075         -DE/DX =    0.0001              !
 ! R2    R(1,3)                  1.1173         -DE/DX =    0.0                 !
 ! R3    R(1,4)                  1.1173         -DE/DX =    0.0                 !
 ! A1    A(2,1,3)              122.0461         -DE/DX =    0.0                 !
 ! A2    A(2,1,4)              122.0461         -DE/DX =    0.0                 !
 ! A3    A(3,1,4)              115.9077         -DE/DX =    0.0                 !
 ! D1    D(2,1,4,3)            180.0            -DE/DX =    0.0                 !
 --------------------------------------------------------------------------------
 GradGradGradGradGradGradGradGradGradGradGradGradGradGradGradGradGradGrad


 ----------------------------------------------------------------------

 Electric dipole moment (input orientation):
 (Debye = 10**-18 statcoulomb cm , SI units = C m)
                  (au)            (Debye)         (10**-30 SI)
   Tot        0.867573D+00      0.220515D+01      0.735559D+01
   x          0.000000D+00      0.000000D+00      0.000000D+00
   y          0.867573D+00      0.220515D+01      0.735559D+01
   z          0.000000D+00      0.000000D+00      0.000000D+00

 Dipole polarizability, Alpha (input orientation).
 (esu units = cm**3 , SI units = C**2 m**2 J**-1)
 Alpha(0;0):
               (au)            (10**-24 esu)      (10**-40 SI)
   iso        0.177117D+02      0.262460D+01      0.292026D+01
   aniso      0.963100D+01      0.142717D+01      0.158794D+01
   xx         0.183102D+02      0.271329D+01      0.301894D+01
   yx         0.000000D+00      0.000000D+00      0.000000D+00
   yy         0.229487D+02      0.340064D+01      0.378373D+01
   zx         0.000000D+00      0.000000D+00      0.000000D+00
   zy         0.000000D+00      0.000000D+00      0.000000D+00
   zz         0.118762D+02      0.175987D+01      0.195812D+01

 ----------------------------------------------------------------------

 Dipole orientation:
     6         14.17293484        -14.17295683         14.75439915
     8         14.17293441        -14.17295683         12.47253039
     1         12.38325871        -14.17295546         15.87471790
     1         15.96261207        -14.17295821         15.87471742

 Electric dipole moment (dipole orientation):
 (Debye = 10**-18 statcoulomb cm , SI units = C m)
                  (au)            (Debye)         (10**-30 SI)
   Tot        0.867573D+00      0.220515D+01      0.735559D+01
   x          0.000000D+00      0.000000D+00      0.000000D+00
   y          0.000000D+00      0.000000D+00      0.000000D+00
   z          0.867573D+00      0.220515D+01      0.735559D+01

 Dipole polarizability, Alpha (dipole orientation).
 (esu units = cm**3 , SI units = C**2 m**2 J**-1)
 Alpha(0;0):
               (au)            (10**-24 esu)      (10**-40 SI)
   iso        0.177117D+02      0.262460D+01      0.292026D+01
   aniso      0.963100D+01      0.142717D+01      0.158794D+01
   xx         0.183102D+02      0.271329D+01      0.301894D+01
   yx         0.000000D+00      0.000000D+00      0.000000D+00
   yy         0.118762D+02      0.175987D+01      0.195812D+01
   zx         0.000000D+00      0.000000D+00      0.000000D+00
   zy         0.000000D+00      0.000000D+00      0.000000D+00
   zz         0.229487D+02      0.340064D+01      0.378373D+01

 ----------------------------------------------------------------------
 Unable to Open any file for archive entry.
 1\1\GINC-TCOPT10\Freq\RPBEPBE\def2QZVPP\C1H2O1\HUTTER\30-Jul-2021\0\\#
 N Geom=AllCheck Guess=TCheck SCRF=Check GenChk RPBEPBE/def2QZVPP Freq\
 \Mol job 1\\0,1\C,7.5000059001,7.807686026,7.5\O,7.5000047448,6.600173
 0774,7.5\H,6.5529505357,8.4005339035,7.5\H,8.4470627594,8.4005321931,7
 .5\\Version=ES64L-G16RevC.01\State=1-A'\HF=-114.4275706\RMSD=2.248e-09
 \RMSF=3.329e-05\ZeroPoint=0.0256256\Thermal=0.0285007\ETot=-114.399069
 9\HTot=-114.3981257\GTot=-114.4236212\Dipole=0.0000007,0.867573,0.\Dip
 oleDeriv=0.8251234,0.0000005,0.,0.0000008,1.0393105,0.,0.,0.,0.1254823
 ,-0.4100376,-0.0000005,0.,-0.0000008,-0.902433,0.,0.,0.,-0.2963299,-0.
 2075426,0.1536295,0.,0.1108941,-0.068439,0.,0.,0.,0.0854239,-0.2075432
 ,-0.1536295,0.,-0.110894,-0.0684386,0.,0.,0.,0.0854237\Polar=18.310177
 7,0.0000085,22.948682,0.,0.,11.8761828\Quadrupole=0.1571283,-0.3259526
 ,0.1688243,-0.0000009,0.,0.\PG=CS [SG(C1H2O1)]\NImag=0\\0.53765629,0.0
 0000001,0.92335001,0.,0.,0.16037766,-0.09941096,-0.00000062,0.,0.06854
 959,-0.00000058,-0.74649179,0.,0.00000072,0.82807677,0.,0.,-0.05278651
 ,0.,0.,0.01735231,-0.21912274,0.06942905,0.,0.01543074,0.01844355,0.,0
 .22204712,0.07376827,-0.08842933,0.,0.03406932,-0.04079254,0.,-0.09785
 511,0.12007545,0.,0.,-0.05379554,0.,0.,0.01771710,0.,0.,0.01803353,-0.
 21912260,-0.06942844,0.,0.01543063,-0.01844370,0.,-0.01835512,-0.00998
 247,0.,0.22204709,-0.07376770,-0.08842890,0.,-0.03406942,-0.04079244,0
 .,0.00998251,0.00914642,0.,0.09785461,0.12007492,0.,0.,-0.05379561,0.,
 0.,0.01771710,0.,0.,0.01804490,0.,0.,0.01803360\\-0.00000016,-0.000060
 76,0.,0.,0.00008719,0.,0.00002885,-0.00001326,0.,-0.00002869,-0.000013
 17,0.\\\@
 The archive entry for this job was punched.


 I HAVE NOT FAILED, I HAVE ONLY DISCOVERED 10,000
 WAYS THAT DIDN'T WORK.  -- THOMAS A. EDISON
 Job cpu time:       0 days  0 hours  8 minutes 41.2 seconds.
 Elapsed time:       0 days  0 hours  1 minutes  5.7 seconds.
 File lengths (MBytes):  RWF=     16 Int=      0 D2E=      0 Chk=      4 Scr=      1
 Normal termination of Gaussian 16 at Fri Jul 30 11:48:50 2021.
