 Entering Gaussian System, Link 0=g16
 Initial command:
 /sw-ng/spack/opt/spack/linux-opensuse_leap15-sandybridge/pgi-18.10/gaussian-src-16-C.01-zldqaomctopxhethwccpmxmwefdscg3m/g16/l1.exe "/data/hutter/SMG16/PBE/Gau-24337.inp" -scrdir="/data/hutter/SMG16/PBE/"
 Entering Link 1 = /sw-ng/spack/opt/spack/linux-opensuse_leap15-sandybridge/pgi-18.10/gaussian-src-16-C.01-zldqaomctopxhethwccpmxmwefdscg3m/g16/l1.exe PID=     24342.
  
 Copyright (c) 1988-2019, Gaussian, Inc.  All Rights Reserved.
  
 This is part of the Gaussian(R) 16 program.  It is based on
 the Gaussian(R) 09 system (copyright 2009, Gaussian, Inc.),
 the Gaussian(R) 03 system (copyright 2003, Gaussian, Inc.),
 the Gaussian(R) 98 system (copyright 1998, Gaussian, Inc.),
 the Gaussian(R) 94 system (copyright 1995, Gaussian, Inc.),
 the Gaussian 92(TM) system (copyright 1992, Gaussian, Inc.),
 the Gaussian 90(TM) system (copyright 1990, Gaussian, Inc.),
 the Gaussian 88(TM) system (copyright 1988, Gaussian, Inc.),
 the Gaussian 86(TM) system (copyright 1986, Carnegie Mellon
 University), and the Gaussian 82(TM) system (copyright 1983,
 Carnegie Mellon University). Gaussian is a federally registered
 trademark of Gaussian, Inc.
  
 This software contains proprietary and confidential information,
 including trade secrets, belonging to Gaussian, Inc.
  
 This software is provided under written license and may be
 used, copied, transmitted, or stored only in accord with that
 written license.
  
 The following legend is applicable only to US Government
 contracts under FAR:
  
                    RESTRICTED RIGHTS LEGEND
  
 Use, reproduction and disclosure by the US Government is
 subject to restrictions as set forth in subparagraphs (a)
 and (c) of the Commercial Computer Software - Restricted
 Rights clause in FAR 52.227-19.
  
 Gaussian, Inc.
 340 Quinnipiac St., Bldg. 40, Wallingford CT 06492
  
  
 ---------------------------------------------------------------
 Warning -- This program may not be used in any manner that
 competes with the business of Gaussian, Inc. or will provide
 assistance to any competitor of Gaussian, Inc.  The licensee
 of this program is prohibited from giving any competitor of
 Gaussian, Inc. access to this program.  By using this program,
 the user acknowledges that Gaussian, Inc. is engaged in the
 business of creating and licensing software in the field of
 computational chemistry and represents and warrants to the
 licensee that it is not a competitor of Gaussian, Inc. and that
 it will not use this program in any manner prohibited above.
 ---------------------------------------------------------------
  

 Cite this work as:
 Gaussian 16, Revision C.01,
 M. J. Frisch, G. W. Trucks, H. B. Schlegel, G. E. Scuseria, 
 M. A. Robb, J. R. Cheeseman, G. Scalmani, V. Barone, 
 G. A. Petersson, H. Nakatsuji, X. Li, M. Caricato, A. V. Marenich, 
 J. Bloino, B. G. Janesko, R. Gomperts, B. Mennucci, H. P. Hratchian, 
 J. V. Ortiz, A. F. Izmaylov, J. L. Sonnenberg, D. Williams-Young, 
 F. Ding, F. Lipparini, F. Egidi, J. Goings, B. Peng, A. Petrone, 
 T. Henderson, D. Ranasinghe, V. G. Zakrzewski, J. Gao, N. Rega, 
 G. Zheng, W. Liang, M. Hada, M. Ehara, K. Toyota, R. Fukuda, 
 J. Hasegawa, M. Ishida, T. Nakajima, Y. Honda, O. Kitao, H. Nakai, 
 T. Vreven, K. Throssell, J. A. Montgomery, Jr., J. E. Peralta, 
 F. Ogliaro, M. J. Bearpark, J. J. Heyd, E. N. Brothers, K. N. Kudin, 
 V. N. Staroverov, T. A. Keith, R. Kobayashi, J. Normand, 
 K. Raghavachari, A. P. Rendell, J. C. Burant, S. S. Iyengar, 
 J. Tomasi, M. Cossi, J. M. Millam, M. Klene, C. Adamo, R. Cammi, 
 J. W. Ochterski, R. L. Martin, K. Morokuma, O. Farkas, 
 J. B. Foresman, and D. J. Fox, Gaussian, Inc., Wallingford CT, 2019.
 
 ******************************************
 Gaussian 16:  ES64L-G16RevC.01  3-Jul-2019
                30-Jul-2021 
 ******************************************
 %mem=8GB
 %NProcShare=8
 Will use up to    8 processors via shared memory.
 -----------------------------------------------------------
 #N UPBEPBE/Def2QZVPP scf=tight Int(Grid=ultrafine) OPT FREQ
 -----------------------------------------------------------
 1/18=20,19=15,26=4,38=1/1,3;
 2/9=110,12=2,17=6,18=5,40=1/2;
 3/5=45,7=202,11=2,25=1,30=1,71=1,74=1009,75=-5,116=2/1,2,3;
 4//1;
 5/5=2,32=2,38=5/2;
 6/7=2,8=2,9=2,10=2,28=1/1;
 7//1,2,3,16;
 1/18=20,19=15,26=4/3(2);
 2/9=110/2;
 99//99;
 2/9=110/2;
 3/5=45,7=202,11=2,25=1,30=1,71=1,74=1009,75=-5,116=2/1,2,3;
 4/5=5,16=3,69=1/1;
 5/5=2,32=2,38=5/2;
 7//1,2,3,16;
 1/18=20,19=15,26=4/3(-5);
 2/9=110/2;
 6/7=2,8=2,9=2,10=2,19=2,28=1/1;
 99/9=1/99;
 ---------
 Mol job 1
 ---------
 Symbolic Z-matrix:
 Charge =  0 Multiplicity = 2
 Sr                    8.5       8.5       7.46552 
 F                     8.5       8.5       9.53448 
 

 GradGradGradGradGradGradGradGradGradGradGradGradGradGradGradGradGradGrad
 Berny optimization.
 Initialization pass.
                           ----------------------------
                           !    Initial Parameters    !
                           ! (Angstroms and Degrees)  !
 --------------------------                            --------------------------
 ! Name  Definition              Value          Derivative Info.                !
 --------------------------------------------------------------------------------
 ! R1    R(1,2)                  2.069          estimate D2E/DX2                !
 --------------------------------------------------------------------------------
 Trust Radius=3.00D-01 FncErr=1.00D-07 GrdErr=1.00D-06 EigMax=2.50D+02 EigMin=1.00D-04
 Number of steps in this run=     20 maximum allowed number of steps=    100.
 GradGradGradGradGradGradGradGradGradGradGradGradGradGradGradGradGradGrad

                          Input orientation:                          
 ---------------------------------------------------------------------
 Center     Atomic      Atomic             Coordinates (Angstroms)
 Number     Number       Type             X           Y           Z
 ---------------------------------------------------------------------
      1         38           0        8.500000    8.500000    7.465524
      2          9           0        8.500000    8.500000    9.534476
 ---------------------------------------------------------------------
 Stoichiometry    FSr(2)
 Framework group  C*V[C*(FSr)]
 Deg. of freedom     1
 Full point group                 C*V     NOp   4
 Largest Abelian subgroup         C2V     NOp   4
 Largest concise Abelian subgroup C1      NOp   1
                         Standard orientation:                         
 ---------------------------------------------------------------------
 Center     Atomic      Atomic             Coordinates (Angstroms)
 Number     Number       Type             X           Y           Z
 ---------------------------------------------------------------------
      1         38           0        0.000000    0.000000    0.396182
      2          9           0        0.000000    0.000000   -1.672770
 ---------------------------------------------------------------------
 Rotational constants (GHZ):           0.0000000           7.5574741           7.5574741
 Standard basis: def2QZVPP (5D, 7F)
 There are    65 symmetry adapted cartesian basis functions of A1  symmetry.
 There are    15 symmetry adapted cartesian basis functions of A2  symmetry.
 There are    34 symmetry adapted cartesian basis functions of B1  symmetry.
 There are    34 symmetry adapted cartesian basis functions of B2  symmetry.
 There are    50 symmetry adapted basis functions of A1  symmetry.
 There are    14 symmetry adapted basis functions of A2  symmetry.
 There are    28 symmetry adapted basis functions of B1  symmetry.
 There are    28 symmetry adapted basis functions of B2  symmetry.
   120 basis functions,   184 primitive gaussians,   148 cartesian basis functions
    10 alpha electrons        9 beta electrons
       nuclear repulsion energy        23.0193584006 Hartrees.
 NAtoms=    2 NActive=    2 NUniq=    2 SFac= 1.00D+00 NAtFMM=   60 NAOKFM=F Big=F
 Integral buffers will be    131072 words long.
 Raffenetti 2 integral format.
 Two-electron integral symmetry is turned on.
 One-electron integrals computed using PRISM.
   4 Symmetry operations used in ECPInt.
 ECPInt:  NShTT=     666 NPrTT=    1478 LenC2=     664 LenP2D=    1423.
 LDataN:  DoStor=T MaxTD1= 8 Len=  415
 NBasis=   120 RedAO= T EigKep=  3.47D-03  NBF=    50    14    28    28
 NBsUse=   120 1.00D-06 EigRej= -1.00D+00 NBFU=    50    14    28    28
 Defaulting to unpruned grid for atomic number  38.
 ExpMin= 1.63D-02 ExpMax= 1.33D+05 ExpMxC= 1.27D+03 IAcc=3 IRadAn=         5 AccDes= 0.00D+00
 Harris functional with IExCor= 1009 and IRadAn=       5 diagonalized for initial guess.
 HarFok:  IExCor= 1009 AccDes= 0.00D+00 IRadAn=         5 IDoV= 1 UseB2=F ITyADJ=14
 ICtDFT=  3500011 ScaDFX=  1.000000  1.000000  1.000000  1.000000
 Defaulting to unpruned grid for atomic number  38.
 FoFCou: FMM=F IPFlag=           0 FMFlag=      100000 FMFlg1=           0
         NFxFlg=           0 DoJE=T BraDBF=F KetDBF=T FulRan=T
         wScrn=  0.000000 ICntrl=       500 IOpCl=  0 I1Cent=   200000004 NGrid=           0
         NMat0=    1 NMatS0=      1 NMatT0=    0 NMatD0=    1 NMtDS0=    0 NMtDT0=    0
 Petite list used in FoFCou.
 Initial guess orbital symmetries:
 Alpha Orbitals:
       Occupied  (SG) (SG) (SG) (SG) (PI) (PI) (PI) (PI) (SG) (SG)
       Virtual   (PI) (PI) (SG) (DLTA) (DLTA) (PI) (PI) (SG) (SG)
                 (PI) (PI) (DLTA) (DLTA) (PI) (PI) (SG) (SG) (SG)
                 (DLTA) (DLTA) (PHI) (PHI) (SG) (PI) (PI) (SG)
                 (PI) (PI) (DLTA) (DLTA) (PI) (PI) (SG) (PI) (PI)
                 (SG) (SG) (SG) (PI) (PI) (SG) (DLTA) (DLTA) (PHI)
                 (PHI) (DLTA) (DLTA) (PI) (PI) (SG) (PI) (PI) (DLTA)
                 (DLTA) (SG) (PI) (PI) (SG) (PI) (PI) (DLTA) (DLTA)
                 (PHI) (PHI) (SG) (SG) (PHI) (PHI) (DLTA) (DLTA)
                 (PI) (PI) (SG) (DLTA) (DLTA) (PI) (PI) (SG) (PI)
                 (PI) (SG) (PI) (PI) (SG) (DLTA) (DLTA) (PI) (PI)
                 (PHI) (PHI) (?A) (?A) (SG) (DLTA) (DLTA) (PHI)
                 (PHI) (PI) (PI) (SG) (SG) (DLTA) (DLTA) (PI) (PI)
                 (SG) (SG) (SG) (SG) (SG)
 Beta  Orbitals:
       Occupied  (SG) (SG) (SG) (SG) (PI) (PI) (PI) (PI) (SG)
       Virtual   (SG) (PI) (PI) (SG) (DLTA) (DLTA) (PI) (PI) (SG)
                 (SG) (PI) (PI) (DLTA) (DLTA) (PI) (PI) (SG) (SG)
                 (SG) (DLTA) (DLTA) (PHI) (PHI) (SG) (PI) (PI)
                 (SG) (PI) (PI) (DLTA) (DLTA) (PI) (PI) (SG) (PI)
                 (PI) (SG) (SG) (SG) (PI) (PI) (SG) (DLTA) (DLTA)
                 (PHI) (PHI) (DLTA) (DLTA) (PI) (PI) (SG) (PI)
                 (PI) (DLTA) (DLTA) (SG) (PI) (PI) (SG) (PI) (PI)
                 (DLTA) (DLTA) (PHI) (PHI) (SG) (SG) (PHI) (PHI)
                 (DLTA) (DLTA) (PI) (PI) (SG) (DLTA) (DLTA) (PI)
                 (PI) (SG) (PI) (PI) (SG) (PI) (PI) (SG) (DLTA)
                 (DLTA) (PI) (PI) (PHI) (PHI) (?A) (?A) (SG) (DLTA)
                 (DLTA) (PHI) (PHI) (PI) (PI) (SG) (SG) (DLTA)
                 (DLTA) (PI) (PI) (SG) (SG) (SG) (SG) (SG)
 The electronic state of the initial guess is 2-SG.
 Initial guess <Sx>= 0.0000 <Sy>= 0.0000 <Sz>= 0.5000 <S**2>= 0.7500 S= 0.5000
 Keep J ints in memory in symmetry-blocked form, NReq=35442015.
 Requested convergence on RMS density matrix=1.00D-08 within 128 cycles.
 Requested convergence on MAX density matrix=1.00D-06.
 Requested convergence on             energy=1.00D-06.
 No special actions if energy rises.
 Defaulting to unpruned grid for atomic number  38.
 Defaulting to unpruned grid for atomic number  38.
 Defaulting to unpruned grid for atomic number  38.
 Defaulting to unpruned grid for atomic number  38.
 Defaulting to unpruned grid for atomic number  38.
 Defaulting to unpruned grid for atomic number  38.
 Defaulting to unpruned grid for atomic number  38.
 Defaulting to unpruned grid for atomic number  38.
 SCF Done:  E(UPBE-PBE) =  -130.573584225     A.U. after   13 cycles
            NFock= 13  Conv=0.41D-08     -V/T= 2.1939
 <Sx>= 0.0000 <Sy>= 0.0000 <Sz>= 0.5000 <S**2>= 0.7502 S= 0.5001
 <L.S>=  0.00000000000    
 Annihilation of the first spin contaminant:
 S**2 before annihilation     0.7502,   after     0.7500

 **********************************************************************

            Population analysis using the SCF Density.

 **********************************************************************

 Orbital symmetries:
 Alpha Orbitals:
       Occupied  (SG) (SG) (SG) (PI) (PI) (SG) (SG) (PI) (PI) (SG)
       Virtual   (PI) (PI) (SG) (DLTA) (DLTA) (PI) (PI) (SG) (SG)
                 (PI) (PI) (DLTA) (DLTA) (SG) (PI) (PI) (SG) (SG)
                 (PHI) (PHI) (DLTA) (DLTA) (PI) (PI) (SG) (DLTA)
                 (DLTA) (SG) (PI) (PI) (PI) (PI) (SG) (PI) (PI)
                 (SG) (SG) (SG) (PI) (PI) (PHI) (PHI) (DLTA) (DLTA)
                 (SG) (DLTA) (DLTA) (PI) (PI) (DLTA) (DLTA) (SG)
                 (SG) (PI) (PI) (PI) (PI) (SG) (PI) (PI) (DLTA)
                 (DLTA) (PHI) (PHI) (SG) (SG) (PHI) (PHI) (DLTA)
                 (DLTA) (PI) (PI) (SG) (DLTA) (DLTA) (PI) (PI)
                 (SG) (PI) (PI) (SG) (PI) (PI) (SG) (DLTA) (DLTA)
                 (PHI) (PHI) (PI) (PI) (?A) (?A) (SG) (PHI) (PHI)
                 (DLTA) (DLTA) (PI) (PI) (SG) (SG) (DLTA) (DLTA)
                 (PI) (PI) (SG) (SG) (SG) (SG) (SG)
 Beta  Orbitals:
       Occupied  (SG) (SG) (SG) (PI) (PI) (SG) (SG) (PI) (PI)
       Virtual   (SG) (DLTA) (DLTA) (PI) (PI) (SG) (PI) (PI) (SG)
                 (SG) (PI) (PI) (DLTA) (DLTA) (PI) (PI) (SG) (SG)
                 (SG) (DLTA) (DLTA) (PHI) (PHI) (SG) (PI) (PI)
                 (DLTA) (DLTA) (SG) (PI) (PI) (PI) (PI) (SG) (PI)
                 (PI) (SG) (SG) (SG) (PI) (PI) (PHI) (PHI) (DLTA)
                 (DLTA) (SG) (DLTA) (DLTA) (PI) (PI) (DLTA) (DLTA)
                 (SG) (SG) (PI) (PI) (PI) (PI) (SG) (PI) (PI) (DLTA)
                 (DLTA) (PHI) (PHI) (SG) (SG) (PHI) (PHI) (DLTA)
                 (DLTA) (PI) (PI) (SG) (DLTA) (DLTA) (PI) (PI)
                 (SG) (PI) (PI) (SG) (PI) (PI) (SG) (DLTA) (DLTA)
                 (PHI) (PHI) (PI) (PI) (?A) (?A) (SG) (PHI) (PHI)
                 (DLTA) (DLTA) (PI) (PI) (SG) (SG) (DLTA) (DLTA)
                 (PI) (PI) (SG) (SG) (SG) (SG) (SG)
 The electronic state is 2-SG.
 Alpha  occ. eigenvalues --  -24.14708  -1.48954  -0.96905  -0.82170  -0.82170
 Alpha  occ. eigenvalues --   -0.79278  -0.27742  -0.27502  -0.27502  -0.12361
 Alpha virt. eigenvalues --   -0.05636  -0.05636  -0.04288  -0.04159  -0.04159
 Alpha virt. eigenvalues --    0.00129   0.00129   0.00332   0.02958   0.05364
 Alpha virt. eigenvalues --    0.05364   0.05494   0.05494   0.06441   0.07239
 Alpha virt. eigenvalues --    0.07239   0.12093   0.16174   0.24858   0.24858
 Alpha virt. eigenvalues --    0.25447   0.25447   0.28730   0.28730   0.28826
 Alpha virt. eigenvalues --    0.34426   0.34427   0.35490   0.36994   0.36994
 Alpha virt. eigenvalues --    0.49441   0.49441   0.50242   0.51019   0.51019
 Alpha virt. eigenvalues --    0.59019   0.98646   1.09809   1.12668   1.12668
 Alpha virt. eigenvalues --    1.19804   1.19804   1.20690   1.20690   1.21021
 Alpha virt. eigenvalues --    1.41028   1.41028   1.51135   1.51135   1.63834
 Alpha virt. eigenvalues --    1.63835   1.67690   1.74224   1.74564   1.74564
 Alpha virt. eigenvalues --    1.80742   1.80742   2.38230   3.55196   3.55196
 Alpha virt. eigenvalues --    3.55229   3.55234   3.55645   3.55645   3.74959
 Alpha virt. eigenvalues --    4.00333   4.12178   4.12178   4.12629   4.12629
 Alpha virt. eigenvalues --    4.28055   4.28055   4.29952   4.92481   4.92481
 Alpha virt. eigenvalues --    5.09369   5.09369   5.34296   6.15504   6.15504
 Alpha virt. eigenvalues --    6.37809   7.94171   7.94171   9.01591  11.32102
 Alpha virt. eigenvalues --   11.32102  11.32623  11.32623  11.32753  11.32753
 Alpha virt. eigenvalues --   11.33360  11.33360  11.35740  14.45203  14.45203
 Alpha virt. eigenvalues --   14.45212  14.45212  14.50268  14.50268  14.60938
 Alpha virt. eigenvalues --   14.88702  15.64413  15.64413  15.74873  15.74873
 Alpha virt. eigenvalues --   16.01728  18.19144  53.69331  71.39534 284.04276
  Beta  occ. eigenvalues --  -24.14712  -1.48645  -0.96860  -0.81740  -0.81740
  Beta  occ. eigenvalues --   -0.78908  -0.27669  -0.27486  -0.27486
  Beta virt. eigenvalues --   -0.08974  -0.01735  -0.01735  -0.01663  -0.01663
  Beta virt. eigenvalues --   -0.01364   0.01734   0.01734   0.02692   0.04560
  Beta virt. eigenvalues --    0.08533   0.08533   0.08740   0.08740   0.09206
  Beta virt. eigenvalues --    0.09206   0.09391   0.13672   0.18337   0.27978
  Beta virt. eigenvalues --    0.27978   0.28439   0.28439   0.30939   0.31507
  Beta virt. eigenvalues --    0.31507   0.36665   0.36665   0.37110   0.38123
  Beta virt. eigenvalues --    0.38123   0.50322   0.50322   0.51241   0.53160
  Beta virt. eigenvalues --    0.53160   0.60523   0.99959   1.10391   1.13391
  Beta virt. eigenvalues --    1.13391   1.20862   1.20862   1.21389   1.21389
  Beta virt. eigenvalues --    1.21519   1.41121   1.41121   1.51603   1.51603
  Beta virt. eigenvalues --    1.65056   1.65057   1.68399   1.74463   1.74737
  Beta virt. eigenvalues --    1.74737   1.81322   1.81322   2.38789   3.55737
  Beta virt. eigenvalues --    3.55737   3.55790   3.55795   3.56268   3.56268
  Beta virt. eigenvalues --    3.75339   4.00518   4.12166   4.12166   4.12641
  Beta virt. eigenvalues --    4.12641   4.28167   4.28167   4.30168   4.92480
  Beta virt. eigenvalues --    4.92480   5.09417   5.09417   5.34392   6.15507
  Beta virt. eigenvalues --    6.15507   6.37937   7.95185   7.95185   9.02182
  Beta virt. eigenvalues --   11.32092  11.32093  11.32600  11.32600  11.32754
  Beta virt. eigenvalues --   11.32754  11.33323  11.33324  11.35754  14.45161
  Beta virt. eigenvalues --   14.45161  14.45199  14.45199  14.50277  14.50277
  Beta virt. eigenvalues --   14.60970  14.88716  15.64369  15.64369  15.74873
  Beta virt. eigenvalues --   15.74873  16.01741  18.19435  53.69327  71.39713
  Beta virt. eigenvalues --  284.04282
          Condensed to atoms (all electrons):
               1          2
     1  Sr   9.267276   0.149378
     2  F    0.149378   9.433967
          Atomic-Atomic Spin Densities.
               1          2
     1  Sr   1.014490  -0.006768
     2  F   -0.006768  -0.000954
 Mulliken charges and spin densities:
               1          2
     1  Sr   0.583346   1.007722
     2  F   -0.583346  -0.007722
 Sum of Mulliken charges =  -0.00000   1.00000
 Mulliken charges and spin densities with hydrogens summed into heavy atoms:
               1          2
     1  Sr   0.583346   1.007722
     2  F   -0.583346  -0.007722
 Electronic spatial extent (au):  <R**2>=            164.0066
 Charge=             -0.0000 electrons
 Dipole moment (field-independent basis, Debye):
    X=              0.0000    Y=              0.0000    Z=              3.2493  Tot=              3.2493
 Quadrupole moment (field-independent basis, Debye-Ang):
   XX=            -27.5085   YY=            -27.5085   ZZ=            -37.0771
   XY=              0.0000   XZ=              0.0000   YZ=              0.0000
 Traceless Quadrupole moment (field-independent basis, Debye-Ang):
   XX=              3.1895   YY=              3.1895   ZZ=             -6.3790
   XY=              0.0000   XZ=              0.0000   YZ=              0.0000
 Octapole moment (field-independent basis, Debye-Ang**2):
  XXX=              0.0000  YYY=              0.0000  ZZZ=             -0.0806  XYY=              0.0000
  XXY=              0.0000  XXZ=             -4.5768  XZZ=              0.0000  YZZ=              0.0000
  YYZ=             -4.5768  XYZ=              0.0000
 Hexadecapole moment (field-independent basis, Debye-Ang**3):
 XXXX=            -82.1545 YYYY=            -82.1545 ZZZZ=           -242.1966 XXXY=              0.0000
 XXXZ=              0.0000 YYYX=              0.0000 YYYZ=              0.0000 ZZZX=              0.0000
 ZZZY=              0.0000 XXYY=            -27.3848 XXZZ=            -51.9792 YYZZ=            -51.9792
 XXYZ=              0.0000 YYXZ=              0.0000 ZZXY=              0.0000
 N-N= 2.301935840060D+01 E-N=-3.462364774265D+02  KE= 1.093662205564D+02
 Symmetry A1   KE= 9.286913467356D+01
 Symmetry A2   KE= 2.206104740917D-47
 Symmetry B1   KE= 8.248542941401D+00
 Symmetry B2   KE= 8.248542941401D+00
 Symmetry A1   SP= 1.000000000000D+00
 Symmetry A2   SP=-1.422907737793D-50
 Symmetry B1   SP= 8.041446198162D-15
 Symmetry B2   SP= 1.186898818703D-14
                          Isotropic Fermi Contact Couplings
        Atom                 a.u.       MegaHertz       Gauss      10(-4) cm-1
     1  Sr(87)             0.00000      -0.00012      -0.00004      -0.00004
     2  F(19)              0.02440     102.67666      36.63758      34.24925
 --------------------------------------------------------
       Center         ----  Spin Dipole Couplings  ----
                      3XX-RR        3YY-RR        3ZZ-RR
 --------------------------------------------------------
     1   Atom       -0.008758     -0.008758      0.017517
     2   Atom       -0.015301     -0.015301      0.030603
 --------------------------------------------------------
                        XY            XZ            YZ
 --------------------------------------------------------
     1   Atom        0.000000      0.000000      0.000000
     2   Atom        0.000000      0.000000      0.000000
 --------------------------------------------------------


 ---------------------------------------------------------------------------------
              Anisotropic Spin Dipole Couplings in Principal Axis System
 ---------------------------------------------------------------------------------

       Atom             a.u.   MegaHertz   Gauss  10(-4) cm-1        Axes

              Baa    -0.0088     0.203     0.072     0.068  1.0000  0.0000  0.0000
     1 Sr(87) Bbb    -0.0088     0.203     0.072     0.068 -0.0000  1.0000  0.0000
              Bcc     0.0175    -0.406    -0.145    -0.136  0.0000  0.0000  1.0000
 
              Baa    -0.0153    -7.685    -2.742    -2.563  1.0000  0.0000  0.0000
     2 F(19)  Bbb    -0.0153    -7.685    -2.742    -2.563 -0.0000  1.0000  0.0000
              Bcc     0.0306    15.369     5.484     5.127  0.0000  0.0000  1.0000
 

 ---------------------------------------------------------------------------------

   4 Symmetry operations used in ECPInt.
 ECPInt:  NShTT=     666 NPrTT=    1478 LenC2=     664 LenP2D=    1423.
 LDataN:  DoStor=T MaxTD1= 9 Len=  602
 Calling FoFJK, ICntrl=      2527 FMM=F ISym2X=1 I1Cent= 0 IOpClX= 0 NMat=1 NMatS=1 NMatT=0.
 Defaulting to unpruned grid for atomic number  38.
 Defaulting to unpruned grid for atomic number  38.
 Defaulting to unpruned grid for atomic number  38.
 Defaulting to unpruned grid for atomic number  38.
 Defaulting to unpruned grid for atomic number  38.
 Defaulting to unpruned grid for atomic number  38.
 Defaulting to unpruned grid for atomic number  38.
 Defaulting to unpruned grid for atomic number  38.
 ***** Axes restored to original set *****
 -------------------------------------------------------------------
 Center     Atomic                   Forces (Hartrees/Bohr)
 Number     Number              X              Y              Z
 -------------------------------------------------------------------
      1       38          -0.000000000   -0.000000000   -0.001258272
      2        9          -0.000000000   -0.000000000    0.001258272
 -------------------------------------------------------------------
 Cartesian Forces:  Max     0.001258272 RMS     0.000726464

 GradGradGradGradGradGradGradGradGradGradGradGradGradGradGradGradGradGrad
 Berny optimization.
 FormGI is forming the generalized inverse of G from B-inverse, IUseBI=4.
 Internal  Forces:  Max     0.001258272 RMS     0.001258272
 Search for a local minimum.
 Step number   1 out of a maximum of   20
 All quantities printed in internal units (Hartrees-Bohrs-Radians)
 Mixed Optimization -- RFO/linear search
 Second derivative matrix not updated -- first step.
 The second derivative matrix:
                          R1
           R1           0.15125
 ITU=  0
     Eigenvalues ---    0.15125
 RFO step:  Lambda=-1.04670535D-05 EMin= 1.51249703D-01
 Linear search not attempted -- first point.
 Iteration  1 RMS(Cart)=  0.00588213 RMS(Int)=  0.00000000
 Iteration  2 RMS(Cart)=  0.00000000 RMS(Int)=  0.00000000
 ClnCor:  largest displacement from symmetrization is 0.00D+00 for atom     0.
 Variable       Old X    -DE/DX   Delta X   Delta X   Delta X     New X
                                 (Linear)    (Quad)   (Total)
    R1        3.90975   0.00126   0.00000   0.00832   0.00832   3.91807
         Item               Value     Threshold  Converged?
 Maximum Force            0.001258     0.000450     NO 
 RMS     Force            0.001258     0.000300     NO 
 Maximum Displacement     0.004159     0.001800     NO 
 RMS     Displacement     0.005882     0.001200     NO 
 Predicted change in Energy=-5.233889D-06
 GradGradGradGradGradGradGradGradGradGradGradGradGradGradGradGradGradGrad

                          Input orientation:                          
 ---------------------------------------------------------------------
 Center     Atomic      Atomic             Coordinates (Angstroms)
 Number     Number       Type             X           Y           Z
 ---------------------------------------------------------------------
      1         38           0        8.500000    8.500000    7.463323
      2          9           0        8.500000    8.500000    9.536677
 ---------------------------------------------------------------------
 Stoichiometry    FSr(2)
 Framework group  C*V[C*(FSr)]
 Deg. of freedom     1
 Full point group                 C*V     NOp   4
 Largest Abelian subgroup         C2V     NOp   4
 Largest concise Abelian subgroup C1      NOp   1
                         Standard orientation:                         
 ---------------------------------------------------------------------
 Center     Atomic      Atomic             Coordinates (Angstroms)
 Number     Number       Type             X           Y           Z
 ---------------------------------------------------------------------
      1         38           0        0.000000    0.000000    0.397025
      2          9           0        0.000000    0.000000   -1.676329
 ---------------------------------------------------------------------
 Rotational constants (GHZ):           0.0000000           7.5254171           7.5254171
 Standard basis: def2QZVPP (5D, 7F)
 There are    65 symmetry adapted cartesian basis functions of A1  symmetry.
 There are    15 symmetry adapted cartesian basis functions of A2  symmetry.
 There are    34 symmetry adapted cartesian basis functions of B1  symmetry.
 There are    34 symmetry adapted cartesian basis functions of B2  symmetry.
 There are    50 symmetry adapted basis functions of A1  symmetry.
 There are    14 symmetry adapted basis functions of A2  symmetry.
 There are    28 symmetry adapted basis functions of B1  symmetry.
 There are    28 symmetry adapted basis functions of B2  symmetry.
   120 basis functions,   184 primitive gaussians,   148 cartesian basis functions
    10 alpha electrons        9 beta electrons
       nuclear repulsion energy        22.9704851973 Hartrees.
 NAtoms=    2 NActive=    2 NUniq=    2 SFac= 1.00D+00 NAtFMM=   60 NAOKFM=F Big=F
 Integral buffers will be    131072 words long.
 Raffenetti 2 integral format.
 Two-electron integral symmetry is turned on.
 One-electron integrals computed using PRISM.
   4 Symmetry operations used in ECPInt.
 ECPInt:  NShTT=     666 NPrTT=    1478 LenC2=     664 LenP2D=    1422.
 LDataN:  DoStor=T MaxTD1= 8 Len=  415
 NBasis=   120 RedAO= T EigKep=  3.48D-03  NBF=    50    14    28    28
 NBsUse=   120 1.00D-06 EigRej= -1.00D+00 NBFU=    50    14    28    28
 Defaulting to unpruned grid for atomic number  38.
 Initial guess from the checkpoint file:  "/data/hutter/SMG16/PBE/Gau-24342.chk"
 B after Tr=     0.000000    0.000000    0.000000
         Rot=    1.000000    0.000000    0.000000    0.000000 Ang=   0.00 deg.
 Initial guess orbital symmetries:
 Alpha Orbitals:
       Occupied  (SG) (SG) (SG) (PI) (PI) (SG) (SG) (PI) (PI) (SG)
       Virtual   (PI) (PI) (SG) (DLTA) (DLTA) (PI) (PI) (SG) (SG)
                 (PI) (PI) (DLTA) (DLTA) (SG) (PI) (PI) (SG) (SG)
                 (PHI) (PHI) (DLTA) (DLTA) (PI) (PI) (SG) (DLTA)
                 (DLTA) (SG) (PI) (PI) (PI) (PI) (SG) (PI) (PI)
                 (SG) (SG) (SG) (PI) (PI) (PHI) (PHI) (DLTA) (DLTA)
                 (SG) (DLTA) (DLTA) (PI) (PI) (DLTA) (DLTA) (SG)
                 (SG) (PI) (PI) (PI) (PI) (SG) (PI) (PI) (DLTA)
                 (DLTA) (PHI) (PHI) (SG) (SG) (PHI) (PHI) (DLTA)
                 (DLTA) (PI) (PI) (SG) (DLTA) (DLTA) (PI) (PI)
                 (SG) (PI) (PI) (SG) (PI) (PI) (SG) (DLTA) (DLTA)
                 (PHI) (PHI) (PI) (PI) (?A) (?A) (SG) (PHI) (PHI)
                 (DLTA) (DLTA) (PI) (PI) (SG) (SG) (DLTA) (DLTA)
                 (PI) (PI) (SG) (SG) (SG) (SG) (SG)
 Beta  Orbitals:
       Occupied  (SG) (SG) (SG) (PI) (PI) (SG) (SG) (PI) (PI)
       Virtual   (SG) (DLTA) (DLTA) (PI) (PI) (SG) (PI) (PI) (SG)
                 (SG) (PI) (PI) (DLTA) (DLTA) (PI) (PI) (SG) (SG)
                 (SG) (DLTA) (DLTA) (PHI) (PHI) (SG) (PI) (PI)
                 (DLTA) (DLTA) (SG) (PI) (PI) (PI) (PI) (SG) (PI)
                 (PI) (SG) (SG) (SG) (PI) (PI) (PHI) (PHI) (DLTA)
                 (DLTA) (SG) (DLTA) (DLTA) (PI) (PI) (DLTA) (DLTA)
                 (SG) (SG) (PI) (PI) (PI) (PI) (SG) (PI) (PI) (DLTA)
                 (DLTA) (PHI) (PHI) (SG) (SG) (PHI) (PHI) (DLTA)
                 (DLTA) (PI) (PI) (SG) (DLTA) (DLTA) (PI) (PI)
                 (SG) (PI) (PI) (SG) (PI) (PI) (SG) (DLTA) (DLTA)
                 (PHI) (PHI) (PI) (PI) (?A) (?A) (SG) (PHI) (PHI)
                 (DLTA) (DLTA) (PI) (PI) (SG) (SG) (DLTA) (DLTA)
                 (PI) (PI) (SG) (SG) (SG) (SG) (SG)
 Initial guess <Sx>= 0.0000 <Sy>= 0.0000 <Sz>= 0.5000 <S**2>= 0.7502 S= 0.5001
 Keep J ints in memory in symmetry-blocked form, NReq=35442015.
 Requested convergence on RMS density matrix=1.00D-08 within 128 cycles.
 Requested convergence on MAX density matrix=1.00D-06.
 Requested convergence on             energy=1.00D-06.
 No special actions if energy rises.
 Defaulting to unpruned grid for atomic number  38.
 Defaulting to unpruned grid for atomic number  38.
 Defaulting to unpruned grid for atomic number  38.
 Defaulting to unpruned grid for atomic number  38.
 Defaulting to unpruned grid for atomic number  38.
 Defaulting to unpruned grid for atomic number  38.
 Defaulting to unpruned grid for atomic number  38.
 Defaulting to unpruned grid for atomic number  38.
 SCF Done:  E(UPBE-PBE) =  -130.573589609     A.U. after    8 cycles
            NFock=  8  Conv=0.54D-08     -V/T= 2.1940
 <Sx>= 0.0000 <Sy>= 0.0000 <Sz>= 0.5000 <S**2>= 0.7502 S= 0.5001
 <L.S>=  0.00000000000    
 Annihilation of the first spin contaminant:
 S**2 before annihilation     0.7502,   after     0.7500
   4 Symmetry operations used in ECPInt.
 ECPInt:  NShTT=     666 NPrTT=    1478 LenC2=     664 LenP2D=    1422.
 LDataN:  DoStor=T MaxTD1= 9 Len=  602
 Calling FoFJK, ICntrl=      2527 FMM=F ISym2X=1 I1Cent= 0 IOpClX= 0 NMat=1 NMatS=1 NMatT=0.
 Defaulting to unpruned grid for atomic number  38.
 Defaulting to unpruned grid for atomic number  38.
 Defaulting to unpruned grid for atomic number  38.
 Defaulting to unpruned grid for atomic number  38.
 Defaulting to unpruned grid for atomic number  38.
 Defaulting to unpruned grid for atomic number  38.
 Defaulting to unpruned grid for atomic number  38.
 Defaulting to unpruned grid for atomic number  38.
 ***** Axes restored to original set *****
 -------------------------------------------------------------------
 Center     Atomic                   Forces (Hartrees/Bohr)
 Number     Number              X              Y              Z
 -------------------------------------------------------------------
      1       38          -0.000000000   -0.000000000   -0.000040043
      2        9          -0.000000000   -0.000000000    0.000040043
 -------------------------------------------------------------------
 Cartesian Forces:  Max     0.000040043 RMS     0.000023119

 GradGradGradGradGradGradGradGradGradGradGradGradGradGradGradGradGradGrad
 Berny optimization.
 Using GEDIIS/GDIIS optimizer.
 Internal  Forces:  Max     0.000040043 RMS     0.000040043
 Search for a local minimum.
 Step number   2 out of a maximum of   20
 All quantities printed in internal units (Hartrees-Bohrs-Radians)
 Mixed Optimization -- En-DIIS/RFO-DIIS
 Update second derivatives using D2CorX and points    1    2
 DE= -5.38D-06 DEPred=-5.23D-06 R= 1.03D+00
 TightC=F SS=  1.41D+00  RLast= 8.32D-03 DXNew= 5.0454D-01 2.4956D-02
 Trust test= 1.03D+00 RLast= 8.32D-03 DXMaxT set to 3.00D-01
 The second derivative matrix:
                          R1
           R1           0.14645
 ITU=  1  0
 Use linear search instead of GDIIS.
     Eigenvalues ---    0.14645
 RFO step:  Lambda= 0.00000000D+00 EMin= 1.46446516D-01
 Quartic linear search produced a step of  0.03320.
 Iteration  1 RMS(Cart)=  0.00019531 RMS(Int)=  0.00000000
 Iteration  2 RMS(Cart)=  0.00000000 RMS(Int)=  0.00000000
 ClnCor:  largest displacement from symmetrization is 0.00D+00 for atom     0.
 Variable       Old X    -DE/DX   Delta X   Delta X   Delta X     New X
                                 (Linear)    (Quad)   (Total)
    R1        3.91807   0.00004   0.00028   0.00000   0.00028   3.91835
         Item               Value     Threshold  Converged?
 Maximum Force            0.000040     0.000450     YES
 RMS     Force            0.000040     0.000300     YES
 Maximum Displacement     0.000138     0.001800     YES
 RMS     Displacement     0.000195     0.001200     YES
 Predicted change in Energy=-5.473882D-09
 Optimization completed.
    -- Stationary point found.
                           ----------------------------
                           !   Optimized Parameters   !
                           ! (Angstroms and Degrees)  !
 --------------------------                            --------------------------
 ! Name  Definition              Value          Derivative Info.                !
 --------------------------------------------------------------------------------
 ! R1    R(1,2)                  2.0734         -DE/DX =    0.0                 !
 --------------------------------------------------------------------------------
 GradGradGradGradGradGradGradGradGradGradGradGradGradGradGradGradGradGrad

                          Input orientation:                          
 ---------------------------------------------------------------------
 Center     Atomic      Atomic             Coordinates (Angstroms)
 Number     Number       Type             X           Y           Z
 ---------------------------------------------------------------------
      1         38           0        8.500000    8.500000    7.463323
      2          9           0        8.500000    8.500000    9.536677
 ---------------------------------------------------------------------
 Stoichiometry    FSr(2)
 Framework group  C*V[C*(FSr)]
 Deg. of freedom     1
 Full point group                 C*V     NOp   4
 Largest Abelian subgroup         C2V     NOp   4
 Largest concise Abelian subgroup C1      NOp   1
                         Standard orientation:                         
 ---------------------------------------------------------------------
 Center     Atomic      Atomic             Coordinates (Angstroms)
 Number     Number       Type             X           Y           Z
 ---------------------------------------------------------------------
      1         38           0        0.000000    0.000000    0.397025
      2          9           0        0.000000    0.000000   -1.676329
 ---------------------------------------------------------------------
 Rotational constants (GHZ):           0.0000000           7.5254171           7.5254171

 **********************************************************************

            Population analysis using the SCF Density.

 **********************************************************************

 Orbital symmetries:
 Alpha Orbitals:
       Occupied  (SG) (SG) (SG) (PI) (PI) (SG) (SG) (PI) (PI) (SG)
       Virtual   (PI) (PI) (SG) (DLTA) (DLTA) (PI) (PI) (SG) (SG)
                 (PI) (PI) (DLTA) (DLTA) (SG) (PI) (PI) (SG) (SG)
                 (PHI) (PHI) (DLTA) (DLTA) (PI) (PI) (SG) (DLTA)
                 (DLTA) (SG) (PI) (PI) (PI) (PI) (SG) (PI) (PI)
                 (SG) (SG) (SG) (PI) (PI) (PHI) (PHI) (DLTA) (DLTA)
                 (SG) (DLTA) (DLTA) (PI) (PI) (DLTA) (DLTA) (SG)
                 (SG) (PI) (PI) (PI) (PI) (SG) (PI) (PI) (DLTA)
                 (DLTA) (PHI) (PHI) (SG) (SG) (PHI) (PHI) (DLTA)
                 (DLTA) (PI) (PI) (SG) (DLTA) (DLTA) (PI) (PI)
                 (SG) (PI) (PI) (SG) (PI) (PI) (SG) (DLTA) (DLTA)
                 (PHI) (PHI) (PI) (PI) (?A) (?A) (SG) (PHI) (PHI)
                 (DLTA) (DLTA) (PI) (PI) (SG) (SG) (DLTA) (DLTA)
                 (PI) (PI) (SG) (SG) (SG) (SG) (SG)
 Beta  Orbitals:
       Occupied  (SG) (SG) (SG) (PI) (PI) (SG) (SG) (PI) (PI)
       Virtual   (SG) (DLTA) (DLTA) (PI) (PI) (SG) (PI) (PI) (SG)
                 (SG) (PI) (PI) (DLTA) (DLTA) (PI) (PI) (SG) (SG)
                 (SG) (DLTA) (DLTA) (PHI) (PHI) (SG) (PI) (PI)
                 (DLTA) (DLTA) (SG) (PI) (PI) (PI) (PI) (SG) (PI)
                 (PI) (SG) (SG) (SG) (PI) (PI) (PHI) (PHI) (DLTA)
                 (DLTA) (SG) (DLTA) (DLTA) (PI) (PI) (DLTA) (DLTA)
                 (SG) (SG) (PI) (PI) (PI) (PI) (SG) (PI) (PI) (DLTA)
                 (DLTA) (PHI) (PHI) (SG) (SG) (PHI) (PHI) (DLTA)
                 (DLTA) (PI) (PI) (SG) (DLTA) (DLTA) (PI) (PI)
                 (SG) (PI) (PI) (SG) (PI) (PI) (SG) (DLTA) (DLTA)
                 (PHI) (PHI) (PI) (PI) (?A) (?A) (SG) (PHI) (PHI)
                 (DLTA) (DLTA) (PI) (PI) (SG) (SG) (DLTA) (DLTA)
                 (PI) (PI) (SG) (SG) (SG) (SG) (SG)
 The electronic state is 2-SG.
 Alpha  occ. eigenvalues --  -24.14658  -1.48999  -0.96809  -0.82215  -0.82215
 Alpha  occ. eigenvalues --   -0.79340  -0.27695  -0.27429  -0.27429  -0.12379
 Alpha virt. eigenvalues --   -0.05651  -0.05651  -0.04307  -0.04181  -0.04181
 Alpha virt. eigenvalues --    0.00103   0.00103   0.00329   0.02949   0.05357
 Alpha virt. eigenvalues --    0.05357   0.05485   0.05485   0.06430   0.07225
 Alpha virt. eigenvalues --    0.07225   0.12083   0.16141   0.24846   0.24846
 Alpha virt. eigenvalues --    0.25437   0.25437   0.28703   0.28703   0.28805
 Alpha virt. eigenvalues --    0.34407   0.34407   0.35457   0.36991   0.36991
 Alpha virt. eigenvalues --    0.49437   0.49437   0.50245   0.50984   0.50984
 Alpha virt. eigenvalues --    0.58963   0.98598   1.09741   1.12723   1.12723
 Alpha virt. eigenvalues --    1.19765   1.19765   1.20661   1.20661   1.20932
 Alpha virt. eigenvalues --    1.41061   1.41061   1.51005   1.51005   1.63792
 Alpha virt. eigenvalues --    1.63794   1.67438   1.74216   1.74544   1.74544
 Alpha virt. eigenvalues --    1.80590   1.80590   2.37927   3.55108   3.55108
 Alpha virt. eigenvalues --    3.55214   3.55220   3.55598   3.55598   3.74731
 Alpha virt. eigenvalues --    4.00272   4.12252   4.12252   4.12655   4.12656
 Alpha virt. eigenvalues --    4.27915   4.27915   4.30118   4.92520   4.92520
 Alpha virt. eigenvalues --    5.09249   5.09249   5.34438   6.15512   6.15512
 Alpha virt. eigenvalues --    6.37809   7.94129   7.94129   8.99792  11.32181
 Alpha virt. eigenvalues --   11.32181  11.32701  11.32701  11.32812  11.32812
 Alpha virt. eigenvalues --   11.33432  11.33433  11.35741  14.45269  14.45269
 Alpha virt. eigenvalues --   14.45270  14.45270  14.50232  14.50232  14.60773
 Alpha virt. eigenvalues --   14.88650  15.64455  15.64455  15.74826  15.74826
 Alpha virt. eigenvalues --   16.01496  18.18798  53.69328  71.39389 284.04259
  Beta  occ. eigenvalues --  -24.14661  -1.48690  -0.96763  -0.81784  -0.81784
  Beta  occ. eigenvalues --   -0.78970  -0.27622  -0.27412  -0.27412
  Beta virt. eigenvalues --   -0.08991  -0.01760  -0.01760  -0.01681  -0.01681
  Beta virt. eigenvalues --   -0.01385   0.01705   0.01705   0.02688   0.04548
  Beta virt. eigenvalues --    0.08525   0.08525   0.08728   0.08728   0.09191
  Beta virt. eigenvalues --    0.09191   0.09379   0.13654   0.18307   0.27970
  Beta virt. eigenvalues --    0.27970   0.28425   0.28425   0.30924   0.31482
  Beta virt. eigenvalues --    0.31482   0.36644   0.36644   0.37074   0.38118
  Beta virt. eigenvalues --    0.38118   0.50311   0.50311   0.51240   0.53126
  Beta virt. eigenvalues --    0.53126   0.60463   0.99912   1.10325   1.13447
  Beta virt. eigenvalues --    1.13447   1.20823   1.20823   1.21360   1.21361
  Beta virt. eigenvalues --    1.21430   1.41154   1.41154   1.51470   1.51470
  Beta virt. eigenvalues --    1.65015   1.65015   1.68154   1.74447   1.74722
  Beta virt. eigenvalues --    1.74722   1.81164   1.81164   2.38486   3.55651
  Beta virt. eigenvalues --    3.55651   3.55777   3.55782   3.56222   3.56222
  Beta virt. eigenvalues --    3.75113   4.00455   4.12240   4.12240   4.12667
  Beta virt. eigenvalues --    4.12667   4.28026   4.28026   4.30333   4.92519
  Beta virt. eigenvalues --    4.92519   5.09297   5.09297   5.34534   6.15514
  Beta virt. eigenvalues --    6.15514   6.37937   7.95143   7.95143   9.00385
  Beta virt. eigenvalues --   11.32172  11.32173  11.32679  11.32679  11.32814
  Beta virt. eigenvalues --   11.32814  11.33396  11.33396  11.35755  14.45227
  Beta virt. eigenvalues --   14.45227  14.45258  14.45258  14.50242  14.50242
  Beta virt. eigenvalues --   14.60806  14.88665  15.64411  15.64411  15.74827
  Beta virt. eigenvalues --   15.74827  16.01511  18.19090  53.69324  71.39568
  Beta virt. eigenvalues --  284.04265
          Condensed to atoms (all electrons):
               1          2
     1  Sr   9.265223   0.150409
     2  F    0.150409   9.433959
          Atomic-Atomic Spin Densities.
               1          2
     1  Sr   1.014427  -0.006807
     2  F   -0.006807  -0.000812
 Mulliken charges and spin densities:
               1          2
     1  Sr   0.584368   1.007620
     2  F   -0.584368  -0.007620
 Sum of Mulliken charges =   0.00000   1.00000
 Mulliken charges and spin densities with hydrogens summed into heavy atoms:
               1          2
     1  Sr   0.584368   1.007620
     2  F   -0.584368  -0.007620
 Electronic spatial extent (au):  <R**2>=            164.4401
 Charge=              0.0000 electrons
 Dipole moment (field-independent basis, Debye):
    X=              0.0000    Y=              0.0000    Z=              3.2729  Tot=              3.2729
 Quadrupole moment (field-independent basis, Debye-Ang):
   XX=            -27.5005   YY=            -27.5005   ZZ=            -37.1288
   XY=              0.0000   XZ=              0.0000   YZ=              0.0000
 Traceless Quadrupole moment (field-independent basis, Debye-Ang):
   XX=              3.2094   YY=              3.2094   ZZ=             -6.4189
   XY=              0.0000   XZ=              0.0000   YZ=              0.0000
 Octapole moment (field-independent basis, Debye-Ang**2):
  XXX=              0.0000  YYY=              0.0000  ZZZ=              0.0415  XYY=              0.0000
  XXY=              0.0000  XXZ=             -4.5596  XZZ=              0.0000  YZZ=              0.0000
  YYZ=             -4.5596  XYZ=              0.0000
 Hexadecapole moment (field-independent basis, Debye-Ang**3):
 XXXX=            -82.0190 YYYY=            -82.0190 ZZZZ=           -243.0056 XXXY=              0.0000
 XXXZ=              0.0000 YYYX=              0.0000 YYYZ=              0.0000 ZZZX=              0.0000
 ZZZY=              0.0000 XXYY=            -27.3397 XXZZ=            -52.0629 YYZZ=            -52.0629
 XXYZ=              0.0000 YYXZ=              0.0000 ZZXY=              0.0000
 N-N= 2.297048519731D+01 E-N=-3.461377707833D+02  KE= 1.093618881153D+02
 Symmetry A1   KE= 9.286476357628D+01
 Symmetry A2   KE= 2.054955637499D-47
 Symmetry B1   KE= 8.248562269513D+00
 Symmetry B2   KE= 8.248562269513D+00
 Symmetry A1   SP= 1.000000000000D+00
 Symmetry A2   SP=-5.908702329654D-51
 Symmetry B1   SP=-4.466702886469D-15
 Symmetry B2   SP= 6.113439968017D-15
                          Isotropic Fermi Contact Couplings
        Atom                 a.u.       MegaHertz       Gauss      10(-4) cm-1
     1  Sr(87)             0.00000      -0.00012      -0.00004      -0.00004
     2  F(19)              0.02425     102.04754      36.41310      34.03940
 --------------------------------------------------------
       Center         ----  Spin Dipole Couplings  ----
                      3XX-RR        3YY-RR        3ZZ-RR
 --------------------------------------------------------
     1   Atom       -0.008762     -0.008762      0.017524
     2   Atom       -0.015629     -0.015629      0.031259
 --------------------------------------------------------
                        XY            XZ            YZ
 --------------------------------------------------------
     1   Atom        0.000000      0.000000      0.000000
     2   Atom        0.000000      0.000000      0.000000
 --------------------------------------------------------


 ---------------------------------------------------------------------------------
              Anisotropic Spin Dipole Couplings in Principal Axis System
 ---------------------------------------------------------------------------------

       Atom             a.u.   MegaHertz   Gauss  10(-4) cm-1        Axes

              Baa    -0.0088     0.203     0.073     0.068  1.0000  0.0000  0.0000
     1 Sr(87) Bbb    -0.0088     0.203     0.073     0.068 -0.0000  1.0000  0.0000
              Bcc     0.0175    -0.407    -0.145    -0.136  0.0000  0.0000  1.0000
 
              Baa    -0.0156    -7.849    -2.801    -2.618  1.0000  0.0000  0.0000
     2 F(19)  Bbb    -0.0156    -7.849    -2.801    -2.618 -0.0000  1.0000  0.0000
              Bcc     0.0313    15.699     5.602     5.237  0.0000  0.0000  1.0000
 

 ---------------------------------------------------------------------------------

 Unable to Open any file for archive entry.
 1\1\GINC-TCOPT10\FOpt\UPBEPBE\def2QZVPP\F1Sr1(2)\HUTTER\30-Jul-2021\0\
 \#N UPBEPBE/Def2QZVPP scf=tight Int(Grid=ultrafine) OPT FREQ\\Mol job 
 1\\0,2\Sr,8.5,8.5,7.4633229648\F,8.5,8.5,9.5366770352\\Version=ES64L-G
 16RevC.01\State=2-SG\HF=-130.5735896\S2=0.750236\S2-1=0.\S2A=0.75\RMSD
 =5.427e-09\RMSF=2.312e-05\Dipole=0.,0.,-1.2876668\Quadrupole=2.3861388
 ,2.3861388,-4.7722776,0.,0.,0.\PG=C*V [C*(F1Sr1)]\\@
 The archive entry for this job was punched.


 TO ERR IS HUMAN - AND TO BLAME IT ON A COMPUTER IS EVEN MORE SO.
 Job cpu time:       0 days  0 hours  1 minutes 57.4 seconds.
 Elapsed time:       0 days  0 hours  0 minutes 15.2 seconds.
 File lengths (MBytes):  RWF=     15 Int=      0 D2E=      0 Chk=      2 Scr=      1
 Normal termination of Gaussian 16 at Fri Jul 30 20:28:27 2021.
 Link1:  Proceeding to internal job step number  2.
 ----------------------------------------------------------------------
 #N Geom=AllCheck Guess=TCheck SCRF=Check GenChk UPBEPBE/def2QZVPP Freq
 ----------------------------------------------------------------------
 1/10=4,29=7,30=1,38=1,40=1/1,3;
 2/12=2,40=1/2;
 3/5=45,7=202,11=2,14=-4,25=1,30=1,70=2,71=2,74=1009,75=-5,116=2,140=1/1,2,3;
 4/5=101/1;
 5/5=2,32=2,38=6,98=1/2;
 8/6=4,10=90,11=11/1;
 11/6=1,8=1,9=11,15=111,16=1/1,2,10;
 10/6=1/2;
 6/7=2,8=2,9=2,10=2,28=1/1;
 7/8=1,10=1,25=1/1,2,3,16;
 1/10=4,30=1/3;
 99//99;
 Structure from the checkpoint file:  "/data/hutter/SMG16/PBE/Gau-24342.chk"
 ---------
 Mol job 1
 ---------
 Charge =  0 Multiplicity = 2
 Redundant internal coordinates found in file.  (old form).
 Sr,0,8.5,8.5,7.4633229648
 F,0,8.5,8.5,9.5366770352
 Recover connectivity data from disk.

 GradGradGradGradGradGradGradGradGradGradGradGradGradGradGradGradGradGrad
 Berny optimization.
 Initialization pass.
                           ----------------------------
                           !    Initial Parameters    !
                           ! (Angstroms and Degrees)  !
 --------------------------                            --------------------------
 ! Name  Definition              Value          Derivative Info.                !
 --------------------------------------------------------------------------------
 ! R1    R(1,2)                  2.0734         calculate D2E/DX2 analytically  !
 --------------------------------------------------------------------------------
 Trust Radius=3.00D-01 FncErr=1.00D-07 GrdErr=1.00D-07 EigMax=2.50D+02 EigMin=1.00D-04
 Number of steps in this run=      2 maximum allowed number of steps=      2.
 GradGradGradGradGradGradGradGradGradGradGradGradGradGradGradGradGradGrad

                          Input orientation:                          
 ---------------------------------------------------------------------
 Center     Atomic      Atomic             Coordinates (Angstroms)
 Number     Number       Type             X           Y           Z
 ---------------------------------------------------------------------
      1         38           0        8.500000    8.500000    7.463323
      2          9           0        8.500000    8.500000    9.536677
 ---------------------------------------------------------------------
 Stoichiometry    FSr(2)
 Framework group  C*V[C*(FSr)]
 Deg. of freedom     1
 Full point group                 C*V     NOp   4
 Largest Abelian subgroup         C2V     NOp   4
 Largest concise Abelian subgroup C1      NOp   1
                         Standard orientation:                         
 ---------------------------------------------------------------------
 Center     Atomic      Atomic             Coordinates (Angstroms)
 Number     Number       Type             X           Y           Z
 ---------------------------------------------------------------------
      1         38           0        0.000000    0.000000    0.397025
      2          9           0        0.000000    0.000000   -1.676329
 ---------------------------------------------------------------------
 Rotational constants (GHZ):           0.0000000           7.5254171           7.5254171
 Standard basis: def2QZVPP (5D, 7F)
 There are    65 symmetry adapted cartesian basis functions of A1  symmetry.
 There are    15 symmetry adapted cartesian basis functions of A2  symmetry.
 There are    34 symmetry adapted cartesian basis functions of B1  symmetry.
 There are    34 symmetry adapted cartesian basis functions of B2  symmetry.
 There are    50 symmetry adapted basis functions of A1  symmetry.
 There are    14 symmetry adapted basis functions of A2  symmetry.
 There are    28 symmetry adapted basis functions of B1  symmetry.
 There are    28 symmetry adapted basis functions of B2  symmetry.
   120 basis functions,   184 primitive gaussians,   148 cartesian basis functions
    10 alpha electrons        9 beta electrons
       nuclear repulsion energy        22.9704851973 Hartrees.
 NAtoms=    2 NActive=    2 NUniq=    2 SFac= 1.00D+00 NAtFMM=   60 NAOKFM=F Big=F
 Integral buffers will be    131072 words long.
 Raffenetti 2 integral format.
 Two-electron integral symmetry is turned on.
 One-electron integrals computed using PRISM.
   4 Symmetry operations used in ECPInt.
 ECPInt:  NShTT=     666 NPrTT=    1478 LenC2=     664 LenP2D=    1422.
 LDataN:  DoStor=T MaxTD1= 8 Len=  415
 NBasis=   120 RedAO= T EigKep=  3.48D-03  NBF=    50    14    28    28
 NBsUse=   120 1.00D-06 EigRej= -1.00D+00 NBFU=    50    14    28    28
 Defaulting to unpruned grid for atomic number  38.
 Initial guess from the checkpoint file:  "/data/hutter/SMG16/PBE/Gau-24342.chk"
 B after Tr=     0.000000    0.000000    0.000000
         Rot=    1.000000    0.000000    0.000000    0.000000 Ang=   0.00 deg.
 Initial guess orbital symmetries:
 Alpha Orbitals:
       Occupied  (SG) (SG) (SG) (PI) (PI) (SG) (SG) (PI) (PI) (SG)
       Virtual   (PI) (PI) (SG) (DLTA) (DLTA) (PI) (PI) (SG) (SG)
                 (PI) (PI) (DLTA) (DLTA) (SG) (PI) (PI) (SG) (SG)
                 (PHI) (PHI) (DLTA) (DLTA) (PI) (PI) (SG) (DLTA)
                 (DLTA) (SG) (PI) (PI) (PI) (PI) (SG) (PI) (PI)
                 (SG) (SG) (SG) (PI) (PI) (PHI) (PHI) (DLTA) (DLTA)
                 (SG) (DLTA) (DLTA) (PI) (PI) (DLTA) (DLTA) (SG)
                 (SG) (PI) (PI) (PI) (PI) (SG) (PI) (PI) (DLTA)
                 (DLTA) (PHI) (PHI) (SG) (SG) (PHI) (PHI) (DLTA)
                 (DLTA) (PI) (PI) (SG) (DLTA) (DLTA) (PI) (PI)
                 (SG) (PI) (PI) (SG) (PI) (PI) (SG) (DLTA) (DLTA)
                 (PHI) (PHI) (PI) (PI) (?A) (?A) (SG) (PHI) (PHI)
                 (DLTA) (DLTA) (PI) (PI) (SG) (SG) (DLTA) (DLTA)
                 (PI) (PI) (SG) (SG) (SG) (SG) (SG)
 Beta  Orbitals:
       Occupied  (SG) (SG) (SG) (PI) (PI) (SG) (SG) (PI) (PI)
       Virtual   (SG) (DLTA) (DLTA) (PI) (PI) (SG) (PI) (PI) (SG)
                 (SG) (PI) (PI) (DLTA) (DLTA) (PI) (PI) (SG) (SG)
                 (SG) (DLTA) (DLTA) (PHI) (PHI) (SG) (PI) (PI)
                 (DLTA) (DLTA) (SG) (PI) (PI) (PI) (PI) (SG) (PI)
                 (PI) (SG) (SG) (SG) (PI) (PI) (PHI) (PHI) (DLTA)
                 (DLTA) (SG) (DLTA) (DLTA) (PI) (PI) (DLTA) (DLTA)
                 (SG) (SG) (PI) (PI) (PI) (PI) (SG) (PI) (PI) (DLTA)
                 (DLTA) (PHI) (PHI) (SG) (SG) (PHI) (PHI) (DLTA)
                 (DLTA) (PI) (PI) (SG) (DLTA) (DLTA) (PI) (PI)
                 (SG) (PI) (PI) (SG) (PI) (PI) (SG) (DLTA) (DLTA)
                 (PHI) (PHI) (PI) (PI) (?A) (?A) (SG) (PHI) (PHI)
                 (DLTA) (DLTA) (PI) (PI) (SG) (SG) (DLTA) (DLTA)
                 (PI) (PI) (SG) (SG) (SG) (SG) (SG)
 Initial guess <Sx>= 0.0000 <Sy>= 0.0000 <Sz>= 0.5000 <S**2>= 0.7502 S= 0.5001
 Keep J ints in memory in symmetry-blocked form, NReq=35442015.
 Requested convergence on RMS density matrix=1.00D-08 within 128 cycles.
 Requested convergence on MAX density matrix=1.00D-06.
 Requested convergence on             energy=1.00D-06.
 No special actions if energy rises.
 Defaulting to unpruned grid for atomic number  38.
 Defaulting to unpruned grid for atomic number  38.
 Defaulting to unpruned grid for atomic number  38.
 Defaulting to unpruned grid for atomic number  38.
 Defaulting to unpruned grid for atomic number  38.
 Defaulting to unpruned grid for atomic number  38.
 Defaulting to unpruned grid for atomic number  38.
 Defaulting to unpruned grid for atomic number  38.
 SCF Done:  E(UPBE-PBE) =  -130.573589609     A.U. after    1 cycles
            NFock=  1  Conv=0.20D-08     -V/T= 2.1940
 <Sx>= 0.0000 <Sy>= 0.0000 <Sz>= 0.5000 <S**2>= 0.7502 S= 0.5001
 <L.S>=  0.00000000000    
 Annihilation of the first spin contaminant:
 S**2 before annihilation     0.7502,   after     0.7500
 DoSCS=F DFT=T ScalE2(SS,OS)=  1.000000  1.000000
 Range of M.O.s used for correlation:     1   120
 NBasis=   120 NAE=    10 NBE=     9 NFC=     0 NFV=     0
 NROrb=    120 NOA=    10 NOB=     9 NVA=   110 NVB=   111

 **** Warning!!: The smallest alpha delta epsilon is  0.67279179D-01

   4 Symmetry operations used in ECPInt.
 ECPInt:  NShTT=     666 NPrTT=    1478 LenC2=     664 LenP2D=    1422.
 LDataN:  DoStor=T MaxTD1= 9 Len=  602
 Symmetrizing basis deriv contribution to polar:
 IMax=3 JMax=2 DiffMx= 0.00D+00
 G2DrvN: will do     3 centers at a time, making    1 passes.
 Calling FoFCou, ICntrl=  3507 FMM=F I1Cent=   0 AccDes= 0.00D+00.
 Defaulting to unpruned grid for atomic number  38.
 Defaulting to unpruned grid for atomic number  38.
 Defaulting to unpruned grid for atomic number  38.
 Defaulting to unpruned grid for atomic number  38.
 Defaulting to unpruned grid for atomic number  38.
 Defaulting to unpruned grid for atomic number  38.
 Defaulting to unpruned grid for atomic number  38.
 Defaulting to unpruned grid for atomic number  38.
 End of G2Drv F.D. properties file   721 does not exist.
 End of G2Drv F.D. properties file   722 does not exist.
 End of G2Drv F.D. properties file   788 does not exist.
          IDoAtm=11
          Differentiating once with respect to electric field.
                with respect to dipole field.
          Differentiating once with respect to nuclear coordinates.
 Defaulting to unpruned grid for atomic number  38.
 Keep J ints in memory in symmetry-blocked form, NReq=35443470.
 Defaulting to unpruned grid for atomic number  38.
 Defaulting to unpruned grid for atomic number  38.
 Defaulting to unpruned grid for atomic number  38.
 Defaulting to unpruned grid for atomic number  38.
 Defaulting to unpruned grid for atomic number  38.
 Defaulting to unpruned grid for atomic number  38.
 Defaulting to unpruned grid for atomic number  38.
 Defaulting to unpruned grid for atomic number  38.
          There are     9 degrees of freedom in the 1st order CPHF.  IDoFFX=6 NUNeed=     3.
      6 vectors produced by pass  0 Test12= 2.33D-14 1.11D-08 XBig12= 1.60D+03 3.92D+01.
 AX will form     6 AO Fock derivatives at one time.
      6 vectors produced by pass  1 Test12= 2.33D-14 1.11D-08 XBig12= 1.23D+02 3.38D+00.
      6 vectors produced by pass  2 Test12= 2.33D-14 1.11D-08 XBig12= 1.18D+01 1.61D+00.
      6 vectors produced by pass  3 Test12= 2.33D-14 1.11D-08 XBig12= 5.64D-01 3.81D-01.
      6 vectors produced by pass  4 Test12= 2.33D-14 1.11D-08 XBig12= 1.41D-02 4.96D-02.
      6 vectors produced by pass  5 Test12= 2.33D-14 1.11D-08 XBig12= 7.50D-04 1.26D-02.
      6 vectors produced by pass  6 Test12= 2.33D-14 1.11D-08 XBig12= 5.88D-06 5.91D-04.
      4 vectors produced by pass  7 Test12= 2.33D-14 1.11D-08 XBig12= 5.52D-08 5.96D-05.
      4 vectors produced by pass  8 Test12= 2.33D-14 1.11D-08 XBig12= 3.93D-10 3.85D-06.
      3 vectors produced by pass  9 Test12= 2.33D-14 1.11D-08 XBig12= 1.56D-12 3.66D-07.
      1 vectors produced by pass 10 Test12= 2.33D-14 1.11D-08 XBig12= 2.03D-14 3.24D-08.
 InvSVY:  IOpt=1 It=  1 EMax= 2.22D-16
 Solved reduced A of dimension    54 with     6 vectors.
 Isotropic polarizability for W=    0.000000      177.14 Bohr**3.
 End of Minotr F.D. properties file   721 does not exist.
 End of Minotr F.D. properties file   722 does not exist.
 End of Minotr F.D. properties file   788 does not exist.

 **********************************************************************

            Population analysis using the SCF Density.

 **********************************************************************

 Orbital symmetries:
 Alpha Orbitals:
       Occupied  (SG) (SG) (SG) (PI) (PI) (SG) (SG) (PI) (PI) (SG)
       Virtual   (PI) (PI) (SG) (DLTA) (DLTA) (PI) (PI) (SG) (SG)
                 (PI) (PI) (DLTA) (DLTA) (SG) (PI) (PI) (SG) (SG)
                 (PHI) (PHI) (DLTA) (DLTA) (PI) (PI) (SG) (DLTA)
                 (DLTA) (SG) (PI) (PI) (PI) (PI) (SG) (PI) (PI)
                 (SG) (SG) (SG) (PI) (PI) (PHI) (PHI) (DLTA) (DLTA)
                 (SG) (DLTA) (DLTA) (PI) (PI) (DLTA) (DLTA) (SG)
                 (SG) (PI) (PI) (PI) (PI) (SG) (PI) (PI) (DLTA)
                 (DLTA) (PHI) (PHI) (SG) (SG) (PHI) (PHI) (DLTA)
                 (DLTA) (PI) (PI) (SG) (DLTA) (DLTA) (PI) (PI)
                 (SG) (PI) (PI) (SG) (PI) (PI) (SG) (DLTA) (DLTA)
                 (PHI) (PHI) (PI) (PI) (?A) (?A) (SG) (PHI) (PHI)
                 (DLTA) (DLTA) (PI) (PI) (SG) (SG) (DLTA) (DLTA)
                 (PI) (PI) (SG) (SG) (SG) (SG) (SG)
 Beta  Orbitals:
       Occupied  (SG) (SG) (SG) (PI) (PI) (SG) (SG) (PI) (PI)
       Virtual   (SG) (DLTA) (DLTA) (PI) (PI) (SG) (PI) (PI) (SG)
                 (SG) (PI) (PI) (DLTA) (DLTA) (PI) (PI) (SG) (SG)
                 (SG) (DLTA) (DLTA) (PHI) (PHI) (SG) (PI) (PI)
                 (DLTA) (DLTA) (SG) (PI) (PI) (PI) (PI) (SG) (PI)
                 (PI) (SG) (SG) (SG) (PI) (PI) (PHI) (PHI) (DLTA)
                 (DLTA) (SG) (DLTA) (DLTA) (PI) (PI) (DLTA) (DLTA)
                 (SG) (SG) (PI) (PI) (PI) (PI) (SG) (PI) (PI) (DLTA)
                 (DLTA) (PHI) (PHI) (SG) (SG) (PHI) (PHI) (DLTA)
                 (DLTA) (PI) (PI) (SG) (DLTA) (DLTA) (PI) (PI)
                 (SG) (PI) (PI) (SG) (PI) (PI) (SG) (DLTA) (DLTA)
                 (PHI) (PHI) (PI) (PI) (?A) (?A) (SG) (PHI) (PHI)
                 (DLTA) (DLTA) (PI) (PI) (SG) (SG) (DLTA) (DLTA)
                 (PI) (PI) (SG) (SG) (SG) (SG) (SG)
 The electronic state is 2-SG.
 Alpha  occ. eigenvalues --  -24.14658  -1.48999  -0.96809  -0.82215  -0.82215
 Alpha  occ. eigenvalues --   -0.79340  -0.27695  -0.27429  -0.27429  -0.12379
 Alpha virt. eigenvalues --   -0.05651  -0.05651  -0.04307  -0.04181  -0.04181
 Alpha virt. eigenvalues --    0.00103   0.00103   0.00329   0.02949   0.05357
 Alpha virt. eigenvalues --    0.05357   0.05485   0.05485   0.06430   0.07225
 Alpha virt. eigenvalues --    0.07225   0.12083   0.16141   0.24846   0.24846
 Alpha virt. eigenvalues --    0.25437   0.25437   0.28703   0.28703   0.28805
 Alpha virt. eigenvalues --    0.34407   0.34407   0.35457   0.36991   0.36991
 Alpha virt. eigenvalues --    0.49437   0.49437   0.50245   0.50984   0.50984
 Alpha virt. eigenvalues --    0.58963   0.98598   1.09741   1.12723   1.12723
 Alpha virt. eigenvalues --    1.19765   1.19765   1.20661   1.20661   1.20932
 Alpha virt. eigenvalues --    1.41061   1.41061   1.51005   1.51005   1.63792
 Alpha virt. eigenvalues --    1.63794   1.67438   1.74216   1.74544   1.74544
 Alpha virt. eigenvalues --    1.80590   1.80590   2.37927   3.55108   3.55108
 Alpha virt. eigenvalues --    3.55214   3.55220   3.55598   3.55598   3.74731
 Alpha virt. eigenvalues --    4.00272   4.12252   4.12252   4.12655   4.12656
 Alpha virt. eigenvalues --    4.27915   4.27915   4.30118   4.92520   4.92520
 Alpha virt. eigenvalues --    5.09249   5.09249   5.34438   6.15512   6.15512
 Alpha virt. eigenvalues --    6.37809   7.94129   7.94129   8.99792  11.32181
 Alpha virt. eigenvalues --   11.32181  11.32701  11.32701  11.32812  11.32812
 Alpha virt. eigenvalues --   11.33432  11.33433  11.35741  14.45269  14.45269
 Alpha virt. eigenvalues --   14.45270  14.45270  14.50232  14.50232  14.60773
 Alpha virt. eigenvalues --   14.88650  15.64455  15.64455  15.74826  15.74826
 Alpha virt. eigenvalues --   16.01496  18.18798  53.69328  71.39389 284.04259
  Beta  occ. eigenvalues --  -24.14661  -1.48690  -0.96763  -0.81784  -0.81784
  Beta  occ. eigenvalues --   -0.78970  -0.27622  -0.27412  -0.27412
  Beta virt. eigenvalues --   -0.08991  -0.01760  -0.01760  -0.01681  -0.01681
  Beta virt. eigenvalues --   -0.01385   0.01705   0.01705   0.02688   0.04548
  Beta virt. eigenvalues --    0.08525   0.08525   0.08728   0.08728   0.09191
  Beta virt. eigenvalues --    0.09191   0.09379   0.13654   0.18307   0.27970
  Beta virt. eigenvalues --    0.27970   0.28425   0.28425   0.30924   0.31482
  Beta virt. eigenvalues --    0.31482   0.36644   0.36644   0.37074   0.38118
  Beta virt. eigenvalues --    0.38118   0.50311   0.50311   0.51240   0.53126
  Beta virt. eigenvalues --    0.53126   0.60463   0.99912   1.10325   1.13447
  Beta virt. eigenvalues --    1.13447   1.20823   1.20823   1.21360   1.21361
  Beta virt. eigenvalues --    1.21430   1.41154   1.41154   1.51470   1.51470
  Beta virt. eigenvalues --    1.65015   1.65015   1.68154   1.74447   1.74722
  Beta virt. eigenvalues --    1.74722   1.81164   1.81164   2.38486   3.55651
  Beta virt. eigenvalues --    3.55651   3.55777   3.55782   3.56222   3.56222
  Beta virt. eigenvalues --    3.75113   4.00455   4.12240   4.12240   4.12667
  Beta virt. eigenvalues --    4.12667   4.28026   4.28026   4.30333   4.92519
  Beta virt. eigenvalues --    4.92519   5.09297   5.09297   5.34534   6.15514
  Beta virt. eigenvalues --    6.15514   6.37937   7.95143   7.95143   9.00385
  Beta virt. eigenvalues --   11.32172  11.32173  11.32679  11.32679  11.32814
  Beta virt. eigenvalues --   11.32814  11.33396  11.33396  11.35755  14.45227
  Beta virt. eigenvalues --   14.45227  14.45258  14.45258  14.50242  14.50242
  Beta virt. eigenvalues --   14.60806  14.88665  15.64411  15.64411  15.74827
  Beta virt. eigenvalues --   15.74827  16.01511  18.19090  53.69324  71.39568
  Beta virt. eigenvalues --  284.04265
          Condensed to atoms (all electrons):
               1          2
     1  Sr   9.265223   0.150409
     2  F    0.150409   9.433959
          Atomic-Atomic Spin Densities.
               1          2
     1  Sr   1.014427  -0.006807
     2  F   -0.006807  -0.000812
 Mulliken charges and spin densities:
               1          2
     1  Sr   0.584368   1.007620
     2  F   -0.584368  -0.007620
 Sum of Mulliken charges =   0.00000   1.00000
 Mulliken charges and spin densities with hydrogens summed into heavy atoms:
               1          2
     1  Sr   0.584368   1.007620
     2  F   -0.584368  -0.007620
 APT charges:
               1
     1  Sr   0.591369
     2  F   -0.591369
 Sum of APT charges =   0.00000
 APT charges with hydrogens summed into heavy atoms:
               1
     1  Sr   0.591369
     2  F   -0.591369
 Electronic spatial extent (au):  <R**2>=            164.4401
 Charge=              0.0000 electrons
 Dipole moment (field-independent basis, Debye):
    X=              0.0000    Y=              0.0000    Z=              3.2729  Tot=              3.2729
 Quadrupole moment (field-independent basis, Debye-Ang):
   XX=            -27.5005   YY=            -27.5005   ZZ=            -37.1288
   XY=              0.0000   XZ=              0.0000   YZ=              0.0000
 Traceless Quadrupole moment (field-independent basis, Debye-Ang):
   XX=              3.2094   YY=              3.2094   ZZ=             -6.4189
   XY=              0.0000   XZ=              0.0000   YZ=              0.0000
 Octapole moment (field-independent basis, Debye-Ang**2):
  XXX=              0.0000  YYY=              0.0000  ZZZ=              0.0415  XYY=              0.0000
  XXY=              0.0000  XXZ=             -4.5596  XZZ=              0.0000  YZZ=              0.0000
  YYZ=             -4.5596  XYZ=              0.0000
 Hexadecapole moment (field-independent basis, Debye-Ang**3):
 XXXX=            -82.0190 YYYY=            -82.0190 ZZZZ=           -243.0056 XXXY=              0.0000
 XXXZ=              0.0000 YYYX=              0.0000 YYYZ=              0.0000 ZZZX=              0.0000
 ZZZY=              0.0000 XXYY=            -27.3397 XXZZ=            -52.0629 YYZZ=            -52.0629
 XXYZ=              0.0000 YYXZ=              0.0000 ZZXY=              0.0000
 N-N= 2.297048519731D+01 E-N=-3.461377738845D+02  KE= 1.093618895538D+02
 Symmetry A1   KE= 9.286476413606D+01
 Symmetry A2   KE= 2.056927863954D-47
 Symmetry B1   KE= 8.248562708870D+00
 Symmetry B2   KE= 8.248562708870D+00
 Symmetry A1   SP= 1.000000000000D+00
 Symmetry A2   SP=-7.264420717858D-52
 Symmetry B1   SP= 1.339599546742D-16
 Symmetry B2   SP=-1.083358527670D-15
  Exact polarizability:     198.671      -0.000     198.671      -0.000       0.000     134.071
 Approx polarizability:     239.376      -0.000     239.376      -0.000      -0.000     151.342
                          Isotropic Fermi Contact Couplings
        Atom                 a.u.       MegaHertz       Gauss      10(-4) cm-1
     1  Sr(87)             0.00000      -0.00012      -0.00004      -0.00004
     2  F(19)              0.02425     102.04759      36.41312      34.03941
 --------------------------------------------------------
       Center         ----  Spin Dipole Couplings  ----
                      3XX-RR        3YY-RR        3ZZ-RR
 --------------------------------------------------------
     1   Atom       -0.008762     -0.008762      0.017524
     2   Atom       -0.015629     -0.015629      0.031259
 --------------------------------------------------------
                        XY            XZ            YZ
 --------------------------------------------------------
     1   Atom        0.000000      0.000000      0.000000
     2   Atom        0.000000      0.000000      0.000000
 --------------------------------------------------------


 ---------------------------------------------------------------------------------
              Anisotropic Spin Dipole Couplings in Principal Axis System
 ---------------------------------------------------------------------------------

       Atom             a.u.   MegaHertz   Gauss  10(-4) cm-1        Axes

              Baa    -0.0088     0.203     0.073     0.068 -0.0000  1.0000  0.0000
     1 Sr(87) Bbb    -0.0088     0.203     0.073     0.068  1.0000  0.0000  0.0000
              Bcc     0.0175    -0.407    -0.145    -0.136  0.0000  0.0000  1.0000
 
              Baa    -0.0156    -7.849    -2.801    -2.618 -0.0000  1.0000  0.0000
     2 F(19)  Bbb    -0.0156    -7.849    -2.801    -2.618  1.0000  0.0000  0.0000
              Bcc     0.0313    15.699     5.602     5.237  0.0000  0.0000  1.0000
 

 ---------------------------------------------------------------------------------

   4 Symmetry operations used in ECPInt.
 ECPInt:  NShTT=     666 NPrTT=    1478 LenC2=     664 LenP2D=    1422.
 LDataN:  DoStor=T MaxTD1=10 Len=  848
 Calling FoFJK, ICntrl=    100527 FMM=F ISym2X=1 I1Cent= 0 IOpClX= 0 NMat=1 NMatS=1 NMatT=0.
 Defaulting to unpruned grid for atomic number  38.
 Defaulting to unpruned grid for atomic number  38.
 Defaulting to unpruned grid for atomic number  38.
 Defaulting to unpruned grid for atomic number  38.
 Defaulting to unpruned grid for atomic number  38.
 Defaulting to unpruned grid for atomic number  38.
 Defaulting to unpruned grid for atomic number  38.
 Defaulting to unpruned grid for atomic number  38.
 Full mass-weighted force constant matrix:
 Low frequencies ---   -3.5790   -3.5790   -0.0010   -0.0009   -0.0009  495.2613
 Diagonal vibrational polarizability:
        0.0000000       0.0000000       8.5357268
 Harmonic frequencies (cm**-1), IR intensities (KM/Mole), Raman scattering
 activities (A**4/AMU), depolarization ratios for plane and unpolarized
 incident light, reduced masses (AMU), force constants (mDyne/A),
 and normal coordinates:
                      1
                     SG
 Frequencies --    495.2613
 Red. masses --     22.0734
 Frc consts  --      3.1900
 IR Inten    --     77.7994
  Atom  AN      X      Y      Z
     1  38    -0.00  -0.00  -0.21
     2   9    -0.00  -0.00   0.98

 -------------------
 - Thermochemistry -
 -------------------
 Temperature   298.150 Kelvin.  Pressure   1.00000 Atm.
 Atom     1 has atomic number 38 and mass  87.90560
 Atom     2 has atomic number  9 and mass  18.99840
 Molecular mass:   106.90400 amu.
 Principal axes and moments of inertia in atomic units:
                           1         2         3
     Eigenvalues --     0.00000 239.81942 239.81942
           X            0.00000  -0.00000   1.00000
           Y            0.00000   1.00000   0.00000
           Z            1.00000   0.00000   0.00000
 This molecule is a prolate symmetric top.
 Rotational symmetry number  1.
 Rotational temperature (Kelvin)      0.36116
 Rotational constant (GHZ):           7.525417
 Zero-point vibrational energy       2962.3 (Joules/Mol)
                                    0.70801 (Kcal/Mol)
 Warning -- explicit consideration of   1 degrees of freedom as
           vibrations may cause significant error
 Vibrational temperatures:    712.57
          (Kelvin)
 
 Zero-point correction=                           0.001128 (Hartree/Particle)
 Thermal correction to Energy=                    0.003716
 Thermal correction to Enthalpy=                  0.004661
 Thermal correction to Gibbs Free Energy=        -0.022563
 Sum of electronic and zero-point Energies=           -130.572461
 Sum of electronic and thermal Energies=              -130.569873
 Sum of electronic and thermal Enthalpies=            -130.568929
 Sum of electronic and thermal Free Energies=         -130.596153
 
                     E (Thermal)             CV                S
                      KCal/Mol        Cal/Mol-Kelvin    Cal/Mol-Kelvin
 Total                    2.332              6.229             57.298
 Electronic               0.000              0.000              1.377
 Translational            0.889              2.981             39.917
 Rotational               0.592              1.987             15.333
 Vibrational              0.851              1.261              0.670
 Vibration     1          0.851              1.261              0.670
                       Q            Log10(Q)             Ln(Q)
 Total Bot       0.239039D+11         10.378468         23.897307
 Total V=0       0.789668D+11         10.897445         25.092293
 Vib (Bot)       0.333244D+00         -0.477238         -1.098881
 Vib (Bot)    1  0.333244D+00         -0.477238         -1.098881
 Vib (V=0)       0.110088D+01          0.041738          0.096106
 Vib (V=0)    1  0.110088D+01          0.041738          0.096106
 Electronic      0.200000D+01          0.301030          0.693147
 Translational   0.434455D+08          7.637945         17.587018
 Rotational      0.825527D+03          2.916731          6.716022
 ***** Axes restored to original set *****
 -------------------------------------------------------------------
 Center     Atomic                   Forces (Hartrees/Bohr)
 Number     Number              X              Y              Z
 -------------------------------------------------------------------
      1       38          -0.000000000   -0.000000000   -0.000040065
      2        9          -0.000000000   -0.000000000    0.000040065
 -------------------------------------------------------------------
 Cartesian Forces:  Max     0.000040065 RMS     0.000023132
 FormGI is forming the generalized inverse of G from B-inverse, IUseBI=4.

 GradGradGradGradGradGradGradGradGradGradGradGradGradGradGradGradGradGrad
 Berny optimization.
 Internal  Forces:  Max     0.000040065 RMS     0.000040065
 Search for a local minimum.
 Step number   1 out of a maximum of    2
 All quantities printed in internal units (Hartrees-Bohrs-Radians)
 Second derivative matrix not updated -- analytic derivatives used.
 The second derivative matrix:
                          R1
           R1           0.14501
 ITU=  0
     Eigenvalues ---    0.14501
 Angle between quadratic step and forces=   0.00 degrees.
 Linear search not attempted -- first point.
 Iteration  1 RMS(Cart)=  0.00019537 RMS(Int)=  0.00000000
 Iteration  2 RMS(Cart)=  0.00000000 RMS(Int)=  0.00000000
 ClnCor:  largest displacement from symmetrization is 0.00D+00 for atom     0.
 Variable       Old X    -DE/DX   Delta X   Delta X   Delta X     New X
                                 (Linear)    (Quad)   (Total)
    R1        3.91807   0.00004   0.00000   0.00028   0.00028   3.91835
         Item               Value     Threshold  Converged?
 Maximum Force            0.000040     0.000450     YES
 RMS     Force            0.000040     0.000300     YES
 Maximum Displacement     0.000138     0.001800     YES
 RMS     Displacement     0.000195     0.001200     YES
 Predicted change in Energy=-5.534832D-09
 Optimization completed.
    -- Stationary point found.
                           ----------------------------
                           !   Optimized Parameters   !
                           ! (Angstroms and Degrees)  !
 --------------------------                            --------------------------
 ! Name  Definition              Value          Derivative Info.                !
 --------------------------------------------------------------------------------
 ! R1    R(1,2)                  2.0734         -DE/DX =    0.0                 !
 --------------------------------------------------------------------------------
 GradGradGradGradGradGradGradGradGradGradGradGradGradGradGradGradGradGrad


 ----------------------------------------------------------------------

 Electric dipole moment (input orientation):
 (Debye = 10**-18 statcoulomb cm , SI units = C m)
                  (au)            (Debye)         (10**-30 SI)
   Tot        0.128767D+01      0.327292D+01      0.109173D+02
   x          0.000000D+00      0.000000D+00      0.000000D+00
   y          0.000000D+00      0.000000D+00      0.000000D+00
   z         -0.128767D+01     -0.327292D+01     -0.109173D+02

 Dipole polarizability, Alpha (input orientation).
 (esu units = cm**3 , SI units = C**2 m**2 J**-1)
 Alpha(0;0):
               (au)            (10**-24 esu)      (10**-40 SI)
   iso        0.177137D+03      0.262490D+02      0.292060D+02
   aniso      0.645996D+02      0.957267D+01      0.106510D+02
   xx         0.198671D+03      0.294399D+02      0.327563D+02
   yx         0.000000D+00      0.000000D+00      0.000000D+00
   yy         0.198671D+03      0.294399D+02      0.327563D+02
   zx         0.000000D+00      0.000000D+00      0.000000D+00
   zy         0.000000D+00      0.000000D+00      0.000000D+00
   zz         0.134071D+03      0.198673D+02      0.221053D+02

 ----------------------------------------------------------------------

 Dipole orientation:
    38         16.06267206        -16.06267206        -14.10363638
     9         16.06267206        -16.06267206        -18.02170773

 Electric dipole moment (dipole orientation):
 (Debye = 10**-18 statcoulomb cm , SI units = C m)
                  (au)            (Debye)         (10**-30 SI)
   Tot        0.128767D+01      0.327292D+01      0.109173D+02
   x          0.000000D+00      0.000000D+00      0.000000D+00
   y          0.000000D+00      0.000000D+00      0.000000D+00
   z          0.128767D+01      0.327292D+01      0.109173D+02

 Dipole polarizability, Alpha (dipole orientation).
 (esu units = cm**3 , SI units = C**2 m**2 J**-1)
 Alpha(0;0):
               (au)            (10**-24 esu)      (10**-40 SI)
   iso        0.177137D+03      0.262490D+02      0.292060D+02
   aniso      0.645996D+02      0.957267D+01      0.106510D+02
   xx         0.198671D+03      0.294399D+02      0.327563D+02
   yx         0.000000D+00      0.000000D+00      0.000000D+00
   yy         0.198671D+03      0.294399D+02      0.327563D+02
   zx         0.000000D+00      0.000000D+00      0.000000D+00
   zy         0.000000D+00      0.000000D+00      0.000000D+00
   zz         0.134071D+03      0.198673D+02      0.221053D+02

 ----------------------------------------------------------------------
 Unable to Open any file for archive entry.
 1\1\GINC-TCOPT10\Freq\UPBEPBE\def2QZVPP\F1Sr1(2)\HUTTER\30-Jul-2021\0\
 \#N Geom=AllCheck Guess=TCheck SCRF=Check GenChk UPBEPBE/def2QZVPP Fre
 q\\Mol job 1\\0,2\Sr,8.5,8.5,7.4633229648\F,8.5,8.5,9.5366770352\\Vers
 ion=ES64L-G16RevC.01\State=2-SG\HF=-130.5735896\S2=0.750236\S2-1=0.\S2
 A=0.75\RMSD=1.973e-09\RMSF=2.313e-05\ZeroPoint=0.0011283\Thermal=0.003
 7164\ETot=-130.5698732\HTot=-130.568929\GTot=-130.5961531\Dipole=0.,0.
 ,-1.2876674\DipoleDeriv=0.328773,0.,0.,0.,0.328773,0.,0.,0.,1.1165606,
 -0.328773,0.,0.,0.,-0.328773,0.,0.,0.,-1.1165606\Polar=198.6705466,0.,
 198.6705466,0.,0.,134.0709831\Quadrupole=2.3861398,2.3861398,-4.772279
 5,0.,0.,0.\PG=C*V [C*(F1Sr1)]\NImag=0\\-0.00000757,0.,-0.00000757,0.,0
 .,0.14501066,0.00000757,0.,0.,-0.00000757,0.,0.00000757,0.,0.,-0.00000
 757,0.,0.,-0.14501066,0.,0.,0.14501066\\0.,0.,0.00004007,0.,0.,-0.0000
 4007\\\@
 The archive entry for this job was punched.


 THE WORLD IS MADE UP OF THE WILLS, THE WON'TS, AND THE CANT'S:
 THE WILLS DO EVERYTHING,
 THE WON'TS DO NOTHING,
 THE CAN'TS CAN'T DO ANYTHING.

                               -- FROM WALT DISNEY'S "BLACK HOLE"
 Job cpu time:       0 days  0 hours  3 minutes 32.7 seconds.
 Elapsed time:       0 days  0 hours  0 minutes 26.9 seconds.
 File lengths (MBytes):  RWF=     15 Int=      0 D2E=      0 Chk=      3 Scr=      1
 Normal termination of Gaussian 16 at Fri Jul 30 20:28:54 2021.
