 Entering Gaussian System, Link 0=g16
 Initial command:
 /sw-ng/spack/opt/spack/linux-opensuse_leap15-sandybridge/pgi-18.10/gaussian-src-16-C.01-zldqaomctopxhethwccpmxmwefdscg3m/g16/l1.exe "/data/hutter/SMG16/PBE/Gau-84325.inp" -scrdir="/data/hutter/SMG16/PBE/"
 Entering Link 1 = /sw-ng/spack/opt/spack/linux-opensuse_leap15-sandybridge/pgi-18.10/gaussian-src-16-C.01-zldqaomctopxhethwccpmxmwefdscg3m/g16/l1.exe PID=     84326.
  
 Copyright (c) 1988-2019, Gaussian, Inc.  All Rights Reserved.
  
 This is part of the Gaussian(R) 16 program.  It is based on
 the Gaussian(R) 09 system (copyright 2009, Gaussian, Inc.),
 the Gaussian(R) 03 system (copyright 2003, Gaussian, Inc.),
 the Gaussian(R) 98 system (copyright 1998, Gaussian, Inc.),
 the Gaussian(R) 94 system (copyright 1995, Gaussian, Inc.),
 the Gaussian 92(TM) system (copyright 1992, Gaussian, Inc.),
 the Gaussian 90(TM) system (copyright 1990, Gaussian, Inc.),
 the Gaussian 88(TM) system (copyright 1988, Gaussian, Inc.),
 the Gaussian 86(TM) system (copyright 1986, Carnegie Mellon
 University), and the Gaussian 82(TM) system (copyright 1983,
 Carnegie Mellon University). Gaussian is a federally registered
 trademark of Gaussian, Inc.
  
 This software contains proprietary and confidential information,
 including trade secrets, belonging to Gaussian, Inc.
  
 This software is provided under written license and may be
 used, copied, transmitted, or stored only in accord with that
 written license.
  
 The following legend is applicable only to US Government
 contracts under FAR:
  
                    RESTRICTED RIGHTS LEGEND
  
 Use, reproduction and disclosure by the US Government is
 subject to restrictions as set forth in subparagraphs (a)
 and (c) of the Commercial Computer Software - Restricted
 Rights clause in FAR 52.227-19.
  
 Gaussian, Inc.
 340 Quinnipiac St., Bldg. 40, Wallingford CT 06492
  
  
 ---------------------------------------------------------------
 Warning -- This program may not be used in any manner that
 competes with the business of Gaussian, Inc. or will provide
 assistance to any competitor of Gaussian, Inc.  The licensee
 of this program is prohibited from giving any competitor of
 Gaussian, Inc. access to this program.  By using this program,
 the user acknowledges that Gaussian, Inc. is engaged in the
 business of creating and licensing software in the field of
 computational chemistry and represents and warrants to the
 licensee that it is not a competitor of Gaussian, Inc. and that
 it will not use this program in any manner prohibited above.
 ---------------------------------------------------------------
  

 Cite this work as:
 Gaussian 16, Revision C.01,
 M. J. Frisch, G. W. Trucks, H. B. Schlegel, G. E. Scuseria, 
 M. A. Robb, J. R. Cheeseman, G. Scalmani, V. Barone, 
 G. A. Petersson, H. Nakatsuji, X. Li, M. Caricato, A. V. Marenich, 
 J. Bloino, B. G. Janesko, R. Gomperts, B. Mennucci, H. P. Hratchian, 
 J. V. Ortiz, A. F. Izmaylov, J. L. Sonnenberg, D. Williams-Young, 
 F. Ding, F. Lipparini, F. Egidi, J. Goings, B. Peng, A. Petrone, 
 T. Henderson, D. Ranasinghe, V. G. Zakrzewski, J. Gao, N. Rega, 
 G. Zheng, W. Liang, M. Hada, M. Ehara, K. Toyota, R. Fukuda, 
 J. Hasegawa, M. Ishida, T. Nakajima, Y. Honda, O. Kitao, H. Nakai, 
 T. Vreven, K. Throssell, J. A. Montgomery, Jr., J. E. Peralta, 
 F. Ogliaro, M. J. Bearpark, J. J. Heyd, E. N. Brothers, K. N. Kudin, 
 V. N. Staroverov, T. A. Keith, R. Kobayashi, J. Normand, 
 K. Raghavachari, A. P. Rendell, J. C. Burant, S. S. Iyengar, 
 J. Tomasi, M. Cossi, J. M. Millam, M. Klene, C. Adamo, R. Cammi, 
 J. W. Ochterski, R. L. Martin, K. Morokuma, O. Farkas, 
 J. B. Foresman, and D. J. Fox, Gaussian, Inc., Wallingford CT, 2019.
 
 ******************************************
 Gaussian 16:  ES64L-G16RevC.01  3-Jul-2019
                30-Jul-2021 
 ******************************************
 %mem=8GB
 %NProcShare=8
 Will use up to    8 processors via shared memory.
 -----------------------------------------------------------
 #N RPBEPBE/Def2QZVPP scf=tight Int(Grid=ultrafine) OPT FREQ
 -----------------------------------------------------------
 1/18=20,19=15,26=4,38=1/1,3;
 2/9=110,12=2,17=6,18=5,40=1/2;
 3/5=45,7=202,11=2,25=1,30=1,71=1,74=1009,75=-5,116=1/1,2,3;
 4//1;
 5/5=2,32=2,38=5/2;
 6/7=2,8=2,9=2,10=2,28=1/1;
 7//1,2,3,16;
 1/18=20,19=15,26=4/3(2);
 2/9=110/2;
 99//99;
 2/9=110/2;
 3/5=45,7=202,11=2,25=1,30=1,71=1,74=1009,75=-5,116=1/1,2,3;
 4/5=5,16=3,69=1/1;
 5/5=2,32=2,38=5/2;
 7//1,2,3,16;
 1/18=20,19=15,26=4/3(-5);
 2/9=110/2;
 6/7=2,8=2,9=2,10=2,19=2,28=1/1;
 99/9=1/99;
 ---------
 Mol job 1
 ---------
 Symbolic Z-matrix:
 Charge =  0 Multiplicity = 1
 Ca                    9.        9.        9. 
 F                     9.        9.        6.89841 
 F                     9.        9.        11.10159 
 

 GradGradGradGradGradGradGradGradGradGradGradGradGradGradGradGradGradGrad
 Berny optimization.
 Initialization pass.
                           ----------------------------
                           !    Initial Parameters    !
                           ! (Angstroms and Degrees)  !
 --------------------------                            --------------------------
 ! Name  Definition              Value          Derivative Info.                !
 --------------------------------------------------------------------------------
 ! R1    R(1,2)                  2.1016         estimate D2E/DX2                !
 ! R2    R(1,3)                  2.1016         estimate D2E/DX2                !
 ! A1    L(2,1,3,-1,-1)        180.0            estimate D2E/DX2                !
 ! A2    L(2,1,3,-2,-2)        180.0            estimate D2E/DX2                !
 --------------------------------------------------------------------------------
 Trust Radius=3.00D-01 FncErr=1.00D-07 GrdErr=1.00D-06 EigMax=2.50D+02 EigMin=1.00D-04
 Number of steps in this run=     20 maximum allowed number of steps=    100.
 GradGradGradGradGradGradGradGradGradGradGradGradGradGradGradGradGradGrad

                          Input orientation:                          
 ---------------------------------------------------------------------
 Center     Atomic      Atomic             Coordinates (Angstroms)
 Number     Number       Type             X           Y           Z
 ---------------------------------------------------------------------
      1         20           0        9.000000    9.000000    9.000000
      2          9           0        9.000000    9.000000    6.898410
      3          9           0        9.000000    9.000000   11.101590
 ---------------------------------------------------------------------
                    Distance matrix (angstroms):
                    1          2          3
     1  Ca   0.000000
     2  F    2.101590   0.000000
     3  F    2.101590   4.203181   0.000000
 Stoichiometry    CaF2
 Framework group  D*H[O(Ca),C*(F.F)]
 Deg. of freedom     1
 Full point group                 D*H     NOp   8
 Largest Abelian subgroup         D2H     NOp   8
 Largest concise Abelian subgroup C2      NOp   2
                         Standard orientation:                         
 ---------------------------------------------------------------------
 Center     Atomic      Atomic             Coordinates (Angstroms)
 Number     Number       Type             X           Y           Z
 ---------------------------------------------------------------------
      1         20           0        0.000000    0.000000    0.000000
      2          9           0        0.000000    0.000000    2.101590
      3          9           0        0.000000    0.000000   -2.101590
 ---------------------------------------------------------------------
 Rotational constants (GHZ):           0.0000000           3.0114379           3.0114379
 Standard basis: def2QZVPP (5D, 7F)
 There are    55 symmetry adapted cartesian basis functions of AG  symmetry.
 There are    12 symmetry adapted cartesian basis functions of B1G symmetry.
 There are    20 symmetry adapted cartesian basis functions of B2G symmetry.
 There are    20 symmetry adapted cartesian basis functions of B3G symmetry.
 There are    11 symmetry adapted cartesian basis functions of AU  symmetry.
 There are    47 symmetry adapted cartesian basis functions of B1U symmetry.
 There are    31 symmetry adapted cartesian basis functions of B2U symmetry.
 There are    31 symmetry adapted cartesian basis functions of B3U symmetry.
 There are    43 symmetry adapted basis functions of AG  symmetry.
 There are    11 symmetry adapted basis functions of B1G symmetry.
 There are    17 symmetry adapted basis functions of B2G symmetry.
 There are    17 symmetry adapted basis functions of B3G symmetry.
 There are    10 symmetry adapted basis functions of AU  symmetry.
 There are    36 symmetry adapted basis functions of B1U symmetry.
 There are    25 symmetry adapted basis functions of B2U symmetry.
 There are    25 symmetry adapted basis functions of B3U symmetry.
   184 basis functions,   328 primitive gaussians,   227 cartesian basis functions
    19 alpha electrons       19 beta electrons
       nuclear repulsion energy       100.8452764658 Hartrees.
 NAtoms=    3 NActive=    3 NUniq=    2 SFac= 2.25D+00 NAtFMM=   60 NAOKFM=F Big=F
 Integral buffers will be    131072 words long.
 Raffenetti 2 integral format.
 Two-electron integral symmetry is turned on.
 One-electron integrals computed using PRISM.
   8 Symmetry operations used in ECPInt.
 ECPInt:  NShTT=    1711 NPrTT=    6183 LenC2=    1578 LenP2D=    4695.
 LDataN:  DoStor=T MaxTD1= 8 Len=  415
 NBasis=   184 RedAO= T EigKep=  1.09D-03  NBF=    43    11    17    17    10    36    25    25
 NBsUse=   184 1.00D-06 EigRej= -1.00D+00 NBFU=    43    11    17    17    10    36    25    25
 ExpMin= 2.00D-02 ExpMax= 2.43D+06 ExpMxC= 2.77D+03 IAcc=3 IRadAn=         5 AccDes= 0.00D+00
 Harris functional with IExCor= 1009 and IRadAn=       5 diagonalized for initial guess.
 HarFok:  IExCor= 1009 AccDes= 0.00D+00 IRadAn=         5 IDoV= 1 UseB2=F ITyADJ=14
 ICtDFT=  3500011 ScaDFX=  1.000000  1.000000  1.000000  1.000000
 FoFCou: FMM=F IPFlag=           0 FMFlag=      100000 FMFlg1=           0
         NFxFlg=           0 DoJE=T BraDBF=F KetDBF=T FulRan=T
         wScrn=  0.000000 ICntrl=       500 IOpCl=  0 I1Cent=   200000004 NGrid=           0
         NMat0=    1 NMatS0=      1 NMatT0=    0 NMatD0=    1 NMtDS0=    0 NMtDT0=    0
 Petite list used in FoFCou.
 Initial guess orbital symmetries:
       Occupied  (SGG) (SGU) (SGG) (SGG) (SGU) (PIU) (PIU) (SGG)
                 (SGU) (SGG) (PIU) (PIU) (SGU) (SGG) (PIG) (PIG)
                 (PIU) (PIU) (SGU)
       Virtual   (SGG) (DLTG) (DLTG) (PIG) (PIG) (PIU) (PIU) (SGU)
                 (SGG) (PIU) (PIU) (SGG) (SGU) (PIG) (PIG) (DLTG)
                 (DLTG) (SGG) (PIU) (PIU) (SGG) (SGU) (SGU) (DLTU)
                 (DLTU) (PHIU) (PHIU) (PIU) (PIU) (SGG) (PIG) (PIG)
                 (DLTG) (DLTG) (PIG) (PIG) (PIU) (PIU) (SGG) (SGU)
                 (SGU) (PIU) (PIU) (SGG) (SGG) (SGU) (DLTG) (DLTG)
                 (DLTU) (DLTU) (PIG) (PIG) (SGU) (SGG) (PIU) (PIU)
                 (PIU) (PIU) (SGG) (PIG) (PIG) (SGU) (DLTG) (DLTG)
                 (PIG) (PIG) (DLTU) (DLTU) (PHIU) (PHIU) (PIU)
                 (PIU) (SGG) (SGU) (SGG) (DLTG) (DLTG) (PHIG) (PHIG)
                 (PHIU) (PHIU) (DLTU) (DLTU) (PIG) (PIG) (PIU)
                 (PIU) (SGU) (SGU) (SGG) (DLTG) (DLTG) (DLTU) (DLTU)
                 (PIG) (PIG) (PIU) (PIU) (SGG) (SGU) (SGG) (PIU)
                 (PIU) (PIG) (PIG) (SGG) (SGU) (PHIU) (PHIU) (DLTU)
                 (DLTU) (PIU) (PIU) (SGU) (DLTG) (DLTG) (PIG) (PIG)
                 (DLTU) (DLTU) (PIU) (PIU) (PHIG) (PHIG) (PHIU)
                 (PHIU) (SGU) (?A) (?B) (?A) (?B) (SGG) (DLTG)
                 (DLTG) (PHIG) (PHIG) (PHIU) (PHIU) (DLTU) (DLTU)
                 (PIG) (PIG) (PIU) (PIU) (SGU) (SGG) (SGG) (SGU)
                 (DLTG) (DLTG) (DLTU) (DLTU) (PIG) (PIG) (PIU)
                 (PIU) (SGU) (SGG) (SGG) (SGG) (SGU) (SGG) (SGG)
                 (SGU) (SGG)
 The electronic state of the initial guess is 1-SGG.
 Keep J ints in memory in symmetry-blocked form, NReq=163422079.
 Requested convergence on RMS density matrix=1.00D-08 within 128 cycles.
 Requested convergence on MAX density matrix=1.00D-06.
 Requested convergence on             energy=1.00D-06.
 No special actions if energy rises.
 Rare condition: small coef for last iteration:  0.000D+00
 SCF Done:  E(RPBE-PBE) =  -877.138160607     A.U. after   11 cycles
            NFock= 11  Conv=0.20D-08     -V/T= 2.0025

 **********************************************************************

            Population analysis using the SCF Density.

 **********************************************************************

 Orbital symmetries:
       Occupied  (SGG) (SGU) (SGG) (SGG) (PIU) (PIU) (SGU) (SGG)
                 (SGU) (PIU) (PIU) (SGG) (SGU) (SGG) (PIG) (PIG)
                 (PIU) (PIU) (SGU)
       Virtual   (SGG) (DLTG) (DLTG) (PIU) (PIU) (PIG) (PIG) (SGU)
                 (SGG) (PIU) (PIU) (DLTG) (DLTG) (PIG) (PIG) (SGU)
                 (SGG) (SGG) (PIU) (PIU) (SGG) (SGU) (DLTU) (DLTU)
                 (PHIU) (PHIU) (SGU) (PIU) (PIU) (DLTG) (DLTG)
                 (PIG) (PIG) (SGG) (PIG) (PIG) (PIU) (PIU) (SGG)
                 (SGU) (PIU) (PIU) (SGU) (SGG) (SGG) (SGU) (DLTG)
                 (DLTG) (DLTU) (DLTU) (SGU) (PIG) (PIG) (SGG) (PIU)
                 (PIU) (PIU) (PIU) (SGG) (PIG) (PIG) (SGU) (DLTG)
                 (DLTG) (PHIU) (PHIU) (PIG) (PIG) (DLTU) (DLTU)
                 (PIU) (PIU) (SGG) (SGU) (SGG) (DLTG) (DLTG) (PHIG)
                 (PHIG) (DLTU) (DLTU) (PHIU) (PHIU) (PIG) (PIG)
                 (PIU) (PIU) (SGU) (SGU) (SGG) (DLTG) (DLTG) (DLTU)
                 (DLTU) (PIG) (PIG) (PIU) (PIU) (SGG) (SGU) (SGG)
                 (PIU) (PIU) (PIG) (PIG) (SGU) (SGG) (PHIU) (PHIU)
                 (DLTU) (DLTU) (PIU) (PIU) (SGU) (DLTG) (DLTG)
                 (DLTU) (DLTU) (PIG) (PIG) (PIU) (PIU) (PHIG) (PHIG)
                 (PHIU) (PHIU) (SGU) (?A) (?B) (?A) (?B) (SGG)
                 (DLTG) (DLTG) (PHIG) (PHIG) (PHIU) (PHIU) (DLTU)
                 (DLTU) (PIG) (PIG) (PIU) (PIU) (SGU) (SGG) (SGG)
                 (SGU) (DLTG) (DLTG) (DLTU) (DLTU) (PIG) (PIG)
                 (PIU) (PIU) (SGU) (SGG) (SGG) (SGG) (SGU) (SGG)
                 (SGG) (SGU) (SGG)
 The electronic state is 1-SGG.
 Alpha  occ. eigenvalues -- -144.34251 -24.14460 -24.14460 -15.05247 -12.25482
 Alpha  occ. eigenvalues --  -12.25482 -12.25155  -1.67381  -1.01218  -0.99789
 Alpha  occ. eigenvalues --   -0.99789  -0.94432  -0.90605  -0.29195  -0.27153
 Alpha  occ. eigenvalues --   -0.27153  -0.26481  -0.26481  -0.25947
 Alpha virt. eigenvalues --   -0.09322  -0.05134  -0.05134  -0.01560  -0.01560
 Alpha virt. eigenvalues --   -0.00602  -0.00602   0.01460   0.02416   0.05640
 Alpha virt. eigenvalues --    0.05640   0.08289   0.08289   0.08907   0.08907
 Alpha virt. eigenvalues --    0.09025   0.09832   0.11665   0.22153   0.22153
 Alpha virt. eigenvalues --    0.26255   0.28037   0.35114   0.35114   0.35566
 Alpha virt. eigenvalues --    0.35566   0.36060   0.39699   0.39699   0.44394
 Alpha virt. eigenvalues --    0.44394   0.45152   0.45152   0.45736   0.52288
 Alpha virt. eigenvalues --    0.52288   0.55725   0.55725   0.57461   0.66023
 Alpha virt. eigenvalues --    0.73677   0.73677   0.78050   1.08615   1.29117
 Alpha virt. eigenvalues --    1.32175   1.38329   1.38329   1.45488   1.45488
 Alpha virt. eigenvalues --    1.48498   1.49713   1.49713   1.56814   1.62435
 Alpha virt. eigenvalues --    1.62435   1.72652   1.72652   1.75254   1.76426
 Alpha virt. eigenvalues --    1.76426   1.81296   1.97205   1.97206   2.00267
 Alpha virt. eigenvalues --    2.00267   2.01485   2.01485   2.02176   2.02177
 Alpha virt. eigenvalues --    2.10290   2.10290   2.58233   2.69956   3.99833
 Alpha virt. eigenvalues --    4.12006   4.12006   4.12738   4.12738   4.12883
 Alpha virt. eigenvalues --    4.12883   4.12991   4.12991   4.14965   4.14965
 Alpha virt. eigenvalues --    4.15040   4.15040   4.19381   4.26475   4.28046
 Alpha virt. eigenvalues --    4.90676   4.90676   4.95571   4.95571   5.02933
 Alpha virt. eigenvalues --    5.02933   5.15460   5.15460   5.20838   5.27490
 Alpha virt. eigenvalues --    5.53137   6.11454   6.11454   6.16159   6.16159
 Alpha virt. eigenvalues --    6.41844   6.42222   7.63351   7.63351   7.64216
 Alpha virt. eigenvalues --    7.64226   7.70496   7.70496   8.15940  11.33028
 Alpha virt. eigenvalues --   11.33028  11.33035  11.33036  11.33050  11.33050
 Alpha virt. eigenvalues --   11.33091  11.33091  11.33471  11.33471  11.33484
 Alpha virt. eigenvalues --   11.33484  11.33815  11.34005  11.34005  11.34005
 Alpha virt. eigenvalues --   11.34005  11.34321  14.45631  14.45631  14.45692
 Alpha virt. eigenvalues --   14.45692  14.45814  14.45814  14.46118  14.46118
 Alpha virt. eigenvalues --   14.46846  14.46846  14.47457  14.47457  14.52541
 Alpha virt. eigenvalues --   14.55811  14.87887  15.11856  15.63213  15.63214
 Alpha virt. eigenvalues --   15.66591  15.66591  15.72202  15.72202  15.81595
 Alpha virt. eigenvalues --   15.81595  15.95172  15.96076  18.48954  53.71235
 Alpha virt. eigenvalues --   53.91819  63.24505 284.06511 284.31830 408.90715
          Condensed to atoms (all electrons):
               1          2          3
     1  Ca  18.372827   0.190173   0.190173
     2  F    0.190173   9.435088  -0.001848
     3  F    0.190173  -0.001848   9.435088
 Mulliken charges:
               1
     1  Ca   1.246827
     2  F   -0.623414
     3  F   -0.623414
 Sum of Mulliken charges =   0.00000
 Mulliken charges with hydrogens summed into heavy atoms:
               1
     1  Ca   1.246827
     2  F   -0.623414
     3  F   -0.623414
 Electronic spatial extent (au):  <R**2>=            352.6008
 Charge=              0.0000 electrons
 Dipole moment (field-independent basis, Debye):
    X=             -0.0000    Y=             -0.0000    Z=              0.0000  Tot=              0.0000
 Quadrupole moment (field-independent basis, Debye-Ang):
   XX=            -21.1969   YY=            -21.1969   ZZ=            -50.0101
   XY=             -0.0000   XZ=              0.0000   YZ=              0.0000
 Traceless Quadrupole moment (field-independent basis, Debye-Ang):
   XX=              9.6044   YY=              9.6044   ZZ=            -19.2088
   XY=             -0.0000   XZ=              0.0000   YZ=              0.0000
 Octapole moment (field-independent basis, Debye-Ang**2):
  XXX=              0.0000  YYY=             -0.0000  ZZZ=             -0.0000  XYY=             -0.0000
  XXY=             -0.0000  XXZ=             -0.0000  XZZ=             -0.0000  YZZ=             -0.0000
  YYZ=             -0.0000  XYZ=              0.0000
 Hexadecapole moment (field-independent basis, Debye-Ang**3):
 XXXX=            -18.9305 YYYY=            -18.9305 ZZZZ=           -449.3722 XXXY=             -0.0000
 XXXZ=             -0.0000 YYYX=             -0.0000 YYYZ=             -0.0000 ZZZX=              0.0000
 ZZZY=              0.0000 XXYY=             -6.3102 XXZZ=            -61.9122 YYZZ=            -61.9122
 XXYZ=             -0.0000 YYXZ=             -0.0000 ZZXY=             -0.0000
 N-N= 1.008452764658D+02 E-N=-2.285500200769D+03  KE= 8.749273093447D+02
 Symmetry AG   KE= 5.460253430943D+02
 Symmetry B1G  KE= 6.686262674752D-34
 Symmetry B2G  KE= 5.748555460623D+00
 Symmetry B3G  KE= 5.748555460623D+00
 Symmetry AU   KE= 1.116931230030D-33
 Symmetry B1U  KE= 1.611611427850D+02
 Symmetry B2U  KE= 7.812185627211D+01
 Symmetry B3U  KE= 7.812185627211D+01
   8 Symmetry operations used in ECPInt.
 ECPInt:  NShTT=    1711 NPrTT=    6183 LenC2=    1578 LenP2D=    4695.
 LDataN:  DoStor=T MaxTD1= 9 Len=  602
 Calling FoFJK, ICntrl=      2527 FMM=F ISym2X=1 I1Cent= 0 IOpClX= 0 NMat=1 NMatS=1 NMatT=0.
 ***** Axes restored to original set *****
 -------------------------------------------------------------------
 Center     Atomic                   Forces (Hartrees/Bohr)
 Number     Number              X              Y              Z
 -------------------------------------------------------------------
      1       20           0.000000000   -0.000000000   -0.000000000
      2        9          -0.000000000    0.000000000    0.023168996
      3        9          -0.000000000    0.000000000   -0.023168996
 -------------------------------------------------------------------
 Cartesian Forces:  Max     0.023168996 RMS     0.010921970

 GradGradGradGradGradGradGradGradGradGradGradGradGradGradGradGradGradGrad
 Berny optimization.
 FormGI is forming the generalized inverse of G from B-inverse, IUseBI=4.
 Internal  Forces:  Max     0.023168996 RMS     0.016382954
 Search for a local minimum.
 Step number   1 out of a maximum of   20
 All quantities printed in internal units (Hartrees-Bohrs-Radians)
 Mixed Optimization -- RFO/linear search
 Second derivative matrix not updated -- first step.
 The second derivative matrix:
                          R1        R2        A1        A2
           R1           0.11112
           R2           0.00000   0.11112
           A1           0.00000   0.00000   0.03129
           A2           0.00000   0.00000   0.00000   0.03129
 ITU=  0
     Eigenvalues ---    0.03129   0.03129   0.11112   0.11112
 RFO step:  Lambda=-8.94217876D-03 EMin= 3.12941986D-02
 Linear search not attempted -- first point.
 Iteration  1 RMS(Cart)=  0.13645555 RMS(Int)=  0.00000000
 Iteration  2 RMS(Cart)=  0.00000000 RMS(Int)=  0.00000000
 ClnCor:  largest displacement from symmetrization is 1.58D-13 for atom     1.
 Variable       Old X    -DE/DX   Delta X   Delta X   Delta X     New X
                                 (Linear)    (Quad)   (Total)
    R1        3.97143  -0.02317   0.00000  -0.19298  -0.19298   3.77845
    R2        3.97143  -0.02317   0.00000  -0.19298  -0.19298   3.77845
    A1        3.14159   0.00000   0.00000   0.00000   0.00000   3.14159
    A2        3.14159   0.00000   0.00000   0.00000   0.00000   3.14159
         Item               Value     Threshold  Converged?
 Maximum Force            0.023169     0.000450     NO 
 RMS     Force            0.016383     0.000300     NO 
 Maximum Displacement     0.192977     0.001800     NO 
 RMS     Displacement     0.136456     0.001200     NO 
 Predicted change in Energy=-4.804099D-03
 GradGradGradGradGradGradGradGradGradGradGradGradGradGradGradGradGradGrad

                          Input orientation:                          
 ---------------------------------------------------------------------
 Center     Atomic      Atomic             Coordinates (Angstroms)
 Number     Number       Type             X           Y           Z
 ---------------------------------------------------------------------
      1         20           0        9.000000    9.000000    9.000000
      2          9           0        9.000000    9.000000    7.000529
      3          9           0        9.000000    9.000000   10.999471
 ---------------------------------------------------------------------
                    Distance matrix (angstroms):
                    1          2          3
     1  Ca   0.000000
     2  F    1.999471   0.000000
     3  F    1.999471   3.998943   0.000000
 Stoichiometry    CaF2
 Framework group  D*H[O(Ca),C*(F.F)]
 Deg. of freedom     1
 Full point group                 D*H     NOp   8
 Largest Abelian subgroup         D2H     NOp   8
 Largest concise Abelian subgroup C2      NOp   2
                         Standard orientation:                         
 ---------------------------------------------------------------------
 Center     Atomic      Atomic             Coordinates (Angstroms)
 Number     Number       Type             X           Y           Z
 ---------------------------------------------------------------------
      1         20           0        0.000000    0.000000    0.000000
      2          9           0        0.000000    0.000000    1.999471
      3          9           0        0.000000    0.000000   -1.999471
 ---------------------------------------------------------------------
 Rotational constants (GHZ):           0.0000000           3.3269001           3.3269001
 Standard basis: def2QZVPP (5D, 7F)
 There are    55 symmetry adapted cartesian basis functions of AG  symmetry.
 There are    12 symmetry adapted cartesian basis functions of B1G symmetry.
 There are    20 symmetry adapted cartesian basis functions of B2G symmetry.
 There are    20 symmetry adapted cartesian basis functions of B3G symmetry.
 There are    11 symmetry adapted cartesian basis functions of AU  symmetry.
 There are    47 symmetry adapted cartesian basis functions of B1U symmetry.
 There are    31 symmetry adapted cartesian basis functions of B2U symmetry.
 There are    31 symmetry adapted cartesian basis functions of B3U symmetry.
 There are    43 symmetry adapted basis functions of AG  symmetry.
 There are    11 symmetry adapted basis functions of B1G symmetry.
 There are    17 symmetry adapted basis functions of B2G symmetry.
 There are    17 symmetry adapted basis functions of B3G symmetry.
 There are    10 symmetry adapted basis functions of AU  symmetry.
 There are    36 symmetry adapted basis functions of B1U symmetry.
 There are    25 symmetry adapted basis functions of B2U symmetry.
 There are    25 symmetry adapted basis functions of B3U symmetry.
   184 basis functions,   328 primitive gaussians,   227 cartesian basis functions
    19 alpha electrons       19 beta electrons
       nuclear repulsion energy       105.9957568621 Hartrees.
 NAtoms=    3 NActive=    3 NUniq=    2 SFac= 2.25D+00 NAtFMM=   60 NAOKFM=F Big=F
 Integral buffers will be    131072 words long.
 Raffenetti 2 integral format.
 Two-electron integral symmetry is turned on.
 One-electron integrals computed using PRISM.
   8 Symmetry operations used in ECPInt.
 ECPInt:  NShTT=    1711 NPrTT=    6183 LenC2=    1590 LenP2D=    4739.
 LDataN:  DoStor=T MaxTD1= 8 Len=  415
 NBasis=   184 RedAO= T EigKep=  1.06D-03  NBF=    43    11    17    17    10    36    25    25
 NBsUse=   184 1.00D-06 EigRej= -1.00D+00 NBFU=    43    11    17    17    10    36    25    25
 Initial guess from the checkpoint file:  "/data/hutter/SMG16/PBE/Gau-84326.chk"
 B after Tr=     0.000000    0.000000    0.000000
         Rot=    1.000000    0.000000    0.000000    0.000000 Ang=   0.00 deg.
 Initial guess orbital symmetries:
       Occupied  (SGG) (SGU) (SGG) (SGG) (PIU) (PIU) (SGU) (SGG)
                 (SGU) (PIU) (PIU) (SGG) (SGU) (SGG) (PIG) (PIG)
                 (PIU) (PIU) (SGU)
       Virtual   (SGG) (DLTG) (DLTG) (PIU) (PIU) (PIG) (PIG) (SGU)
                 (SGG) (PIU) (PIU) (DLTG) (DLTG) (PIG) (PIG) (SGU)
                 (SGG) (SGG) (PIU) (PIU) (SGG) (SGU) (DLTU) (DLTU)
                 (PHIU) (PHIU) (SGU) (PIU) (PIU) (DLTG) (DLTG)
                 (PIG) (PIG) (SGG) (PIG) (PIG) (PIU) (PIU) (SGG)
                 (SGU) (PIU) (PIU) (SGU) (SGG) (SGG) (SGU) (DLTG)
                 (DLTG) (DLTU) (DLTU) (SGU) (PIG) (PIG) (SGG) (PIU)
                 (PIU) (PIU) (PIU) (SGG) (PIG) (PIG) (SGU) (DLTG)
                 (DLTG) (PHIU) (PHIU) (PIG) (PIG) (DLTU) (DLTU)
                 (PIU) (PIU) (SGG) (SGU) (SGG) (DLTG) (DLTG) (PHIG)
                 (PHIG) (DLTU) (DLTU) (PHIU) (PHIU) (PIG) (PIG)
                 (PIU) (PIU) (SGU) (SGU) (SGG) (DLTG) (DLTG) (DLTU)
                 (DLTU) (PIG) (PIG) (PIU) (PIU) (SGG) (SGU) (SGG)
                 (PIU) (PIU) (PIG) (PIG) (SGU) (SGG) (PHIU) (PHIU)
                 (DLTU) (DLTU) (PIU) (PIU) (SGU) (DLTG) (DLTG)
                 (DLTU) (DLTU) (PIG) (PIG) (PIU) (PIU) (PHIG) (PHIG)
                 (PHIU) (PHIU) (SGU) (?A) (?B) (?A) (?B) (SGG)
                 (DLTG) (DLTG) (PHIG) (PHIG) (PHIU) (PHIU) (DLTU)
                 (DLTU) (PIG) (PIG) (PIU) (PIU) (SGU) (SGG) (SGG)
                 (SGU) (DLTG) (DLTG) (DLTU) (DLTU) (PIG) (PIG)
                 (PIU) (PIU) (SGU) (SGG) (SGG) (SGG) (SGU) (SGG)
                 (SGG) (SGU) (SGG)
 ExpMin= 2.00D-02 ExpMax= 2.43D+06 ExpMxC= 2.77D+03 IAcc=3 IRadAn=         5 AccDes= 0.00D+00
 Harris functional with IExCor= 1009 and IRadAn=       5 diagonalized for initial guess.
 HarFok:  IExCor= 1009 AccDes= 0.00D+00 IRadAn=         5 IDoV= 1 UseB2=F ITyADJ=14
 ICtDFT=  3500011 ScaDFX=  1.000000  1.000000  1.000000  1.000000
 FoFCou: FMM=F IPFlag=           0 FMFlag=      100000 FMFlg1=           0
         NFxFlg=           0 DoJE=T BraDBF=F KetDBF=T FulRan=T
         wScrn=  0.000000 ICntrl=       500 IOpCl=  0 I1Cent=   200000004 NGrid=           0
         NMat0=    1 NMatS0=      1 NMatT0=    0 NMatD0=    1 NMtDS0=    0 NMtDT0=    0
 Petite list used in FoFCou.
 Keep J ints in memory in symmetry-blocked form, NReq=163422079.
 Requested convergence on RMS density matrix=1.00D-08 within 128 cycles.
 Requested convergence on MAX density matrix=1.00D-06.
 Requested convergence on             energy=1.00D-06.
 No special actions if energy rises.
 SCF Done:  E(RPBE-PBE) =  -877.142355951     A.U. after    8 cycles
            NFock=  8  Conv=0.16D-08     -V/T= 2.0023
   8 Symmetry operations used in ECPInt.
 ECPInt:  NShTT=    1711 NPrTT=    6183 LenC2=    1590 LenP2D=    4739.
 LDataN:  DoStor=T MaxTD1= 9 Len=  602
 Calling FoFJK, ICntrl=      2527 FMM=F ISym2X=1 I1Cent= 0 IOpClX= 0 NMat=1 NMatS=1 NMatT=0.
 ***** Axes restored to original set *****
 -------------------------------------------------------------------
 Center     Atomic                   Forces (Hartrees/Bohr)
 Number     Number              X              Y              Z
 -------------------------------------------------------------------
      1       20           0.000000000   -0.000000000    0.000000000
      2        9          -0.000000000    0.000000000   -0.003573592
      3        9          -0.000000000    0.000000000    0.003573592
 -------------------------------------------------------------------
 Cartesian Forces:  Max     0.003573592 RMS     0.001684607

 GradGradGradGradGradGradGradGradGradGradGradGradGradGradGradGradGradGrad
 Berny optimization.
 Using GEDIIS/GDIIS optimizer.
 Internal  Forces:  Max     0.003573592 RMS     0.002526911
 Search for a local minimum.
 Step number   2 out of a maximum of   20
 All quantities printed in internal units (Hartrees-Bohrs-Radians)
 Mixed Optimization -- RFO/linear search
 Update second derivatives using D2CorX and points    1    2
 DE= -4.20D-03 DEPred=-4.80D-03 R= 8.73D-01
 TightC=F SS=  1.41D+00  RLast= 2.73D-01 DXNew= 5.0454D-01 8.1873D-01
 Trust test= 8.73D-01 RLast= 2.73D-01 DXMaxT set to 5.05D-01
 The second derivative matrix:
                          R1        R2        A1        A2
           R1           0.12485
           R2           0.01373   0.12485
           A1           0.00000   0.00000   0.03129
           A2           0.00000   0.00000   0.00000   0.03129
 ITU=  1  0
 Use linear search instead of GDIIS.
     Eigenvalues ---    0.03129   0.03129   0.11112   0.13858
 RFO step:  Lambda= 0.00000000D+00 EMin= 3.12941986D-02
 Quartic linear search produced a step of -0.10944.
 Iteration  1 RMS(Cart)=  0.01493397 RMS(Int)=  0.00000000
 Iteration  2 RMS(Cart)=  0.00000000 RMS(Int)=  0.00000000
 ClnCor:  largest displacement from symmetrization is 2.01D-13 for atom     1.
 Variable       Old X    -DE/DX   Delta X   Delta X   Delta X     New X
                                 (Linear)    (Quad)   (Total)
    R1        3.77845   0.00357   0.02112   0.00000   0.02112   3.79957
    R2        3.77845   0.00357   0.02112  -0.00000   0.02112   3.79957
    A1        3.14159   0.00000   0.00000   0.00000   0.00000   3.14159
    A2        3.14159   0.00000   0.00000   0.00000   0.00000   3.14159
         Item               Value     Threshold  Converged?
 Maximum Force            0.003574     0.000450     NO 
 RMS     Force            0.002527     0.000300     NO 
 Maximum Displacement     0.021120     0.001800     NO 
 RMS     Displacement     0.014934     0.001200     NO 
 Predicted change in Energy=-8.913453D-05
 GradGradGradGradGradGradGradGradGradGradGradGradGradGradGradGradGradGrad

                          Input orientation:                          
 ---------------------------------------------------------------------
 Center     Atomic      Atomic             Coordinates (Angstroms)
 Number     Number       Type             X           Y           Z
 ---------------------------------------------------------------------
      1         20           0        9.000000    9.000000    9.000000
      2          9           0        9.000000    9.000000    6.989353
      3          9           0        9.000000    9.000000   11.010647
 ---------------------------------------------------------------------
                    Distance matrix (angstroms):
                    1          2          3
     1  Ca   0.000000
     2  F    2.010647   0.000000
     3  F    2.010647   4.021295   0.000000
 Stoichiometry    CaF2
 Framework group  D*H[O(Ca),C*(F.F)]
 Deg. of freedom     1
 Full point group                 D*H     NOp   8
 Largest Abelian subgroup         D2H     NOp   8
 Largest concise Abelian subgroup C2      NOp   2
                         Standard orientation:                         
 ---------------------------------------------------------------------
 Center     Atomic      Atomic             Coordinates (Angstroms)
 Number     Number       Type             X           Y           Z
 ---------------------------------------------------------------------
      1         20           0        0.000000    0.000000    0.000000
      2          9           0        0.000000    0.000000    2.010647
      3          9           0        0.000000    0.000000   -2.010647
 ---------------------------------------------------------------------
 Rotational constants (GHZ):           0.0000000           3.2900179           3.2900179
 Standard basis: def2QZVPP (5D, 7F)
 There are    55 symmetry adapted cartesian basis functions of AG  symmetry.
 There are    12 symmetry adapted cartesian basis functions of B1G symmetry.
 There are    20 symmetry adapted cartesian basis functions of B2G symmetry.
 There are    20 symmetry adapted cartesian basis functions of B3G symmetry.
 There are    11 symmetry adapted cartesian basis functions of AU  symmetry.
 There are    47 symmetry adapted cartesian basis functions of B1U symmetry.
 There are    31 symmetry adapted cartesian basis functions of B2U symmetry.
 There are    31 symmetry adapted cartesian basis functions of B3U symmetry.
 There are    43 symmetry adapted basis functions of AG  symmetry.
 There are    11 symmetry adapted basis functions of B1G symmetry.
 There are    17 symmetry adapted basis functions of B2G symmetry.
 There are    17 symmetry adapted basis functions of B3G symmetry.
 There are    10 symmetry adapted basis functions of AU  symmetry.
 There are    36 symmetry adapted basis functions of B1U symmetry.
 There are    25 symmetry adapted basis functions of B2U symmetry.
 There are    25 symmetry adapted basis functions of B3U symmetry.
   184 basis functions,   328 primitive gaussians,   227 cartesian basis functions
    19 alpha electrons       19 beta electrons
       nuclear repulsion energy       105.4065824499 Hartrees.
 NAtoms=    3 NActive=    3 NUniq=    2 SFac= 2.25D+00 NAtFMM=   60 NAOKFM=F Big=F
 Integral buffers will be    131072 words long.
 Raffenetti 2 integral format.
 Two-electron integral symmetry is turned on.
 One-electron integrals computed using PRISM.
   8 Symmetry operations used in ECPInt.
 ECPInt:  NShTT=    1711 NPrTT=    6183 LenC2=    1588 LenP2D=    4733.
 LDataN:  DoStor=T MaxTD1= 8 Len=  415
 NBasis=   184 RedAO= T EigKep=  1.06D-03  NBF=    43    11    17    17    10    36    25    25
 NBsUse=   184 1.00D-06 EigRej= -1.00D+00 NBFU=    43    11    17    17    10    36    25    25
 Initial guess from the checkpoint file:  "/data/hutter/SMG16/PBE/Gau-84326.chk"
 B after Tr=     0.000000    0.000000   -0.000000
         Rot=    1.000000    0.000000    0.000000    0.000000 Ang=   0.00 deg.
 Initial guess orbital symmetries:
       Occupied  (SGG) (SGU) (SGG) (SGG) (PIU) (PIU) (SGU) (SGG)
                 (SGU) (PIU) (PIU) (SGG) (SGU) (SGG) (PIG) (PIG)
                 (PIU) (PIU) (SGU)
       Virtual   (SGG) (DLTG) (DLTG) (PIU) (PIU) (SGU) (PIG) (PIG)
                 (SGG) (PIU) (PIU) (DLTG) (DLTG) (PIG) (PIG) (SGU)
                 (SGG) (SGG) (PIU) (PIU) (SGG) (SGU) (DLTU) (DLTU)
                 (PHIU) (PHIU) (SGU) (PIU) (PIU) (DLTG) (DLTG)
                 (SGG) (PIG) (PIG) (PIG) (PIG) (SGG) (PIU) (PIU)
                 (SGU) (PIU) (PIU) (SGU) (SGG) (SGG) (SGU) (DLTG)
                 (DLTG) (DLTU) (DLTU) (PIG) (PIG) (SGU) (PIU) (PIU)
                 (SGG) (PIU) (PIU) (PIG) (PIG) (SGG) (SGU) (DLTG)
                 (DLTG) (PHIU) (PHIU) (DLTU) (DLTU) (PIG) (PIG)
                 (PIU) (PIU) (SGG) (SGU) (SGG) (DLTG) (DLTG) (PHIG)
                 (PHIG) (DLTU) (DLTU) (PHIU) (PHIU) (PIG) (PIG)
                 (PIU) (PIU) (SGU) (SGU) (SGG) (DLTG) (DLTG) (DLTU)
                 (DLTU) (PIG) (PIG) (PIU) (PIU) (SGG) (SGU) (SGG)
                 (PIU) (PIU) (PIG) (PIG) (SGU) (SGG) (PHIU) (PHIU)
                 (DLTU) (DLTU) (PIU) (PIU) (SGU) (DLTG) (DLTG)
                 (DLTU) (DLTU) (PIG) (PIG) (PHIG) (PHIG) (PHIU)
                 (PHIU) (PIU) (PIU) (?A) (?B) (?A) (?B) (SGG) (SGU)
                 (DLTG) (DLTG) (PHIG) (PHIG) (PHIU) (PHIU) (DLTU)
                 (DLTU) (PIG) (PIG) (PIU) (PIU) (SGU) (SGG) (SGG)
                 (SGU) (DLTG) (DLTG) (DLTU) (DLTU) (PIG) (PIG)
                 (PIU) (PIU) (SGU) (SGG) (SGG) (SGG) (SGU) (SGG)
                 (SGG) (SGU) (SGG)
 ExpMin= 2.00D-02 ExpMax= 2.43D+06 ExpMxC= 2.77D+03 IAcc=3 IRadAn=         5 AccDes= 0.00D+00
 Harris functional with IExCor= 1009 and IRadAn=       5 diagonalized for initial guess.
 HarFok:  IExCor= 1009 AccDes= 0.00D+00 IRadAn=         5 IDoV= 1 UseB2=F ITyADJ=14
 ICtDFT=  3500011 ScaDFX=  1.000000  1.000000  1.000000  1.000000
 FoFCou: FMM=F IPFlag=           0 FMFlag=      100000 FMFlg1=           0
         NFxFlg=           0 DoJE=T BraDBF=F KetDBF=T FulRan=T
         wScrn=  0.000000 ICntrl=       500 IOpCl=  0 I1Cent=   200000004 NGrid=           0
         NMat0=    1 NMatS0=      1 NMatT0=    0 NMatD0=    1 NMtDS0=    0 NMtDT0=    0
 Petite list used in FoFCou.
 Keep J ints in memory in symmetry-blocked form, NReq=163422079.
 Requested convergence on RMS density matrix=1.00D-08 within 128 cycles.
 Requested convergence on MAX density matrix=1.00D-06.
 Requested convergence on             energy=1.00D-06.
 No special actions if energy rises.
 SCF Done:  E(RPBE-PBE) =  -877.142430390     A.U. after    7 cycles
            NFock=  7  Conv=0.79D-09     -V/T= 2.0023
   8 Symmetry operations used in ECPInt.
 ECPInt:  NShTT=    1711 NPrTT=    6183 LenC2=    1588 LenP2D=    4733.
 LDataN:  DoStor=T MaxTD1= 9 Len=  602
 Calling FoFJK, ICntrl=      2527 FMM=F ISym2X=1 I1Cent= 0 IOpClX= 0 NMat=1 NMatS=1 NMatT=0.
 ***** Axes restored to original set *****
 -------------------------------------------------------------------
 Center     Atomic                   Forces (Hartrees/Bohr)
 Number     Number              X              Y              Z
 -------------------------------------------------------------------
      1       20           0.000000000   -0.000000000   -0.000000000
      2        9          -0.000000000    0.000000000    0.000017782
      3        9          -0.000000000    0.000000000   -0.000017782
 -------------------------------------------------------------------
 Cartesian Forces:  Max     0.000017782 RMS     0.000008383

 GradGradGradGradGradGradGradGradGradGradGradGradGradGradGradGradGradGrad
 Berny optimization.
 Using GEDIIS/GDIIS optimizer.
 Internal  Forces:  Max     0.000017782 RMS     0.000012574
 Search for a local minimum.
 Step number   3 out of a maximum of   20
 All quantities printed in internal units (Hartrees-Bohrs-Radians)
 Mixed Optimization -- En-DIIS/RFO-DIIS
 Update second derivatives using D2CorX and points    1    2    3
 DE= -7.44D-05 DEPred=-8.91D-05 R= 8.35D-01
 TightC=F SS=  1.41D+00  RLast= 2.99D-02 DXNew= 8.4853D-01 8.9604D-02
 Trust test= 8.35D-01 RLast= 2.99D-02 DXMaxT set to 5.05D-01
 The second derivative matrix:
                          R1        R2        A1        A2
           R1           0.14058
           R2           0.02946   0.14058
           A1           0.00000   0.00000   0.03129
           A2           0.00000   0.00000   0.00000   0.03129
 ITU=  1  1  0
 Use linear search instead of GDIIS.
     Eigenvalues ---    0.03129   0.03129   0.11112   0.17005
 RFO step:  Lambda= 0.00000000D+00 EMin= 3.12941986D-02
 Quartic linear search produced a step of -0.00508.
 Iteration  1 RMS(Cart)=  0.00007590 RMS(Int)=  0.00000000
 Iteration  2 RMS(Cart)=  0.00000000 RMS(Int)=  0.00000000
 ClnCor:  largest displacement from symmetrization is 2.20D-13 for atom     1.
 Variable       Old X    -DE/DX   Delta X   Delta X   Delta X     New X
                                 (Linear)    (Quad)   (Total)
    R1        3.79957  -0.00002  -0.00011  -0.00000  -0.00011   3.79947
    R2        3.79957  -0.00002  -0.00011   0.00000  -0.00011   3.79947
    A1        3.14159   0.00000   0.00000   0.00000   0.00000   3.14159
    A2        3.14159   0.00000   0.00000   0.00000   0.00000   3.14159
         Item               Value     Threshold  Converged?
 Maximum Force            0.000018     0.000450     YES
 RMS     Force            0.000013     0.000300     YES
 Maximum Displacement     0.000107     0.001800     YES
 RMS     Displacement     0.000076     0.001200     YES
 Predicted change in Energy=-1.858166D-09
 Optimization completed.
    -- Stationary point found.
                           ----------------------------
                           !   Optimized Parameters   !
                           ! (Angstroms and Degrees)  !
 --------------------------                            --------------------------
 ! Name  Definition              Value          Derivative Info.                !
 --------------------------------------------------------------------------------
 ! R1    R(1,2)                  2.0106         -DE/DX =    0.0                 !
 ! R2    R(1,3)                  2.0106         -DE/DX =    0.0                 !
 ! A1    L(2,1,3,-1,-1)        180.0            -DE/DX =    0.0                 !
 ! A2    L(2,1,3,-2,-2)        180.0            -DE/DX =    0.0                 !
 --------------------------------------------------------------------------------
 GradGradGradGradGradGradGradGradGradGradGradGradGradGradGradGradGradGrad

                          Input orientation:                          
 ---------------------------------------------------------------------
 Center     Atomic      Atomic             Coordinates (Angstroms)
 Number     Number       Type             X           Y           Z
 ---------------------------------------------------------------------
      1         20           0        9.000000    9.000000    9.000000
      2          9           0        9.000000    9.000000    6.989353
      3          9           0        9.000000    9.000000   11.010647
 ---------------------------------------------------------------------
                    Distance matrix (angstroms):
                    1          2          3
     1  Ca   0.000000
     2  F    2.010647   0.000000
     3  F    2.010647   4.021295   0.000000
 Stoichiometry    CaF2
 Framework group  D*H[O(Ca),C*(F.F)]
 Deg. of freedom     1
 Full point group                 D*H     NOp   8
 Largest Abelian subgroup         D2H     NOp   8
 Largest concise Abelian subgroup C2      NOp   2
                         Standard orientation:                         
 ---------------------------------------------------------------------
 Center     Atomic      Atomic             Coordinates (Angstroms)
 Number     Number       Type             X           Y           Z
 ---------------------------------------------------------------------
      1         20           0        0.000000    0.000000    0.000000
      2          9           0        0.000000    0.000000    2.010647
      3          9           0        0.000000    0.000000   -2.010647
 ---------------------------------------------------------------------
 Rotational constants (GHZ):           0.0000000           3.2900179           3.2900179

 **********************************************************************

            Population analysis using the SCF Density.

 **********************************************************************

 Orbital symmetries:
       Occupied  (SGG) (SGU) (SGG) (SGG) (PIU) (PIU) (SGU) (SGG)
                 (SGU) (PIU) (PIU) (SGG) (SGU) (SGG) (PIG) (PIG)
                 (PIU) (PIU) (SGU)
       Virtual   (SGG) (DLTG) (DLTG) (PIU) (PIU) (SGU) (PIG) (PIG)
                 (SGG) (PIU) (PIU) (DLTG) (DLTG) (PIG) (PIG) (SGU)
                 (SGG) (SGG) (PIU) (PIU) (SGG) (SGU) (DLTU) (DLTU)
                 (PHIU) (PHIU) (SGU) (PIU) (PIU) (DLTG) (DLTG)
                 (PIG) (PIG) (SGG) (PIG) (PIG) (PIU) (PIU) (SGG)
                 (SGU) (PIU) (PIU) (SGU) (SGG) (SGG) (SGU) (DLTG)
                 (DLTG) (DLTU) (DLTU) (PIG) (PIG) (SGU) (PIU) (PIU)
                 (SGG) (PIU) (PIU) (PIG) (PIG) (SGG) (SGU) (DLTG)
                 (DLTG) (PHIU) (PHIU) (DLTU) (DLTU) (PIG) (PIG)
                 (PIU) (PIU) (SGG) (SGU) (SGG) (DLTG) (DLTG) (PHIG)
                 (PHIG) (DLTU) (DLTU) (PHIU) (PHIU) (PIG) (PIG)
                 (PIU) (PIU) (SGU) (SGU) (SGG) (DLTG) (DLTG) (DLTU)
                 (DLTU) (PIG) (PIG) (PIU) (PIU) (SGG) (SGU) (SGG)
                 (PIU) (PIU) (PIG) (PIG) (SGU) (SGG) (PHIU) (PHIU)
                 (DLTU) (DLTU) (PIU) (PIU) (SGU) (DLTG) (DLTG)
                 (DLTU) (DLTU) (PIG) (PIG) (PHIG) (PHIG) (PHIU)
                 (PHIU) (PIU) (PIU) (?A) (?B) (?B) (?A) (SGG) (SGU)
                 (DLTG) (DLTG) (PHIG) (PHIG) (PHIU) (PHIU) (DLTU)
                 (DLTU) (PIG) (PIG) (PIU) (PIU) (SGU) (SGG) (SGG)
                 (SGU) (DLTG) (DLTG) (DLTU) (DLTU) (PIG) (PIG)
                 (PIU) (PIU) (SGU) (SGG) (SGG) (SGG) (SGU) (SGG)
                 (SGG) (SGU) (SGG)
 The electronic state is 1-SGG.
 Alpha  occ. eigenvalues -- -144.31559 -24.14633 -24.14633 -15.02602 -12.22844
 Alpha  occ. eigenvalues --  -12.22844 -12.22473  -1.65243  -1.01614  -0.97694
 Alpha  occ. eigenvalues --   -0.97694  -0.95115  -0.88801  -0.29810  -0.27947
 Alpha  occ. eigenvalues --   -0.27947  -0.27070  -0.27070  -0.25724
 Alpha virt. eigenvalues --   -0.08571  -0.03668  -0.03668  -0.01118  -0.01118
 Alpha virt. eigenvalues --    0.01578   0.01583   0.01583   0.02921   0.05998
 Alpha virt. eigenvalues --    0.05998   0.08808   0.08808   0.09099   0.09099
 Alpha virt. eigenvalues --    0.09215   0.10187   0.14015   0.22681   0.22681
 Alpha virt. eigenvalues --    0.28217   0.28537   0.35450   0.35450   0.36196
 Alpha virt. eigenvalues --    0.36196   0.36818   0.40435   0.40435   0.45445
 Alpha virt. eigenvalues --    0.45445   0.45828   0.45828   0.45838   0.53505
 Alpha virt. eigenvalues --    0.53505   0.57449   0.57449   0.57650   0.66053
 Alpha virt. eigenvalues --    0.74590   0.74590   0.82821   1.12161   1.30816
 Alpha virt. eigenvalues --    1.32823   1.38062   1.38062   1.46440   1.46440
 Alpha virt. eigenvalues --    1.49661   1.49661   1.51242   1.59438   1.59438
 Alpha virt. eigenvalues --    1.63014   1.72540   1.72540   1.76338   1.76338
 Alpha virt. eigenvalues --    1.77198   1.81633   1.98990   1.98991   2.02087
 Alpha virt. eigenvalues --    2.02087   2.03736   2.03736   2.05693   2.05693
 Alpha virt. eigenvalues --    2.17117   2.17117   2.74286   2.86240   4.05099
 Alpha virt. eigenvalues --    4.11183   4.11183   4.11957   4.11957   4.12098
 Alpha virt. eigenvalues --    4.12098   4.12292   4.12292   4.16856   4.16856
 Alpha virt. eigenvalues --    4.17450   4.17450   4.20492   4.30033   4.34803
 Alpha virt. eigenvalues --    4.90383   4.90383   4.96132   4.96133   5.05261
 Alpha virt. eigenvalues --    5.05261   5.17909   5.17909   5.27426   5.32215
 Alpha virt. eigenvalues --    5.57524   6.11850   6.11850   6.16187   6.16187
 Alpha virt. eigenvalues --    6.48730   6.52312   7.65659   7.65659   7.66555
 Alpha virt. eigenvalues --    7.66572   7.77109   7.77109   8.34709  11.32236
 Alpha virt. eigenvalues --   11.32236  11.32262  11.32263  11.32507  11.32507
 Alpha virt. eigenvalues --   11.32737  11.32737  11.32752  11.32752  11.32777
 Alpha virt. eigenvalues --   11.32777  11.33340  11.33340  11.33340  11.33340
 Alpha virt. eigenvalues --   11.34186  11.34574  14.45143  14.45143  14.45155
 Alpha virt. eigenvalues --   14.45155  14.45318  14.45318  14.45663  14.45663
 Alpha virt. eigenvalues --   14.47462  14.47462  14.48827  14.48827  14.55973
 Alpha virt. eigenvalues --   14.59127  14.94643  15.13126  15.63012  15.63012
 Alpha virt. eigenvalues --   15.66992  15.66993  15.73728  15.73728  15.83610
 Alpha virt. eigenvalues --   15.83610  15.99992  16.02032  18.52061  53.77131
 Alpha virt. eigenvalues --   53.92834  63.28427 284.13923 284.33276 408.96173
          Condensed to atoms (all electrons):
               1          2          3
     1  Ca  18.419066   0.172358   0.172358
     2  F    0.172358   9.448544  -0.002793
     3  F    0.172358  -0.002793   9.448544
 Mulliken charges:
               1
     1  Ca   1.236218
     2  F   -0.618109
     3  F   -0.618109
 Sum of Mulliken charges =   0.00000
 Mulliken charges with hydrogens summed into heavy atoms:
               1
     1  Ca   1.236218
     2  F   -0.618109
     3  F   -0.618109
 Electronic spatial extent (au):  <R**2>=            326.4405
 Charge=             -0.0000 electrons
 Dipole moment (field-independent basis, Debye):
    X=             -0.0000    Y=             -0.0000    Z=              0.0000  Tot=              0.0000
 Quadrupole moment (field-independent basis, Debye-Ang):
   XX=            -21.0414   YY=            -21.0414   ZZ=            -47.4682
   XY=             -0.0000   XZ=              0.0000   YZ=              0.0000
 Traceless Quadrupole moment (field-independent basis, Debye-Ang):
   XX=              8.8090   YY=              8.8090   ZZ=            -17.6179
   XY=             -0.0000   XZ=              0.0000   YZ=              0.0000
 Octapole moment (field-independent basis, Debye-Ang**2):
  XXX=             -0.0000  YYY=             -0.0000  ZZZ=              0.0000  XYY=             -0.0000
  XXY=             -0.0000  XXZ=              0.0000  XZZ=             -0.0000  YZZ=             -0.0000
  YYZ=              0.0000  XYZ=             -0.0000
 Hexadecapole moment (field-independent basis, Debye-Ang**3):
 XXXX=            -18.3712 YYYY=            -18.3712 ZZZZ=           -403.7803 XXXY=             -0.0000
 XXXZ=             -0.0000 YYYX=             -0.0000 YYYZ=             -0.0000 ZZZX=              0.0000
 ZZZY=              0.0000 XXYY=             -6.1237 XXZZ=            -56.7946 YYZZ=            -56.7946
 XXYZ=             -0.0000 YYXZ=             -0.0000 ZZXY=             -0.0000
 N-N= 1.054065824499D+02 E-N=-2.295130177508D+03  KE= 8.751171595641D+02
 Symmetry AG   KE= 5.460990598722D+02
 Symmetry B1G  KE= 7.664480200131D-34
 Symmetry B2G  KE= 5.726859393004D+00
 Symmetry B3G  KE= 5.726859393004D+00
 Symmetry AU   KE= 1.279565421164D-33
 Symmetry B1U  KE= 1.613518567957D+02
 Symmetry B2U  KE= 7.810626205511D+01
 Symmetry B3U  KE= 7.810626205511D+01
 Unable to Open any file for archive entry.
 1\1\GINC-TCOPT10\FOpt\RPBEPBE\def2QZVPP\Ca1F2\HUTTER\30-Jul-2021\0\\#N
  RPBEPBE/Def2QZVPP scf=tight Int(Grid=ultrafine) OPT FREQ\\Mol job 1\\
 0,1\Ca,9.,9.,9.\F,9.,9.,6.9893525808\F,9.,9.,11.0106474192\\Version=ES
 64L-G16RevC.01\State=1-SGG\HF=-877.1424304\RMSD=7.855e-10\RMSF=8.383e-
 06\Dipole=0.,0.,0.\Quadrupole=6.5492467,6.5492467,-13.0984934,0.,0.,0.
 \PG=D*H [O(Ca1),C*(F1.F1)]\\@
 The archive entry for this job was punched.


 "MATHEMATICS IS THE ART OF GIVING THE SAME NAME
 TO DIFFERENT THINGS."
                    - H. POINCARE
 Job cpu time:       0 days  0 hours  3 minutes  6.5 seconds.
 Elapsed time:       0 days  0 hours  0 minutes 24.0 seconds.
 File lengths (MBytes):  RWF=     21 Int=      0 D2E=      0 Chk=      4 Scr=      1
 Normal termination of Gaussian 16 at Fri Jul 30 11:23:57 2021.
 Link1:  Proceeding to internal job step number  2.
 ----------------------------------------------------------------------
 #N Geom=AllCheck Guess=TCheck SCRF=Check GenChk RPBEPBE/def2QZVPP Freq
 ----------------------------------------------------------------------
 1/10=4,29=7,30=1,38=1,40=1/1,3;
 2/12=2,40=1/2;
 3/5=45,7=202,11=2,14=-4,25=1,30=1,70=2,71=2,74=1009,75=-5,116=1,140=1/1,2,3;
 4/5=101/1;
 5/5=2,32=2,38=6,98=1/2;
 8/6=4,10=90,11=11/1;
 11/6=1,8=1,9=11,15=111,16=1/1,2,10;
 10/6=1/2;
 6/7=2,8=2,9=2,10=2,28=1/1;
 7/8=1,10=1,25=1/1,2,3,16;
 1/10=4,30=1/3;
 99//99;
 Structure from the checkpoint file:  "/data/hutter/SMG16/PBE/Gau-84326.chk"
 ---------
 Mol job 1
 ---------
 Charge =  0 Multiplicity = 1
 Redundant internal coordinates found in file.  (old form).
 Ca,0,9.,9.,9.
 F,0,9.,9.,6.9893525808
 F,0,9.,9.,11.0106474192
 Recover connectivity data from disk.

 GradGradGradGradGradGradGradGradGradGradGradGradGradGradGradGradGradGrad
 Berny optimization.
 Initialization pass.
                           ----------------------------
                           !    Initial Parameters    !
                           ! (Angstroms and Degrees)  !
 --------------------------                            --------------------------
 ! Name  Definition              Value          Derivative Info.                !
 --------------------------------------------------------------------------------
 ! R1    R(1,2)                  2.0106         calculate D2E/DX2 analytically  !
 ! R2    R(1,3)                  2.0106         calculate D2E/DX2 analytically  !
 ! A1    L(2,1,3,-1,-1)        180.0            calculate D2E/DX2 analytically  !
 ! A2    L(2,1,3,-2,-2)        180.0            calculate D2E/DX2 analytically  !
 --------------------------------------------------------------------------------
 Trust Radius=3.00D-01 FncErr=1.00D-07 GrdErr=1.00D-07 EigMax=2.50D+02 EigMin=1.00D-04
 Number of steps in this run=      2 maximum allowed number of steps=      2.
 GradGradGradGradGradGradGradGradGradGradGradGradGradGradGradGradGradGrad

                          Input orientation:                          
 ---------------------------------------------------------------------
 Center     Atomic      Atomic             Coordinates (Angstroms)
 Number     Number       Type             X           Y           Z
 ---------------------------------------------------------------------
      1         20           0        9.000000    9.000000    9.000000
      2          9           0        9.000000    9.000000    6.989353
      3          9           0        9.000000    9.000000   11.010647
 ---------------------------------------------------------------------
                    Distance matrix (angstroms):
                    1          2          3
     1  Ca   0.000000
     2  F    2.010647   0.000000
     3  F    2.010647   4.021295   0.000000
 Stoichiometry    CaF2
 Framework group  D*H[O(Ca),C*(F.F)]
 Deg. of freedom     1
 Full point group                 D*H     NOp   8
 Largest Abelian subgroup         D2H     NOp   8
 Largest concise Abelian subgroup C2      NOp   2
                         Standard orientation:                         
 ---------------------------------------------------------------------
 Center     Atomic      Atomic             Coordinates (Angstroms)
 Number     Number       Type             X           Y           Z
 ---------------------------------------------------------------------
      1         20           0        0.000000    0.000000    0.000000
      2          9           0        0.000000    0.000000    2.010647
      3          9           0        0.000000    0.000000   -2.010647
 ---------------------------------------------------------------------
 Rotational constants (GHZ):           0.0000000           3.2900179           3.2900179
 Standard basis: def2QZVPP (5D, 7F)
 There are    55 symmetry adapted cartesian basis functions of AG  symmetry.
 There are    12 symmetry adapted cartesian basis functions of B1G symmetry.
 There are    20 symmetry adapted cartesian basis functions of B2G symmetry.
 There are    20 symmetry adapted cartesian basis functions of B3G symmetry.
 There are    11 symmetry adapted cartesian basis functions of AU  symmetry.
 There are    47 symmetry adapted cartesian basis functions of B1U symmetry.
 There are    31 symmetry adapted cartesian basis functions of B2U symmetry.
 There are    31 symmetry adapted cartesian basis functions of B3U symmetry.
 There are    43 symmetry adapted basis functions of AG  symmetry.
 There are    11 symmetry adapted basis functions of B1G symmetry.
 There are    17 symmetry adapted basis functions of B2G symmetry.
 There are    17 symmetry adapted basis functions of B3G symmetry.
 There are    10 symmetry adapted basis functions of AU  symmetry.
 There are    36 symmetry adapted basis functions of B1U symmetry.
 There are    25 symmetry adapted basis functions of B2U symmetry.
 There are    25 symmetry adapted basis functions of B3U symmetry.
   184 basis functions,   328 primitive gaussians,   227 cartesian basis functions
    19 alpha electrons       19 beta electrons
       nuclear repulsion energy       105.4065824499 Hartrees.
 NAtoms=    3 NActive=    3 NUniq=    2 SFac= 2.25D+00 NAtFMM=   60 NAOKFM=F Big=F
 Integral buffers will be    131072 words long.
 Raffenetti 2 integral format.
 Two-electron integral symmetry is turned on.
 One-electron integrals computed using PRISM.
   8 Symmetry operations used in ECPInt.
 ECPInt:  NShTT=    1711 NPrTT=    6183 LenC2=    1588 LenP2D=    4733.
 LDataN:  DoStor=T MaxTD1= 8 Len=  415
 NBasis=   184 RedAO= T EigKep=  1.06D-03  NBF=    43    11    17    17    10    36    25    25
 NBsUse=   184 1.00D-06 EigRej= -1.00D+00 NBFU=    43    11    17    17    10    36    25    25
 Initial guess from the checkpoint file:  "/data/hutter/SMG16/PBE/Gau-84326.chk"
 B after Tr=     0.000000    0.000000    0.000000
         Rot=    1.000000    0.000000    0.000000    0.000000 Ang=   0.00 deg.
 Initial guess orbital symmetries:
       Occupied  (SGG) (SGU) (SGG) (SGG) (PIU) (PIU) (SGU) (SGG)
                 (SGU) (PIU) (PIU) (SGG) (SGU) (SGG) (PIG) (PIG)
                 (PIU) (PIU) (SGU)
       Virtual   (SGG) (DLTG) (DLTG) (PIU) (PIU) (SGU) (PIG) (PIG)
                 (SGG) (PIU) (PIU) (DLTG) (DLTG) (PIG) (PIG) (SGU)
                 (SGG) (SGG) (PIU) (PIU) (SGG) (SGU) (DLTU) (DLTU)
                 (PHIU) (PHIU) (SGU) (PIU) (PIU) (DLTG) (DLTG)
                 (PIG) (PIG) (SGG) (PIG) (PIG) (PIU) (PIU) (SGG)
                 (SGU) (PIU) (PIU) (SGU) (SGG) (SGG) (SGU) (DLTG)
                 (DLTG) (DLTU) (DLTU) (PIG) (PIG) (SGU) (PIU) (PIU)
                 (SGG) (PIU) (PIU) (PIG) (PIG) (SGG) (SGU) (DLTG)
                 (DLTG) (PHIU) (PHIU) (DLTU) (DLTU) (PIG) (PIG)
                 (PIU) (PIU) (SGG) (SGU) (SGG) (DLTG) (DLTG) (PHIG)
                 (PHIG) (DLTU) (DLTU) (PHIU) (PHIU) (PIG) (PIG)
                 (PIU) (PIU) (SGU) (SGU) (SGG) (DLTG) (DLTG) (DLTU)
                 (DLTU) (PIG) (PIG) (PIU) (PIU) (SGG) (SGU) (SGG)
                 (PIU) (PIU) (PIG) (PIG) (SGU) (SGG) (PHIU) (PHIU)
                 (DLTU) (DLTU) (PIU) (PIU) (SGU) (DLTG) (DLTG)
                 (DLTU) (DLTU) (PIG) (PIG) (PHIG) (PHIG) (PHIU)
                 (PHIU) (PIU) (PIU) (?A) (?B) (?B) (?A) (SGG) (SGU)
                 (DLTG) (DLTG) (PHIG) (PHIG) (PHIU) (PHIU) (DLTU)
                 (DLTU) (PIG) (PIG) (PIU) (PIU) (SGU) (SGG) (SGG)
                 (SGU) (DLTG) (DLTG) (DLTU) (DLTU) (PIG) (PIG)
                 (PIU) (PIU) (SGU) (SGG) (SGG) (SGG) (SGU) (SGG)
                 (SGG) (SGU) (SGG)
 Keep J ints in memory in symmetry-blocked form, NReq=163422079.
 Requested convergence on RMS density matrix=1.00D-08 within 128 cycles.
 Requested convergence on MAX density matrix=1.00D-06.
 Requested convergence on             energy=1.00D-06.
 No special actions if energy rises.
 SCF Done:  E(RPBE-PBE) =  -877.142430390     A.U. after    1 cycles
            NFock=  1  Conv=0.34D-09     -V/T= 2.0023
 DoSCS=F DFT=T ScalE2(SS,OS)=  1.000000  1.000000
 Range of M.O.s used for correlation:     1   184
 NBasis=   184 NAE=    19 NBE=    19 NFC=     0 NFV=     0
 NROrb=    184 NOA=    19 NOB=    19 NVA=   165 NVB=   165

 **** Warning!!: The largest alpha MO coefficient is  0.10898734D+02

   8 Symmetry operations used in ECPInt.
 ECPInt:  NShTT=    1711 NPrTT=    6183 LenC2=    1588 LenP2D=    4733.
 LDataN:  DoStor=T MaxTD1= 9 Len=  602
 Symmetrizing basis deriv contribution to polar:
 IMax=3 JMax=2 DiffMx= 0.00D+00
 G2DrvN: will do     4 centers at a time, making    1 passes.
 Calling FoFCou, ICntrl=  3507 FMM=F I1Cent=   0 AccDes= 0.00D+00.
 End of G2Drv F.D. properties file   721 does not exist.
 End of G2Drv F.D. properties file   722 does not exist.
 End of G2Drv F.D. properties file   788 does not exist.
          IDoAtm=111
          Differentiating once with respect to electric field.
                with respect to dipole field.
          Differentiating once with respect to nuclear coordinates.
 Keep J ints in memory in symmetry-blocked form, NReq=163424024.
          There are     9 degrees of freedom in the 1st order CPHF.  IDoFFX=4 NUNeed=     9.
      9 vectors produced by pass  0 Test12= 3.48D-14 1.11D-08 XBig12= 3.11D+01 2.82D+00.
 AX will form     9 AO Fock derivatives at one time.
      9 vectors produced by pass  1 Test12= 3.48D-14 1.11D-08 XBig12= 1.63D+01 1.57D+00.
      9 vectors produced by pass  2 Test12= 3.48D-14 1.11D-08 XBig12= 1.06D-01 7.75D-02.
      9 vectors produced by pass  3 Test12= 3.48D-14 1.11D-08 XBig12= 2.33D-04 3.07D-03.
      9 vectors produced by pass  4 Test12= 3.48D-14 1.11D-08 XBig12= 1.69D-06 3.66D-04.
      9 vectors produced by pass  5 Test12= 3.48D-14 1.11D-08 XBig12= 8.72D-09 2.77D-05.
      3 vectors produced by pass  6 Test12= 3.48D-14 1.11D-08 XBig12= 5.81D-11 2.03D-06.
      1 vectors produced by pass  7 Test12= 3.48D-14 1.11D-08 XBig12= 3.56D-13 1.97D-07.
 InvSVY:  IOpt=1 It=  1 EMax= 4.44D-16
 Solved reduced A of dimension    58 with     9 vectors.
 Isotropic polarizability for W=    0.000000       24.21 Bohr**3.
 End of Minotr F.D. properties file   721 does not exist.
 End of Minotr F.D. properties file   722 does not exist.
 End of Minotr F.D. properties file   788 does not exist.

 **********************************************************************

            Population analysis using the SCF Density.

 **********************************************************************

 Orbital symmetries:
       Occupied  (SGG) (SGU) (SGG) (SGG) (PIU) (PIU) (SGU) (SGG)
                 (SGU) (PIU) (PIU) (SGG) (SGU) (SGG) (PIG) (PIG)
                 (PIU) (PIU) (SGU)
       Virtual   (SGG) (DLTG) (DLTG) (PIU) (PIU) (SGU) (PIG) (PIG)
                 (SGG) (PIU) (PIU) (DLTG) (DLTG) (PIG) (PIG) (SGU)
                 (SGG) (SGG) (PIU) (PIU) (SGG) (SGU) (DLTU) (DLTU)
                 (PHIU) (PHIU) (SGU) (PIU) (PIU) (DLTG) (DLTG)
                 (PIG) (PIG) (SGG) (PIG) (PIG) (PIU) (PIU) (SGG)
                 (SGU) (PIU) (PIU) (SGU) (SGG) (SGG) (SGU) (DLTG)
                 (DLTG) (DLTU) (DLTU) (PIG) (PIG) (SGU) (PIU) (PIU)
                 (SGG) (PIU) (PIU) (PIG) (PIG) (SGG) (SGU) (DLTG)
                 (DLTG) (PHIU) (PHIU) (DLTU) (DLTU) (PIG) (PIG)
                 (PIU) (PIU) (SGG) (SGU) (SGG) (DLTG) (DLTG) (PHIG)
                 (PHIG) (DLTU) (DLTU) (PHIU) (PHIU) (PIG) (PIG)
                 (PIU) (PIU) (SGU) (SGU) (SGG) (DLTG) (DLTG) (DLTU)
                 (DLTU) (PIG) (PIG) (PIU) (PIU) (SGG) (SGU) (SGG)
                 (PIU) (PIU) (PIG) (PIG) (SGU) (SGG) (PHIU) (PHIU)
                 (DLTU) (DLTU) (PIU) (PIU) (SGU) (DLTG) (DLTG)
                 (DLTU) (DLTU) (PIG) (PIG) (PHIG) (PHIG) (PHIU)
                 (PHIU) (PIU) (PIU) (?A) (?B) (?A) (?B) (SGG) (SGU)
                 (DLTG) (DLTG) (PHIG) (PHIG) (PHIU) (PHIU) (DLTU)
                 (DLTU) (PIG) (PIG) (PIU) (PIU) (SGU) (SGG) (SGG)
                 (SGU) (DLTG) (DLTG) (DLTU) (DLTU) (PIG) (PIG)
                 (PIU) (PIU) (SGU) (SGG) (SGG) (SGG) (SGU) (SGG)
                 (SGG) (SGU) (SGG)
 The electronic state is 1-SGG.
 Alpha  occ. eigenvalues -- -144.31559 -24.14633 -24.14633 -15.02602 -12.22844
 Alpha  occ. eigenvalues --  -12.22844 -12.22473  -1.65243  -1.01614  -0.97694
 Alpha  occ. eigenvalues --   -0.97694  -0.95115  -0.88801  -0.29810  -0.27947
 Alpha  occ. eigenvalues --   -0.27947  -0.27070  -0.27070  -0.25724
 Alpha virt. eigenvalues --   -0.08571  -0.03668  -0.03668  -0.01118  -0.01118
 Alpha virt. eigenvalues --    0.01578   0.01583   0.01583   0.02921   0.05998
 Alpha virt. eigenvalues --    0.05998   0.08808   0.08808   0.09099   0.09099
 Alpha virt. eigenvalues --    0.09215   0.10187   0.14015   0.22681   0.22681
 Alpha virt. eigenvalues --    0.28217   0.28537   0.35450   0.35450   0.36196
 Alpha virt. eigenvalues --    0.36196   0.36818   0.40435   0.40435   0.45445
 Alpha virt. eigenvalues --    0.45445   0.45828   0.45828   0.45838   0.53505
 Alpha virt. eigenvalues --    0.53505   0.57449   0.57449   0.57650   0.66053
 Alpha virt. eigenvalues --    0.74590   0.74590   0.82821   1.12161   1.30816
 Alpha virt. eigenvalues --    1.32823   1.38062   1.38062   1.46440   1.46440
 Alpha virt. eigenvalues --    1.49661   1.49661   1.51242   1.59438   1.59438
 Alpha virt. eigenvalues --    1.63014   1.72540   1.72540   1.76338   1.76338
 Alpha virt. eigenvalues --    1.77198   1.81633   1.98990   1.98991   2.02087
 Alpha virt. eigenvalues --    2.02087   2.03736   2.03736   2.05693   2.05693
 Alpha virt. eigenvalues --    2.17117   2.17117   2.74286   2.86240   4.05099
 Alpha virt. eigenvalues --    4.11183   4.11183   4.11957   4.11957   4.12098
 Alpha virt. eigenvalues --    4.12098   4.12292   4.12292   4.16856   4.16856
 Alpha virt. eigenvalues --    4.17450   4.17450   4.20492   4.30033   4.34803
 Alpha virt. eigenvalues --    4.90383   4.90383   4.96132   4.96133   5.05261
 Alpha virt. eigenvalues --    5.05261   5.17909   5.17909   5.27426   5.32215
 Alpha virt. eigenvalues --    5.57524   6.11850   6.11850   6.16187   6.16187
 Alpha virt. eigenvalues --    6.48730   6.52312   7.65659   7.65659   7.66555
 Alpha virt. eigenvalues --    7.66572   7.77109   7.77109   8.34709  11.32236
 Alpha virt. eigenvalues --   11.32236  11.32262  11.32263  11.32507  11.32507
 Alpha virt. eigenvalues --   11.32737  11.32737  11.32752  11.32752  11.32777
 Alpha virt. eigenvalues --   11.32777  11.33340  11.33340  11.33340  11.33340
 Alpha virt. eigenvalues --   11.34186  11.34574  14.45143  14.45143  14.45155
 Alpha virt. eigenvalues --   14.45155  14.45318  14.45318  14.45663  14.45663
 Alpha virt. eigenvalues --   14.47462  14.47462  14.48827  14.48827  14.55973
 Alpha virt. eigenvalues --   14.59127  14.94643  15.13126  15.63012  15.63012
 Alpha virt. eigenvalues --   15.66992  15.66993  15.73728  15.73728  15.83610
 Alpha virt. eigenvalues --   15.83610  15.99992  16.02032  18.52061  53.77131
 Alpha virt. eigenvalues --   53.92834  63.28427 284.13923 284.33276 408.96173
          Condensed to atoms (all electrons):
               1          2          3
     1  Ca  18.419066   0.172358   0.172358
     2  F    0.172358   9.448544  -0.002793
     3  F    0.172358  -0.002793   9.448544
 Mulliken charges:
               1
     1  Ca   1.236218
     2  F   -0.618109
     3  F   -0.618109
 Sum of Mulliken charges =   0.00000
 Mulliken charges with hydrogens summed into heavy atoms:
               1
     1  Ca   1.236218
     2  F   -0.618109
     3  F   -0.618109
 APT charges:
               1
     1  Ca   1.829540
     2  F   -0.914770
     3  F   -0.914770
 Sum of APT charges =   0.00000
 APT charges with hydrogens summed into heavy atoms:
               1
     1  Ca   1.829540
     2  F   -0.914770
     3  F   -0.914770
 Electronic spatial extent (au):  <R**2>=            326.4405
 Charge=             -0.0000 electrons
 Dipole moment (field-independent basis, Debye):
    X=             -0.0000    Y=             -0.0000    Z=              0.0000  Tot=              0.0000
 Quadrupole moment (field-independent basis, Debye-Ang):
   XX=            -21.0414   YY=            -21.0414   ZZ=            -47.4682
   XY=             -0.0000   XZ=              0.0000   YZ=              0.0000
 Traceless Quadrupole moment (field-independent basis, Debye-Ang):
   XX=              8.8090   YY=              8.8090   ZZ=            -17.6179
   XY=             -0.0000   XZ=              0.0000   YZ=              0.0000
 Octapole moment (field-independent basis, Debye-Ang**2):
  XXX=             -0.0000  YYY=             -0.0000  ZZZ=             -0.0000  XYY=             -0.0000
  XXY=             -0.0000  XXZ=              0.0000  XZZ=             -0.0000  YZZ=             -0.0000
  YYZ=              0.0000  XYZ=             -0.0000
 Hexadecapole moment (field-independent basis, Debye-Ang**3):
 XXXX=            -18.3712 YYYY=            -18.3712 ZZZZ=           -403.7803 XXXY=             -0.0000
 XXXZ=             -0.0000 YYYX=             -0.0000 YYYZ=             -0.0000 ZZZX=              0.0000
 ZZZY=              0.0000 XXYY=             -6.1237 XXZZ=            -56.7946 YYZZ=            -56.7946
 XXYZ=             -0.0000 YYXZ=             -0.0000 ZZXY=             -0.0000
 N-N= 1.054065824499D+02 E-N=-2.295130179498D+03  KE= 8.751171607543D+02
 Symmetry AG   KE= 5.460990601069D+02
 Symmetry B1G  KE= 7.664478110784D-34
 Symmetry B2G  KE= 5.726859616883D+00
 Symmetry B3G  KE= 5.726859616883D+00
 Symmetry AU   KE= 1.279565371892D-33
 Symmetry B1U  KE= 1.613518569743D+02
 Symmetry B2U  KE= 7.810626221967D+01
 Symmetry B3U  KE= 7.810626221967D+01
  Exact polarizability:      19.708      -0.000      19.708       0.000       0.000      33.209
 Approx polarizability:      26.695      -0.000      26.695      -0.000      -0.000      47.557
   8 Symmetry operations used in ECPInt.
 ECPInt:  NShTT=    1711 NPrTT=    6183 LenC2=    1588 LenP2D=    4733.
 LDataN:  DoStor=T MaxTD1=10 Len=  848
 Calling FoFJK, ICntrl=    100527 FMM=F ISym2X=1 I1Cent= 0 IOpClX= 0 NMat=1 NMatS=1 NMatT=0.
 Full mass-weighted force constant matrix:
 Low frequencies ---  -76.1490  -76.1490   -0.0023   -0.0021    0.0062    6.9721
 Low frequencies ---    6.9721  479.9987  571.3123
 ******    2 imaginary frequencies (negative Signs) ****** 
 Diagonal vibrational polarizability:
      469.4691871     469.4691870      28.8777905
 Harmonic frequencies (cm**-1), IR intensities (KM/Mole), Raman scattering
 activities (A**4/AMU), depolarization ratios for plane and unpolarized
 incident light, reduced masses (AMU), force constants (mDyne/A),
 and normal coordinates:
                      1                      2                      3
                     PIU                    PIU                    SGG
 Frequencies --    -76.1490               -76.1490               479.9987
 Red. masses --     25.5246                25.5246                18.9984
 Frc consts  --      0.0872                 0.0872                 2.5790
 IR Inten    --    101.1584               101.1584                 0.0000
  Atom  AN      X      Y      Z        X      Y      Z        X      Y      Z
     1  20    -0.00   0.56  -0.00     0.56   0.00  -0.00    -0.00  -0.00   0.00
     2   9     0.00  -0.59   0.00    -0.59  -0.00   0.00     0.00   0.00   0.71
     3   9     0.00  -0.59  -0.00    -0.59  -0.00   0.00     0.00   0.00  -0.71
                      4
                     SGU
 Frequencies --    571.3123
 Red. masses --     25.5246
 Frc consts  --      4.9086
 IR Inten    --    350.2499
  Atom  AN      X      Y      Z
     1  20     0.00   0.00   0.56
     2   9    -0.00  -0.00  -0.59
     3   9    -0.00  -0.00  -0.59

 -------------------
 - Thermochemistry -
 -------------------
 Temperature   298.150 Kelvin.  Pressure   1.00000 Atm.
 Atom     1 has atomic number 20 and mass  39.96259
 Atom     2 has atomic number  9 and mass  18.99840
 Atom     3 has atomic number  9 and mass  18.99840
 Molecular mass:    77.95940 amu.
 Principal axes and moments of inertia in atomic units:
                           1         2         3
     Eigenvalues --     0.00000 548.55057 548.55057
           X            0.00000  -0.00000   1.00000
           Y            0.00000   1.00000   0.00000
           Z            1.00000   0.00000   0.00000
 This molecule is a prolate symmetric top.
 Rotational symmetry number  2.
 Warning -- assumption of classical behavior for rotation
           may cause significant error
 Rotational temperature (Kelvin)      0.15790
 Rotational constant (GHZ):           3.290018
    2 imaginary frequencies ignored.
 Zero-point vibrational energy       6288.2 (Joules/Mol)
                                    1.50292 (Kcal/Mol)
 Warning -- explicit consideration of   2 degrees of freedom as
           vibrations may cause significant error
 Vibrational temperatures:    690.61   821.99
          (Kelvin)
 
 Zero-point correction=                           0.002395 (Hartree/Particle)
 Thermal correction to Energy=                    0.005171
 Thermal correction to Enthalpy=                  0.006115
 Thermal correction to Gibbs Free Energy=        -0.020391
 Sum of electronic and zero-point Energies=           -877.140035
 Sum of electronic and thermal Energies=              -877.137259
 Sum of electronic and thermal Enthalpies=            -877.136315
 Sum of electronic and thermal Free Energies=         -877.162821
 
                     E (Thermal)             CV                S
                      KCal/Mol        Cal/Mol-Kelvin    Cal/Mol-Kelvin
 Total                    3.245              7.356             55.788
 Electronic               0.000              0.000              0.000
 Translational            0.889              2.981             38.976
 Rotational               0.592              1.987             15.600
 Vibrational              1.764              2.388              1.212
 Vibration     1          0.836              1.294              0.710
 Vibration     2          0.927              1.093              0.502
                       Q            Log10(Q)             Ln(Q)
 Total Bot       0.239455D+10          9.379223         21.596460
 Total V=0       0.302604D+11         10.480875         24.133106
 Vib (Bot)       0.937417D-01         -1.028067         -2.367212
 Vib (Bot)    1  0.348431D+00         -0.457883         -1.054314
 Vib (Bot)    2  0.269039D+00         -0.570184         -1.312897
 Vib (V=0)       0.118463D+01          0.073584          0.169434
 Vib (V=0)    1  0.110943D+01          0.045100          0.103846
 Vib (V=0)    2  0.106779D+01          0.028485          0.065588
 Electronic      0.100000D+01          0.000000          0.000000
 Translational   0.270556D+08          7.432257         17.113403
 Rotational      0.944134D+03          2.975034          6.850268
 ***** Axes restored to original set *****
 -------------------------------------------------------------------
 Center     Atomic                   Forces (Hartrees/Bohr)
 Number     Number              X              Y              Z
 -------------------------------------------------------------------
      1       20           0.000000000   -0.000000000    0.000000000
      2        9          -0.000000000    0.000000000    0.000017780
      3        9           0.000000000   -0.000000000   -0.000017780
 -------------------------------------------------------------------
 Cartesian Forces:  Max     0.000017780 RMS     0.000008381
 FormGI is forming the generalized inverse of G from B-inverse, IUseBI=4.

 GradGradGradGradGradGradGradGradGradGradGradGradGradGradGradGradGradGrad
 Berny optimization.
 Internal  Forces:  Max     0.000017780 RMS     0.000012572
 Search for a local minimum.
 Step number   1 out of a maximum of    2
 All quantities printed in internal units (Hartrees-Bohrs-Radians)
 Second derivative matrix not updated -- analytic derivatives used.
 The second derivative matrix:
                          R1        R2        A1        A2
           R1           0.14297
           R2           0.02268   0.14297
           A1          -0.00000   0.00000  -0.01546
           A2          -0.00000   0.00000   0.00000  -0.01546
 ITU=  0
     Eigenvalues ---   -0.01546  -0.01546   0.12029   0.16565
 Eigenvalue     1 is  -1.55D-02 should be greater than     0.000000 Eigenvector:
                          A1        A2        R1        R2
   1                   -1.00000   0.00260  -0.00000   0.00000
 Eigenvalue     2 is  -1.55D-02 should be greater than     0.000000 Eigenvector:
                          A2        A1        R1        R2
   1                   -1.00000  -0.00260  -0.00000   0.00000
 Angle between quadratic step and forces=   0.00 degrees.
 Linear search not attempted -- first point.
 Iteration  1 RMS(Cart)=  0.00007590 RMS(Int)=  0.00000000
 Iteration  2 RMS(Cart)=  0.00000000 RMS(Int)=  0.00000000
 ClnCor:  largest displacement from symmetrization is 4.11D-14 for atom     1.
 Variable       Old X    -DE/DX   Delta X   Delta X   Delta X     New X
                                 (Linear)    (Quad)   (Total)
    R1        3.79957  -0.00002   0.00000  -0.00011  -0.00011   3.79947
    R2        3.79957  -0.00002   0.00000  -0.00011  -0.00011   3.79947
    A1        3.14159   0.00000   0.00000   0.00000  -0.00000   3.14159
    A2        3.14159   0.00000   0.00000   0.00000  -0.00000   3.14159
         Item               Value     Threshold  Converged?
 Maximum Force            0.000018     0.000450     YES
 RMS     Force            0.000013     0.000300     YES
 Maximum Displacement     0.000107     0.001800     YES
 RMS     Displacement     0.000076     0.001200     YES
 Predicted change in Energy=-1.908327D-09
 Optimization completed.
    -- Stationary point found.
                           ----------------------------
                           !   Optimized Parameters   !
                           ! (Angstroms and Degrees)  !
 --------------------------                            --------------------------
 ! Name  Definition              Value          Derivative Info.                !
 --------------------------------------------------------------------------------
 ! R1    R(1,2)                  2.0106         -DE/DX =    0.0                 !
 ! R2    R(1,3)                  2.0106         -DE/DX =    0.0                 !
 ! A1    L(2,1,3,-1,-1)        180.0            -DE/DX =    0.0                 !
 ! A2    L(2,1,3,-2,-2)        180.0            -DE/DX =    0.0                 !
 --------------------------------------------------------------------------------
 GradGradGradGradGradGradGradGradGradGradGradGradGradGradGradGradGradGrad

 Dipole is zero, so no output in dipole orientation.

 ----------------------------------------------------------------------

 Electric dipole moment (input orientation):
 (Debye = 10**-18 statcoulomb cm , SI units = C m)
                  (au)            (Debye)         (10**-30 SI)
   Tot        0.000000D+00      0.000000D+00      0.000000D+00
   x          0.000000D+00      0.000000D+00      0.000000D+00
   y          0.000000D+00      0.000000D+00      0.000000D+00
   z          0.000000D+00      0.000000D+00      0.000000D+00

 Dipole polarizability, Alpha (input orientation).
 (esu units = cm**3 , SI units = C**2 m**2 J**-1)
 Alpha(0;0):
               (au)            (10**-24 esu)      (10**-40 SI)
   iso        0.242086D+02      0.358735D+01      0.399146D+01
   aniso      0.135009D+02      0.200062D+01      0.222599D+01
   xx         0.197083D+02      0.292047D+01      0.324946D+01
   yx         0.000000D+00      0.000000D+00      0.000000D+00
   yy         0.197083D+02      0.292047D+01      0.324946D+01
   zx         0.000000D+00      0.000000D+00      0.000000D+00
   zy         0.000000D+00      0.000000D+00      0.000000D+00
   zz         0.332092D+02      0.492109D+01      0.547546D+01

 ----------------------------------------------------------------------
 Unable to Open any file for archive entry.
 1\1\GINC-TCOPT10\Freq\RPBEPBE\def2QZVPP\Ca1F2\HUTTER\30-Jul-2021\0\\#N
  Geom=AllCheck Guess=TCheck SCRF=Check GenChk RPBEPBE/def2QZVPP Freq\\
 Mol job 1\\0,1\Ca,9.,9.,9.\F,9.,9.,6.9893525808\F,9.,9.,11.0106474192\
 \Version=ES64L-G16RevC.01\State=1-SGG\HF=-877.1424304\RMSD=3.438e-10\R
 MSF=8.381e-06\ZeroPoint=0.0023951\Thermal=0.0051713\ETot=-877.1372591\
 HTot=-877.1363149\GTot=-877.1628214\Dipole=0.,0.,0.\DipoleDeriv=1.4216
 458,0.,0.,0.,1.4216458,0.,0.,0.,2.6453278,-0.7108229,0.,0.,0.,-0.71082
 29,0.,0.,0.,-1.3226639,-0.7108229,0.,0.,0.,-0.7108229,0.,0.,0.,-1.3226
 639\Polar=19.7083293,0.,19.7083293,0.,0.,33.2091911\Quadrupole=6.54924
 75,6.5492475,-13.0984949,0.,0.,0.\PG=D*H [O(Ca1),C*(F1.F1)]\NImag=2\\-
 0.00427417,0.,-0.00427417,0.,0.,0.24058628,0.00213708,0.,0.,-0.0010510
 7,0.,0.00213708,0.,0.,-0.00105107,0.,0.,-0.12029314,0.,0.,0.14297103,0
 .00213708,0.,0.,-0.00108602,0.,0.,-0.00105107,0.,0.00213708,0.,0.,-0.0
 0108602,0.,0.,-0.00105107,0.,0.,-0.12029314,0.,0.,-0.02267789,0.,0.,0.
 14297103\\0.,0.,0.,0.,0.,-0.00001778,0.,0.,0.00001778\\\@
 The archive entry for this job was punched.


 QED = W**5 (WHICH WAS WHAT WE WANTED)
 Job cpu time:       0 days  0 hours  3 minutes 53.0 seconds.
 Elapsed time:       0 days  0 hours  0 minutes 29.4 seconds.
 File lengths (MBytes):  RWF=     21 Int=      0 D2E=      0 Chk=      4 Scr=      1
 Normal termination of Gaussian 16 at Fri Jul 30 11:24:27 2021.
