 Entering Gaussian System, Link 0=g16
 Initial command:
 /sw-ng/spack/opt/spack/linux-opensuse_leap15-sandybridge/pgi-18.10/gaussian-src-16-C.01-zldqaomctopxhethwccpmxmwefdscg3m/g16/l1.exe "/data/hutter/SMG16/PBE/Gau-42315.inp" -scrdir="/data/hutter/SMG16/PBE/"
 Entering Link 1 = /sw-ng/spack/opt/spack/linux-opensuse_leap15-sandybridge/pgi-18.10/gaussian-src-16-C.01-zldqaomctopxhethwccpmxmwefdscg3m/g16/l1.exe PID=     42325.
  
 Copyright (c) 1988-2019, Gaussian, Inc.  All Rights Reserved.
  
 This is part of the Gaussian(R) 16 program.  It is based on
 the Gaussian(R) 09 system (copyright 2009, Gaussian, Inc.),
 the Gaussian(R) 03 system (copyright 2003, Gaussian, Inc.),
 the Gaussian(R) 98 system (copyright 1998, Gaussian, Inc.),
 the Gaussian(R) 94 system (copyright 1995, Gaussian, Inc.),
 the Gaussian 92(TM) system (copyright 1992, Gaussian, Inc.),
 the Gaussian 90(TM) system (copyright 1990, Gaussian, Inc.),
 the Gaussian 88(TM) system (copyright 1988, Gaussian, Inc.),
 the Gaussian 86(TM) system (copyright 1986, Carnegie Mellon
 University), and the Gaussian 82(TM) system (copyright 1983,
 Carnegie Mellon University). Gaussian is a federally registered
 trademark of Gaussian, Inc.
  
 This software contains proprietary and confidential information,
 including trade secrets, belonging to Gaussian, Inc.
  
 This software is provided under written license and may be
 used, copied, transmitted, or stored only in accord with that
 written license.
  
 The following legend is applicable only to US Government
 contracts under FAR:
  
                    RESTRICTED RIGHTS LEGEND
  
 Use, reproduction and disclosure by the US Government is
 subject to restrictions as set forth in subparagraphs (a)
 and (c) of the Commercial Computer Software - Restricted
 Rights clause in FAR 52.227-19.
  
 Gaussian, Inc.
 340 Quinnipiac St., Bldg. 40, Wallingford CT 06492
  
  
 ---------------------------------------------------------------
 Warning -- This program may not be used in any manner that
 competes with the business of Gaussian, Inc. or will provide
 assistance to any competitor of Gaussian, Inc.  The licensee
 of this program is prohibited from giving any competitor of
 Gaussian, Inc. access to this program.  By using this program,
 the user acknowledges that Gaussian, Inc. is engaged in the
 business of creating and licensing software in the field of
 computational chemistry and represents and warrants to the
 licensee that it is not a competitor of Gaussian, Inc. and that
 it will not use this program in any manner prohibited above.
 ---------------------------------------------------------------
  

 Cite this work as:
 Gaussian 16, Revision C.01,
 M. J. Frisch, G. W. Trucks, H. B. Schlegel, G. E. Scuseria, 
 M. A. Robb, J. R. Cheeseman, G. Scalmani, V. Barone, 
 G. A. Petersson, H. Nakatsuji, X. Li, M. Caricato, A. V. Marenich, 
 J. Bloino, B. G. Janesko, R. Gomperts, B. Mennucci, H. P. Hratchian, 
 J. V. Ortiz, A. F. Izmaylov, J. L. Sonnenberg, D. Williams-Young, 
 F. Ding, F. Lipparini, F. Egidi, J. Goings, B. Peng, A. Petrone, 
 T. Henderson, D. Ranasinghe, V. G. Zakrzewski, J. Gao, N. Rega, 
 G. Zheng, W. Liang, M. Hada, M. Ehara, K. Toyota, R. Fukuda, 
 J. Hasegawa, M. Ishida, T. Nakajima, Y. Honda, O. Kitao, H. Nakai, 
 T. Vreven, K. Throssell, J. A. Montgomery, Jr., J. E. Peralta, 
 F. Ogliaro, M. J. Bearpark, J. J. Heyd, E. N. Brothers, K. N. Kudin, 
 V. N. Staroverov, T. A. Keith, R. Kobayashi, J. Normand, 
 K. Raghavachari, A. P. Rendell, J. C. Burant, S. S. Iyengar, 
 J. Tomasi, M. Cossi, J. M. Millam, M. Klene, C. Adamo, R. Cammi, 
 J. W. Ochterski, R. L. Martin, K. Morokuma, O. Farkas, 
 J. B. Foresman, and D. J. Fox, Gaussian, Inc., Wallingford CT, 2019.
 
 ******************************************
 Gaussian 16:  ES64L-G16RevC.01  3-Jul-2019
                30-Jul-2021 
 ******************************************
 %mem=8GB
 %NProcShare=8
 Will use up to    8 processors via shared memory.
 -----------------------------------------------------------
 #N RPBEPBE/Def2QZVPP scf=tight Int(Grid=ultrafine) OPT FREQ
 -----------------------------------------------------------
 1/18=20,19=15,26=4,38=1/1,3;
 2/9=110,12=2,17=6,18=5,40=1/2;
 3/5=45,7=202,11=2,25=1,30=1,71=1,74=1009,75=-5,116=1/1,2,3;
 4//1;
 5/5=2,32=2,38=5/2;
 6/7=2,8=2,9=2,10=2,28=1/1;
 7//1,2,3,16;
 1/18=20,19=15,26=4/3(2);
 2/9=110/2;
 99//99;
 2/9=110/2;
 3/5=45,7=202,11=2,25=1,30=1,71=1,74=1009,75=-5,116=1/1,2,3;
 4/5=5,16=3,69=1/1;
 5/5=2,32=2,38=5/2;
 7//1,2,3,16;
 1/18=20,19=15,26=4/3(-5);
 2/9=110/2;
 6/7=2,8=2,9=2,10=2,19=2,28=1/1;
 99/9=1/99;
 ---------
 Mol job 1
 ---------
 Symbolic Z-matrix:
 Charge =  0 Multiplicity = 1
 In                    7.56152   8.        8. 
 H                     6.68457   9.51892   8. 
 H                     6.68457   6.48108   8. 
 H                     9.31543   8.        8. 
 

 GradGradGradGradGradGradGradGradGradGradGradGradGradGradGradGradGradGrad
 Berny optimization.
 Initialization pass.
                           ----------------------------
                           !    Initial Parameters    !
                           ! (Angstroms and Degrees)  !
 --------------------------                            --------------------------
 ! Name  Definition              Value          Derivative Info.                !
 --------------------------------------------------------------------------------
 ! R1    R(1,2)                  1.7539         estimate D2E/DX2                !
 ! R2    R(1,3)                  1.7539         estimate D2E/DX2                !
 ! R3    R(1,4)                  1.7539         estimate D2E/DX2                !
 ! A1    A(2,1,3)              120.0            estimate D2E/DX2                !
 ! A2    A(2,1,4)              120.0            estimate D2E/DX2                !
 ! A3    A(3,1,4)              120.0            estimate D2E/DX2                !
 ! D1    D(2,1,4,3)            180.0            estimate D2E/DX2                !
 --------------------------------------------------------------------------------
 Trust Radius=3.00D-01 FncErr=1.00D-07 GrdErr=1.00D-06 EigMax=2.50D+02 EigMin=1.00D-04
 Number of steps in this run=     20 maximum allowed number of steps=    100.
 GradGradGradGradGradGradGradGradGradGradGradGradGradGradGradGradGradGrad

                          Input orientation:                          
 ---------------------------------------------------------------------
 Center     Atomic      Atomic             Coordinates (Angstroms)
 Number     Number       Type             X           Y           Z
 ---------------------------------------------------------------------
      1         49           0        7.561524    8.000000    8.000000
      2          1           0        6.684573    9.518924    8.000000
      3          1           0        6.684573    6.481076    8.000000
      4          1           0        9.315427    8.000000    8.000000
 ---------------------------------------------------------------------
                    Distance matrix (angstroms):
                    1          2          3          4
     1  In   0.000000
     2  H    1.753902   0.000000
     3  H    1.753902   3.037848   0.000000
     4  H    1.753902   3.037848   3.037848   0.000000
 Stoichiometry    H3In
 Framework group  D3H[O(In),3C2(H)]
 Deg. of freedom     1
 Full point group                 D3H     NOp  12
 Largest Abelian subgroup         C2V     NOp   4
 Largest concise Abelian subgroup C2      NOp   2
                         Standard orientation:                         
 ---------------------------------------------------------------------
 Center     Atomic      Atomic             Coordinates (Angstroms)
 Number     Number       Type             X           Y           Z
 ---------------------------------------------------------------------
      1         49           0        0.000000    0.000000    0.000000
      2          1           0       -0.000000    1.753902    0.000000
      3          1           0       -1.518924   -0.876951    0.000000
      4          1           0        1.518924   -0.876951    0.000000
 ---------------------------------------------------------------------
 Rotational constants (GHZ):         108.6751126         108.6751126          54.3375563
 Standard basis: def2QZVPP (5D, 7F)
 There are    83 symmetry adapted cartesian basis functions of A1  symmetry.
 There are    25 symmetry adapted cartesian basis functions of A2  symmetry.
 There are    57 symmetry adapted cartesian basis functions of B1  symmetry.
 There are    44 symmetry adapted cartesian basis functions of B2  symmetry.
 There are    65 symmetry adapted basis functions of A1  symmetry.
 There are    23 symmetry adapted basis functions of A2  symmetry.
 There are    47 symmetry adapted basis functions of B1  symmetry.
 There are    37 symmetry adapted basis functions of B2  symmetry.
   172 basis functions,   294 primitive gaussians,   209 cartesian basis functions
    12 alpha electrons       12 beta electrons
       nuclear repulsion energy        19.5305804161 Hartrees.
 NAtoms=    4 NActive=    4 NUniq=    2 SFac= 4.00D+00 NAtFMM=   60 NAOKFM=F Big=F
 Integral buffers will be    131072 words long.
 Raffenetti 2 integral format.
 Two-electron integral symmetry is turned on.
 One-electron integrals computed using PRISM.
  12 Symmetry operations used in ECPInt.
 ECPInt:  NShTT=    1378 NPrTT=    3850 LenC2=    1379 LenP2D=    3664.
 LDataN:  DoStor=T MaxTD1= 8 Len=  415
 NBasis=   172 RedAO= T EigKep=  4.77D-04  NBF=    65    23    47    37
 NBsUse=   172 1.00D-06 EigRej= -1.00D+00 NBFU=    65    23    47    37
 Defaulting to unpruned grid for atomic number  49.
 ExpMin= 2.76D-02 ExpMax= 8.93D+03 ExpMxC= 4.51D+01 IAcc=3 IRadAn=         5 AccDes= 0.00D+00
 Harris functional with IExCor= 1009 and IRadAn=       5 diagonalized for initial guess.
 HarFok:  IExCor= 1009 AccDes= 0.00D+00 IRadAn=         5 IDoV= 1 UseB2=F ITyADJ=14
 ICtDFT=  3500011 ScaDFX=  1.000000  1.000000  1.000000  1.000000
 Defaulting to unpruned grid for atomic number  49.
 FoFCou: FMM=F IPFlag=           0 FMFlag=      100000 FMFlg1=           0
         NFxFlg=           0 DoJE=T BraDBF=F KetDBF=T FulRan=T
         wScrn=  0.000000 ICntrl=       500 IOpCl=  0 I1Cent=   200000004 NGrid=           0
         NMat0=    1 NMatS0=      1 NMatT0=    0 NMatD0=    1 NMtDS0=    0 NMtDT0=    0
 Petite list used in FoFCou.
 Initial guess orbital symmetries:
       Occupied  (A1') (E') (E') (A2") (E') (E') (A1') (E") (E")
                 (A1') (E') (E')
       Virtual   (A2") (A1') (E') (E') (A1') (E') (E') (A2") (E")
                 (E") (A1') (E') (E') (E') (E') (A1') (E') (E')
                 (A2") (A2') (E") (E") (A2") (A1') (E") (E") (A1')
                 (E') (E') (E') (E') (A1') (A2") (E') (E') (E")
                 (E") (A1') (E') (E') (A2') (A2') (E') (E') (E")
                 (E") (A2") (A2") (E') (E') (A1') (A1") (A1') (E')
                 (E') (E") (E") (E') (E') (A1') (E') (E') (E")
                 (E") (A2") (A1') (E') (E') (E") (E") (E') (E')
                 (A1') (A2') (E") (E") (A1') (A2") (A1") (E') (E')
                 (A1') (A2") (E") (E") (E') (E') (A2') (E') (E')
                 (E") (E") (A2") (A1') (E') (E') (A2') (E') (E')
                 (A1') (E') (E') (A1') (E") (E") (A2') (A2") (E')
                 (E') (E") (E") (E') (E') (A1') (A1") (E') (E')
                 (E") (E") (A2") (A1') (A2') (E') (E') (E") (E")
                 (A2") (E') (E') (A2') (E") (E") (E') (E') (A1")
                 (A1') (E') (E') (A1') (A2") (E") (E") (A2') (E')
                 (E') (E") (E") (E') (E') (A2") (A1') (A2') (E')
                 (E') (A1') (A1') (A2") (E') (E') (A1')
 The electronic state of the initial guess is 1-A1'.
 Keep J ints in memory in symmetry-blocked form, NReq=138703610.
 Requested convergence on RMS density matrix=1.00D-08 within 128 cycles.
 Requested convergence on MAX density matrix=1.00D-06.
 Requested convergence on             energy=1.00D-06.
 No special actions if energy rises.
 Defaulting to unpruned grid for atomic number  49.
 Defaulting to unpruned grid for atomic number  49.
 Defaulting to unpruned grid for atomic number  49.
 Defaulting to unpruned grid for atomic number  49.
 Defaulting to unpruned grid for atomic number  49.
 Defaulting to unpruned grid for atomic number  49.
 Defaulting to unpruned grid for atomic number  49.
 Defaulting to unpruned grid for atomic number  49.
 SCF Done:  E(RPBE-PBE) =  -191.883660398     A.U. after    8 cycles
            NFock=  8  Conv=0.62D-09     -V/T= 3.5714

 **********************************************************************

            Population analysis using the SCF Density.

 **********************************************************************

 Orbital symmetries:
       Occupied  (A1') (A2") (E') (E') (A1') (E") (E") (E') (E')
                 (A1') (E') (E')
       Virtual   (A2") (A1') (E') (E') (A1') (E') (E') (A2") (E")
                 (E") (A1') (E') (E') (E') (E') (A1') (A2") (E')
                 (E') (A2') (E") (E") (A2") (A1') (E") (E") (A1')
                 (E') (E') (E') (E') (A1') (A2") (E') (E') (E")
                 (E") (A1') (E') (E') (A2') (A2') (A2") (E") (E")
                 (E') (E') (A2") (E') (E') (A1') (A1') (A1") (E')
                 (E') (E") (E") (E') (E') (A1') (E') (E') (E")
                 (E") (A1') (A2") (E') (E') (E") (E") (E') (E')
                 (A1') (A2') (A1') (E") (E") (A2") (A1") (E') (E')
                 (A1') (A2") (E") (E") (E') (E') (A2') (E') (E')
                 (E") (E") (A2") (A1') (E') (E') (A2') (E') (E')
                 (A1') (E') (E') (A1') (E") (E") (A2') (A2") (E')
                 (E') (E") (E") (E') (E') (A1') (A1") (E') (E')
                 (E") (E") (A2") (A1') (A2') (E') (E') (E") (E")
                 (A2") (E') (E') (A2') (E") (E") (E') (E') (A1")
                 (A1') (E') (E') (A1') (A2") (E") (E") (E') (E')
                 (A2') (E") (E") (E') (E') (A2") (A1') (A2') (E')
                 (E') (A1') (A1') (A2") (E') (E') (A1')
 The electronic state is 1-A1'.
 Alpha  occ. eigenvalues --   -4.47995  -2.92898  -2.91582  -2.91582  -0.69449
 Alpha  occ. eigenvalues --   -0.68707  -0.68707  -0.68302  -0.68302  -0.38844
 Alpha  occ. eigenvalues --   -0.25686  -0.25686
 Alpha virt. eigenvalues --   -0.09825  -0.02709   0.01995   0.01995   0.02939
 Alpha virt. eigenvalues --    0.04563   0.04563   0.04999   0.08394   0.08394
 Alpha virt. eigenvalues --    0.14784   0.18901   0.18901   0.23006   0.23006
 Alpha virt. eigenvalues --    0.23369   0.28891   0.30179   0.30179   0.34115
 Alpha virt. eigenvalues --    0.37579   0.37579   0.37973   0.39541   0.43454
 Alpha virt. eigenvalues --    0.43454   0.47659   0.49340   0.49340   0.55808
 Alpha virt. eigenvalues --    0.55808   0.65661   0.71169   0.72373   0.72373
 Alpha virt. eigenvalues --    0.76323   0.76323   0.86982   0.91245   0.91245
 Alpha virt. eigenvalues --    1.02604   1.08439   1.08644   1.09397   1.09397
 Alpha virt. eigenvalues --    1.09411   1.09411   1.12504   1.18665   1.18665
 Alpha virt. eigenvalues --    1.24716   1.26707   1.27925   1.31868   1.31868
 Alpha virt. eigenvalues --    1.39266   1.39266   1.44599   1.44599   1.46225
 Alpha virt. eigenvalues --    1.51226   1.51226   1.52985   1.52985   1.56357
 Alpha virt. eigenvalues --    1.56839   1.81813   1.81813   1.99535   1.99535
 Alpha virt. eigenvalues --    2.03597   2.03597   2.14735   2.17199   2.22255
 Alpha virt. eigenvalues --    2.25209   2.25209   2.26500   2.30303   2.45295
 Alpha virt. eigenvalues --    2.45295   2.50619   2.51942   2.56287   2.56287
 Alpha virt. eigenvalues --    2.59949   2.59949   2.69051   2.71896   2.71896
 Alpha virt. eigenvalues --    2.94321   2.94321   3.03586   3.09338   3.14799
 Alpha virt. eigenvalues --    3.14799   3.23499   3.30809   3.30809   3.61293
 Alpha virt. eigenvalues --    5.31720   5.31720   5.50408   5.72291   5.72291
 Alpha virt. eigenvalues --    5.72564   5.74897   5.75671   5.75671   5.78809
 Alpha virt. eigenvalues --    5.78809   5.83045   5.83045   5.85645   5.98402
 Alpha virt. eigenvalues --    5.99588   5.99588   5.99767   5.99767   6.00915
 Alpha virt. eigenvalues --    6.01770   6.14992   6.15360   6.15360   7.53982
 Alpha virt. eigenvalues --    7.53982   7.54287   7.57844   7.57844   7.61542
 Alpha virt. eigenvalues --    7.85390   7.85390   7.89113   7.89113   7.93849
 Alpha virt. eigenvalues --    7.94262   7.97655   7.97655   8.09884   8.15525
 Alpha virt. eigenvalues --    8.17228   8.17228   8.26547   8.26547   8.28683
 Alpha virt. eigenvalues --    8.32960   8.32960   8.35887   8.35887   8.38410
 Alpha virt. eigenvalues --    8.46208   8.58014   8.85515   8.85515   8.98453
 Alpha virt. eigenvalues --   12.42733  38.46316  38.49388  38.49388  77.15283
          Condensed to atoms (all electrons):
               1          2          3          4
     1  In  19.388278   0.376881   0.376881   0.376881
     2  H    0.376881   0.815747  -0.016135  -0.016135
     3  H    0.376881  -0.016135   0.815747  -0.016135
     4  H    0.376881  -0.016135  -0.016135   0.815747
 Mulliken charges:
               1
     1  In   0.481078
     2  H   -0.160359
     3  H   -0.160359
     4  H   -0.160359
 Sum of Mulliken charges =  -0.00000
 Mulliken charges with hydrogens summed into heavy atoms:
               1
     1  In  -0.000000
 Electronic spatial extent (au):  <R**2>=             93.5255
 Charge=             -0.0000 electrons
 Dipole moment (field-independent basis, Debye):
    X=              0.0000    Y=             -0.0000    Z=             -0.0000  Tot=              0.0000
 Quadrupole moment (field-independent basis, Debye-Ang):
   XX=            -29.4028   YY=            -29.4028   ZZ=            -22.6629
   XY=             -0.0000   XZ=             -0.0000   YZ=              0.0000
 Traceless Quadrupole moment (field-independent basis, Debye-Ang):
   XX=             -2.2466   YY=             -2.2466   ZZ=              4.4932
   XY=             -0.0000   XZ=             -0.0000   YZ=              0.0000
 Octapole moment (field-independent basis, Debye-Ang**2):
  XXX=              0.0000  YYY=             -2.9377  ZZZ=              0.0000  XYY=             -0.0000
  XXY=              2.9377  XXZ=              0.0000  XZZ=              0.0000  YZZ=              0.0000
  YYZ=             -0.0000  XYZ=             -0.0000
 Hexadecapole moment (field-independent basis, Debye-Ang**3):
 XXXX=            -85.3050 YYYY=            -85.3050 ZZZZ=            -24.1344 XXXY=              0.0000
 XXXZ=             -0.0000 YYYX=              0.0000 YYYZ=              0.0000 ZZZX=             -0.0000
 ZZZY=              0.0000 XXYY=            -28.4350 XXZZ=            -17.7881 YYZZ=            -17.7881
 XXYZ=              0.0000 YYXZ=             -0.0000 ZZXY=              0.0000
 N-N= 1.953058041612D+01 E-N=-4.499069436483D+02  KE= 7.462137716320D+01
 Symmetry A1   KE= 3.240465430856D+01
 Symmetry A2   KE= 8.984594824118D+00
 Symmetry B1   KE= 1.719725536423D+01
 Symmetry B2   KE= 1.603487266630D+01
  12 Symmetry operations used in ECPInt.
 ECPInt:  NShTT=    1378 NPrTT=    3850 LenC2=    1379 LenP2D=    3664.
 LDataN:  DoStor=T MaxTD1= 9 Len=  602
 Calling FoFJK, ICntrl=      2527 FMM=F ISym2X=1 I1Cent= 0 IOpClX= 0 NMat=1 NMatS=1 NMatT=0.
 Defaulting to unpruned grid for atomic number  49.
 Defaulting to unpruned grid for atomic number  49.
 Defaulting to unpruned grid for atomic number  49.
 Defaulting to unpruned grid for atomic number  49.
 Defaulting to unpruned grid for atomic number  49.
 Defaulting to unpruned grid for atomic number  49.
 Defaulting to unpruned grid for atomic number  49.
 Defaulting to unpruned grid for atomic number  49.
 ***** Axes restored to original set *****
 -------------------------------------------------------------------
 Center     Atomic                   Forces (Hartrees/Bohr)
 Number     Number              X              Y              Z
 -------------------------------------------------------------------
      1       49          -0.000000000    0.000000000   -0.000000000
      2        1           0.002125879   -0.003682130    0.000000000
      3        1           0.002125879    0.003682130   -0.000000000
      4        1          -0.004251758    0.000000000   -0.000000000
 -------------------------------------------------------------------
 Cartesian Forces:  Max     0.004251758 RMS     0.002125879

 GradGradGradGradGradGradGradGradGradGradGradGradGradGradGradGradGradGrad
 Berny optimization.
 FormGI is forming the generalized inverse of G from B-inverse, IUseBI=4.
 Internal  Forces:  Max     0.004251758 RMS     0.002783429
 Search for a local minimum.
 Step number   1 out of a maximum of   20
 All quantities printed in internal units (Hartrees-Bohrs-Radians)
 Mixed Optimization -- RFO/linear search
 Second derivative matrix not updated -- first step.
 The second derivative matrix:
                          R1        R2        R3        A1        A2
           R1           0.11356
           R2           0.00000   0.11356
           R3           0.00000   0.00000   0.11356
           A1           0.00000   0.00000   0.00000   0.16000
           A2           0.00000   0.00000   0.00000   0.00000   0.16000
           A3           0.00000   0.00000   0.00000   0.00000   0.00000
           D1           0.00000   0.00000   0.00000   0.00000   0.00000
                          A3        D1
           A3           0.16000
           D1           0.00000   0.00230
 ITU=  0
     Eigenvalues ---    0.00230   0.11356   0.11356   0.11356   0.16000
     Eigenvalues ---    0.16000
 RFO step:  Lambda=-4.75566891D-04 EMin= 2.30000000D-03
 Linear search not attempted -- first point.
 Iteration  1 RMS(Cart)=  0.02440850 RMS(Int)=  0.00000000
 Iteration  2 RMS(Cart)=  0.00000000 RMS(Int)=  0.00000000
 ClnCor:  largest displacement from symmetrization is 1.78D-12 for atom     1.
 Variable       Old X    -DE/DX   Delta X   Delta X   Delta X     New X
                                 (Linear)    (Quad)   (Total)
    R1        3.31439  -0.00425   0.00000  -0.03728  -0.03728   3.27711
    R2        3.31439  -0.00425   0.00000  -0.03728  -0.03728   3.27711
    R3        3.31439  -0.00425   0.00000  -0.03728  -0.03728   3.27711
    A1        2.09440   0.00000   0.00000   0.00000  -0.00000   2.09440
    A2        2.09440  -0.00000   0.00000  -0.00000   0.00000   2.09440
    A3        2.09440   0.00000   0.00000   0.00000   0.00000   2.09440
    D1        3.14159  -0.00000   0.00000   0.00000   0.00000   3.14159
         Item               Value     Threshold  Converged?
 Maximum Force            0.004252     0.000450     NO 
 RMS     Force            0.002783     0.000300     NO 
 Maximum Displacement     0.037285     0.001800     NO 
 RMS     Displacement     0.024408     0.001200     NO 
 Predicted change in Energy=-2.387793D-04
 GradGradGradGradGradGradGradGradGradGradGradGradGradGradGradGradGradGrad

                          Input orientation:                          
 ---------------------------------------------------------------------
 Center     Atomic      Atomic             Coordinates (Angstroms)
 Number     Number       Type             X           Y           Z
 ---------------------------------------------------------------------
      1         49           0        7.561524    8.000000    8.000000
      2          1           0        6.694438    9.501837    8.000000
      3          1           0        6.694438    6.498163    8.000000
      4          1           0        9.295696    8.000000    8.000000
 ---------------------------------------------------------------------
                    Distance matrix (angstroms):
                    1          2          3          4
     1  In   0.000000
     2  H    1.734172   0.000000
     3  H    1.734172   3.003674   0.000000
     4  H    1.734172   3.003674   3.003674   0.000000
 Stoichiometry    H3In
 Framework group  D3H[O(In),3C2(H)]
 Deg. of freedom     1
 Full point group                 D3H     NOp  12
 Largest Abelian subgroup         C2V     NOp   4
 Largest concise Abelian subgroup C2      NOp   2
                         Standard orientation:                         
 ---------------------------------------------------------------------
 Center     Atomic      Atomic             Coordinates (Angstroms)
 Number     Number       Type             X           Y           Z
 ---------------------------------------------------------------------
      1         49           0        0.000000    0.000000    0.000000
      2          1           0       -0.000000    1.734172    0.000000
      3          1           0       -1.501837   -0.867086   -0.000000
      4          1           0        1.501837   -0.867086    0.000000
 ---------------------------------------------------------------------
 Rotational constants (GHZ):         111.1620340         111.1620340          55.5810170
 Standard basis: def2QZVPP (5D, 7F)
 There are    83 symmetry adapted cartesian basis functions of A1  symmetry.
 There are    25 symmetry adapted cartesian basis functions of A2  symmetry.
 There are    57 symmetry adapted cartesian basis functions of B1  symmetry.
 There are    44 symmetry adapted cartesian basis functions of B2  symmetry.
 There are    65 symmetry adapted basis functions of A1  symmetry.
 There are    23 symmetry adapted basis functions of A2  symmetry.
 There are    47 symmetry adapted basis functions of B1  symmetry.
 There are    37 symmetry adapted basis functions of B2  symmetry.
   172 basis functions,   294 primitive gaussians,   209 cartesian basis functions
    12 alpha electrons       12 beta electrons
       nuclear repulsion energy        19.7527852852 Hartrees.
 NAtoms=    4 NActive=    4 NUniq=    2 SFac= 4.00D+00 NAtFMM=   60 NAOKFM=F Big=F
 Integral buffers will be    131072 words long.
 Raffenetti 2 integral format.
 Two-electron integral symmetry is turned on.
 One-electron integrals computed using PRISM.
  12 Symmetry operations used in ECPInt.
 ECPInt:  NShTT=    1378 NPrTT=    3850 LenC2=    1379 LenP2D=    3667.
 LDataN:  DoStor=T MaxTD1= 8 Len=  415
 NBasis=   172 RedAO= T EigKep=  4.48D-04  NBF=    65    23    47    37
 NBsUse=   172 1.00D-06 EigRej= -1.00D+00 NBFU=    65    23    47    37
 Defaulting to unpruned grid for atomic number  49.
 Initial guess from the checkpoint file:  "/data/hutter/SMG16/PBE/Gau-42325.chk"
 B after Tr=     0.000000    0.000000    0.000000
         Rot=    1.000000    0.000000   -0.000000   -0.000000 Ang=   0.00 deg.
 Initial guess orbital symmetries:
       Occupied  (?A) (?B) (?C) (?C) (?A) (?D) (?D) (?C) (?C) (?A)
                 (?C) (?C)
       Virtual   (?B) (?A) (?C) (?C) (?A) (?C) (?C) (?B) (?D) (?D)
                 (?A) (?C) (?C) (?C) (?C) (?A) (?B) (?C) (?C) (?A)
                 (?D) (?D) (?B) (?A) (?D) (?D) (?A) (?C) (?C) (?C)
                 (?C) (?A) (?B) (?C) (?C) (?D) (?D) (?A) (?C) (?C)
                 (?A) (?A) (?B) (?D) (?D) (?C) (?C) (?B) (?C) (?C)
                 (?A) (?A) (?B) (?C) (?C) (?D) (?D) (?C) (?C) (?A)
                 (?C) (?C) (?D) (?D) (?A) (?B) (?C) (?C) (?D) (?D)
                 (?C) (?C) (?A) (?A) (?A) (?D) (?D) (?B) (?B) (?C)
                 (?C) (?A) (?B) (?D) (?D) (?C) (?C) (?A) (?C) (?C)
                 (?D) (?D) (?B) (?A) (?C) (?C) (?A) (?C) (?C) (?A)
                 (?C) (?C) (?A) (?D) (?D) (?A) (?B) (?C) (?C) (?D)
                 (?D) (?C) (?C) (?A) (?B) (?C) (?C) (?D) (?D) (?B)
                 (?A) (?A) (?C) (?C) (?D) (?D) (?B) (?C) (?C) (?A)
                 (?D) (?D) (?C) (?C) (?B) (?A) (?C) (?C) (?A) (?B)
                 (?D) (?D) (?C) (?C) (?A) (?D) (?D) (?C) (?C) (?B)
                 (?A) (?A) (?C) (?C) (?A) (?A) (A2") (?C) (?C)
                 (?A)
 ExpMin= 2.76D-02 ExpMax= 8.93D+03 ExpMxC= 4.51D+01 IAcc=3 IRadAn=         5 AccDes= 0.00D+00
 Harris functional with IExCor= 1009 and IRadAn=       5 diagonalized for initial guess.
 HarFok:  IExCor= 1009 AccDes= 0.00D+00 IRadAn=         5 IDoV= 1 UseB2=F ITyADJ=14
 ICtDFT=  3500011 ScaDFX=  1.000000  1.000000  1.000000  1.000000
 Defaulting to unpruned grid for atomic number  49.
 FoFCou: FMM=F IPFlag=           0 FMFlag=      100000 FMFlg1=           0
         NFxFlg=           0 DoJE=T BraDBF=F KetDBF=T FulRan=T
         wScrn=  0.000000 ICntrl=       500 IOpCl=  0 I1Cent=   200000004 NGrid=           0
         NMat0=    1 NMatS0=      1 NMatT0=    0 NMatD0=    1 NMtDS0=    0 NMtDT0=    0
 Petite list used in FoFCou.
 Keep J ints in memory in symmetry-blocked form, NReq=138703610.
 Requested convergence on RMS density matrix=1.00D-08 within 128 cycles.
 Requested convergence on MAX density matrix=1.00D-06.
 Requested convergence on             energy=1.00D-06.
 No special actions if energy rises.
 Defaulting to unpruned grid for atomic number  49.
 Defaulting to unpruned grid for atomic number  49.
 Defaulting to unpruned grid for atomic number  49.
 Defaulting to unpruned grid for atomic number  49.
 Defaulting to unpruned grid for atomic number  49.
 Defaulting to unpruned grid for atomic number  49.
 Defaulting to unpruned grid for atomic number  49.
 Defaulting to unpruned grid for atomic number  49.
 SCF Done:  E(RPBE-PBE) =  -191.883906023     A.U. after    7 cycles
            NFock=  7  Conv=0.11D-08     -V/T= 3.5707
  12 Symmetry operations used in ECPInt.
 ECPInt:  NShTT=    1378 NPrTT=    3850 LenC2=    1379 LenP2D=    3667.
 LDataN:  DoStor=T MaxTD1= 9 Len=  602
 Calling FoFJK, ICntrl=      2527 FMM=F ISym2X=1 I1Cent= 0 IOpClX= 0 NMat=1 NMatS=1 NMatT=0.
 Defaulting to unpruned grid for atomic number  49.
 Defaulting to unpruned grid for atomic number  49.
 Defaulting to unpruned grid for atomic number  49.
 Defaulting to unpruned grid for atomic number  49.
 Defaulting to unpruned grid for atomic number  49.
 Defaulting to unpruned grid for atomic number  49.
 Defaulting to unpruned grid for atomic number  49.
 Defaulting to unpruned grid for atomic number  49.
 ***** Axes restored to original set *****
 -------------------------------------------------------------------
 Center     Atomic                   Forces (Hartrees/Bohr)
 Number     Number              X              Y              Z
 -------------------------------------------------------------------
      1       49          -0.000000000    0.000000000   -0.000000000
      2        1           0.000041897   -0.000072567    0.000000000
      3        1           0.000041897    0.000072567   -0.000000000
      4        1          -0.000083793   -0.000000000    0.000000000
 -------------------------------------------------------------------
 Cartesian Forces:  Max     0.000083793 RMS     0.000041897

 GradGradGradGradGradGradGradGradGradGradGradGradGradGradGradGradGradGrad
 Berny optimization.
 Using GEDIIS/GDIIS optimizer.
 FormGI is forming the generalized inverse of G from B-inverse, IUseBI=4.
 Internal  Forces:  Max     0.000083793 RMS     0.000054855
 Search for a local minimum.
 Step number   2 out of a maximum of   20
 All quantities printed in internal units (Hartrees-Bohrs-Radians)
 Mixed Optimization -- En-DIIS/RFO-DIIS
 Update second derivatives using D2CorX and points    1    2
 DE= -2.46D-04 DEPred=-2.39D-04 R= 1.03D+00
 TightC=F SS=  1.41D+00  RLast= 6.46D-02 DXNew= 5.0454D-01 1.9374D-01
 Trust test= 1.03D+00 RLast= 6.46D-02 DXMaxT set to 3.00D-01
 The second derivative matrix:
                          R1        R2        R3        A1        A2
           R1           0.11297
           R2          -0.00059   0.11297
           R3          -0.00059  -0.00059   0.11297
           A1          -0.00000  -0.00000  -0.00000   0.16000
           A2           0.00000   0.00000   0.00000  -0.00000   0.16000
           A3          -0.00000  -0.00000  -0.00000   0.00000  -0.00000
           D1          -0.00000  -0.00000  -0.00000   0.00000  -0.00000
                          A3        D1
           A3           0.16000
           D1           0.00000   0.00230
 ITU=  1  0
 Use linear search instead of GDIIS.
     Eigenvalues ---    0.00230   0.11179   0.11356   0.11356   0.16000
     Eigenvalues ---    0.16000
 RFO step:  Lambda= 0.00000000D+00 EMin= 2.30000000D-03
 Quartic linear search produced a step of  0.01930.
 Iteration  1 RMS(Cart)=  0.00047110 RMS(Int)=  0.00000000
 Iteration  2 RMS(Cart)=  0.00000000 RMS(Int)=  0.00000000
 ClnCor:  largest displacement from symmetrization is 2.59D-11 for atom     1.
 Variable       Old X    -DE/DX   Delta X   Delta X   Delta X     New X
                                 (Linear)    (Quad)   (Total)
    R1        3.27711  -0.00008  -0.00072  -0.00000  -0.00072   3.27639
    R2        3.27711  -0.00008  -0.00072  -0.00000  -0.00072   3.27639
    R3        3.27711  -0.00008  -0.00072   0.00000  -0.00072   3.27639
    A1        2.09440  -0.00000   0.00000  -0.00000   0.00000   2.09440
    A2        2.09440   0.00000  -0.00000   0.00000  -0.00000   2.09440
    A3        2.09440  -0.00000   0.00000  -0.00000   0.00000   2.09440
    D1        3.14159  -0.00000   0.00000  -0.00000   0.00000   3.14159
         Item               Value     Threshold  Converged?
 Maximum Force            0.000084     0.000450     YES
 RMS     Force            0.000055     0.000300     YES
 Maximum Displacement     0.000720     0.001800     YES
 RMS     Displacement     0.000471     0.001200     YES
 Predicted change in Energy=-9.406294D-08
 Optimization completed.
    -- Stationary point found.
                           ----------------------------
                           !   Optimized Parameters   !
                           ! (Angstroms and Degrees)  !
 --------------------------                            --------------------------
 ! Name  Definition              Value          Derivative Info.                !
 --------------------------------------------------------------------------------
 ! R1    R(1,2)                  1.7342         -DE/DX =   -0.0001              !
 ! R2    R(1,3)                  1.7342         -DE/DX =   -0.0001              !
 ! R3    R(1,4)                  1.7342         -DE/DX =   -0.0001              !
 ! A1    A(2,1,3)              120.0            -DE/DX =    0.0                 !
 ! A2    A(2,1,4)              120.0            -DE/DX =    0.0                 !
 ! A3    A(3,1,4)              120.0            -DE/DX =    0.0                 !
 ! D1    D(2,1,4,3)            180.0            -DE/DX =    0.0                 !
 --------------------------------------------------------------------------------
 GradGradGradGradGradGradGradGradGradGradGradGradGradGradGradGradGradGrad

                          Input orientation:                          
 ---------------------------------------------------------------------
 Center     Atomic      Atomic             Coordinates (Angstroms)
 Number     Number       Type             X           Y           Z
 ---------------------------------------------------------------------
      1         49           0        7.561524    8.000000    8.000000
      2          1           0        6.694438    9.501837    8.000000
      3          1           0        6.694438    6.498163    8.000000
      4          1           0        9.295696    8.000000    8.000000
 ---------------------------------------------------------------------
                    Distance matrix (angstroms):
                    1          2          3          4
     1  In   0.000000
     2  H    1.734172   0.000000
     3  H    1.734172   3.003674   0.000000
     4  H    1.734172   3.003674   3.003674   0.000000
 Stoichiometry    H3In
 Framework group  D3H[O(In),3C2(H)]
 Deg. of freedom     1
 Full point group                 D3H     NOp  12
 Largest Abelian subgroup         C2V     NOp   4
 Largest concise Abelian subgroup C2      NOp   2
                         Standard orientation:                         
 ---------------------------------------------------------------------
 Center     Atomic      Atomic             Coordinates (Angstroms)
 Number     Number       Type             X           Y           Z
 ---------------------------------------------------------------------
      1         49           0        0.000000    0.000000    0.000000
      2          1           0       -0.000000    1.734172    0.000000
      3          1           0       -1.501837   -0.867086   -0.000000
      4          1           0        1.501837   -0.867086    0.000000
 ---------------------------------------------------------------------
 Rotational constants (GHZ):         111.1620340         111.1620340          55.5810170

 **********************************************************************

            Population analysis using the SCF Density.

 **********************************************************************

 Orbital symmetries:
       Occupied  (?A) (?B) (?C) (?C) (?A) (?D) (?D) (?C) (?C) (?A)
                 (?C) (?C)
       Virtual   (?B) (?A) (?C) (?C) (?A) (?C) (?C) (?B) (?D) (?D)
                 (?A) (?C) (?C) (?C) (?C) (?A) (?B) (?C) (?C) (?A)
                 (?D) (?D) (?B) (?A) (?D) (?D) (?A) (?C) (?C) (?C)
                 (?C) (?A) (?B) (?C) (?C) (?D) (?D) (?A) (?C) (?C)
                 (?A) (?A) (?B) (?C) (?C) (?D) (?D) (?B) (?C) (?C)
                 (?A) (?A) (?B) (?C) (?C) (?D) (?D) (?C) (?C) (?A)
                 (?C) (?C) (?D) (?D) (?A) (?B) (?C) (?C) (?D) (?D)
                 (?C) (?C) (?A) (?A) (?A) (?D) (?D) (?B) (?B) (?C)
                 (?C) (?A) (?B) (?D) (?D) (?C) (?C) (?A) (?C) (?C)
                 (?D) (?D) (?B) (?A) (?C) (?C) (?A) (?C) (?C) (?A)
                 (?C) (?C) (?A) (?D) (?D) (?A) (?B) (?C) (?C) (?D)
                 (?D) (?C) (?C) (?A) (?B) (?C) (?C) (?D) (?D) (?A)
                 (?B) (?C) (?C) (?A) (?D) (?D) (?B) (?C) (?C) (?A)
                 (?D) (?D) (?C) (?C) (?A) (?B) (?C) (?C) (?A) (?B)
                 (?D) (?D) (?C) (?C) (?A) (?D) (?D) (?C) (?C) (?B)
                 (?A) (?A) (?C) (?C) (?A) (?A) (A2") (?C) (?C)
                 (?A)
 Unable to determine electronic state:  an orbital has unidentified symmetry.
 Alpha  occ. eigenvalues --   -4.47920  -2.92824  -2.91508  -2.91508  -0.69415
 Alpha  occ. eigenvalues --   -0.68638  -0.68638  -0.68294  -0.68294  -0.39020
 Alpha  occ. eigenvalues --   -0.25723  -0.25723
 Alpha virt. eigenvalues --   -0.09794  -0.02204   0.02070   0.02070   0.02894
 Alpha virt. eigenvalues --    0.04678   0.04678   0.05020   0.08439   0.08439
 Alpha virt. eigenvalues --    0.14867   0.19018   0.19018   0.22996   0.22996
 Alpha virt. eigenvalues --    0.23561   0.28920   0.30371   0.30371   0.34257
 Alpha virt. eigenvalues --    0.37662   0.37662   0.38092   0.39384   0.43474
 Alpha virt. eigenvalues --    0.43474   0.47660   0.49407   0.49407   0.56166
 Alpha virt. eigenvalues --    0.56166   0.65830   0.71596   0.72997   0.72997
 Alpha virt. eigenvalues --    0.76831   0.76831   0.87338   0.91052   0.91052
 Alpha virt. eigenvalues --    1.03880   1.07695   1.08696   1.09326   1.09326
 Alpha virt. eigenvalues --    1.09402   1.09402   1.12496   1.18917   1.18917
 Alpha virt. eigenvalues --    1.24907   1.26788   1.28063   1.31979   1.31979
 Alpha virt. eigenvalues --    1.39296   1.39296   1.45216   1.45216   1.46972
 Alpha virt. eigenvalues --    1.51655   1.51655   1.53393   1.53393   1.56226
 Alpha virt. eigenvalues --    1.57441   1.82322   1.82322   2.00118   2.00118
 Alpha virt. eigenvalues --    2.04322   2.04322   2.16047   2.18927   2.23463
 Alpha virt. eigenvalues --    2.26158   2.26158   2.27147   2.32253   2.46555
 Alpha virt. eigenvalues --    2.46555   2.51991   2.52746   2.57266   2.57266
 Alpha virt. eigenvalues --    2.61892   2.61892   2.69955   2.74035   2.74035
 Alpha virt. eigenvalues --    2.95570   2.95570   3.04834   3.11709   3.15230
 Alpha virt. eigenvalues --    3.15230   3.26069   3.32281   3.32281   3.58599
 Alpha virt. eigenvalues --    5.32947   5.32947   5.54311   5.72147   5.72147
 Alpha virt. eigenvalues --    5.72396   5.75064   5.75823   5.75823   5.79214
 Alpha virt. eigenvalues --    5.79214   5.83884   5.83884   5.86375   5.99568
 Alpha virt. eigenvalues --    5.99798   5.99798   6.00325   6.00325   6.00964
 Alpha virt. eigenvalues --    6.01015   6.15901   6.15901   6.16181   7.54700
 Alpha virt. eigenvalues --    7.54700   7.55136   7.58444   7.58444   7.63800
 Alpha virt. eigenvalues --    7.85747   7.85747   7.90043   7.90043   7.94748
 Alpha virt. eigenvalues --    7.94990   7.99358   7.99358   8.14113   8.16617
 Alpha virt. eigenvalues --    8.18047   8.18047   8.27060   8.27060   8.29788
 Alpha virt. eigenvalues --    8.33520   8.33520   8.37200   8.37200   8.38220
 Alpha virt. eigenvalues --    8.42483   8.58072   8.88107   8.88107   9.02346
 Alpha virt. eigenvalues --   12.46377  38.46394  38.50114  38.50114  77.19557
          Condensed to atoms (all electrons):
               1          2          3          4
     1  In  19.380360   0.382094   0.382094   0.382094
     2  H    0.382094   0.808635  -0.016471  -0.016471
     3  H    0.382094  -0.016471   0.808635  -0.016471
     4  H    0.382094  -0.016471  -0.016471   0.808635
 Mulliken charges:
               1
     1  In   0.473359
     2  H   -0.157786
     3  H   -0.157786
     4  H   -0.157786
 Sum of Mulliken charges =  -0.00000
 Mulliken charges with hydrogens summed into heavy atoms:
               1
     1  In  -0.000000
 Electronic spatial extent (au):  <R**2>=             92.6216
 Charge=             -0.0000 electrons
 Dipole moment (field-independent basis, Debye):
    X=             -0.0000    Y=              0.0000    Z=             -0.0000  Tot=              0.0000
 Quadrupole moment (field-independent basis, Debye-Ang):
   XX=            -29.3177   YY=            -29.3177   ZZ=            -22.6090
   XY=             -0.0000   XZ=              0.0000   YZ=             -0.0000
 Traceless Quadrupole moment (field-independent basis, Debye-Ang):
   XX=             -2.2362   YY=             -2.2362   ZZ=              4.4725
   XY=             -0.0000   XZ=              0.0000   YZ=             -0.0000
 Octapole moment (field-independent basis, Debye-Ang**2):
  XXX=              0.0000  YYY=             -2.8931  ZZZ=              0.0000  XYY=              0.0000
  XXY=              2.8931  XXZ=             -0.0000  XZZ=             -0.0000  YZZ=              0.0000
  YYZ=             -0.0000  XYZ=             -0.0000
 Hexadecapole moment (field-independent basis, Debye-Ang**3):
 XXXX=            -83.9078 YYYY=            -83.9078 ZZZZ=            -23.9660 XXXY=             -0.0000
 XXXZ=              0.0000 YYYX=             -0.0000 YYYZ=              0.0000 ZZZX=              0.0000
 ZZZY=              0.0000 XXYY=            -27.9693 XXZZ=            -17.5268 YYZZ=            -17.5268
 XXYZ=              0.0000 YYXZ=              0.0000 ZZXY=             -0.0000
 N-N= 1.975278528516D+01 E-N=-4.503708858025D+02  KE= 7.464159697347D+01
 Symmetry A1   KE= 3.241865365824D+01
 Symmetry A2   KE= 8.982811652074D+00
 Symmetry B1   KE= 1.720699287148D+01
 Symmetry B2   KE= 1.603313879167D+01
 Unable to Open any file for archive entry.
 1\1\GINC-TCOPT10\FOpt\RPBEPBE\def2QZVPP\H3In1\HUTTER\30-Jul-2021\0\\#N
  RPBEPBE/Def2QZVPP scf=tight Int(Grid=ultrafine) OPT FREQ\\Mol job 1\\
 0,1\In,7.5615244702,8.,8.\H,6.694438497,9.5018369601,8.\H,6.694438497,
 6.4981630399,8.\H,9.2956964165,8.,8.\\Version=ES64L-G16RevC.01\HF=-191
 .883906\RMSD=1.131e-09\RMSF=4.190e-05\Dipole=0.,0.,0.\Quadrupole=-1.66
 25914,-1.6625914,3.3251829,0.,0.,0.\PG=D03H [O(In1),3C2(H1)]\\@
 The archive entry for this job was punched.


 A people that values its privileges above its principles soon loses both.
 -- Dwight D. Eisenhower
 Job cpu time:       0 days  0 hours  3 minutes 55.4 seconds.
 Elapsed time:       0 days  0 hours  0 minutes 30.2 seconds.
 File lengths (MBytes):  RWF=     20 Int=      0 D2E=      0 Chk=      3 Scr=      1
 Normal termination of Gaussian 16 at Fri Jul 30 15:41:32 2021.
 Link1:  Proceeding to internal job step number  2.
 ----------------------------------------------------------------------
 #N Geom=AllCheck Guess=TCheck SCRF=Check GenChk RPBEPBE/def2QZVPP Freq
 ----------------------------------------------------------------------
 1/10=4,29=7,30=1,38=1,40=1/1,3;
 2/12=2,40=1/2;
 3/5=45,7=202,11=2,14=-4,25=1,30=1,70=2,71=2,74=1009,75=-5,116=1,140=1/1,2,3;
 4/5=101/1;
 5/5=2,32=2,38=6,98=1/2;
 8/6=4,10=90,11=11/1;
 11/6=1,8=1,9=11,15=111,16=1/1,2,10;
 10/6=1/2;
 6/7=2,8=2,9=2,10=2,28=1/1;
 7/8=1,10=1,25=1/1,2,3,16;
 1/10=4,30=1/3;
 99//99;
 Structure from the checkpoint file:  "/data/hutter/SMG16/PBE/Gau-42325.chk"
 ---------
 Mol job 1
 ---------
 Charge =  0 Multiplicity = 1
 Redundant internal coordinates found in file.  (old form).
 In,0,7.5615244702,8.,8.
 H,0,6.694438497,9.5018369601,8.
 H,0,6.694438497,6.4981630399,8.
 H,0,9.2956964165,8.,8.
 Recover connectivity data from disk.

 GradGradGradGradGradGradGradGradGradGradGradGradGradGradGradGradGradGrad
 Berny optimization.
 Initialization pass.
                           ----------------------------
                           !    Initial Parameters    !
                           ! (Angstroms and Degrees)  !
 --------------------------                            --------------------------
 ! Name  Definition              Value          Derivative Info.                !
 --------------------------------------------------------------------------------
 ! R1    R(1,2)                  1.7342         calculate D2E/DX2 analytically  !
 ! R2    R(1,3)                  1.7342         calculate D2E/DX2 analytically  !
 ! R3    R(1,4)                  1.7342         calculate D2E/DX2 analytically  !
 ! A1    A(2,1,3)              120.0            calculate D2E/DX2 analytically  !
 ! A2    A(2,1,4)              120.0            calculate D2E/DX2 analytically  !
 ! A3    A(3,1,4)              120.0            calculate D2E/DX2 analytically  !
 ! D1    D(2,1,4,3)            180.0            calculate D2E/DX2 analytically  !
 --------------------------------------------------------------------------------
 Trust Radius=3.00D-01 FncErr=1.00D-07 GrdErr=1.00D-07 EigMax=2.50D+02 EigMin=1.00D-04
 Number of steps in this run=      2 maximum allowed number of steps=      2.
 GradGradGradGradGradGradGradGradGradGradGradGradGradGradGradGradGradGrad

                          Input orientation:                          
 ---------------------------------------------------------------------
 Center     Atomic      Atomic             Coordinates (Angstroms)
 Number     Number       Type             X           Y           Z
 ---------------------------------------------------------------------
      1         49           0        7.561524    8.000000    8.000000
      2          1           0        6.694438    9.501837    8.000000
      3          1           0        6.694438    6.498163    8.000000
      4          1           0        9.295696    8.000000    8.000000
 ---------------------------------------------------------------------
                    Distance matrix (angstroms):
                    1          2          3          4
     1  In   0.000000
     2  H    1.734172   0.000000
     3  H    1.734172   3.003674   0.000000
     4  H    1.734172   3.003674   3.003674   0.000000
 Stoichiometry    H3In
 Framework group  D3H[O(In),3C2(H)]
 Deg. of freedom     1
 Full point group                 D3H     NOp  12
 Largest Abelian subgroup         C2V     NOp   4
 Largest concise Abelian subgroup C2      NOp   2
                         Standard orientation:                         
 ---------------------------------------------------------------------
 Center     Atomic      Atomic             Coordinates (Angstroms)
 Number     Number       Type             X           Y           Z
 ---------------------------------------------------------------------
      1         49           0        0.000000    0.000000    0.000000
      2          1           0       -0.000000    1.734172    0.000000
      3          1           0       -1.501837   -0.867086   -0.000000
      4          1           0        1.501837   -0.867086    0.000000
 ---------------------------------------------------------------------
 Rotational constants (GHZ):         111.1620340         111.1620340          55.5810170
 Standard basis: def2QZVPP (5D, 7F)
 There are    83 symmetry adapted cartesian basis functions of A1  symmetry.
 There are    25 symmetry adapted cartesian basis functions of A2  symmetry.
 There are    57 symmetry adapted cartesian basis functions of B1  symmetry.
 There are    44 symmetry adapted cartesian basis functions of B2  symmetry.
 There are    65 symmetry adapted basis functions of A1  symmetry.
 There are    23 symmetry adapted basis functions of A2  symmetry.
 There are    47 symmetry adapted basis functions of B1  symmetry.
 There are    37 symmetry adapted basis functions of B2  symmetry.
   172 basis functions,   294 primitive gaussians,   209 cartesian basis functions
    12 alpha electrons       12 beta electrons
       nuclear repulsion energy        19.7527852852 Hartrees.
 NAtoms=    4 NActive=    4 NUniq=    2 SFac= 4.00D+00 NAtFMM=   60 NAOKFM=F Big=F
 Integral buffers will be    131072 words long.
 Raffenetti 2 integral format.
 Two-electron integral symmetry is turned on.
 One-electron integrals computed using PRISM.
  12 Symmetry operations used in ECPInt.
 ECPInt:  NShTT=    1378 NPrTT=    3850 LenC2=    1379 LenP2D=    3667.
 LDataN:  DoStor=T MaxTD1= 8 Len=  415
 NBasis=   172 RedAO= T EigKep=  4.48D-04  NBF=    65    23    47    37
 NBsUse=   172 1.00D-06 EigRej= -1.00D+00 NBFU=    65    23    47    37
 Defaulting to unpruned grid for atomic number  49.
 Initial guess from the checkpoint file:  "/data/hutter/SMG16/PBE/Gau-42325.chk"
 B after Tr=     0.000000    0.000000    0.000000
         Rot=    1.000000    0.000000    0.000000    0.000000 Ang=   0.00 deg.
 Initial guess orbital symmetries:
       Occupied  (?A) (?B) (?C) (?C) (?A) (?D) (?D) (?C) (?C) (?A)
                 (?C) (?C)
       Virtual   (?B) (?A) (?C) (?C) (?A) (?C) (?C) (?B) (?D) (?D)
                 (?A) (?C) (?C) (?C) (?C) (?A) (?B) (?C) (?C) (?A)
                 (?D) (?D) (?B) (?A) (?D) (?D) (?A) (?C) (?C) (?C)
                 (?C) (?A) (?B) (?C) (?C) (?D) (?D) (?A) (?C) (?C)
                 (?A) (?A) (?B) (?C) (?C) (?D) (?D) (?B) (?C) (?C)
                 (?A) (?A) (?B) (?C) (?C) (?D) (?D) (?C) (?C) (?A)
                 (?C) (?C) (?D) (?D) (?A) (?B) (?C) (?C) (?D) (?D)
                 (?C) (?C) (?A) (?A) (?A) (?D) (?D) (?B) (?B) (?C)
                 (?C) (?A) (?B) (?D) (?D) (?C) (?C) (?A) (?C) (?C)
                 (?D) (?D) (?B) (?A) (?C) (?C) (?A) (?C) (?C) (?A)
                 (?C) (?C) (?A) (?D) (?D) (?A) (?B) (?C) (?C) (?D)
                 (?D) (?C) (?C) (?A) (?B) (?C) (?C) (?D) (?D) (?A)
                 (?B) (?C) (?C) (?A) (?D) (?D) (?B) (?C) (?C) (?A)
                 (?D) (?D) (?C) (?C) (?A) (?B) (?C) (?C) (?A) (?B)
                 (?D) (?D) (?C) (?C) (?A) (?D) (?D) (?C) (?C) (?B)
                 (?A) (?A) (?C) (?C) (?A) (?A) (A2") (?C) (?C)
                 (?A)
 Keep J ints in memory in symmetry-blocked form, NReq=138703610.
 Requested convergence on RMS density matrix=1.00D-08 within 128 cycles.
 Requested convergence on MAX density matrix=1.00D-06.
 Requested convergence on             energy=1.00D-06.
 No special actions if energy rises.
 Defaulting to unpruned grid for atomic number  49.
 Defaulting to unpruned grid for atomic number  49.
 Defaulting to unpruned grid for atomic number  49.
 Defaulting to unpruned grid for atomic number  49.
 Defaulting to unpruned grid for atomic number  49.
 Defaulting to unpruned grid for atomic number  49.
 Defaulting to unpruned grid for atomic number  49.
 Defaulting to unpruned grid for atomic number  49.
 SCF Done:  E(RPBE-PBE) =  -191.883906023     A.U. after    1 cycles
            NFock=  1  Conv=0.92D-10     -V/T= 3.5707
 DoSCS=F DFT=T ScalE2(SS,OS)=  1.000000  1.000000
 Range of M.O.s used for correlation:     1   172
 NBasis=   172 NAE=    12 NBE=    12 NFC=     0 NFV=     0
 NROrb=    172 NOA=    12 NOB=    12 NVA=   160 NVB=   160

 **** Warning!!: The largest alpha MO coefficient is  0.12759423D+02

  12 Symmetry operations used in ECPInt.
 ECPInt:  NShTT=    1378 NPrTT=    3850 LenC2=    1379 LenP2D=    3667.
 LDataN:  DoStor=T MaxTD1= 9 Len=  602
 Symmetrizing basis deriv contribution to polar:
 IMax=3 JMax=2 DiffMx= 0.00D+00
 G2DrvN: will do     5 centers at a time, making    1 passes.
 Calling FoFCou, ICntrl=  3507 FMM=F I1Cent=   0 AccDes= 0.00D+00.
 Defaulting to unpruned grid for atomic number  49.
 Defaulting to unpruned grid for atomic number  49.
 Defaulting to unpruned grid for atomic number  49.
 Defaulting to unpruned grid for atomic number  49.
 Defaulting to unpruned grid for atomic number  49.
 Defaulting to unpruned grid for atomic number  49.
 Defaulting to unpruned grid for atomic number  49.
 Defaulting to unpruned grid for atomic number  49.
 End of G2Drv F.D. properties file   721 does not exist.
 End of G2Drv F.D. properties file   722 does not exist.
 End of G2Drv F.D. properties file   788 does not exist.
          IDoAtm=1111
          Differentiating once with respect to electric field.
                with respect to dipole field.
          Differentiating once with respect to nuclear coordinates.
 Defaulting to unpruned grid for atomic number  49.
 Keep J ints in memory in symmetry-blocked form, NReq=138705924.
 Defaulting to unpruned grid for atomic number  49.
 Defaulting to unpruned grid for atomic number  49.
 Defaulting to unpruned grid for atomic number  49.
 Defaulting to unpruned grid for atomic number  49.
 Defaulting to unpruned grid for atomic number  49.
 Defaulting to unpruned grid for atomic number  49.
 Defaulting to unpruned grid for atomic number  49.
 Defaulting to unpruned grid for atomic number  49.
          There are     9 degrees of freedom in the 1st order CPHF.  IDoFFX=4 NUNeed=     9.
      9 vectors produced by pass  0 Test12= 2.13D-14 1.11D-08 XBig12= 6.87D+01 5.92D+00.
 AX will form     9 AO Fock derivatives at one time.
      9 vectors produced by pass  1 Test12= 2.13D-14 1.11D-08 XBig12= 7.23D+00 1.20D+00.
      9 vectors produced by pass  2 Test12= 2.13D-14 1.11D-08 XBig12= 7.63D-03 3.01D-02.
      9 vectors produced by pass  3 Test12= 2.13D-14 1.11D-08 XBig12= 5.20D-05 2.20D-03.
      9 vectors produced by pass  4 Test12= 2.13D-14 1.11D-08 XBig12= 2.55D-07 1.81D-04.
      8 vectors produced by pass  5 Test12= 2.13D-14 1.11D-08 XBig12= 1.01D-09 7.06D-06.
      5 vectors produced by pass  6 Test12= 2.13D-14 1.11D-08 XBig12= 8.89D-13 2.52D-07.
      2 vectors produced by pass  7 Test12= 2.13D-14 1.11D-08 XBig12= 4.21D-15 1.74D-08.
 InvSVY:  IOpt=1 It=  1 EMax= 1.78D-15
 Solved reduced A of dimension    60 with     9 vectors.
 Isotropic polarizability for W=    0.000000       42.92 Bohr**3.
 End of Minotr F.D. properties file   721 does not exist.
 End of Minotr F.D. properties file   722 does not exist.
 End of Minotr F.D. properties file   788 does not exist.

 **********************************************************************

            Population analysis using the SCF Density.

 **********************************************************************

 Orbital symmetries:
       Occupied  (?A) (?B) (?C) (?C) (?A) (?D) (?D) (?C) (?C) (?A)
                 (?C) (?C)
       Virtual   (?B) (?A) (?C) (?C) (?A) (?C) (?C) (?B) (?D) (?D)
                 (?A) (?C) (?C) (?C) (?C) (?A) (?B) (?C) (?C) (?A)
                 (?D) (?D) (?B) (?A) (?D) (?D) (?A) (?C) (?C) (?C)
                 (?C) (?A) (?B) (?C) (?C) (?D) (?D) (?A) (?C) (?C)
                 (?A) (?A) (?B) (?C) (?C) (?D) (?D) (?B) (?C) (?C)
                 (?A) (?A) (?B) (?C) (?C) (?D) (?D) (?C) (?C) (?A)
                 (?C) (?C) (?D) (?D) (?A) (?B) (?C) (?C) (?D) (?D)
                 (?C) (?C) (?A) (?A) (?A) (?D) (?D) (?B) (?B) (?C)
                 (?C) (?A) (?B) (?D) (?D) (?C) (?C) (?A) (?C) (?C)
                 (?D) (?D) (?B) (?A) (?C) (?C) (?A) (?C) (?C) (?A)
                 (?C) (?C) (?A) (?D) (?D) (?A) (?B) (?C) (?C) (?D)
                 (?D) (?C) (?C) (?A) (?B) (?C) (?C) (?D) (?D) (?A)
                 (?B) (?C) (?C) (?A) (?D) (?D) (?B) (?C) (?C) (?A)
                 (?D) (?D) (?C) (?C) (?A) (?B) (?C) (?C) (?A) (?B)
                 (?D) (?D) (?C) (?C) (?A) (?D) (?D) (?C) (?C) (?B)
                 (?A) (?A) (?C) (?C) (?A) (?A) (A2") (?C) (?C)
                 (?A)
 Unable to determine electronic state:  an orbital has unidentified symmetry.
 Alpha  occ. eigenvalues --   -4.47920  -2.92824  -2.91508  -2.91508  -0.69415
 Alpha  occ. eigenvalues --   -0.68638  -0.68638  -0.68294  -0.68294  -0.39020
 Alpha  occ. eigenvalues --   -0.25723  -0.25723
 Alpha virt. eigenvalues --   -0.09794  -0.02204   0.02070   0.02070   0.02894
 Alpha virt. eigenvalues --    0.04678   0.04678   0.05020   0.08439   0.08439
 Alpha virt. eigenvalues --    0.14867   0.19018   0.19018   0.22996   0.22996
 Alpha virt. eigenvalues --    0.23561   0.28920   0.30371   0.30371   0.34257
 Alpha virt. eigenvalues --    0.37662   0.37662   0.38092   0.39384   0.43474
 Alpha virt. eigenvalues --    0.43474   0.47660   0.49407   0.49407   0.56166
 Alpha virt. eigenvalues --    0.56166   0.65830   0.71596   0.72997   0.72997
 Alpha virt. eigenvalues --    0.76831   0.76831   0.87338   0.91052   0.91052
 Alpha virt. eigenvalues --    1.03880   1.07695   1.08696   1.09326   1.09326
 Alpha virt. eigenvalues --    1.09402   1.09402   1.12496   1.18917   1.18917
 Alpha virt. eigenvalues --    1.24907   1.26788   1.28063   1.31979   1.31979
 Alpha virt. eigenvalues --    1.39296   1.39296   1.45216   1.45216   1.46972
 Alpha virt. eigenvalues --    1.51655   1.51655   1.53393   1.53393   1.56226
 Alpha virt. eigenvalues --    1.57441   1.82322   1.82322   2.00118   2.00118
 Alpha virt. eigenvalues --    2.04322   2.04322   2.16047   2.18927   2.23463
 Alpha virt. eigenvalues --    2.26158   2.26158   2.27147   2.32253   2.46555
 Alpha virt. eigenvalues --    2.46555   2.51991   2.52746   2.57266   2.57266
 Alpha virt. eigenvalues --    2.61892   2.61892   2.69955   2.74035   2.74035
 Alpha virt. eigenvalues --    2.95570   2.95570   3.04834   3.11709   3.15230
 Alpha virt. eigenvalues --    3.15230   3.26069   3.32281   3.32281   3.58599
 Alpha virt. eigenvalues --    5.32947   5.32947   5.54311   5.72147   5.72147
 Alpha virt. eigenvalues --    5.72396   5.75064   5.75823   5.75823   5.79214
 Alpha virt. eigenvalues --    5.79214   5.83884   5.83884   5.86375   5.99568
 Alpha virt. eigenvalues --    5.99798   5.99798   6.00325   6.00325   6.00964
 Alpha virt. eigenvalues --    6.01015   6.15901   6.15901   6.16181   7.54700
 Alpha virt. eigenvalues --    7.54700   7.55136   7.58444   7.58444   7.63800
 Alpha virt. eigenvalues --    7.85747   7.85747   7.90043   7.90043   7.94748
 Alpha virt. eigenvalues --    7.94990   7.99358   7.99358   8.14113   8.16617
 Alpha virt. eigenvalues --    8.18047   8.18047   8.27060   8.27060   8.29788
 Alpha virt. eigenvalues --    8.33520   8.33520   8.37200   8.37200   8.38220
 Alpha virt. eigenvalues --    8.42483   8.58072   8.88107   8.88107   9.02346
 Alpha virt. eigenvalues --   12.46377  38.46394  38.50114  38.50114  77.19557
          Condensed to atoms (all electrons):
               1          2          3          4
     1  In  19.380360   0.382094   0.382094   0.382094
     2  H    0.382094   0.808635  -0.016471  -0.016471
     3  H    0.382094  -0.016471   0.808635  -0.016471
     4  H    0.382094  -0.016471  -0.016471   0.808635
 Mulliken charges:
               1
     1  In   0.473359
     2  H   -0.157786
     3  H   -0.157786
     4  H   -0.157786
 Sum of Mulliken charges =  -0.00000
 Mulliken charges with hydrogens summed into heavy atoms:
               1
     1  In  -0.000000
 APT charges:
               1
     1  In   0.976581
     2  H   -0.325527
     3  H   -0.325527
     4  H   -0.325527
 Sum of APT charges =   0.00000
 APT charges with hydrogens summed into heavy atoms:
               1
     1  In   0.000000
 Electronic spatial extent (au):  <R**2>=             92.6216
 Charge=             -0.0000 electrons
 Dipole moment (field-independent basis, Debye):
    X=              0.0000    Y=              0.0000    Z=             -0.0000  Tot=              0.0000
 Quadrupole moment (field-independent basis, Debye-Ang):
   XX=            -29.3177   YY=            -29.3177   ZZ=            -22.6090
   XY=             -0.0000   XZ=              0.0000   YZ=             -0.0000
 Traceless Quadrupole moment (field-independent basis, Debye-Ang):
   XX=             -2.2362   YY=             -2.2362   ZZ=              4.4725
   XY=             -0.0000   XZ=              0.0000   YZ=             -0.0000
 Octapole moment (field-independent basis, Debye-Ang**2):
  XXX=             -0.0000  YYY=             -2.8931  ZZZ=              0.0000  XYY=              0.0000
  XXY=              2.8931  XXZ=              0.0000  XZZ=             -0.0000  YZZ=              0.0000
  YYZ=             -0.0000  XYZ=             -0.0000
 Hexadecapole moment (field-independent basis, Debye-Ang**3):
 XXXX=            -83.9078 YYYY=            -83.9078 ZZZZ=            -23.9660 XXXY=             -0.0000
 XXXZ=              0.0000 YYYX=             -0.0000 YYYZ=              0.0000 ZZZX=              0.0000
 ZZZY=              0.0000 XXYY=            -27.9693 XXZZ=            -17.5268 YYZZ=            -17.5268
 XXYZ=              0.0000 YYXZ=              0.0000 ZZXY=             -0.0000
 N-N= 1.975278528516D+01 E-N=-4.503708860318D+02  KE= 7.464159708797D+01
 Symmetry A1   KE= 3.241865370780D+01
 Symmetry A2   KE= 8.982811671459D+00
 Symmetry B1   KE= 1.720699289207D+01
 Symmetry B2   KE= 1.603313881664D+01
  Exact polarizability:      48.363       0.000      48.363       0.000       0.000      32.027
 Approx polarizability:      78.588       0.000      78.588      -0.000      -0.000      54.872
  12 Symmetry operations used in ECPInt.
 ECPInt:  NShTT=    1378 NPrTT=    3850 LenC2=    1379 LenP2D=    3667.
 LDataN:  DoStor=T MaxTD1=10 Len=  848
 Calling FoFJK, ICntrl=    100527 FMM=F ISym2X=1 I1Cent= 0 IOpClX= 0 NMat=1 NMatS=1 NMatT=0.
 Defaulting to unpruned grid for atomic number  49.
 Defaulting to unpruned grid for atomic number  49.
 Defaulting to unpruned grid for atomic number  49.
 Defaulting to unpruned grid for atomic number  49.
 Defaulting to unpruned grid for atomic number  49.
 Defaulting to unpruned grid for atomic number  49.
 Defaulting to unpruned grid for atomic number  49.
 Defaulting to unpruned grid for atomic number  49.
 Full mass-weighted force constant matrix:
 Low frequencies ---   -0.0028   -0.0012   -0.0006   35.1259   36.1227   36.1227
 Low frequencies ---  580.0686  580.0688  607.2574
 Diagonal vibrational polarizability:
       14.6227266      14.6229368      11.1261787
 Harmonic frequencies (cm**-1), IR intensities (KM/Mole), Raman scattering
 activities (A**4/AMU), depolarization ratios for plane and unpolarized
 incident light, reduced masses (AMU), force constants (mDyne/A),
 and normal coordinates:
                      1                      2                      3
                     ?A                     ?A                     A2"
 Frequencies --    580.0686               580.0688               607.2574
 Red. masses --      1.0225                 1.0225                 1.0341
 Frc consts  --      0.2027                 0.2027                 0.2247
 IR Inten    --    151.0281               151.0306               152.4609
  Atom  AN      X      Y      Z        X      Y      Z        X      Y      Z
     1  49    -0.01  -0.00   0.00     0.00  -0.01   0.00    -0.00  -0.00  -0.02
     2   1     0.82   0.00  -0.00    -0.00   0.05  -0.00     0.00   0.00   0.58
     3   1     0.24  -0.33  -0.00    -0.33   0.62  -0.00     0.00  -0.00   0.58
     4   1     0.24   0.33  -0.00     0.33   0.62  -0.00     0.00   0.00   0.58
                      4                      5                      6
                     ?B                     ?A                     ?A
 Frequencies --   1746.8715              1751.1966              1751.1967
 Red. masses --      1.0078                 1.0191                 1.0191
 Frc consts  --      1.8120                 1.8414                 1.8414
 IR Inten    --      0.0000               289.8691               289.8707
  Atom  AN      X      Y      Z        X      Y      Z        X      Y      Z
     1  49     0.00  -0.00  -0.00    -0.01  -0.00  -0.00     0.00  -0.01   0.00
     2   1     0.00   0.58   0.00    -0.06   0.00   0.00     0.00   0.81  -0.00
     3   1    -0.50  -0.29   0.00     0.60   0.38   0.00     0.38   0.16  -0.00
     4   1     0.50  -0.29   0.00     0.60  -0.38   0.00    -0.38   0.16  -0.00

 -------------------
 - Thermochemistry -
 -------------------
 Temperature   298.150 Kelvin.  Pressure   1.00000 Atm.
 Atom     1 has atomic number 49 and mass 114.90410
 Atom     2 has atomic number  1 and mass   1.00783
 Atom     3 has atomic number  1 and mass   1.00783
 Atom     4 has atomic number  1 and mass   1.00783
 Molecular mass:   117.92758 amu.
 Principal axes and moments of inertia in atomic units:
                           1         2         3
     Eigenvalues --    16.23523  16.23523  32.47046
           X           -0.00000   1.00000   0.00000
           Y            1.00000   0.00000   0.00000
           Z           -0.00000  -0.00000   1.00000
 This molecule is an oblate symmetric top.
 Rotational symmetry number  6.
 Rotational temperatures (Kelvin)      5.33494     5.33494     2.66747
 Rotational constants (GHZ):         111.16203   111.16203    55.58102
 Zero-point vibrational energy      41968.9 (Joules/Mol)
                                   10.03082 (Kcal/Mol)
 Warning -- explicit consideration of   3 degrees of freedom as
           vibrations may cause significant error
 Vibrational temperatures:    834.59   834.59   873.71  2513.36  2519.58
          (Kelvin)           2519.58
 
 Zero-point correction=                           0.015985 (Hartree/Particle)
 Thermal correction to Energy=                    0.019321
 Thermal correction to Enthalpy=                  0.020266
 Thermal correction to Gibbs Free Energy=        -0.005804
 Sum of electronic and zero-point Energies=           -191.867921
 Sum of electronic and thermal Energies=              -191.864585
 Sum of electronic and thermal Enthalpies=            -191.863640
 Sum of electronic and thermal Free Energies=         -191.889710
 
                     E (Thermal)             CV                S
                      KCal/Mol        Cal/Mol-Kelvin    Cal/Mol-Kelvin
 Total                   12.124              9.218             54.869
 Electronic               0.000              0.000              0.000
 Translational            0.889              2.981             40.210
 Rotational               0.889              2.981             13.239
 Vibrational             10.347              3.257              1.420
 Vibration     1          0.937              1.074              0.485
 Vibration     2          0.937              1.074              0.485
 Vibration     3          0.966              1.016              0.437
                       Q            Log10(Q)             Ln(Q)
 Total Bot       0.467489D+03          2.669771          6.147375
 Total V=0       0.105296D+11         10.022413         23.077458
 Vib (Bot)       0.532105D-07         -7.274003        -16.749010
 Vib (Bot)    1  0.262678D+00         -0.580576         -1.336826
 Vib (Bot)    2  0.262678D+00         -0.580576         -1.336826
 Vib (Bot)    3  0.244054D+00         -0.612513         -1.410364
 Vib (V=0)       0.119850D+01          0.078639          0.181072
 Vib (V=0)    1  0.106480D+01          0.027268          0.062788
 Vib (V=0)    2  0.106480D+01          0.027268          0.062788
 Vib (V=0)    3  0.105638D+01          0.023822          0.054851
 Electronic      0.100000D+01          0.000000          0.000000
 Translational   0.503358D+08          7.701877         17.734227
 Rotational      0.174541D+03          2.241897          5.162159
 ***** Axes restored to original set *****
 -------------------------------------------------------------------
 Center     Atomic                   Forces (Hartrees/Bohr)
 Number     Number              X              Y              Z
 -------------------------------------------------------------------
      1       49          -0.000000000    0.000000000   -0.000000000
      2        1           0.000041896   -0.000072567    0.000000000
      3        1           0.000041896    0.000072567    0.000000000
      4        1          -0.000083793    0.000000000   -0.000000000
 -------------------------------------------------------------------
 Cartesian Forces:  Max     0.000083793 RMS     0.000041896
 FormGI is forming the generalized inverse of G from B-inverse, IUseBI=4.

 GradGradGradGradGradGradGradGradGradGradGradGradGradGradGradGradGradGrad
 Berny optimization.
 Internal  Forces:  Max     0.000083793 RMS     0.000054855
 Search for a local minimum.
 Step number   1 out of a maximum of    2
 All quantities printed in internal units (Hartrees-Bohrs-Radians)
 Second derivative matrix not updated -- analytic derivatives used.
 The second derivative matrix:
                          R1        R2        R3        A1        A2
           R1           0.11555
           R2           0.00042   0.11555
           R3           0.00042   0.00042   0.11555
           A1           0.00464   0.00464  -0.00927   0.03138
           A2           0.00464  -0.00927   0.00464  -0.01569   0.03138
           A3          -0.00927   0.00464   0.00464  -0.01569  -0.01569
           D1           0.00000   0.00000  -0.00000   0.00000  -0.00000
                          A3        D1
           A3           0.03138
           D1          -0.00000   0.03672
 ITU=  0
     Eigenvalues ---    0.03672   0.04433   0.04433   0.11639   0.11786
     Eigenvalues ---    0.11786
 Angle between quadratic step and forces=   0.00 degrees.
 Linear search not attempted -- first point.
 Iteration  1 RMS(Cart)=  0.00047132 RMS(Int)=  0.00000000
 Iteration  2 RMS(Cart)=  0.00000000 RMS(Int)=  0.00000000
 ClnCor:  largest displacement from symmetrization is 4.79D-10 for atom     3.
 Variable       Old X    -DE/DX   Delta X   Delta X   Delta X     New X
                                 (Linear)    (Quad)   (Total)
    R1        3.27711  -0.00008   0.00000  -0.00072  -0.00072   3.27639
    R2        3.27711  -0.00008   0.00000  -0.00072  -0.00072   3.27639
    R3        3.27711  -0.00008   0.00000  -0.00072  -0.00072   3.27639
    A1        2.09440  -0.00000   0.00000   0.00000   0.00000   2.09440
    A2        2.09440  -0.00000   0.00000   0.00000   0.00000   2.09440
    A3        2.09440   0.00000   0.00000  -0.00000  -0.00000   2.09440
    D1        3.14159  -0.00000   0.00000   0.00000   0.00000   3.14159
         Item               Value     Threshold  Converged?
 Maximum Force            0.000084     0.000450     YES
 RMS     Force            0.000055     0.000300     YES
 Maximum Displacement     0.000720     0.001800     YES
 RMS     Displacement     0.000471     0.001200     YES
 Predicted change in Energy=-9.049074D-08
 Optimization completed.
    -- Stationary point found.
                           ----------------------------
                           !   Optimized Parameters   !
                           ! (Angstroms and Degrees)  !
 --------------------------                            --------------------------
 ! Name  Definition              Value          Derivative Info.                !
 --------------------------------------------------------------------------------
 ! R1    R(1,2)                  1.7342         -DE/DX =   -0.0001              !
 ! R2    R(1,3)                  1.7342         -DE/DX =   -0.0001              !
 ! R3    R(1,4)                  1.7342         -DE/DX =   -0.0001              !
 ! A1    A(2,1,3)              120.0            -DE/DX =    0.0                 !
 ! A2    A(2,1,4)              120.0            -DE/DX =    0.0                 !
 ! A3    A(3,1,4)              120.0            -DE/DX =    0.0                 !
 ! D1    D(2,1,4,3)            180.0            -DE/DX =    0.0                 !
 --------------------------------------------------------------------------------
 GradGradGradGradGradGradGradGradGradGradGradGradGradGradGradGradGradGrad

 Dipole is zero, so no output in dipole orientation.

 ----------------------------------------------------------------------

 Electric dipole moment (input orientation):
 (Debye = 10**-18 statcoulomb cm , SI units = C m)
                  (au)            (Debye)         (10**-30 SI)
   Tot        0.000000D+00      0.000000D+00      0.000000D+00
   x          0.000000D+00      0.000000D+00      0.000000D+00
   y          0.000000D+00      0.000000D+00      0.000000D+00
   z          0.000000D+00      0.000000D+00      0.000000D+00

 Dipole polarizability, Alpha (input orientation).
 (esu units = cm**3 , SI units = C**2 m**2 J**-1)
 Alpha(0;0):
               (au)            (10**-24 esu)      (10**-40 SI)
   iso        0.429180D+02      0.635979D+01      0.707622D+01
   aniso      0.163361D+02      0.242076D+01      0.269346D+01
   xx         0.483633D+02      0.716670D+01      0.797403D+01
   yx        -0.470474D-04     -0.697170D-05     -0.775706D-05
   yy         0.483634D+02      0.716671D+01      0.797404D+01
   zx         0.000000D+00      0.000000D+00      0.000000D+00
   zy         0.000000D+00      0.000000D+00      0.000000D+00
   zz         0.320273D+02      0.474595D+01      0.528058D+01

 ----------------------------------------------------------------------
 Unable to Open any file for archive entry.
 1\1\GINC-TCOPT10\Freq\RPBEPBE\def2QZVPP\H3In1\HUTTER\30-Jul-2021\0\\#N
  Geom=AllCheck Guess=TCheck SCRF=Check GenChk RPBEPBE/def2QZVPP Freq\\
 Mol job 1\\0,1\In,7.5615244702,8.,8.\H,6.694438497,9.5018369601,8.\H,6
 .694438497,6.4981630399,8.\H,9.2956964165,8.,8.\\Version=ES64L-G16RevC
 .01\HF=-191.883906\RMSD=9.172e-11\RMSF=4.190e-05\ZeroPoint=0.0159851\T
 hermal=0.0193214\ETot=-191.8645847\HTot=-191.8636405\GTot=-191.8897103
 \Dipole=0.,0.,0.\DipoleDeriv=1.1254883,-0.000005,0.,-0.000005,1.125494
 1,0.,0.,0.,0.6787612,-0.3319146,0.0749091,0.,0.0749091,-0.4184122,0.,0
 .,0.,-0.2262536,-0.3319141,-0.0749075,0.,-0.0749083,-0.4184132,0.,0.,0
 .,-0.2262537,-0.4616606,0.0000009,0.,0.0000017,-0.2886667,0.,0.,0.,-0.
 2262537\Polar=48.3633125,-0.000047,48.3633668,0.,0.,32.0272594\Quadrup
 ole=-1.6625915,-1.6625915,3.3251829,0.,0.,0.\PG=D03H [O(In1),3C2(H1)]\
 NImag=0\\0.17039675,-0.00000062,0.17039746,0.,0.,0.04111144,-0.0313100
 9,0.04414812,0.,0.03548501,0.04414812,-0.08228795,0.,-0.04622399,0.088
 85988,0.,0.,-0.01370384,0.,0.,0.00460113,-0.03131011,-0.04414794,0.,-0
 .00028956,0.00383530,0.,0.03548501,-0.04414789,-0.08228795,0.,-0.00383
 530,-0.00508387,0.,0.04622399,0.08885988,0.,0.,-0.01370382,0.,0.,0.004
 55136,0.,0.,0.00460113,-0.10777671,0.00000013,0.,-0.00388529,-0.001759
 30,0.,-0.00388529,0.00175930,0.,0.11554731,0.00000007,-0.00582135,0.,0
 .00591129,-0.00148814,0.,-0.00591129,-0.00148814,0.,0.,0.00879758,0.,0
 .,-0.01370382,0.,0.,0.00455136,0.,0.,0.00455136,0.,0.,0.00460113\\0.,0
 .,0.,-0.00004190,0.00007257,0.,-0.00004190,-0.00007257,0.,0.00008379,0
 .,0.\\\@
 The archive entry for this job was punched.


 JUST WHEN YOU THINK YOU'VE GOT THE WORLD ON A STRING,
 YOU FIND OUT IT'S YOUR LEASH.
 Job cpu time:       0 days  0 hours  7 minutes 32.5 seconds.
 Elapsed time:       0 days  0 hours  0 minutes 57.0 seconds.
 File lengths (MBytes):  RWF=     20 Int=      0 D2E=      0 Chk=      3 Scr=      1
 Normal termination of Gaussian 16 at Fri Jul 30 15:42:29 2021.
