 Entering Gaussian System, Link 0=g16
 Initial command:
 /sw-ng/spack/opt/spack/linux-opensuse_leap15-sandybridge/pgi-18.10/gaussian-src-16-C.01-zldqaomctopxhethwccpmxmwefdscg3m/g16/l1.exe "/data/hutter/SMG16/PBE/Gau-18948.inp" -scrdir="/data/hutter/SMG16/PBE/"
 Entering Link 1 = /sw-ng/spack/opt/spack/linux-opensuse_leap15-sandybridge/pgi-18.10/gaussian-src-16-C.01-zldqaomctopxhethwccpmxmwefdscg3m/g16/l1.exe PID=     18957.
  
 Copyright (c) 1988-2019, Gaussian, Inc.  All Rights Reserved.
  
 This is part of the Gaussian(R) 16 program.  It is based on
 the Gaussian(R) 09 system (copyright 2009, Gaussian, Inc.),
 the Gaussian(R) 03 system (copyright 2003, Gaussian, Inc.),
 the Gaussian(R) 98 system (copyright 1998, Gaussian, Inc.),
 the Gaussian(R) 94 system (copyright 1995, Gaussian, Inc.),
 the Gaussian 92(TM) system (copyright 1992, Gaussian, Inc.),
 the Gaussian 90(TM) system (copyright 1990, Gaussian, Inc.),
 the Gaussian 88(TM) system (copyright 1988, Gaussian, Inc.),
 the Gaussian 86(TM) system (copyright 1986, Carnegie Mellon
 University), and the Gaussian 82(TM) system (copyright 1983,
 Carnegie Mellon University). Gaussian is a federally registered
 trademark of Gaussian, Inc.
  
 This software contains proprietary and confidential information,
 including trade secrets, belonging to Gaussian, Inc.
  
 This software is provided under written license and may be
 used, copied, transmitted, or stored only in accord with that
 written license.
  
 The following legend is applicable only to US Government
 contracts under FAR:
  
                    RESTRICTED RIGHTS LEGEND
  
 Use, reproduction and disclosure by the US Government is
 subject to restrictions as set forth in subparagraphs (a)
 and (c) of the Commercial Computer Software - Restricted
 Rights clause in FAR 52.227-19.
  
 Gaussian, Inc.
 340 Quinnipiac St., Bldg. 40, Wallingford CT 06492
  
  
 ---------------------------------------------------------------
 Warning -- This program may not be used in any manner that
 competes with the business of Gaussian, Inc. or will provide
 assistance to any competitor of Gaussian, Inc.  The licensee
 of this program is prohibited from giving any competitor of
 Gaussian, Inc. access to this program.  By using this program,
 the user acknowledges that Gaussian, Inc. is engaged in the
 business of creating and licensing software in the field of
 computational chemistry and represents and warrants to the
 licensee that it is not a competitor of Gaussian, Inc. and that
 it will not use this program in any manner prohibited above.
 ---------------------------------------------------------------
  

 Cite this work as:
 Gaussian 16, Revision C.01,
 M. J. Frisch, G. W. Trucks, H. B. Schlegel, G. E. Scuseria, 
 M. A. Robb, J. R. Cheeseman, G. Scalmani, V. Barone, 
 G. A. Petersson, H. Nakatsuji, X. Li, M. Caricato, A. V. Marenich, 
 J. Bloino, B. G. Janesko, R. Gomperts, B. Mennucci, H. P. Hratchian, 
 J. V. Ortiz, A. F. Izmaylov, J. L. Sonnenberg, D. Williams-Young, 
 F. Ding, F. Lipparini, F. Egidi, J. Goings, B. Peng, A. Petrone, 
 T. Henderson, D. Ranasinghe, V. G. Zakrzewski, J. Gao, N. Rega, 
 G. Zheng, W. Liang, M. Hada, M. Ehara, K. Toyota, R. Fukuda, 
 J. Hasegawa, M. Ishida, T. Nakajima, Y. Honda, O. Kitao, H. Nakai, 
 T. Vreven, K. Throssell, J. A. Montgomery, Jr., J. E. Peralta, 
 F. Ogliaro, M. J. Bearpark, J. J. Heyd, E. N. Brothers, K. N. Kudin, 
 V. N. Staroverov, T. A. Keith, R. Kobayashi, J. Normand, 
 K. Raghavachari, A. P. Rendell, J. C. Burant, S. S. Iyengar, 
 J. Tomasi, M. Cossi, J. M. Millam, M. Klene, C. Adamo, R. Cammi, 
 J. W. Ochterski, R. L. Martin, K. Morokuma, O. Farkas, 
 J. B. Foresman, and D. J. Fox, Gaussian, Inc., Wallingford CT, 2019.
 
 ******************************************
 Gaussian 16:  ES64L-G16RevC.01  3-Jul-2019
                30-Jul-2021 
 ******************************************
 %mem=8GB
 %NProcShare=8
 Will use up to    8 processors via shared memory.
 -----------------------------------------------------------
 #N RPBEPBE/Def2QZVPP scf=tight Int(Grid=ultrafine) OPT FREQ
 -----------------------------------------------------------
 1/18=20,19=15,26=4,38=1/1,3;
 2/9=110,12=2,17=6,18=5,40=1/2;
 3/5=45,7=202,11=2,25=1,30=1,71=1,74=1009,75=-5,116=1/1,2,3;
 4//1;
 5/5=2,32=2,38=5/2;
 6/7=2,8=2,9=2,10=2,28=1/1;
 7//1,2,3,16;
 1/18=20,19=15,26=4/3(2);
 2/9=110/2;
 99//99;
 2/9=110/2;
 3/5=45,7=202,11=2,25=1,30=1,71=1,74=1009,75=-5,116=1/1,2,3;
 4/5=5,16=3,69=1/1;
 5/5=2,32=2,38=5/2;
 7//1,2,3,16;
 1/18=20,19=15,26=4/3(-5);
 2/9=110/2;
 6/7=2,8=2,9=2,10=2,19=2,28=1/1;
 99/9=1/99;
 ---------
 Mol job 1
 ---------
 Symbolic Z-matrix:
 Charge =  0 Multiplicity = 1
 Sn                    8.        8.        7.06484 
 O                     8.        8.        8.93516 
 

 GradGradGradGradGradGradGradGradGradGradGradGradGradGradGradGradGradGrad
 Berny optimization.
 Initialization pass.
                           ----------------------------
                           !    Initial Parameters    !
                           ! (Angstroms and Degrees)  !
 --------------------------                            --------------------------
 ! Name  Definition              Value          Derivative Info.                !
 --------------------------------------------------------------------------------
 ! R1    R(1,2)                  1.8703         estimate D2E/DX2                !
 --------------------------------------------------------------------------------
 Trust Radius=3.00D-01 FncErr=1.00D-07 GrdErr=1.00D-06 EigMax=2.50D+02 EigMin=1.00D-04
 Number of steps in this run=     20 maximum allowed number of steps=    100.
 GradGradGradGradGradGradGradGradGradGradGradGradGradGradGradGradGradGrad

                          Input orientation:                          
 ---------------------------------------------------------------------
 Center     Atomic      Atomic             Coordinates (Angstroms)
 Number     Number       Type             X           Y           Z
 ---------------------------------------------------------------------
      1         50           0        8.000000    8.000000    7.064841
      2          8           0        8.000000    8.000000    8.935159
 ---------------------------------------------------------------------
 Stoichiometry    OSn
 Framework group  C*V[C*(OSn)]
 Deg. of freedom     1
 Full point group                 C*V     NOp   4
 Largest Abelian subgroup         C2V     NOp   4
 Largest concise Abelian subgroup C1      NOp   1
                         Standard orientation:                         
 ---------------------------------------------------------------------
 Center     Atomic      Atomic             Coordinates (Angstroms)
 Number     Number       Type             X           Y           Z
 ---------------------------------------------------------------------
      1         50           0        0.000000    0.000000    0.257975
      2          8           0        0.000000    0.000000   -1.612342
 ---------------------------------------------------------------------
 Rotational constants (GHZ):           0.0000000          10.2577999          10.2577999
 Standard basis: def2QZVPP (5D, 7F)
 There are    75 symmetry adapted cartesian basis functions of A1  symmetry.
 There are    19 symmetry adapted cartesian basis functions of A2  symmetry.
 There are    41 symmetry adapted cartesian basis functions of B1  symmetry.
 There are    41 symmetry adapted cartesian basis functions of B2  symmetry.
 There are    56 symmetry adapted basis functions of A1  symmetry.
 There are    17 symmetry adapted basis functions of A2  symmetry.
 There are    33 symmetry adapted basis functions of B1  symmetry.
 There are    33 symmetry adapted basis functions of B2  symmetry.
   139 basis functions,   272 primitive gaussians,   176 cartesian basis functions
    15 alpha electrons       15 beta electrons
       nuclear repulsion energy        49.7964672099 Hartrees.
 NAtoms=    2 NActive=    2 NUniq=    2 SFac= 1.00D+00 NAtFMM=   60 NAOKFM=F Big=F
 Integral buffers will be    131072 words long.
 Raffenetti 2 integral format.
 Two-electron integral symmetry is turned on.
 One-electron integrals computed using PRISM.
   4 Symmetry operations used in ECPInt.
 ECPInt:  NShTT=     780 NPrTT=    3056 LenC2=     781 LenP2D=    2798.
 LDataN:  DoStor=T MaxTD1= 8 Len=  415
 NBasis=   139 RedAO= T EigKep=  5.18D-04  NBF=    56    17    33    33
 NBsUse=   139 1.00D-06 EigRej= -1.00D+00 NBFU=    56    17    33    33
 Defaulting to unpruned grid for atomic number  50.
 ExpMin= 3.74D-02 ExpMax= 1.17D+05 ExpMxC= 1.13D+03 IAcc=3 IRadAn=         5 AccDes= 0.00D+00
 Harris functional with IExCor= 1009 and IRadAn=       5 diagonalized for initial guess.
 HarFok:  IExCor= 1009 AccDes= 0.00D+00 IRadAn=         5 IDoV= 1 UseB2=F ITyADJ=14
 ICtDFT=  3500011 ScaDFX=  1.000000  1.000000  1.000000  1.000000
 Defaulting to unpruned grid for atomic number  50.
 FoFCou: FMM=F IPFlag=           0 FMFlag=      100000 FMFlg1=           0
         NFxFlg=           0 DoJE=T BraDBF=F KetDBF=T FulRan=T
         wScrn=  0.000000 ICntrl=       500 IOpCl=  0 I1Cent=   200000004 NGrid=           0
         NMat0=    1 NMatS0=      1 NMatT0=    0 NMatD0=    1 NMtDS0=    0 NMtDT0=    0
 Petite list used in FoFCou.
 Initial guess orbital symmetries:
       Occupied  (SG) (SG) (SG) (PI) (PI) (SG) (PI) (PI) (DLTA)
                 (DLTA) (SG) (SG) (PI) (PI) (SG)
       Virtual   (PI) (PI) (SG) (SG) (PI) (PI) (SG) (DLTA) (DLTA)
                 (PI) (PI) (SG) (SG) (PI) (PI) (PI) (PI) (SG) (DLTA)
                 (DLTA) (PHI) (PHI) (PI) (PI) (SG) (DLTA) (DLTA)
                 (PI) (PI) (SG) (SG) (SG) (DLTA) (DLTA) (SG) (PI)
                 (PI) (DLTA) (DLTA) (PHI) (PHI) (PI) (PI) (SG)
                 (PI) (PI) (PI) (PI) (PHI) (PHI) (SG) (?A) (?A)
                 (DLTA) (DLTA) (PI) (PI) (SG) (DLTA) (DLTA) (SG)
                 (PI) (PI) (SG) (SG) (DLTA) (DLTA) (PI) (PI) (PHI)
                 (PHI) (SG) (PHI) (PHI) (DLTA) (DLTA) (SG) (PI)
                 (PI) (DLTA) (DLTA) (SG) (PI) (PI) (SG) (PI) (PI)
                 (SG) (DLTA) (DLTA) (PHI) (PHI) (?A) (?A) (PI)
                 (PI) (SG) (PHI) (PHI) (DLTA) (DLTA) (PI) (PI)
                 (SG) (PHI) (PHI) (DLTA) (DLTA) (PI) (PI) (SG)
                 (DLTA) (DLTA) (SG) (PI) (PI) (SG) (SG) (PI) (PI)
                 (SG) (SG) (SG) (SG)
 The electronic state of the initial guess is 1-SG.
 Keep J ints in memory in symmetry-blocked form, NReq=59379869.
 Requested convergence on RMS density matrix=1.00D-08 within 128 cycles.
 Requested convergence on MAX density matrix=1.00D-06.
 Requested convergence on             energy=1.00D-06.
 No special actions if energy rises.
 Defaulting to unpruned grid for atomic number  50.
 Defaulting to unpruned grid for atomic number  50.
 Defaulting to unpruned grid for atomic number  50.
 Defaulting to unpruned grid for atomic number  50.
 Defaulting to unpruned grid for atomic number  50.
 Defaulting to unpruned grid for atomic number  50.
 Defaulting to unpruned grid for atomic number  50.
 Defaulting to unpruned grid for atomic number  50.
 SCF Done:  E(RPBE-PBE) =  -289.492695236     A.U. after   14 cycles
            NFock= 14  Conv=0.12D-08     -V/T= 2.8428

 **********************************************************************

            Population analysis using the SCF Density.

 **********************************************************************

 Orbital symmetries:
       Occupied  (SG) (SG) (PI) (PI) (SG) (SG) (DLTA) (DLTA) (PI)
                 (PI) (SG) (SG) (PI) (PI) (SG)
       Virtual   (PI) (PI) (SG) (SG) (PI) (PI) (DLTA) (DLTA) (SG)
                 (PI) (PI) (SG) (SG) (PI) (PI) (PI) (PI) (SG) (DLTA)
                 (DLTA) (PHI) (PHI) (DLTA) (DLTA) (SG) (PI) (PI)
                 (SG) (PI) (PI) (SG) (SG) (DLTA) (DLTA) (PHI) (PHI)
                 (PI) (PI) (SG) (DLTA) (DLTA) (SG) (PI) (PI) (PI)
                 (PI) (?A) (?A) (PHI) (PHI) (PI) (PI) (SG) (DLTA)
                 (DLTA) (DLTA) (DLTA) (PI) (PI) (SG) (SG) (PI)
                 (PI) (SG) (SG) (DLTA) (DLTA) (PHI) (PHI) (PI)
                 (PI) (SG) (PHI) (PHI) (DLTA) (DLTA) (SG) (PI)
                 (PI) (DLTA) (DLTA) (SG) (PI) (PI) (SG) (PI) (PI)
                 (SG) (DLTA) (DLTA) (PHI) (PHI) (PI) (PI) (?A)
                 (?A) (SG) (PHI) (PHI) (DLTA) (DLTA) (PI) (PI)
                 (SG) (PHI) (PHI) (DLTA) (DLTA) (PI) (PI) (SG)
                 (SG) (DLTA) (DLTA) (PI) (PI) (SG) (SG) (PI) (PI)
                 (SG) (SG) (SG) (SG)
 The electronic state is 1-SG.
 Alpha  occ. eigenvalues --  -18.72225  -4.90660  -3.29089  -3.29089  -3.27878
 Alpha  occ. eigenvalues --   -0.96147  -0.95544  -0.95543  -0.94551  -0.94551
 Alpha  occ. eigenvalues --   -0.77187  -0.39323  -0.24076  -0.24076  -0.23833
 Alpha virt. eigenvalues --   -0.11424  -0.11424  -0.02372   0.03424   0.05671
 Alpha virt. eigenvalues --    0.05671   0.09753   0.09753   0.10461   0.13422
 Alpha virt. eigenvalues --    0.13422   0.16665   0.31135   0.35781   0.35781
 Alpha virt. eigenvalues --    0.37495   0.37495   0.39304   0.42938   0.42938
 Alpha virt. eigenvalues --    0.43399   0.43399   0.50528   0.50528   0.50998
 Alpha virt. eigenvalues --    0.52659   0.52659   0.54987   0.55188   0.55188
 Alpha virt. eigenvalues --    0.75612   0.92262   1.07209   1.07209   1.11609
 Alpha virt. eigenvalues --    1.11609   1.12328   1.12328   1.12432   1.12675
 Alpha virt. eigenvalues --    1.12675   1.33750   1.34384   1.34384   1.39671
 Alpha virt. eigenvalues --    1.39671   1.44581   1.44581   1.44863   1.44863
 Alpha virt. eigenvalues --    1.45395   1.45395   1.48810   1.59482   1.59482
 Alpha virt. eigenvalues --    1.64408   1.64408   1.65318   1.65318   1.68320
 Alpha virt. eigenvalues --    1.91743   2.00699   2.00699   2.15499   2.46168
 Alpha virt. eigenvalues --    2.73502   2.73502   2.75441   2.75441   2.78207
 Alpha virt. eigenvalues --    2.78207   2.96757   3.09104   3.09104   3.28174
 Alpha virt. eigenvalues --    3.28174   3.38686   3.60945   3.60945   3.80281
 Alpha virt. eigenvalues --    3.80281   4.04322   4.25054   4.25054   4.49803
 Alpha virt. eigenvalues --    5.01057   5.01057   5.60235   8.73871   8.73872
 Alpha virt. eigenvalues --    8.76972   8.76972   8.77317   8.77317   8.77925
 Alpha virt. eigenvalues --    8.77925   8.85321   8.86219   8.86219   8.92601
 Alpha virt. eigenvalues --    8.92602   9.05023   9.05023   9.14779  10.81643
 Alpha virt. eigenvalues --   10.81643  10.90987  10.90987  11.13356  11.13356
 Alpha virt. eigenvalues --   11.17143  11.79217  11.85486  11.85486  12.11715
 Alpha virt. eigenvalues --   12.11715  12.33033  12.91883  34.39186  34.39186
 Alpha virt. eigenvalues --   34.55996  47.03523  71.98453 251.50919
          Condensed to atoms (all electrons):
               1          2
     1  Sn  20.889195   0.496040
     2  O    0.496040   8.118725
 Mulliken charges:
               1
     1  Sn   0.614765
     2  O   -0.614765
 Sum of Mulliken charges =  -0.00000
 Mulliken charges with hydrogens summed into heavy atoms:
               1
     1  Sn   0.614765
     2  O   -0.614765
 Electronic spatial extent (au):  <R**2>=            147.3743
 Charge=             -0.0000 electrons
 Dipole moment (field-independent basis, Debye):
    X=              0.0000    Y=              0.0000    Z=              4.1036  Tot=              4.1036
 Quadrupole moment (field-independent basis, Debye-Ang):
   XX=            -27.3306   YY=            -27.3306   ZZ=            -36.6366
   XY=              0.0000   XZ=              0.0000   YZ=              0.0000
 Traceless Quadrupole moment (field-independent basis, Debye-Ang):
   XX=              3.1020   YY=              3.1020   ZZ=             -6.2040
   XY=              0.0000   XZ=              0.0000   YZ=              0.0000
 Octapole moment (field-independent basis, Debye-Ang**2):
  XXX=              0.0000  YYY=              0.0000  ZZZ=             21.3968  XYY=              0.0000
  XXY=              0.0000  XXZ=              4.6289  XZZ=              0.0000  YZZ=              0.0000
  YYZ=              4.6289  XYZ=              0.0000
 Hexadecapole moment (field-independent basis, Debye-Ang**3):
 XXXX=            -34.8450 YYYY=            -34.8450 ZZZZ=           -166.4492 XXXY=              0.0000
 XXXZ=              0.0000 YYYX=              0.0000 YYYZ=              0.0000 ZZZX=              0.0000
 ZZZY=              0.0000 XXYY=            -11.6150 XXZZ=            -31.2217 YYZZ=            -31.2217
 XXYZ=              0.0000 YYXZ=              0.0000 ZZXY=              0.0000
 N-N= 4.979646720990D+01 E-N=-7.367739559302D+02  KE= 1.570896707533D+02
 Symmetry A1   KE= 1.035250358074D+02
 Symmetry A2   KE= 1.029351153603D+01
 Symmetry B1   KE= 2.163556170495D+01
 Symmetry B2   KE= 2.163556170495D+01
   4 Symmetry operations used in ECPInt.
 ECPInt:  NShTT=     780 NPrTT=    3056 LenC2=     781 LenP2D=    2798.
 LDataN:  DoStor=T MaxTD1= 9 Len=  602
 Calling FoFJK, ICntrl=      2527 FMM=F ISym2X=1 I1Cent= 0 IOpClX= 0 NMat=1 NMatS=1 NMatT=0.
 Defaulting to unpruned grid for atomic number  50.
 Defaulting to unpruned grid for atomic number  50.
 Defaulting to unpruned grid for atomic number  50.
 Defaulting to unpruned grid for atomic number  50.
 Defaulting to unpruned grid for atomic number  50.
 Defaulting to unpruned grid for atomic number  50.
 Defaulting to unpruned grid for atomic number  50.
 Defaulting to unpruned grid for atomic number  50.
 ***** Axes restored to original set *****
 -------------------------------------------------------------------
 Center     Atomic                   Forces (Hartrees/Bohr)
 Number     Number              X              Y              Z
 -------------------------------------------------------------------
      1       50          -0.000000000   -0.000000000    0.015485844
      2        8          -0.000000000   -0.000000000   -0.015485844
 -------------------------------------------------------------------
 Cartesian Forces:  Max     0.015485844 RMS     0.008940756

 GradGradGradGradGradGradGradGradGradGradGradGradGradGradGradGradGradGrad
 Berny optimization.
 FormGI is forming the generalized inverse of G from B-inverse, IUseBI=4.
 Internal  Forces:  Max     0.015485844 RMS     0.015485844
 Search for a local minimum.
 Step number   1 out of a maximum of   20
 All quantities printed in internal units (Hartrees-Bohrs-Radians)
 Mixed Optimization -- RFO/linear search
 Second derivative matrix not updated -- first step.
 The second derivative matrix:
                          R1
           R1           0.26117
 ITU=  0
     Eigenvalues ---    0.26117
 RFO step:  Lambda=-9.14997719D-04 EMin= 2.61174592D-01
 Linear search not attempted -- first point.
 Iteration  1 RMS(Cart)=  0.04178016 RMS(Int)=  0.00000000
 Iteration  2 RMS(Cart)=  0.00000000 RMS(Int)=  0.00000000
 ClnCor:  largest displacement from symmetrization is 0.00D+00 for atom     0.
 Variable       Old X    -DE/DX   Delta X   Delta X   Delta X     New X
                                 (Linear)    (Quad)   (Total)
    R1        3.53439  -0.01549   0.00000  -0.05909  -0.05909   3.47530
         Item               Value     Threshold  Converged?
 Maximum Force            0.015486     0.000450     NO 
 RMS     Force            0.015486     0.000300     NO 
 Maximum Displacement     0.029543     0.001800     NO 
 RMS     Displacement     0.041780     0.001200     NO 
 Predicted change in Energy=-4.590961D-04
 GradGradGradGradGradGradGradGradGradGradGradGradGradGradGradGradGradGrad

                          Input orientation:                          
 ---------------------------------------------------------------------
 Center     Atomic      Atomic             Coordinates (Angstroms)
 Number     Number       Type             X           Y           Z
 ---------------------------------------------------------------------
      1         50           0        8.000000    8.000000    7.080475
      2          8           0        8.000000    8.000000    8.919525
 ---------------------------------------------------------------------
 Stoichiometry    OSn
 Framework group  C*V[C*(OSn)]
 Deg. of freedom     1
 Full point group                 C*V     NOp   4
 Largest Abelian subgroup         C2V     NOp   4
 Largest concise Abelian subgroup C1      NOp   1
                         Standard orientation:                         
 ---------------------------------------------------------------------
 Center     Atomic      Atomic             Coordinates (Angstroms)
 Number     Number       Type             X           Y           Z
 ---------------------------------------------------------------------
      1         50           0        0.000000    0.000000    0.253662
      2          8           0        0.000000    0.000000   -1.585388
 ---------------------------------------------------------------------
 Rotational constants (GHZ):           0.0000000          10.6095653          10.6095653
 Standard basis: def2QZVPP (5D, 7F)
 There are    75 symmetry adapted cartesian basis functions of A1  symmetry.
 There are    19 symmetry adapted cartesian basis functions of A2  symmetry.
 There are    41 symmetry adapted cartesian basis functions of B1  symmetry.
 There are    41 symmetry adapted cartesian basis functions of B2  symmetry.
 There are    56 symmetry adapted basis functions of A1  symmetry.
 There are    17 symmetry adapted basis functions of A2  symmetry.
 There are    33 symmetry adapted basis functions of B1  symmetry.
 There are    33 symmetry adapted basis functions of B2  symmetry.
   139 basis functions,   272 primitive gaussians,   176 cartesian basis functions
    15 alpha electrons       15 beta electrons
       nuclear repulsion energy        50.6430924324 Hartrees.
 NAtoms=    2 NActive=    2 NUniq=    2 SFac= 1.00D+00 NAtFMM=   60 NAOKFM=F Big=F
 Integral buffers will be    131072 words long.
 Raffenetti 2 integral format.
 Two-electron integral symmetry is turned on.
 One-electron integrals computed using PRISM.
   4 Symmetry operations used in ECPInt.
 ECPInt:  NShTT=     780 NPrTT=    3056 LenC2=     781 LenP2D=    2802.
 LDataN:  DoStor=T MaxTD1= 8 Len=  415
 NBasis=   139 RedAO= T EigKep=  4.62D-04  NBF=    56    17    33    33
 NBsUse=   139 1.00D-06 EigRej= -1.00D+00 NBFU=    56    17    33    33
 Defaulting to unpruned grid for atomic number  50.
 Initial guess from the checkpoint file:  "/data/hutter/SMG16/PBE/Gau-18957.chk"
 B after Tr=     0.000000    0.000000    0.000000
         Rot=    1.000000    0.000000    0.000000    0.000000 Ang=   0.00 deg.
 Initial guess orbital symmetries:
       Occupied  (SG) (SG) (PI) (PI) (SG) (SG) (DLTA) (DLTA) (PI)
                 (PI) (SG) (SG) (PI) (PI) (SG)
       Virtual   (PI) (PI) (SG) (SG) (PI) (PI) (DLTA) (DLTA) (SG)
                 (PI) (PI) (SG) (SG) (PI) (PI) (PI) (PI) (SG) (DLTA)
                 (DLTA) (PHI) (PHI) (DLTA) (DLTA) (SG) (PI) (PI)
                 (SG) (PI) (PI) (SG) (SG) (DLTA) (DLTA) (PHI) (PHI)
                 (PI) (PI) (SG) (DLTA) (DLTA) (SG) (PI) (PI) (PI)
                 (PI) (?A) (?A) (PHI) (PHI) (PI) (PI) (SG) (DLTA)
                 (DLTA) (DLTA) (DLTA) (PI) (PI) (SG) (SG) (PI)
                 (PI) (SG) (SG) (DLTA) (DLTA) (PHI) (PHI) (PI)
                 (PI) (SG) (PHI) (PHI) (DLTA) (DLTA) (SG) (PI)
                 (PI) (DLTA) (DLTA) (SG) (PI) (PI) (SG) (PI) (PI)
                 (SG) (DLTA) (DLTA) (PHI) (PHI) (PI) (PI) (?A)
                 (?A) (SG) (PHI) (PHI) (DLTA) (DLTA) (PI) (PI)
                 (SG) (PHI) (PHI) (DLTA) (DLTA) (PI) (PI) (SG)
                 (SG) (DLTA) (DLTA) (PI) (PI) (SG) (SG) (PI) (PI)
                 (SG) (SG) (SG) (SG)
 ExpMin= 3.74D-02 ExpMax= 1.17D+05 ExpMxC= 1.13D+03 IAcc=3 IRadAn=         5 AccDes= 0.00D+00
 Harris functional with IExCor= 1009 and IRadAn=       5 diagonalized for initial guess.
 HarFok:  IExCor= 1009 AccDes= 0.00D+00 IRadAn=         5 IDoV= 1 UseB2=F ITyADJ=14
 ICtDFT=  3500011 ScaDFX=  1.000000  1.000000  1.000000  1.000000
 Defaulting to unpruned grid for atomic number  50.
 FoFCou: FMM=F IPFlag=           0 FMFlag=      100000 FMFlg1=           0
         NFxFlg=           0 DoJE=T BraDBF=F KetDBF=T FulRan=T
         wScrn=  0.000000 ICntrl=       500 IOpCl=  0 I1Cent=   200000004 NGrid=           0
         NMat0=    1 NMatS0=      1 NMatT0=    0 NMatD0=    1 NMtDS0=    0 NMtDT0=    0
 Petite list used in FoFCou.
 Keep J ints in memory in symmetry-blocked form, NReq=59379869.
 Requested convergence on RMS density matrix=1.00D-08 within 128 cycles.
 Requested convergence on MAX density matrix=1.00D-06.
 Requested convergence on             energy=1.00D-06.
 No special actions if energy rises.
 Defaulting to unpruned grid for atomic number  50.
 Defaulting to unpruned grid for atomic number  50.
 Defaulting to unpruned grid for atomic number  50.
 Defaulting to unpruned grid for atomic number  50.
 Defaulting to unpruned grid for atomic number  50.
 Defaulting to unpruned grid for atomic number  50.
 Defaulting to unpruned grid for atomic number  50.
 Defaulting to unpruned grid for atomic number  50.
 SCF Done:  E(RPBE-PBE) =  -289.493048915     A.U. after    9 cycles
            NFock=  9  Conv=0.15D-08     -V/T= 2.8423
   4 Symmetry operations used in ECPInt.
 ECPInt:  NShTT=     780 NPrTT=    3056 LenC2=     781 LenP2D=    2802.
 LDataN:  DoStor=T MaxTD1= 9 Len=  602
 Calling FoFJK, ICntrl=      2527 FMM=F ISym2X=1 I1Cent= 0 IOpClX= 0 NMat=1 NMatS=1 NMatT=0.
 Defaulting to unpruned grid for atomic number  50.
 Defaulting to unpruned grid for atomic number  50.
 Defaulting to unpruned grid for atomic number  50.
 Defaulting to unpruned grid for atomic number  50.
 Defaulting to unpruned grid for atomic number  50.
 Defaulting to unpruned grid for atomic number  50.
 Defaulting to unpruned grid for atomic number  50.
 Defaulting to unpruned grid for atomic number  50.
 ***** Axes restored to original set *****
 -------------------------------------------------------------------
 Center     Atomic                   Forces (Hartrees/Bohr)
 Number     Number              X              Y              Z
 -------------------------------------------------------------------
      1       50          -0.000000000   -0.000000000   -0.004037433
      2        8          -0.000000000   -0.000000000    0.004037433
 -------------------------------------------------------------------
 Cartesian Forces:  Max     0.004037433 RMS     0.002331013

 GradGradGradGradGradGradGradGradGradGradGradGradGradGradGradGradGradGrad
 Berny optimization.
 Using GEDIIS/GDIIS optimizer.
 Internal  Forces:  Max     0.004037433 RMS     0.004037433
 Search for a local minimum.
 Step number   2 out of a maximum of   20
 All quantities printed in internal units (Hartrees-Bohrs-Radians)
 Mixed Optimization -- RFO/linear search
 Update second derivatives using D2CorX and points    1    2
 DE= -3.54D-04 DEPred=-4.59D-04 R= 7.70D-01
 TightC=F SS=  1.41D+00  RLast= 5.91D-02 DXNew= 5.0454D-01 1.7726D-01
 Trust test= 7.70D-01 RLast= 5.91D-02 DXMaxT set to 3.00D-01
 The second derivative matrix:
                          R1
           R1           0.33042
 ITU=  1  0
 Use linear search instead of GDIIS.
     Eigenvalues ---    0.33042
 RFO step:  Lambda= 0.00000000D+00 EMin= 3.30420974D-01
 Quartic linear search produced a step of -0.19412.
 Iteration  1 RMS(Cart)=  0.00811033 RMS(Int)=  0.00000000
 Iteration  2 RMS(Cart)=  0.00000000 RMS(Int)=  0.00000000
 ClnCor:  largest displacement from symmetrization is 0.00D+00 for atom     0.
 Variable       Old X    -DE/DX   Delta X   Delta X   Delta X     New X
                                 (Linear)    (Quad)   (Total)
    R1        3.47530   0.00404   0.01147   0.00000   0.01147   3.48677
         Item               Value     Threshold  Converged?
 Maximum Force            0.004037     0.000450     NO 
 RMS     Force            0.004037     0.000300     NO 
 Maximum Displacement     0.005735     0.001800     NO 
 RMS     Displacement     0.008110     0.001200     NO 
 Predicted change in Energy=-2.457405D-05
 GradGradGradGradGradGradGradGradGradGradGradGradGradGradGradGradGradGrad

                          Input orientation:                          
 ---------------------------------------------------------------------
 Center     Atomic      Atomic             Coordinates (Angstroms)
 Number     Number       Type             X           Y           Z
 ---------------------------------------------------------------------
      1         50           0        8.000000    8.000000    7.077440
      2          8           0        8.000000    8.000000    8.922560
 ---------------------------------------------------------------------
 Stoichiometry    OSn
 Framework group  C*V[C*(OSn)]
 Deg. of freedom     1
 Full point group                 C*V     NOp   4
 Largest Abelian subgroup         C2V     NOp   4
 Largest concise Abelian subgroup C1      NOp   1
                         Standard orientation:                         
 ---------------------------------------------------------------------
 Center     Atomic      Atomic             Coordinates (Angstroms)
 Number     Number       Type             X           Y           Z
 ---------------------------------------------------------------------
      1         50           0        0.000000    0.000000    0.254499
      2          8           0        0.000000    0.000000   -1.590620
 ---------------------------------------------------------------------
 Rotational constants (GHZ):           0.0000000          10.5398798          10.5398798
 Standard basis: def2QZVPP (5D, 7F)
 There are    75 symmetry adapted cartesian basis functions of A1  symmetry.
 There are    19 symmetry adapted cartesian basis functions of A2  symmetry.
 There are    41 symmetry adapted cartesian basis functions of B1  symmetry.
 There are    41 symmetry adapted cartesian basis functions of B2  symmetry.
 There are    56 symmetry adapted basis functions of A1  symmetry.
 There are    17 symmetry adapted basis functions of A2  symmetry.
 There are    33 symmetry adapted basis functions of B1  symmetry.
 There are    33 symmetry adapted basis functions of B2  symmetry.
   139 basis functions,   272 primitive gaussians,   176 cartesian basis functions
    15 alpha electrons       15 beta electrons
       nuclear repulsion energy        50.4765018717 Hartrees.
 NAtoms=    2 NActive=    2 NUniq=    2 SFac= 1.00D+00 NAtFMM=   60 NAOKFM=F Big=F
 Integral buffers will be    131072 words long.
 Raffenetti 2 integral format.
 Two-electron integral symmetry is turned on.
 One-electron integrals computed using PRISM.
   4 Symmetry operations used in ECPInt.
 ECPInt:  NShTT=     780 NPrTT=    3056 LenC2=     781 LenP2D=    2802.
 LDataN:  DoStor=T MaxTD1= 8 Len=  415
 NBasis=   139 RedAO= T EigKep=  4.72D-04  NBF=    56    17    33    33
 NBsUse=   139 1.00D-06 EigRej= -1.00D+00 NBFU=    56    17    33    33
 Defaulting to unpruned grid for atomic number  50.
 Initial guess from the checkpoint file:  "/data/hutter/SMG16/PBE/Gau-18957.chk"
 B after Tr=     0.000000    0.000000   -0.000000
         Rot=    1.000000    0.000000    0.000000    0.000000 Ang=   0.00 deg.
 Initial guess orbital symmetries:
       Occupied  (SG) (SG) (PI) (PI) (SG) (SG) (DLTA) (DLTA) (PI)
                 (PI) (SG) (SG) (PI) (PI) (SG)
       Virtual   (PI) (PI) (SG) (SG) (PI) (PI) (DLTA) (DLTA) (SG)
                 (PI) (PI) (SG) (SG) (PI) (PI) (PI) (PI) (SG) (DLTA)
                 (DLTA) (PHI) (PHI) (DLTA) (DLTA) (SG) (PI) (PI)
                 (SG) (PI) (PI) (SG) (SG) (DLTA) (DLTA) (PHI) (PHI)
                 (PI) (PI) (DLTA) (DLTA) (SG) (SG) (PI) (PI) (PI)
                 (PI) (?A) (?A) (PHI) (PHI) (PI) (PI) (SG) (DLTA)
                 (DLTA) (DLTA) (DLTA) (PI) (PI) (SG) (SG) (PI)
                 (PI) (SG) (SG) (DLTA) (DLTA) (PHI) (PHI) (PI)
                 (PI) (SG) (PHI) (PHI) (DLTA) (DLTA) (SG) (PI)
                 (PI) (DLTA) (DLTA) (SG) (PI) (PI) (SG) (PI) (PI)
                 (SG) (DLTA) (DLTA) (PHI) (PHI) (?A) (?A) (PI)
                 (PI) (SG) (PHI) (PHI) (DLTA) (DLTA) (PI) (PI)
                 (SG) (PHI) (PHI) (DLTA) (DLTA) (PI) (PI) (SG)
                 (SG) (DLTA) (DLTA) (PI) (PI) (SG) (SG) (PI) (PI)
                 (SG) (SG) (SG) (SG)
 Keep J ints in memory in symmetry-blocked form, NReq=59379869.
 Requested convergence on RMS density matrix=1.00D-08 within 128 cycles.
 Requested convergence on MAX density matrix=1.00D-06.
 Requested convergence on             energy=1.00D-06.
 No special actions if energy rises.
 Defaulting to unpruned grid for atomic number  50.
 Defaulting to unpruned grid for atomic number  50.
 Defaulting to unpruned grid for atomic number  50.
 Defaulting to unpruned grid for atomic number  50.
 Defaulting to unpruned grid for atomic number  50.
 Defaulting to unpruned grid for atomic number  50.
 Defaulting to unpruned grid for atomic number  50.
 Defaulting to unpruned grid for atomic number  50.
 SCF Done:  E(RPBE-PBE) =  -289.493071943     A.U. after    8 cycles
            NFock=  8  Conv=0.29D-08     -V/T= 2.8424
   4 Symmetry operations used in ECPInt.
 ECPInt:  NShTT=     780 NPrTT=    3056 LenC2=     781 LenP2D=    2802.
 LDataN:  DoStor=T MaxTD1= 9 Len=  602
 Calling FoFJK, ICntrl=      2527 FMM=F ISym2X=1 I1Cent= 0 IOpClX= 0 NMat=1 NMatS=1 NMatT=0.
 Defaulting to unpruned grid for atomic number  50.
 Defaulting to unpruned grid for atomic number  50.
 Defaulting to unpruned grid for atomic number  50.
 Defaulting to unpruned grid for atomic number  50.
 Defaulting to unpruned grid for atomic number  50.
 Defaulting to unpruned grid for atomic number  50.
 Defaulting to unpruned grid for atomic number  50.
 Defaulting to unpruned grid for atomic number  50.
 ***** Axes restored to original set *****
 -------------------------------------------------------------------
 Center     Atomic                   Forces (Hartrees/Bohr)
 Number     Number              X              Y              Z
 -------------------------------------------------------------------
      1       50          -0.000000000   -0.000000000    0.000001264
      2        8          -0.000000000   -0.000000000   -0.000001264
 -------------------------------------------------------------------
 Cartesian Forces:  Max     0.000001264 RMS     0.000000730

 GradGradGradGradGradGradGradGradGradGradGradGradGradGradGradGradGradGrad
 Berny optimization.
 Using GEDIIS/GDIIS optimizer.
 Internal  Forces:  Max     0.000001264 RMS     0.000001264
 Search for a local minimum.
 Step number   3 out of a maximum of   20
 All quantities printed in internal units (Hartrees-Bohrs-Radians)
 Mixed Optimization -- En-DIIS/RFO-DIIS
 Update second derivatives using D2CorX and points    2    3
 DE= -2.30D-05 DEPred=-2.46D-05 R= 9.37D-01
 TightC=F SS=  1.41D+00  RLast= 1.15D-02 DXNew= 5.0454D-01 3.4409D-02
 Trust test= 9.37D-01 RLast= 1.15D-02 DXMaxT set to 3.00D-01
 The second derivative matrix:
                          R1
           R1           0.35212
 ITU=  1  1
 Use linear search instead of GDIIS.
     Eigenvalues ---    0.35212
 RFO step:  Lambda= 0.00000000D+00 EMin= 3.52117605D-01
 Quartic linear search produced a step of -0.00032.
 Iteration  1 RMS(Cart)=  0.00000258 RMS(Int)=  0.00000000
 Iteration  2 RMS(Cart)=  0.00000000 RMS(Int)=  0.00000000
 ClnCor:  largest displacement from symmetrization is 0.00D+00 for atom     0.
 Variable       Old X    -DE/DX   Delta X   Delta X   Delta X     New X
                                 (Linear)    (Quad)   (Total)
    R1        3.48677  -0.00000  -0.00000   0.00000  -0.00000   3.48677
         Item               Value     Threshold  Converged?
 Maximum Force            0.000001     0.000450     YES
 RMS     Force            0.000001     0.000300     YES
 Maximum Displacement     0.000002     0.001800     YES
 RMS     Displacement     0.000003     0.001200     YES
 Predicted change in Energy=-2.269695D-12
 Optimization completed.
    -- Stationary point found.
                           ----------------------------
                           !   Optimized Parameters   !
                           ! (Angstroms and Degrees)  !
 --------------------------                            --------------------------
 ! Name  Definition              Value          Derivative Info.                !
 --------------------------------------------------------------------------------
 ! R1    R(1,2)                  1.8451         -DE/DX =    0.0                 !
 --------------------------------------------------------------------------------
 GradGradGradGradGradGradGradGradGradGradGradGradGradGradGradGradGradGrad

                          Input orientation:                          
 ---------------------------------------------------------------------
 Center     Atomic      Atomic             Coordinates (Angstroms)
 Number     Number       Type             X           Y           Z
 ---------------------------------------------------------------------
      1         50           0        8.000000    8.000000    7.077440
      2          8           0        8.000000    8.000000    8.922560
 ---------------------------------------------------------------------
 Stoichiometry    OSn
 Framework group  C*V[C*(OSn)]
 Deg. of freedom     1
 Full point group                 C*V     NOp   4
 Largest Abelian subgroup         C2V     NOp   4
 Largest concise Abelian subgroup C1      NOp   1
                         Standard orientation:                         
 ---------------------------------------------------------------------
 Center     Atomic      Atomic             Coordinates (Angstroms)
 Number     Number       Type             X           Y           Z
 ---------------------------------------------------------------------
      1         50           0        0.000000    0.000000    0.254499
      2          8           0        0.000000    0.000000   -1.590620
 ---------------------------------------------------------------------
 Rotational constants (GHZ):           0.0000000          10.5398798          10.5398798

 **********************************************************************

            Population analysis using the SCF Density.

 **********************************************************************

 Orbital symmetries:
       Occupied  (SG) (SG) (PI) (PI) (SG) (SG) (DLTA) (DLTA) (PI)
                 (PI) (SG) (SG) (PI) (PI) (SG)
       Virtual   (PI) (PI) (SG) (SG) (PI) (PI) (DLTA) (DLTA) (SG)
                 (PI) (PI) (SG) (SG) (PI) (PI) (PI) (PI) (SG) (DLTA)
                 (DLTA) (PHI) (PHI) (DLTA) (DLTA) (SG) (PI) (PI)
                 (SG) (PI) (PI) (SG) (SG) (DLTA) (DLTA) (PHI) (PHI)
                 (PI) (PI) (DLTA) (DLTA) (SG) (SG) (PI) (PI) (PI)
                 (PI) (?A) (?A) (PHI) (PHI) (PI) (PI) (SG) (DLTA)
                 (DLTA) (DLTA) (DLTA) (PI) (PI) (SG) (SG) (PI)
                 (PI) (SG) (SG) (DLTA) (DLTA) (PHI) (PHI) (PI)
                 (PI) (SG) (PHI) (PHI) (DLTA) (DLTA) (SG) (PI)
                 (PI) (DLTA) (DLTA) (SG) (PI) (PI) (SG) (PI) (PI)
                 (SG) (DLTA) (DLTA) (PHI) (PHI) (?A) (?A) (PI)
                 (PI) (SG) (PHI) (PHI) (DLTA) (DLTA) (PI) (PI)
                 (SG) (PHI) (PHI) (DLTA) (DLTA) (PI) (PI) (SG)
                 (SG) (DLTA) (DLTA) (PI) (PI) (SG) (SG) (PI) (PI)
                 (SG) (SG) (SG) (SG)
 The electronic state is 1-SG.
 Alpha  occ. eigenvalues --  -18.72168  -4.90469  -3.28906  -3.28906  -3.27689
 Alpha  occ. eigenvalues --   -0.96294  -0.95374  -0.95374  -0.94390  -0.94390
 Alpha  occ. eigenvalues --   -0.77335  -0.39179  -0.24347  -0.24347  -0.23814
 Alpha virt. eigenvalues --   -0.11231  -0.11231  -0.02142   0.03489   0.05715
 Alpha virt. eigenvalues --    0.05715   0.09803   0.09803   0.10679   0.13523
 Alpha virt. eigenvalues --    0.13523   0.16824   0.31139   0.35811   0.35811
 Alpha virt. eigenvalues --    0.37557   0.37557   0.39626   0.42966   0.42966
 Alpha virt. eigenvalues --    0.43471   0.43471   0.50594   0.50594   0.51079
 Alpha virt. eigenvalues --    0.52851   0.52851   0.55084   0.55568   0.55568
 Alpha virt. eigenvalues --    0.76337   0.92069   1.07535   1.07535   1.11730
 Alpha virt. eigenvalues --    1.11730   1.12391   1.12391   1.12636   1.12636
 Alpha virt. eigenvalues --    1.12940   1.33754   1.34804   1.34804   1.39758
 Alpha virt. eigenvalues --    1.39758   1.44682   1.44682   1.44911   1.44911
 Alpha virt. eigenvalues --    1.46366   1.46366   1.49352   1.60226   1.60227
 Alpha virt. eigenvalues --    1.64595   1.64595   1.65504   1.65504   1.69701
 Alpha virt. eigenvalues --    1.90935   2.01327   2.01327   2.17112   2.46842
 Alpha virt. eigenvalues --    2.73406   2.73406   2.75590   2.75590   2.79663
 Alpha virt. eigenvalues --    2.79663   2.96446   3.09151   3.09151   3.29446
 Alpha virt. eigenvalues --    3.29446   3.40424   3.62809   3.62809   3.80827
 Alpha virt. eigenvalues --    3.80827   4.06984   4.26612   4.26612   4.52111
 Alpha virt. eigenvalues --    5.01403   5.01403   5.59979   8.73617   8.73618
 Alpha virt. eigenvalues --    8.76699   8.76699   8.77706   8.77706   8.78450
 Alpha virt. eigenvalues --    8.78450   8.84934   8.86451   8.86451   8.93090
 Alpha virt. eigenvalues --    8.93091   9.04649   9.04649   9.14624  10.81638
 Alpha virt. eigenvalues --   10.81638  10.91672  10.91672  11.14861  11.14861
 Alpha virt. eigenvalues --   11.17670  11.81993  11.85777  11.85777  12.12386
 Alpha virt. eigenvalues --   12.12386  12.33289  12.94938  34.39429  34.39429
 Alpha virt. eigenvalues --   34.59044  47.06319  71.99471 251.54126
          Condensed to atoms (all electrons):
               1          2
     1  Sn  20.880086   0.508549
     2  O    0.508549   8.102817
 Mulliken charges:
               1
     1  Sn   0.611365
     2  O   -0.611365
 Sum of Mulliken charges =  -0.00000
 Mulliken charges with hydrogens summed into heavy atoms:
               1
     1  Sn   0.611365
     2  O   -0.611365
 Electronic spatial extent (au):  <R**2>=            145.0815
 Charge=             -0.0000 electrons
 Dipole moment (field-independent basis, Debye):
    X=              0.0000    Y=              0.0000    Z=              3.9980  Tot=              3.9980
 Quadrupole moment (field-independent basis, Debye-Ang):
   XX=            -27.2767   YY=            -27.2767   ZZ=            -36.5223
   XY=              0.0000   XZ=              0.0000   YZ=              0.0000
 Traceless Quadrupole moment (field-independent basis, Debye-Ang):
   XX=              3.0819   YY=              3.0819   ZZ=             -6.1638
   XY=              0.0000   XZ=              0.0000   YZ=              0.0000
 Octapole moment (field-independent basis, Debye-Ang**2):
  XXX=              0.0000  YYY=              0.0000  ZZZ=             20.7346  XYY=              0.0000
  XXY=              0.0000  XXZ=              4.4871  XZZ=              0.0000  YZZ=              0.0000
  YYZ=              4.4871  XYZ=              0.0000
 Hexadecapole moment (field-independent basis, Debye-Ang**3):
 XXXX=            -34.6284 YYYY=            -34.6284 ZZZZ=           -162.9774 XXXY=              0.0000
 XXXZ=              0.0000 YYYX=              0.0000 YYYZ=              0.0000 ZZZX=              0.0000
 ZZZY=              0.0000 XXYY=            -11.5428 XXZZ=            -30.6785 YYZZ=            -30.6785
 XXYZ=              0.0000 YYXZ=              0.0000 ZZXY=              0.0000
 N-N= 5.047650187167D+01 E-N=-7.381818922096D+02  KE= 1.571282102628D+02
 Symmetry A1   KE= 1.035531107252D+02
 Symmetry A2   KE= 1.029189886954D+01
 Symmetry B1   KE= 2.164160033405D+01
 Symmetry B2   KE= 2.164160033405D+01
 Unable to Open any file for archive entry.
 1\1\GINC-TCOPT10\FOpt\RPBEPBE\def2QZVPP\O1Sn1\HUTTER\30-Jul-2021\0\\#N
  RPBEPBE/Def2QZVPP scf=tight Int(Grid=ultrafine) OPT FREQ\\Mol job 1\\
 0,1\Sn,8.,8.,7.0774401388\O,8.,8.,8.9225598612\\Version=ES64L-G16RevC.
 01\State=1-SG\HF=-289.4930719\RMSD=2.881e-09\RMSF=7.300e-07\Dipole=0.,
 0.,-1.5729506\Quadrupole=2.291303,2.291303,-4.5826059,0.,0.,0.\PG=C*V 
 [C*(O1Sn1)]\\@
 The archive entry for this job was punched.


 Ideas are like rabbits. You get a couple and learn
 how to handle them, and pretty soon you have a dozen.
                                    -- John Steinbeck
 Job cpu time:       0 days  0 hours  6 minutes 55.2 seconds.
 Elapsed time:       0 days  0 hours  0 minutes 53.0 seconds.
 File lengths (MBytes):  RWF=     15 Int=      0 D2E=      0 Chk=      2 Scr=      1
 Normal termination of Gaussian 16 at Fri Jul 30 20:09:59 2021.
 Link1:  Proceeding to internal job step number  2.
 ----------------------------------------------------------------------
 #N Geom=AllCheck Guess=TCheck SCRF=Check GenChk RPBEPBE/def2QZVPP Freq
 ----------------------------------------------------------------------
 1/10=4,29=7,30=1,38=1,40=1/1,3;
 2/12=2,40=1/2;
 3/5=45,7=202,11=2,14=-4,25=1,30=1,70=2,71=2,74=1009,75=-5,116=1,140=1/1,2,3;
 4/5=101/1;
 5/5=2,32=2,38=6,98=1/2;
 8/6=4,10=90,11=11/1;
 11/6=1,8=1,9=11,15=111,16=1/1,2,10;
 10/6=1/2;
 6/7=2,8=2,9=2,10=2,28=1/1;
 7/8=1,10=1,25=1/1,2,3,16;
 1/10=4,30=1/3;
 99//99;
 Structure from the checkpoint file:  "/data/hutter/SMG16/PBE/Gau-18957.chk"
 ---------
 Mol job 1
 ---------
 Charge =  0 Multiplicity = 1
 Redundant internal coordinates found in file.  (old form).
 Sn,0,8.,8.,7.0774401388
 O,0,8.,8.,8.9225598612
 Recover connectivity data from disk.

 GradGradGradGradGradGradGradGradGradGradGradGradGradGradGradGradGradGrad
 Berny optimization.
 Initialization pass.
                           ----------------------------
                           !    Initial Parameters    !
                           ! (Angstroms and Degrees)  !
 --------------------------                            --------------------------
 ! Name  Definition              Value          Derivative Info.                !
 --------------------------------------------------------------------------------
 ! R1    R(1,2)                  1.8451         calculate D2E/DX2 analytically  !
 --------------------------------------------------------------------------------
 Trust Radius=3.00D-01 FncErr=1.00D-07 GrdErr=1.00D-07 EigMax=2.50D+02 EigMin=1.00D-04
 Number of steps in this run=      2 maximum allowed number of steps=      2.
 GradGradGradGradGradGradGradGradGradGradGradGradGradGradGradGradGradGrad

                          Input orientation:                          
 ---------------------------------------------------------------------
 Center     Atomic      Atomic             Coordinates (Angstroms)
 Number     Number       Type             X           Y           Z
 ---------------------------------------------------------------------
      1         50           0        8.000000    8.000000    7.077440
      2          8           0        8.000000    8.000000    8.922560
 ---------------------------------------------------------------------
 Stoichiometry    OSn
 Framework group  C*V[C*(OSn)]
 Deg. of freedom     1
 Full point group                 C*V     NOp   4
 Largest Abelian subgroup         C2V     NOp   4
 Largest concise Abelian subgroup C1      NOp   1
                         Standard orientation:                         
 ---------------------------------------------------------------------
 Center     Atomic      Atomic             Coordinates (Angstroms)
 Number     Number       Type             X           Y           Z
 ---------------------------------------------------------------------
      1         50           0        0.000000    0.000000    0.254499
      2          8           0        0.000000    0.000000   -1.590620
 ---------------------------------------------------------------------
 Rotational constants (GHZ):           0.0000000          10.5398798          10.5398798
 Standard basis: def2QZVPP (5D, 7F)
 There are    75 symmetry adapted cartesian basis functions of A1  symmetry.
 There are    19 symmetry adapted cartesian basis functions of A2  symmetry.
 There are    41 symmetry adapted cartesian basis functions of B1  symmetry.
 There are    41 symmetry adapted cartesian basis functions of B2  symmetry.
 There are    56 symmetry adapted basis functions of A1  symmetry.
 There are    17 symmetry adapted basis functions of A2  symmetry.
 There are    33 symmetry adapted basis functions of B1  symmetry.
 There are    33 symmetry adapted basis functions of B2  symmetry.
   139 basis functions,   272 primitive gaussians,   176 cartesian basis functions
    15 alpha electrons       15 beta electrons
       nuclear repulsion energy        50.4765018717 Hartrees.
 NAtoms=    2 NActive=    2 NUniq=    2 SFac= 1.00D+00 NAtFMM=   60 NAOKFM=F Big=F
 Integral buffers will be    131072 words long.
 Raffenetti 2 integral format.
 Two-electron integral symmetry is turned on.
 One-electron integrals computed using PRISM.
   4 Symmetry operations used in ECPInt.
 ECPInt:  NShTT=     780 NPrTT=    3056 LenC2=     781 LenP2D=    2802.
 LDataN:  DoStor=T MaxTD1= 8 Len=  415
 NBasis=   139 RedAO= T EigKep=  4.72D-04  NBF=    56    17    33    33
 NBsUse=   139 1.00D-06 EigRej= -1.00D+00 NBFU=    56    17    33    33
 Defaulting to unpruned grid for atomic number  50.
 Initial guess from the checkpoint file:  "/data/hutter/SMG16/PBE/Gau-18957.chk"
 B after Tr=     0.000000    0.000000    0.000000
         Rot=    1.000000    0.000000    0.000000    0.000000 Ang=   0.00 deg.
 Initial guess orbital symmetries:
       Occupied  (SG) (SG) (PI) (PI) (SG) (SG) (DLTA) (DLTA) (PI)
                 (PI) (SG) (SG) (PI) (PI) (SG)
       Virtual   (PI) (PI) (SG) (SG) (PI) (PI) (DLTA) (DLTA) (SG)
                 (PI) (PI) (SG) (SG) (PI) (PI) (PI) (PI) (SG) (DLTA)
                 (DLTA) (PHI) (PHI) (DLTA) (DLTA) (SG) (PI) (PI)
                 (SG) (PI) (PI) (SG) (SG) (DLTA) (DLTA) (PHI) (PHI)
                 (PI) (PI) (DLTA) (DLTA) (SG) (SG) (PI) (PI) (PI)
                 (PI) (?A) (?A) (PHI) (PHI) (PI) (PI) (SG) (DLTA)
                 (DLTA) (DLTA) (DLTA) (PI) (PI) (SG) (SG) (PI)
                 (PI) (SG) (SG) (DLTA) (DLTA) (PHI) (PHI) (PI)
                 (PI) (SG) (PHI) (PHI) (DLTA) (DLTA) (SG) (PI)
                 (PI) (DLTA) (DLTA) (SG) (PI) (PI) (SG) (PI) (PI)
                 (SG) (DLTA) (DLTA) (PHI) (PHI) (?A) (?A) (PI)
                 (PI) (SG) (PHI) (PHI) (DLTA) (DLTA) (PI) (PI)
                 (SG) (PHI) (PHI) (DLTA) (DLTA) (PI) (PI) (SG)
                 (SG) (DLTA) (DLTA) (PI) (PI) (SG) (SG) (PI) (PI)
                 (SG) (SG) (SG) (SG)
 Keep J ints in memory in symmetry-blocked form, NReq=59379869.
 Requested convergence on RMS density matrix=1.00D-08 within 128 cycles.
 Requested convergence on MAX density matrix=1.00D-06.
 Requested convergence on             energy=1.00D-06.
 No special actions if energy rises.
 Defaulting to unpruned grid for atomic number  50.
 Defaulting to unpruned grid for atomic number  50.
 Defaulting to unpruned grid for atomic number  50.
 Defaulting to unpruned grid for atomic number  50.
 Defaulting to unpruned grid for atomic number  50.
 Defaulting to unpruned grid for atomic number  50.
 Defaulting to unpruned grid for atomic number  50.
 Defaulting to unpruned grid for atomic number  50.
 SCF Done:  E(RPBE-PBE) =  -289.493071943     A.U. after    1 cycles
            NFock=  1  Conv=0.16D-08     -V/T= 2.8424
 DoSCS=F DFT=T ScalE2(SS,OS)=  1.000000  1.000000
 Range of M.O.s used for correlation:     1   139
 NBasis=   139 NAE=    15 NBE=    15 NFC=     0 NFV=     0
 NROrb=    139 NOA=    15 NOB=    15 NVA=   124 NVB=   124

 **** Warning!!: The largest alpha MO coefficient is  0.13198481D+02

   4 Symmetry operations used in ECPInt.
 ECPInt:  NShTT=     780 NPrTT=    3056 LenC2=     781 LenP2D=    2802.
 LDataN:  DoStor=T MaxTD1= 9 Len=  602
 Symmetrizing basis deriv contribution to polar:
 IMax=3 JMax=2 DiffMx= 0.00D+00
 G2DrvN: will do     3 centers at a time, making    1 passes.
 Calling FoFCou, ICntrl=  3507 FMM=F I1Cent=   0 AccDes= 0.00D+00.
 Defaulting to unpruned grid for atomic number  50.
 Defaulting to unpruned grid for atomic number  50.
 Defaulting to unpruned grid for atomic number  50.
 Defaulting to unpruned grid for atomic number  50.
 Defaulting to unpruned grid for atomic number  50.
 Defaulting to unpruned grid for atomic number  50.
 Defaulting to unpruned grid for atomic number  50.
 Defaulting to unpruned grid for atomic number  50.
 End of G2Drv F.D. properties file   721 does not exist.
 End of G2Drv F.D. properties file   722 does not exist.
 End of G2Drv F.D. properties file   788 does not exist.
          IDoAtm=11
          Differentiating once with respect to electric field.
                with respect to dipole field.
          Differentiating once with respect to nuclear coordinates.
 Defaulting to unpruned grid for atomic number  50.
 Keep J ints in memory in symmetry-blocked form, NReq=59381254.
 Defaulting to unpruned grid for atomic number  50.
 Defaulting to unpruned grid for atomic number  50.
 Defaulting to unpruned grid for atomic number  50.
 Defaulting to unpruned grid for atomic number  50.
 Defaulting to unpruned grid for atomic number  50.
 Defaulting to unpruned grid for atomic number  50.
 Defaulting to unpruned grid for atomic number  50.
 Defaulting to unpruned grid for atomic number  50.
          There are     9 degrees of freedom in the 1st order CPHF.  IDoFFX=6 NUNeed=     3.
      6 vectors produced by pass  0 Test12= 2.07D-14 1.11D-08 XBig12= 2.53D+02 9.70D+00.
 AX will form     6 AO Fock derivatives at one time.
      6 vectors produced by pass  1 Test12= 2.07D-14 1.11D-08 XBig12= 2.44D+02 8.59D+00.
      6 vectors produced by pass  2 Test12= 2.07D-14 1.11D-08 XBig12= 2.04D+00 5.05D-01.
      6 vectors produced by pass  3 Test12= 2.07D-14 1.11D-08 XBig12= 1.15D-01 1.42D-01.
      6 vectors produced by pass  4 Test12= 2.07D-14 1.11D-08 XBig12= 8.38D-03 2.78D-02.
      6 vectors produced by pass  5 Test12= 2.07D-14 1.11D-08 XBig12= 2.49D-04 5.80D-03.
      4 vectors produced by pass  6 Test12= 2.07D-14 1.11D-08 XBig12= 1.23D-07 1.24D-04.
      4 vectors produced by pass  7 Test12= 2.07D-14 1.11D-08 XBig12= 3.22D-10 3.65D-06.
      3 vectors produced by pass  8 Test12= 2.07D-14 1.11D-08 XBig12= 1.26D-12 3.29D-07.
      1 vectors produced by pass  9 Test12= 2.07D-14 1.11D-08 XBig12= 4.36D-15 1.86D-08.
 InvSVY:  IOpt=1 It=  1 EMax= 6.66D-16
 Solved reduced A of dimension    48 with     6 vectors.
 Isotropic polarizability for W=    0.000000       42.45 Bohr**3.
 End of Minotr F.D. properties file   721 does not exist.
 End of Minotr F.D. properties file   722 does not exist.
 End of Minotr F.D. properties file   788 does not exist.

 **********************************************************************

            Population analysis using the SCF Density.

 **********************************************************************

 Orbital symmetries:
       Occupied  (SG) (SG) (PI) (PI) (SG) (SG) (DLTA) (DLTA) (PI)
                 (PI) (SG) (SG) (PI) (PI) (SG)
       Virtual   (PI) (PI) (SG) (SG) (PI) (PI) (DLTA) (DLTA) (SG)
                 (PI) (PI) (SG) (SG) (PI) (PI) (PI) (PI) (SG) (DLTA)
                 (DLTA) (PHI) (PHI) (DLTA) (DLTA) (SG) (PI) (PI)
                 (SG) (PI) (PI) (SG) (SG) (DLTA) (DLTA) (PHI) (PHI)
                 (PI) (PI) (DLTA) (DLTA) (SG) (SG) (PI) (PI) (PI)
                 (PI) (?A) (?A) (PHI) (PHI) (PI) (PI) (SG) (DLTA)
                 (DLTA) (DLTA) (DLTA) (PI) (PI) (SG) (SG) (PI)
                 (PI) (SG) (SG) (DLTA) (DLTA) (PHI) (PHI) (PI)
                 (PI) (SG) (PHI) (PHI) (DLTA) (DLTA) (SG) (PI)
                 (PI) (DLTA) (DLTA) (SG) (PI) (PI) (SG) (PI) (PI)
                 (SG) (DLTA) (DLTA) (PHI) (PHI) (?A) (?A) (PI)
                 (PI) (SG) (PHI) (PHI) (DLTA) (DLTA) (PI) (PI)
                 (SG) (PHI) (PHI) (DLTA) (DLTA) (PI) (PI) (SG)
                 (SG) (DLTA) (DLTA) (PI) (PI) (SG) (SG) (PI) (PI)
                 (SG) (SG) (SG) (SG)
 The electronic state is 1-SG.
 Alpha  occ. eigenvalues --  -18.72168  -4.90469  -3.28906  -3.28906  -3.27689
 Alpha  occ. eigenvalues --   -0.96294  -0.95374  -0.95374  -0.94390  -0.94390
 Alpha  occ. eigenvalues --   -0.77335  -0.39179  -0.24347  -0.24347  -0.23814
 Alpha virt. eigenvalues --   -0.11231  -0.11231  -0.02142   0.03489   0.05715
 Alpha virt. eigenvalues --    0.05715   0.09803   0.09803   0.10679   0.13523
 Alpha virt. eigenvalues --    0.13523   0.16824   0.31139   0.35811   0.35811
 Alpha virt. eigenvalues --    0.37557   0.37557   0.39626   0.42966   0.42966
 Alpha virt. eigenvalues --    0.43471   0.43471   0.50594   0.50594   0.51079
 Alpha virt. eigenvalues --    0.52851   0.52851   0.55084   0.55568   0.55568
 Alpha virt. eigenvalues --    0.76337   0.92069   1.07535   1.07535   1.11730
 Alpha virt. eigenvalues --    1.11730   1.12391   1.12391   1.12636   1.12636
 Alpha virt. eigenvalues --    1.12940   1.33754   1.34804   1.34804   1.39758
 Alpha virt. eigenvalues --    1.39758   1.44682   1.44682   1.44911   1.44911
 Alpha virt. eigenvalues --    1.46366   1.46366   1.49352   1.60226   1.60227
 Alpha virt. eigenvalues --    1.64595   1.64595   1.65504   1.65504   1.69701
 Alpha virt. eigenvalues --    1.90935   2.01327   2.01327   2.17112   2.46842
 Alpha virt. eigenvalues --    2.73406   2.73406   2.75590   2.75590   2.79663
 Alpha virt. eigenvalues --    2.79663   2.96446   3.09151   3.09151   3.29446
 Alpha virt. eigenvalues --    3.29446   3.40424   3.62809   3.62809   3.80827
 Alpha virt. eigenvalues --    3.80827   4.06984   4.26612   4.26612   4.52111
 Alpha virt. eigenvalues --    5.01403   5.01403   5.59979   8.73617   8.73618
 Alpha virt. eigenvalues --    8.76699   8.76699   8.77706   8.77706   8.78450
 Alpha virt. eigenvalues --    8.78450   8.84934   8.86452   8.86452   8.93090
 Alpha virt. eigenvalues --    8.93091   9.04649   9.04649   9.14624  10.81638
 Alpha virt. eigenvalues --   10.81638  10.91672  10.91672  11.14861  11.14861
 Alpha virt. eigenvalues --   11.17670  11.81993  11.85777  11.85777  12.12386
 Alpha virt. eigenvalues --   12.12386  12.33289  12.94938  34.39429  34.39429
 Alpha virt. eigenvalues --   34.59044  47.06319  71.99471 251.54126
          Condensed to atoms (all electrons):
               1          2
     1  Sn  20.880086   0.508548
     2  O    0.508548   8.102817
 Mulliken charges:
               1
     1  Sn   0.611366
     2  O   -0.611366
 Sum of Mulliken charges =  -0.00000
 Mulliken charges with hydrogens summed into heavy atoms:
               1
     1  Sn   0.611366
     2  O   -0.611366
 APT charges:
               1
     1  Sn   0.594766
     2  O   -0.594766
 Sum of APT charges =   0.00000
 APT charges with hydrogens summed into heavy atoms:
               1
     1  Sn   0.594766
     2  O   -0.594766
 Electronic spatial extent (au):  <R**2>=            145.0815
 Charge=             -0.0000 electrons
 Dipole moment (field-independent basis, Debye):
    X=              0.0000    Y=              0.0000    Z=              3.9980  Tot=              3.9980
 Quadrupole moment (field-independent basis, Debye-Ang):
   XX=            -27.2767   YY=            -27.2767   ZZ=            -36.5223
   XY=              0.0000   XZ=              0.0000   YZ=              0.0000
 Traceless Quadrupole moment (field-independent basis, Debye-Ang):
   XX=              3.0819   YY=              3.0819   ZZ=             -6.1638
   XY=              0.0000   XZ=              0.0000   YZ=              0.0000
 Octapole moment (field-independent basis, Debye-Ang**2):
  XXX=              0.0000  YYY=              0.0000  ZZZ=             20.7347  XYY=              0.0000
  XXY=              0.0000  XXZ=              4.4871  XZZ=              0.0000  YZZ=              0.0000
  YYZ=              4.4871  XYZ=              0.0000
 Hexadecapole moment (field-independent basis, Debye-Ang**3):
 XXXX=            -34.6284 YYYY=            -34.6284 ZZZZ=           -162.9774 XXXY=              0.0000
 XXXZ=              0.0000 YYYX=              0.0000 YYYZ=              0.0000 ZZZX=              0.0000
 ZZZY=              0.0000 XXYY=            -11.5428 XXZZ=            -30.6785 YYZZ=            -30.6785
 XXYZ=              0.0000 YYXZ=              0.0000 ZZXY=              0.0000
 N-N= 5.047650187167D+01 E-N=-7.381818963803D+02  KE= 1.571282121168D+02
 Symmetry A1   KE= 1.035531112334D+02
 Symmetry A2   KE= 1.029189882367D+01
 Symmetry B1   KE= 2.164160102986D+01
 Symmetry B2   KE= 2.164160102986D+01
  Exact polarizability:      36.596       0.000      36.596       0.000       0.000      54.172
 Approx polarizability:      64.302      -0.000      64.302      -0.000      -0.000     166.159
   4 Symmetry operations used in ECPInt.
 ECPInt:  NShTT=     780 NPrTT=    3056 LenC2=     781 LenP2D=    2802.
 LDataN:  DoStor=T MaxTD1=10 Len=  848
 Calling FoFJK, ICntrl=    100527 FMM=F ISym2X=1 I1Cent= 0 IOpClX= 0 NMat=1 NMatS=1 NMatT=0.
 Defaulting to unpruned grid for atomic number  50.
 Defaulting to unpruned grid for atomic number  50.
 Defaulting to unpruned grid for atomic number  50.
 Defaulting to unpruned grid for atomic number  50.
 Defaulting to unpruned grid for atomic number  50.
 Defaulting to unpruned grid for atomic number  50.
 Defaulting to unpruned grid for atomic number  50.
 Defaulting to unpruned grid for atomic number  50.
 Full mass-weighted force constant matrix:
 Low frequencies ---  -18.1843  -18.1843   -0.0005    0.0002    0.0002  806.5248
 Diagonal vibrational polarizability:
        0.0000000       0.0000000       2.2280188
 Harmonic frequencies (cm**-1), IR intensities (KM/Mole), Raman scattering
 activities (A**4/AMU), depolarization ratios for plane and unpolarized
 incident light, reduced masses (AMU), force constants (mDyne/A),
 and normal coordinates:
                      1
                     SG
 Frequencies --    806.5248
 Red. masses --     17.8366
 Frc consts  --      6.8359
 IR Inten    --     53.8544
  Atom  AN      X      Y      Z
     1  50    -0.00  -0.00  -0.13
     2   8    -0.00  -0.00   0.99

 -------------------
 - Thermochemistry -
 -------------------
 Temperature   298.150 Kelvin.  Pressure   1.00000 Atm.
 Atom     1 has atomic number 50 and mass 117.90180
 Atom     2 has atomic number  8 and mass  15.99491
 Molecular mass:   133.89671 amu.
 Principal axes and moments of inertia in atomic units:
                           1         2         3
     Eigenvalues --     0.00000 171.22977 171.22977
           X            0.00000  -0.00000   1.00000
           Y            0.00000   1.00000   0.00000
           Z            1.00000   0.00000   0.00000
 This molecule is a prolate symmetric top.
 Rotational symmetry number  1.
 Rotational temperature (Kelvin)      0.50583
 Rotational constant (GHZ):          10.539880
 Zero-point vibrational energy       4824.1 (Joules/Mol)
                                    1.15299 (Kcal/Mol)
 Vibrational temperatures:   1160.41
          (Kelvin)
 
 Zero-point correction=                           0.001837 (Hartree/Particle)
 Thermal correction to Energy=                    0.004274
 Thermal correction to Enthalpy=                  0.005219
 Thermal correction to Gibbs Free Energy=        -0.021129
 Sum of electronic and zero-point Energies=           -289.491235
 Sum of electronic and thermal Energies=              -289.488798
 Sum of electronic and thermal Enthalpies=            -289.487853
 Sum of electronic and thermal Free Energies=         -289.514201
 
                     E (Thermal)             CV                S
                      KCal/Mol        Cal/Mol-Kelvin    Cal/Mol-Kelvin
 Total                    2.682              5.608             55.454
 Electronic               0.000              0.000              0.000
 Translational            0.889              2.981             40.588
 Rotational               0.592              1.987             14.664
 Vibrational              1.201              0.640              0.202
                       Q            Log10(Q)             Ln(Q)
 Total Bot       0.523413D+10          9.718844         22.378466
 Total V=0       0.366428D+11         10.563988         24.324481
 Vib (Bot)       0.145817D+00         -0.836191         -1.925401
 Vib (V=0)       0.102083D+01          0.008953          0.020615
 Electronic      0.100000D+01          0.000000          0.000000
 Translational   0.608988D+08          7.784609         17.924724
 Rotational      0.589422D+03          2.770426          6.379142
 ***** Axes restored to original set *****
 -------------------------------------------------------------------
 Center     Atomic                   Forces (Hartrees/Bohr)
 Number     Number              X              Y              Z
 -------------------------------------------------------------------
      1       50          -0.000000000   -0.000000000    0.000001188
      2        8          -0.000000000   -0.000000000   -0.000001188
 -------------------------------------------------------------------
 Cartesian Forces:  Max     0.000001188 RMS     0.000000686
 FormGI is forming the generalized inverse of G from B-inverse, IUseBI=4.

 GradGradGradGradGradGradGradGradGradGradGradGradGradGradGradGradGradGrad
 Berny optimization.
 Internal  Forces:  Max     0.000001188 RMS     0.000001188
 Search for a local minimum.
 Step number   1 out of a maximum of    2
 All quantities printed in internal units (Hartrees-Bohrs-Radians)
 Second derivative matrix not updated -- analytic derivatives used.
 The second derivative matrix:
                          R1
           R1           0.34670
 ITU=  0
     Eigenvalues ---    0.34670
 Angle between quadratic step and forces=   0.00 degrees.
 Linear search not attempted -- first point.
 Iteration  1 RMS(Cart)=  0.00000242 RMS(Int)=  0.00000000
 Iteration  2 RMS(Cart)=  0.00000000 RMS(Int)=  0.00000000
 ClnCor:  largest displacement from symmetrization is 0.00D+00 for atom     0.
 Variable       Old X    -DE/DX   Delta X   Delta X   Delta X     New X
                                 (Linear)    (Quad)   (Total)
    R1        3.48677  -0.00000   0.00000  -0.00000  -0.00000   3.48677
         Item               Value     Threshold  Converged?
 Maximum Force            0.000001     0.000450     YES
 RMS     Force            0.000001     0.000300     YES
 Maximum Displacement     0.000002     0.001800     YES
 RMS     Displacement     0.000002     0.001200     YES
 Predicted change in Energy=-2.036151D-12
 Optimization completed.
    -- Stationary point found.
                           ----------------------------
                           !   Optimized Parameters   !
                           ! (Angstroms and Degrees)  !
 --------------------------                            --------------------------
 ! Name  Definition              Value          Derivative Info.                !
 --------------------------------------------------------------------------------
 ! R1    R(1,2)                  1.8451         -DE/DX =    0.0                 !
 --------------------------------------------------------------------------------
 GradGradGradGradGradGradGradGradGradGradGradGradGradGradGradGradGradGrad


 ----------------------------------------------------------------------

 Electric dipole moment (input orientation):
 (Debye = 10**-18 statcoulomb cm , SI units = C m)
                  (au)            (Debye)         (10**-30 SI)
   Tot        0.157295D+01      0.399805D+01      0.133361D+02
   x          0.000000D+00      0.000000D+00      0.000000D+00
   y          0.000000D+00      0.000000D+00      0.000000D+00
   z         -0.157295D+01     -0.399805D+01     -0.133361D+02

 Dipole polarizability, Alpha (input orientation).
 (esu units = cm**3 , SI units = C**2 m**2 J**-1)
 Alpha(0;0):
               (au)            (10**-24 esu)      (10**-40 SI)
   iso        0.424546D+02      0.629113D+01      0.699982D+01
   aniso      0.175753D+02      0.260440D+01      0.289778D+01
   xx         0.365962D+02      0.542299D+01      0.603389D+01
   yx         0.000000D+00      0.000000D+00      0.000000D+00
   yy         0.365962D+02      0.542299D+01      0.603389D+01
   zx         0.000000D+00      0.000000D+00      0.000000D+00
   zy         0.000000D+00      0.000000D+00      0.000000D+00
   zz         0.541715D+02      0.802739D+01      0.893168D+01

 ----------------------------------------------------------------------

 Dipole orientation:
    50         15.11780900        -15.11780900        -13.37442353
     8         15.11780900        -15.11780900        -16.86119447

 Electric dipole moment (dipole orientation):
 (Debye = 10**-18 statcoulomb cm , SI units = C m)
                  (au)            (Debye)         (10**-30 SI)
   Tot        0.157295D+01      0.399805D+01      0.133361D+02
   x          0.000000D+00      0.000000D+00      0.000000D+00
   y          0.000000D+00      0.000000D+00      0.000000D+00
   z          0.157295D+01      0.399805D+01      0.133361D+02

 Dipole polarizability, Alpha (dipole orientation).
 (esu units = cm**3 , SI units = C**2 m**2 J**-1)
 Alpha(0;0):
               (au)            (10**-24 esu)      (10**-40 SI)
   iso        0.424546D+02      0.629113D+01      0.699982D+01
   aniso      0.175753D+02      0.260440D+01      0.289778D+01
   xx         0.365962D+02      0.542299D+01      0.603389D+01
   yx         0.000000D+00      0.000000D+00      0.000000D+00
   yy         0.365962D+02      0.542299D+01      0.603389D+01
   zx         0.000000D+00      0.000000D+00      0.000000D+00
   zy         0.000000D+00      0.000000D+00      0.000000D+00
   zz         0.541715D+02      0.802739D+01      0.893168D+01

 ----------------------------------------------------------------------
 Unable to Open any file for archive entry.
 1\1\GINC-TCOPT10\Freq\RPBEPBE\def2QZVPP\O1Sn1\HUTTER\30-Jul-2021\0\\#N
  Geom=AllCheck Guess=TCheck SCRF=Check GenChk RPBEPBE/def2QZVPP Freq\\
 Mol job 1\\0,1\Sn,8.,8.,7.0774401388\O,8.,8.,8.9225598612\\Version=ES6
 4L-G16RevC.01\State=1-SG\HF=-289.4930719\RMSD=1.639e-09\RMSF=6.860e-07
 \ZeroPoint=0.0018374\Thermal=0.0042744\ETot=-289.4887975\HTot=-289.487
 8534\GTot=-289.5142014\Dipole=0.,0.,-1.5729535\DipoleDeriv=0.4511159,0
 .,0.,0.,0.4511159,0.,0.,0.,0.8820662,-0.4511159,0.,0.,0.,-0.4511159,0.
 ,0.,0.,-0.8820662\Polar=36.5961715,0.,36.5961715,0.,0.,54.1715194\Quad
 rupole=2.2913051,2.2913051,-4.5826102,0.,0.,0.\PG=C*V [C*(O1Sn1)]\NIma
 g=0\\-0.00017625,0.,-0.00017625,0.,0.,0.34670438,0.00017625,0.,0.,-0.0
 0017625,0.,0.00017625,0.,0.,-0.00017625,0.,0.,-0.34670438,0.,0.,0.3467
 0438\\0.,0.,-0.00000119,0.,0.,0.00000119\\\@
 The archive entry for this job was punched.


 Boundary, n.  In political geography, an imaginary
 line between two nations, separating the imaginary
 rights of one from the imaginary rights of another.
                               -- Ambrose Bierce
 Job cpu time:       0 days  0 hours 10 minutes  9.2 seconds.
 Elapsed time:       0 days  0 hours  1 minutes 16.6 seconds.
 File lengths (MBytes):  RWF=     15 Int=      0 D2E=      0 Chk=      3 Scr=      1
 Normal termination of Gaussian 16 at Fri Jul 30 20:11:16 2021.
