 Entering Gaussian System, Link 0=g16
 Initial command:
 /sw-ng/spack/opt/spack/linux-opensuse_leap15-sandybridge/pgi-18.10/gaussian-src-16-C.01-zldqaomctopxhethwccpmxmwefdscg3m/g16/l1.exe "/data/hutter/SMG16/PBE/Gau-11572.inp" -scrdir="/data/hutter/SMG16/PBE/"
 Entering Link 1 = /sw-ng/spack/opt/spack/linux-opensuse_leap15-sandybridge/pgi-18.10/gaussian-src-16-C.01-zldqaomctopxhethwccpmxmwefdscg3m/g16/l1.exe PID=     11579.
  
 Copyright (c) 1988-2019, Gaussian, Inc.  All Rights Reserved.
  
 This is part of the Gaussian(R) 16 program.  It is based on
 the Gaussian(R) 09 system (copyright 2009, Gaussian, Inc.),
 the Gaussian(R) 03 system (copyright 2003, Gaussian, Inc.),
 the Gaussian(R) 98 system (copyright 1998, Gaussian, Inc.),
 the Gaussian(R) 94 system (copyright 1995, Gaussian, Inc.),
 the Gaussian 92(TM) system (copyright 1992, Gaussian, Inc.),
 the Gaussian 90(TM) system (copyright 1990, Gaussian, Inc.),
 the Gaussian 88(TM) system (copyright 1988, Gaussian, Inc.),
 the Gaussian 86(TM) system (copyright 1986, Carnegie Mellon
 University), and the Gaussian 82(TM) system (copyright 1983,
 Carnegie Mellon University). Gaussian is a federally registered
 trademark of Gaussian, Inc.
  
 This software contains proprietary and confidential information,
 including trade secrets, belonging to Gaussian, Inc.
  
 This software is provided under written license and may be
 used, copied, transmitted, or stored only in accord with that
 written license.
  
 The following legend is applicable only to US Government
 contracts under FAR:
  
                    RESTRICTED RIGHTS LEGEND
  
 Use, reproduction and disclosure by the US Government is
 subject to restrictions as set forth in subparagraphs (a)
 and (c) of the Commercial Computer Software - Restricted
 Rights clause in FAR 52.227-19.
  
 Gaussian, Inc.
 340 Quinnipiac St., Bldg. 40, Wallingford CT 06492
  
  
 ---------------------------------------------------------------
 Warning -- This program may not be used in any manner that
 competes with the business of Gaussian, Inc. or will provide
 assistance to any competitor of Gaussian, Inc.  The licensee
 of this program is prohibited from giving any competitor of
 Gaussian, Inc. access to this program.  By using this program,
 the user acknowledges that Gaussian, Inc. is engaged in the
 business of creating and licensing software in the field of
 computational chemistry and represents and warrants to the
 licensee that it is not a competitor of Gaussian, Inc. and that
 it will not use this program in any manner prohibited above.
 ---------------------------------------------------------------
  

 Cite this work as:
 Gaussian 16, Revision C.01,
 M. J. Frisch, G. W. Trucks, H. B. Schlegel, G. E. Scuseria, 
 M. A. Robb, J. R. Cheeseman, G. Scalmani, V. Barone, 
 G. A. Petersson, H. Nakatsuji, X. Li, M. Caricato, A. V. Marenich, 
 J. Bloino, B. G. Janesko, R. Gomperts, B. Mennucci, H. P. Hratchian, 
 J. V. Ortiz, A. F. Izmaylov, J. L. Sonnenberg, D. Williams-Young, 
 F. Ding, F. Lipparini, F. Egidi, J. Goings, B. Peng, A. Petrone, 
 T. Henderson, D. Ranasinghe, V. G. Zakrzewski, J. Gao, N. Rega, 
 G. Zheng, W. Liang, M. Hada, M. Ehara, K. Toyota, R. Fukuda, 
 J. Hasegawa, M. Ishida, T. Nakajima, Y. Honda, O. Kitao, H. Nakai, 
 T. Vreven, K. Throssell, J. A. Montgomery, Jr., J. E. Peralta, 
 F. Ogliaro, M. J. Bearpark, J. J. Heyd, E. N. Brothers, K. N. Kudin, 
 V. N. Staroverov, T. A. Keith, R. Kobayashi, J. Normand, 
 K. Raghavachari, A. P. Rendell, J. C. Burant, S. S. Iyengar, 
 J. Tomasi, M. Cossi, J. M. Millam, M. Klene, C. Adamo, R. Cammi, 
 J. W. Ochterski, R. L. Martin, K. Morokuma, O. Farkas, 
 J. B. Foresman, and D. J. Fox, Gaussian, Inc., Wallingford CT, 2019.
 
 ******************************************
 Gaussian 16:  ES64L-G16RevC.01  3-Jul-2019
                30-Jul-2021 
 ******************************************
 %mem=8GB
 %NProcShare=8
 Will use up to    8 processors via shared memory.
 -----------------------------------------------------------
 #N RPBEPBE/Def2QZVPP scf=tight Int(Grid=ultrafine) OPT FREQ
 -----------------------------------------------------------
 1/18=20,19=15,26=4,38=1/1,3;
 2/9=110,12=2,17=6,18=5,40=1/2;
 3/5=45,7=202,11=2,25=1,30=1,71=1,74=1009,75=-5,116=1/1,2,3;
 4//1;
 5/5=2,32=2,38=5/2;
 6/7=2,8=2,9=2,10=2,28=1/1;
 7//1,2,3,16;
 1/18=20,19=15,26=4/3(2);
 2/9=110/2;
 99//99;
 2/9=110/2;
 3/5=45,7=202,11=2,25=1,30=1,71=1,74=1009,75=-5,116=1/1,2,3;
 4/5=5,16=3,69=1/1;
 5/5=2,32=2,38=5/2;
 7//1,2,3,16;
 1/18=20,19=15,26=4/3(-5);
 2/9=110/2;
 6/7=2,8=2,9=2,10=2,19=2,28=1/1;
 99/9=1/99;
 ---------
 Mol job 1
 ---------
 Symbolic Z-matrix:
 Charge =  0 Multiplicity = 1
 Ga                    8.        8.        7.10182 
 F                     8.        8.        8.89818 
 

 GradGradGradGradGradGradGradGradGradGradGradGradGradGradGradGradGradGrad
 Berny optimization.
 Initialization pass.
                           ----------------------------
                           !    Initial Parameters    !
                           ! (Angstroms and Degrees)  !
 --------------------------                            --------------------------
 ! Name  Definition              Value          Derivative Info.                !
 --------------------------------------------------------------------------------
 ! R1    R(1,2)                  1.7964         estimate D2E/DX2                !
 --------------------------------------------------------------------------------
 Trust Radius=3.00D-01 FncErr=1.00D-07 GrdErr=1.00D-06 EigMax=2.50D+02 EigMin=1.00D-04
 Number of steps in this run=     20 maximum allowed number of steps=    100.
 GradGradGradGradGradGradGradGradGradGradGradGradGradGradGradGradGradGrad

                          Input orientation:                          
 ---------------------------------------------------------------------
 Center     Atomic      Atomic             Coordinates (Angstroms)
 Number     Number       Type             X           Y           Z
 ---------------------------------------------------------------------
      1         31           0        8.000000    8.000000    7.101817
      2          9           0        8.000000    8.000000    8.898183
 ---------------------------------------------------------------------
 Stoichiometry    FGa
 Framework group  C*V[C*(FGa)]
 Deg. of freedom     1
 Full point group                 C*V     NOp   4
 Largest Abelian subgroup         C2V     NOp   4
 Largest concise Abelian subgroup C1      NOp   1
                         Standard orientation:                         
 ---------------------------------------------------------------------
 Center     Atomic      Atomic             Coordinates (Angstroms)
 Number     Number       Type             X           Y           Z
 ---------------------------------------------------------------------
      1         31           0        0.000000    0.000000    0.404182
      2          9           0        0.000000    0.000000   -1.392184
 ---------------------------------------------------------------------
 Rotational constants (GHZ):           0.0000000          10.5156774          10.5156774
 Standard basis: def2QZVPP (5D, 7F)
 There are    80 symmetry adapted cartesian basis functions of A1  symmetry.
 There are    19 symmetry adapted cartesian basis functions of A2  symmetry.
 There are    42 symmetry adapted cartesian basis functions of B1  symmetry.
 There are    42 symmetry adapted cartesian basis functions of B2  symmetry.
 There are    61 symmetry adapted basis functions of A1  symmetry.
 There are    17 symmetry adapted basis functions of A2  symmetry.
 There are    34 symmetry adapted basis functions of B1  symmetry.
 There are    34 symmetry adapted basis functions of B2  symmetry.
   146 basis functions,   288 primitive gaussians,   183 cartesian basis functions
    20 alpha electrons       20 beta electrons
       nuclear repulsion energy        82.1883859533 Hartrees.
 NAtoms=    2 NActive=    2 NUniq=    2 SFac= 1.00D+00 NAtFMM=   60 NAOKFM=F Big=F
 Integral buffers will be    131072 words long.
 Raffenetti 2 integral format.
 Two-electron integral symmetry is turned on.
 One-electron integrals computed using PRISM.
   4 Symmetry operations used in ECPInt.
 ECPInt:  NShTT=     990 NPrTT=    3992 LenC2=     970 LenP2D=    3462.
 LDataN:  DoStor=T MaxTD1= 8 Len=  415
 NBasis=   146 RedAO= T EigKep=  1.03D-03  NBF=    61    17    34    34
 NBsUse=   146 1.00D-06 EigRej= -1.00D+00 NBFU=    61    17    34    34
 ExpMin= 4.16D-02 ExpMax= 6.62D+06 ExpMxC= 7.43D+03 IAcc=3 IRadAn=         5 AccDes= 0.00D+00
 Harris functional with IExCor= 1009 and IRadAn=       5 diagonalized for initial guess.
 HarFok:  IExCor= 1009 AccDes= 0.00D+00 IRadAn=         5 IDoV= 1 UseB2=F ITyADJ=14
 ICtDFT=  3500011 ScaDFX=  1.000000  1.000000  1.000000  1.000000
 FoFCou: FMM=F IPFlag=           0 FMFlag=      100000 FMFlg1=           0
         NFxFlg=           0 DoJE=T BraDBF=F KetDBF=T FulRan=T
         wScrn=  0.000000 ICntrl=       500 IOpCl=  0 I1Cent=   200000004 NGrid=           0
         NMat0=    1 NMatS0=      1 NMatT0=    0 NMatD0=    1 NMtDS0=    0 NMtDT0=    0
 Petite list used in FoFCou.
 Initial guess orbital symmetries:
       Occupied  (SG) (SG) (SG) (PI) (PI) (SG) (SG) (SG) (PI) (PI)
                 (SG) (SG) (PI) (PI) (DLTA) (DLTA) (SG) (PI) (PI)
                 (SG)
       Virtual   (PI) (PI) (SG) (SG) (PI) (PI) (SG) (DLTA) (DLTA)
                 (PI) (PI) (SG) (SG) (PI) (PI) (DLTA) (DLTA) (PHI)
                 (PHI) (SG) (PI) (PI) (SG) (SG) (PI) (PI) (DLTA)
                 (DLTA) (PI) (PI) (SG) (SG) (DLTA) (DLTA) (PI)
                 (PI) (SG) (PI) (PI) (DLTA) (DLTA) (PHI) (PHI)
                 (PHI) (PHI) (?A) (?A) (SG) (PI) (PI) (DLTA) (DLTA)
                 (SG) (PI) (PI) (SG) (DLTA) (DLTA) (PI) (PI) (SG)
                 (SG) (SG) (PHI) (PHI) (DLTA) (DLTA) (PI) (PI)
                 (SG) (DLTA) (DLTA) (PI) (PI) (SG) (PI) (PI) (SG)
                 (PI) (PI) (PHI) (PHI) (DLTA) (DLTA) (PI) (PI)
                 (SG) (SG) (PHI) (PHI) (?A) (?A) (DLTA) (DLTA)
                 (PI) (PI) (SG) (PHI) (PHI) (DLTA) (DLTA) (PI)
                 (PI) (SG) (SG) (DLTA) (DLTA) (SG) (PI) (PI) (SG)
                 (PHI) (PHI) (DLTA) (DLTA) (PI) (PI) (SG) (SG)
                 (SG) (PI) (PI) (SG) (SG) (SG) (SG)
 The electronic state of the initial guess is 1-SG.
 Keep J ints in memory in symmetry-blocked form, NReq=72283602.
 Requested convergence on RMS density matrix=1.00D-08 within 128 cycles.
 Requested convergence on MAX density matrix=1.00D-06.
 Requested convergence on             energy=1.00D-06.
 No special actions if energy rises.
 EnCoef did     6 forward-backward iterations
 SCF Done:  E(RPBE-PBE) =  -2024.46839861     A.U. after   12 cycles
            NFock= 12  Conv=0.25D-08     -V/T= 2.0018

 **********************************************************************

            Population analysis using the SCF Density.

 **********************************************************************

 Orbital symmetries:
       Occupied  (SG) (SG) (PI) (PI) (SG) (SG) (SG) (PI) (PI) (SG)
                 (SG) (DLTA) (DLTA) (PI) (PI) (SG) (SG) (PI) (PI)
                 (SG)
       Virtual   (PI) (PI) (SG) (SG) (PI) (PI) (SG) (DLTA) (DLTA)
                 (PI) (PI) (SG) (SG) (PI) (PI) (DLTA) (DLTA) (PHI)
                 (PHI) (SG) (PI) (PI) (SG) (SG) (PI) (PI) (DLTA)
                 (DLTA) (PI) (PI) (SG) (SG) (DLTA) (DLTA) (PI)
                 (PI) (SG) (PHI) (PHI) (DLTA) (DLTA) (PI) (PI)
                 (?A) (?A) (PHI) (PHI) (SG) (PI) (PI) (DLTA) (DLTA)
                 (SG) (PI) (PI) (SG) (DLTA) (DLTA) (PI) (PI) (SG)
                 (SG) (SG) (PHI) (PHI) (DLTA) (DLTA) (PI) (PI)
                 (SG) (DLTA) (DLTA) (PI) (PI) (SG) (PI) (PI) (SG)
                 (PHI) (PHI) (DLTA) (DLTA) (PI) (PI) (PI) (PI)
                 (SG) (SG) (PHI) (PHI) (?A) (?A) (DLTA) (DLTA)
                 (PI) (PI) (SG) (PHI) (PHI) (DLTA) (DLTA) (PI)
                 (PI) (SG) (SG) (SG) (DLTA) (DLTA) (PI) (PI) (SG)
                 (PHI) (PHI) (DLTA) (DLTA) (PI) (PI) (SG) (SG)
                 (SG) (PI) (PI) (SG) (SG) (SG) (SG)
 The electronic state is 1-SG.
 Alpha  occ. eigenvalues -- -370.93670 -45.32710 -40.17074 -40.17074 -40.16774
 Alpha  occ. eigenvalues --  -24.19790  -5.26688  -3.59474  -3.59474  -3.58691
 Alpha  occ. eigenvalues --   -1.01151  -0.73119  -0.73119  -0.72585  -0.72585
 Alpha  occ. eigenvalues --   -0.72143  -0.38755  -0.31567  -0.31567  -0.24982
 Alpha virt. eigenvalues --   -0.07992  -0.07992  -0.00878   0.05797   0.09300
 Alpha virt. eigenvalues --    0.09300   0.13859   0.16320   0.16320   0.20100
 Alpha virt. eigenvalues --    0.20100   0.22190   0.39037   0.42148   0.42148
 Alpha virt. eigenvalues --    0.51268   0.51268   0.52055   0.52055   0.57348
 Alpha virt. eigenvalues --    0.62211   0.62211   0.62374   0.67711   0.67918
 Alpha virt. eigenvalues --    0.67918   0.75581   0.75581   0.77172   0.77172
 Alpha virt. eigenvalues --    0.90161   1.18347   1.35389   1.35389   1.50620
 Alpha virt. eigenvalues --    1.50620   1.60988   1.64160   1.64160   1.64301
 Alpha virt. eigenvalues --    1.64302   1.68408   1.68408   1.69679   1.69680
 Alpha virt. eigenvalues --    1.69849   1.69849   1.78077   1.80047   1.80047
 Alpha virt. eigenvalues --    1.88522   1.88522   1.99395   2.32906   2.32906
 Alpha virt. eigenvalues --    2.35731   2.58260   2.58262   2.71068   2.71068
 Alpha virt. eigenvalues --    2.80471   3.63569   4.02813   4.10586   4.10586
 Alpha virt. eigenvalues --    4.23470   4.23470   4.38298   4.38298   4.54591
 Alpha virt. eigenvalues --    4.97961   4.97961   5.32160   5.32160   5.39649
 Alpha virt. eigenvalues --    5.79061   5.79061   5.95895   6.06691   6.06691
 Alpha virt. eigenvalues --    6.08118   6.08120   6.10817   6.10817   6.37221
 Alpha virt. eigenvalues --    6.37221   6.67187   7.48129  11.28518  11.28518
 Alpha virt. eigenvalues --   11.29240  11.29241  11.29570  11.29570  11.31679
 Alpha virt. eigenvalues --   11.31679  11.36216  14.41574  14.41574  14.48443
 Alpha virt. eigenvalues --   14.48443  14.63960  14.63960  14.69299  14.93751
 Alpha virt. eigenvalues --   15.48783  15.65307  15.65307  15.94076  15.94076
 Alpha virt. eigenvalues --   16.17912  21.17459  21.17459  21.18159  21.18167
 Alpha virt. eigenvalues --   21.25278  21.25278  21.30346  53.49645  53.81939
 Alpha virt. eigenvalues --  177.35031 177.35031 180.20599 182.22204 284.10439
 Alpha virt. eigenvalues -- 1124.68557
          Condensed to atoms (all electrons):
               1          2
     1  Ga  30.333689   0.218527
     2  F    0.218527   9.229257
 Mulliken charges:
               1
     1  Ga   0.447784
     2  F   -0.447784
 Sum of Mulliken charges =  -0.00000
 Mulliken charges with hydrogens summed into heavy atoms:
               1
     1  Ga   0.447784
     2  F   -0.447784
 Electronic spatial extent (au):  <R**2>=            127.8761
 Charge=             -0.0000 electrons
 Dipole moment (field-independent basis, Debye):
    X=              0.0000    Y=              0.0000    Z=              2.2152  Tot=              2.2152
 Quadrupole moment (field-independent basis, Debye-Ang):
   XX=            -19.2205   YY=            -19.2205   ZZ=            -25.4469
   XY=              0.0000   XZ=              0.0000   YZ=              0.0000
 Traceless Quadrupole moment (field-independent basis, Debye-Ang):
   XX=              2.0755   YY=              2.0755   ZZ=             -4.1509
   XY=              0.0000   XZ=              0.0000   YZ=              0.0000
 Octapole moment (field-independent basis, Debye-Ang**2):
  XXX=              0.0000  YYY=              0.0000  ZZZ=              6.1386  XYY=              0.0000
  XXY=              0.0000  XXZ=              1.0086  XZZ=              0.0000  YZZ=              0.0000
  YYZ=              1.0086  XYZ=              0.0000
 Hexadecapole moment (field-independent basis, Debye-Ang**3):
 XXXX=            -22.0819 YYYY=            -22.0819 ZZZZ=           -115.6264 XXXY=              0.0000
 XXXZ=              0.0000 YYYX=              0.0000 YYYZ=              0.0000 ZZZX=              0.0000
 ZZZY=              0.0000 XXYY=             -7.3606 XXZZ=            -22.0019 YYZZ=            -22.0019
 XXYZ=              0.0000 YYXZ=              0.0000 ZZXY=              0.0000
 N-N= 8.218838595335D+01 E-N=-5.008698624083D+03  KE= 2.020912208444D+03
 Symmetry A1   KE= 1.505541332254D+03
 Symmetry A2   KE= 2.574835302200D+01
 Symmetry B1   KE= 2.448112615844D+02
 Symmetry B2   KE= 2.448112615844D+02
   4 Symmetry operations used in ECPInt.
 ECPInt:  NShTT=     990 NPrTT=    3992 LenC2=     970 LenP2D=    3462.
 LDataN:  DoStor=T MaxTD1= 9 Len=  602
 Calling FoFJK, ICntrl=      2527 FMM=F ISym2X=1 I1Cent= 0 IOpClX= 0 NMat=1 NMatS=1 NMatT=0.
 ***** Axes restored to original set *****
 -------------------------------------------------------------------
 Center     Atomic                   Forces (Hartrees/Bohr)
 Number     Number              X              Y              Z
 -------------------------------------------------------------------
      1       31          -0.000000000   -0.000000000   -0.003723569
      2        9          -0.000000000   -0.000000000    0.003723569
 -------------------------------------------------------------------
 Cartesian Forces:  Max     0.003723569 RMS     0.002149804

 GradGradGradGradGradGradGradGradGradGradGradGradGradGradGradGradGradGrad
 Berny optimization.
 FormGI is forming the generalized inverse of G from B-inverse, IUseBI=4.
 Internal  Forces:  Max     0.003723569 RMS     0.003723569
 Search for a local minimum.
 Step number   1 out of a maximum of   20
 All quantities printed in internal units (Hartrees-Bohrs-Radians)
 Mixed Optimization -- RFO/linear search
 Second derivative matrix not updated -- first step.
 The second derivative matrix:
                          R1
           R1           0.24417
 ITU=  0
     Eigenvalues ---    0.24417
 RFO step:  Lambda=-5.67706638D-05 EMin= 2.44170897D-01
 Linear search not attempted -- first point.
 Iteration  1 RMS(Cart)=  0.01078076 RMS(Int)=  0.00000000
 Iteration  2 RMS(Cart)=  0.00000000 RMS(Int)=  0.00000000
 ClnCor:  largest displacement from symmetrization is 0.00D+00 for atom     0.
 Variable       Old X    -DE/DX   Delta X   Delta X   Delta X     New X
                                 (Linear)    (Quad)   (Total)
    R1        3.39464   0.00372   0.00000   0.01525   0.01525   3.40989
         Item               Value     Threshold  Converged?
 Maximum Force            0.003724     0.000450     NO 
 RMS     Force            0.003724     0.000300     NO 
 Maximum Displacement     0.007623     0.001800     NO 
 RMS     Displacement     0.010781     0.001200     NO 
 Predicted change in Energy=-2.839193D-05
 GradGradGradGradGradGradGradGradGradGradGradGradGradGradGradGradGradGrad

                          Input orientation:                          
 ---------------------------------------------------------------------
 Center     Atomic      Atomic             Coordinates (Angstroms)
 Number     Number       Type             X           Y           Z
 ---------------------------------------------------------------------
      1         31           0        8.000000    8.000000    7.097783
      2          9           0        8.000000    8.000000    8.902217
 ---------------------------------------------------------------------
 Stoichiometry    FGa
 Framework group  C*V[C*(FGa)]
 Deg. of freedom     1
 Full point group                 C*V     NOp   4
 Largest Abelian subgroup         C2V     NOp   4
 Largest concise Abelian subgroup C1      NOp   1
                         Standard orientation:                         
 ---------------------------------------------------------------------
 Center     Atomic      Atomic             Coordinates (Angstroms)
 Number     Number       Type             X           Y           Z
 ---------------------------------------------------------------------
      1         31           0        0.000000    0.000000    0.405998
      2          9           0        0.000000    0.000000   -1.398437
 ---------------------------------------------------------------------
 Rotational constants (GHZ):           0.0000000          10.4218521          10.4218521
 Standard basis: def2QZVPP (5D, 7F)
 There are    80 symmetry adapted cartesian basis functions of A1  symmetry.
 There are    19 symmetry adapted cartesian basis functions of A2  symmetry.
 There are    42 symmetry adapted cartesian basis functions of B1  symmetry.
 There are    42 symmetry adapted cartesian basis functions of B2  symmetry.
 There are    61 symmetry adapted basis functions of A1  symmetry.
 There are    17 symmetry adapted basis functions of A2  symmetry.
 There are    34 symmetry adapted basis functions of B1  symmetry.
 There are    34 symmetry adapted basis functions of B2  symmetry.
   146 basis functions,   288 primitive gaussians,   183 cartesian basis functions
    20 alpha electrons       20 beta electrons
       nuclear repulsion energy        81.8209047912 Hartrees.
 NAtoms=    2 NActive=    2 NUniq=    2 SFac= 1.00D+00 NAtFMM=   60 NAOKFM=F Big=F
 Integral buffers will be    131072 words long.
 Raffenetti 2 integral format.
 Two-electron integral symmetry is turned on.
 One-electron integrals computed using PRISM.
   4 Symmetry operations used in ECPInt.
 ECPInt:  NShTT=     990 NPrTT=    3992 LenC2=     970 LenP2D=    3461.
 LDataN:  DoStor=T MaxTD1= 8 Len=  415
 NBasis=   146 RedAO= T EigKep=  1.03D-03  NBF=    61    17    34    34
 NBsUse=   146 1.00D-06 EigRej= -1.00D+00 NBFU=    61    17    34    34
 Initial guess from the checkpoint file:  "/data/hutter/SMG16/PBE/Gau-11579.chk"
 B after Tr=     0.000000    0.000000   -0.000000
         Rot=    1.000000    0.000000    0.000000    0.000000 Ang=   0.00 deg.
 Initial guess orbital symmetries:
       Occupied  (SG) (SG) (PI) (PI) (SG) (SG) (SG) (PI) (PI) (SG)
                 (SG) (DLTA) (DLTA) (PI) (PI) (SG) (SG) (PI) (PI)
                 (SG)
       Virtual   (PI) (PI) (SG) (SG) (PI) (PI) (SG) (DLTA) (DLTA)
                 (PI) (PI) (SG) (SG) (PI) (PI) (DLTA) (DLTA) (PHI)
                 (PHI) (SG) (PI) (PI) (SG) (SG) (PI) (PI) (DLTA)
                 (DLTA) (PI) (PI) (SG) (SG) (DLTA) (DLTA) (PI)
                 (PI) (SG) (PHI) (PHI) (DLTA) (DLTA) (PI) (PI)
                 (?A) (?A) (PHI) (PHI) (SG) (PI) (PI) (DLTA) (DLTA)
                 (SG) (PI) (PI) (SG) (DLTA) (DLTA) (PI) (PI) (SG)
                 (SG) (SG) (PHI) (PHI) (DLTA) (DLTA) (PI) (PI)
                 (SG) (DLTA) (DLTA) (PI) (PI) (SG) (PI) (PI) (SG)
                 (PHI) (PHI) (DLTA) (DLTA) (PI) (PI) (PI) (PI)
                 (SG) (SG) (PHI) (PHI) (?A) (?A) (DLTA) (DLTA)
                 (PI) (PI) (SG) (PHI) (PHI) (DLTA) (DLTA) (PI)
                 (PI) (SG) (SG) (SG) (DLTA) (DLTA) (PI) (PI) (SG)
                 (PHI) (PHI) (DLTA) (DLTA) (PI) (PI) (SG) (SG)
                 (SG) (PI) (PI) (SG) (SG) (SG) (SG)
 Keep J ints in memory in symmetry-blocked form, NReq=72283602.
 Requested convergence on RMS density matrix=1.00D-08 within 128 cycles.
 Requested convergence on MAX density matrix=1.00D-06.
 Requested convergence on             energy=1.00D-06.
 No special actions if energy rises.
 SCF Done:  E(RPBE-PBE) =  -2024.46843205     A.U. after    8 cycles
            NFock=  8  Conv=0.30D-08     -V/T= 2.0018
   4 Symmetry operations used in ECPInt.
 ECPInt:  NShTT=     990 NPrTT=    3992 LenC2=     970 LenP2D=    3461.
 LDataN:  DoStor=T MaxTD1= 9 Len=  602
 Calling FoFJK, ICntrl=      2527 FMM=F ISym2X=1 I1Cent= 0 IOpClX= 0 NMat=1 NMatS=1 NMatT=0.
 ***** Axes restored to original set *****
 -------------------------------------------------------------------
 Center     Atomic                   Forces (Hartrees/Bohr)
 Number     Number              X              Y              Z
 -------------------------------------------------------------------
      1       31          -0.000000000   -0.000000000   -0.000683766
      2        9          -0.000000000   -0.000000000    0.000683766
 -------------------------------------------------------------------
 Cartesian Forces:  Max     0.000683766 RMS     0.000394772

 GradGradGradGradGradGradGradGradGradGradGradGradGradGradGradGradGradGrad
 Berny optimization.
 Using GEDIIS/GDIIS optimizer.
 Internal  Forces:  Max     0.000683766 RMS     0.000683766
 Search for a local minimum.
 Step number   2 out of a maximum of   20
 All quantities printed in internal units (Hartrees-Bohrs-Radians)
 Mixed Optimization -- En-DIIS/RFO-DIIS
 Update second derivatives using D2CorX and points    1    2
 DE= -3.34D-05 DEPred=-2.84D-05 R= 1.18D+00
 TightC=F SS=  1.41D+00  RLast= 1.52D-02 DXNew= 5.0454D-01 4.5739D-02
 Trust test= 1.18D+00 RLast= 1.52D-02 DXMaxT set to 3.00D-01
 The second derivative matrix:
                          R1
           R1           0.19938
 ITU=  1  0
 Use linear search instead of GDIIS.
     Eigenvalues ---    0.19938
 RFO step:  Lambda= 0.00000000D+00 EMin= 1.99379702D-01
 Quartic linear search produced a step of  0.23090.
 Iteration  1 RMS(Cart)=  0.00248926 RMS(Int)=  0.00000000
 Iteration  2 RMS(Cart)=  0.00000000 RMS(Int)=  0.00000000
 ClnCor:  largest displacement from symmetrization is 0.00D+00 for atom     0.
 Variable       Old X    -DE/DX   Delta X   Delta X   Delta X     New X
                                 (Linear)    (Quad)   (Total)
    R1        3.40989   0.00068   0.00352  -0.00000   0.00352   3.41341
         Item               Value     Threshold  Converged?
 Maximum Force            0.000684     0.000450     NO 
 RMS     Force            0.000684     0.000300     NO 
 Maximum Displacement     0.001760     0.001800     YES
 RMS     Displacement     0.002489     0.001200     NO 
 Predicted change in Energy=-1.171652D-06
 GradGradGradGradGradGradGradGradGradGradGradGradGradGradGradGradGradGrad

                          Input orientation:                          
 ---------------------------------------------------------------------
 Center     Atomic      Atomic             Coordinates (Angstroms)
 Number     Number       Type             X           Y           Z
 ---------------------------------------------------------------------
      1         31           0        8.000000    8.000000    7.096851
      2          9           0        8.000000    8.000000    8.903149
 ---------------------------------------------------------------------
 Stoichiometry    FGa
 Framework group  C*V[C*(FGa)]
 Deg. of freedom     1
 Full point group                 C*V     NOp   4
 Largest Abelian subgroup         C2V     NOp   4
 Largest concise Abelian subgroup C1      NOp   1
                         Standard orientation:                         
 ---------------------------------------------------------------------
 Center     Atomic      Atomic             Coordinates (Angstroms)
 Number     Number       Type             X           Y           Z
 ---------------------------------------------------------------------
      1         31           0        0.000000    0.000000    0.406417
      2          9           0        0.000000    0.000000   -1.399880
 ---------------------------------------------------------------------
 Rotational constants (GHZ):           0.0000000          10.4003665          10.4003665
 Standard basis: def2QZVPP (5D, 7F)
 There are    80 symmetry adapted cartesian basis functions of A1  symmetry.
 There are    19 symmetry adapted cartesian basis functions of A2  symmetry.
 There are    42 symmetry adapted cartesian basis functions of B1  symmetry.
 There are    42 symmetry adapted cartesian basis functions of B2  symmetry.
 There are    61 symmetry adapted basis functions of A1  symmetry.
 There are    17 symmetry adapted basis functions of A2  symmetry.
 There are    34 symmetry adapted basis functions of B1  symmetry.
 There are    34 symmetry adapted basis functions of B2  symmetry.
   146 basis functions,   288 primitive gaussians,   183 cartesian basis functions
    20 alpha electrons       20 beta electrons
       nuclear repulsion energy        81.7365206633 Hartrees.
 NAtoms=    2 NActive=    2 NUniq=    2 SFac= 1.00D+00 NAtFMM=   60 NAOKFM=F Big=F
 Integral buffers will be    131072 words long.
 Raffenetti 2 integral format.
 Two-electron integral symmetry is turned on.
 One-electron integrals computed using PRISM.
   4 Symmetry operations used in ECPInt.
 ECPInt:  NShTT=     990 NPrTT=    3992 LenC2=     970 LenP2D=    3461.
 LDataN:  DoStor=T MaxTD1= 8 Len=  415
 NBasis=   146 RedAO= T EigKep=  1.03D-03  NBF=    61    17    34    34
 NBsUse=   146 1.00D-06 EigRej= -1.00D+00 NBFU=    61    17    34    34
 Initial guess from the checkpoint file:  "/data/hutter/SMG16/PBE/Gau-11579.chk"
 B after Tr=     0.000000    0.000000   -0.000000
         Rot=    1.000000    0.000000    0.000000    0.000000 Ang=   0.00 deg.
 Initial guess orbital symmetries:
       Occupied  (SG) (SG) (PI) (PI) (SG) (SG) (SG) (PI) (PI) (SG)
                 (SG) (DLTA) (DLTA) (PI) (PI) (SG) (SG) (PI) (PI)
                 (SG)
       Virtual   (PI) (PI) (SG) (SG) (PI) (PI) (SG) (DLTA) (DLTA)
                 (PI) (PI) (SG) (SG) (PI) (PI) (DLTA) (DLTA) (PHI)
                 (PHI) (SG) (PI) (PI) (SG) (SG) (PI) (PI) (DLTA)
                 (DLTA) (PI) (PI) (SG) (SG) (DLTA) (DLTA) (PI)
                 (PI) (SG) (PHI) (PHI) (DLTA) (DLTA) (PI) (PI)
                 (?A) (?A) (PHI) (PHI) (SG) (PI) (PI) (DLTA) (DLTA)
                 (SG) (PI) (PI) (SG) (DLTA) (DLTA) (PI) (PI) (SG)
                 (SG) (SG) (PHI) (PHI) (DLTA) (DLTA) (PI) (PI)
                 (SG) (DLTA) (DLTA) (PI) (PI) (SG) (PI) (PI) (SG)
                 (PHI) (PHI) (DLTA) (DLTA) (PI) (PI) (PI) (PI)
                 (SG) (SG) (PHI) (PHI) (?A) (?A) (DLTA) (DLTA)
                 (PI) (PI) (SG) (PHI) (PHI) (DLTA) (DLTA) (PI)
                 (PI) (SG) (SG) (SG) (DLTA) (DLTA) (PI) (PI) (SG)
                 (PHI) (PHI) (DLTA) (DLTA) (PI) (PI) (SG) (SG)
                 (SG) (PI) (PI) (SG) (SG) (SG) (SG)
 Keep J ints in memory in symmetry-blocked form, NReq=72283602.
 Requested convergence on RMS density matrix=1.00D-08 within 128 cycles.
 Requested convergence on MAX density matrix=1.00D-06.
 Requested convergence on             energy=1.00D-06.
 No special actions if energy rises.
 SCF Done:  E(RPBE-PBE) =  -2024.46843325     A.U. after    7 cycles
            NFock=  7  Conv=0.36D-08     -V/T= 2.0018
   4 Symmetry operations used in ECPInt.
 ECPInt:  NShTT=     990 NPrTT=    3992 LenC2=     970 LenP2D=    3461.
 LDataN:  DoStor=T MaxTD1= 9 Len=  602
 Calling FoFJK, ICntrl=      2527 FMM=F ISym2X=1 I1Cent= 0 IOpClX= 0 NMat=1 NMatS=1 NMatT=0.
 ***** Axes restored to original set *****
 -------------------------------------------------------------------
 Center     Atomic                   Forces (Hartrees/Bohr)
 Number     Number              X              Y              Z
 -------------------------------------------------------------------
      1       31          -0.000000000   -0.000000000    0.000000000
      2        9          -0.000000000   -0.000000000   -0.000000000
 -------------------------------------------------------------------
 Cartesian Forces:  Max     0.000000000 RMS     0.000000000

 GradGradGradGradGradGradGradGradGradGradGradGradGradGradGradGradGradGrad
 Berny optimization.
 Using GEDIIS/GDIIS optimizer.
 Internal  Forces:  Max     0.000000000 RMS     0.000000000
 Search for a local minimum.
 Step number   3 out of a maximum of   20
 All quantities printed in internal units (Hartrees-Bohrs-Radians)
 Mixed Optimization -- En-DIIS/RFO-DIIS
 Swapping is turned off.
 Update second derivatives using D2CorX and points    2    3
 DE= -1.20D-06 DEPred=-1.17D-06 R= 1.03D+00
 TightC=F SS=  1.41D+00  RLast= 3.52D-03 DXNew= 5.0454D-01 1.0561D-02
 Trust test= 1.03D+00 RLast= 3.52D-03 DXMaxT set to 3.00D-01
 The second derivative matrix:
                          R1
           R1           0.19423
 ITU=  1  1
     Eigenvalues ---    0.19423
 En-DIIS/RFO-DIIS/Sim-DIIS IScMMF=       -3 using points:     3    2
 RFO step:  Lambda= 0.00000000D+00.
 DidBck=F Rises=F RFO-DIIS coefs:    1.00000    0.00000
 Iteration  1 RMS(Cart)=  0.00000000 RMS(Int)=  0.00000000
 ClnCor:  largest displacement from symmetrization is 0.00D+00 for atom     0.
 Variable       Old X    -DE/DX   Delta X   Delta X   Delta X     New X
                                 (Linear)    (Quad)   (Total)
    R1        3.41341  -0.00000  -0.00000   0.00000  -0.00000   3.41341
         Item               Value     Threshold  Converged?
 Maximum Force            0.000000     0.000450     YES
 RMS     Force            0.000000     0.000300     YES
 Maximum Displacement     0.000000     0.001800     YES
 RMS     Displacement     0.000000     0.001200     YES
 Predicted change in Energy=-3.136636D-20
 Optimization completed.
    -- Stationary point found.
                           ----------------------------
                           !   Optimized Parameters   !
                           ! (Angstroms and Degrees)  !
 --------------------------                            --------------------------
 ! Name  Definition              Value          Derivative Info.                !
 --------------------------------------------------------------------------------
 ! R1    R(1,2)                  1.8063         -DE/DX =    0.0                 !
 --------------------------------------------------------------------------------
 GradGradGradGradGradGradGradGradGradGradGradGradGradGradGradGradGradGrad

                          Input orientation:                          
 ---------------------------------------------------------------------
 Center     Atomic      Atomic             Coordinates (Angstroms)
 Number     Number       Type             X           Y           Z
 ---------------------------------------------------------------------
      1         31           0        8.000000    8.000000    7.096851
      2          9           0        8.000000    8.000000    8.903149
 ---------------------------------------------------------------------
 Stoichiometry    FGa
 Framework group  C*V[C*(FGa)]
 Deg. of freedom     1
 Full point group                 C*V     NOp   4
 Largest Abelian subgroup         C2V     NOp   4
 Largest concise Abelian subgroup C1      NOp   1
                         Standard orientation:                         
 ---------------------------------------------------------------------
 Center     Atomic      Atomic             Coordinates (Angstroms)
 Number     Number       Type             X           Y           Z
 ---------------------------------------------------------------------
      1         31           0        0.000000    0.000000    0.406417
      2          9           0        0.000000    0.000000   -1.399880
 ---------------------------------------------------------------------
 Rotational constants (GHZ):           0.0000000          10.4003665          10.4003665

 **********************************************************************

            Population analysis using the SCF Density.

 **********************************************************************

 Orbital symmetries:
       Occupied  (SG) (SG) (PI) (PI) (SG) (SG) (SG) (PI) (PI) (SG)
                 (SG) (DLTA) (DLTA) (PI) (PI) (SG) (SG) (PI) (PI)
                 (SG)
       Virtual   (PI) (PI) (SG) (SG) (PI) (PI) (SG) (DLTA) (DLTA)
                 (PI) (PI) (SG) (SG) (PI) (PI) (DLTA) (DLTA) (PHI)
                 (PHI) (SG) (PI) (PI) (SG) (SG) (PI) (PI) (DLTA)
                 (DLTA) (PI) (PI) (SG) (SG) (DLTA) (DLTA) (PI)
                 (PI) (SG) (PHI) (PHI) (DLTA) (DLTA) (PI) (PI)
                 (?A) (?A) (PHI) (PHI) (SG) (PI) (PI) (DLTA) (DLTA)
                 (SG) (PI) (PI) (SG) (DLTA) (DLTA) (PI) (PI) (SG)
                 (SG) (SG) (PHI) (PHI) (DLTA) (DLTA) (PI) (PI)
                 (SG) (DLTA) (DLTA) (PI) (PI) (SG) (PI) (PI) (SG)
                 (PHI) (PHI) (DLTA) (DLTA) (PI) (PI) (PI) (PI)
                 (SG) (SG) (PHI) (PHI) (?A) (?A) (DLTA) (DLTA)
                 (PI) (PI) (SG) (PHI) (PHI) (DLTA) (DLTA) (PI)
                 (PI) (SG) (SG) (SG) (DLTA) (DLTA) (PI) (PI) (SG)
                 (PHI) (PHI) (DLTA) (DLTA) (PI) (PI) (SG) (SG)
                 (SG) (PI) (PI) (SG) (SG) (SG) (SG)
 The electronic state is 1-SG.
 Alpha  occ. eigenvalues -- -370.93763 -45.32796 -40.17160 -40.17160 -40.16865
 Alpha  occ. eigenvalues --  -24.19650  -5.26763  -3.59546  -3.59546  -3.58767
 Alpha  occ. eigenvalues --   -1.00893  -0.73189  -0.73189  -0.72651  -0.72651
 Alpha  occ. eigenvalues --   -0.72216  -0.38619  -0.31375  -0.31375  -0.25040
 Alpha virt. eigenvalues --   -0.08051  -0.08051  -0.00953   0.05772   0.09285
 Alpha virt. eigenvalues --    0.09285   0.13771   0.16302   0.16302   0.20050
 Alpha virt. eigenvalues --    0.20050   0.22132   0.38981   0.42163   0.42163
 Alpha virt. eigenvalues --    0.51271   0.51271   0.52031   0.52031   0.57414
 Alpha virt. eigenvalues --    0.62112   0.62112   0.62357   0.67689   0.67825
 Alpha virt. eigenvalues --    0.67825   0.75547   0.75548   0.77158   0.77158
 Alpha virt. eigenvalues --    0.89790   1.18222   1.35410   1.35410   1.50355
 Alpha virt. eigenvalues --    1.50355   1.60829   1.64111   1.64111   1.64277
 Alpha virt. eigenvalues --    1.64277   1.68460   1.68460   1.69637   1.69638
 Alpha virt. eigenvalues --    1.69832   1.69832   1.78020   1.79726   1.79726
 Alpha virt. eigenvalues --    1.88150   1.88150   1.99165   2.32301   2.32301
 Alpha virt. eigenvalues --    2.36070   2.58194   2.58196   2.70960   2.70960
 Alpha virt. eigenvalues --    2.79641   3.63275   4.02557   4.10679   4.10679
 Alpha virt. eigenvalues --    4.23216   4.23216   4.37876   4.37876   4.53299
 Alpha virt. eigenvalues --    4.97817   4.97817   5.31879   5.31879   5.38724
 Alpha virt. eigenvalues --    5.78753   5.78753   5.95541   6.06625   6.06625
 Alpha virt. eigenvalues --    6.07991   6.07993   6.10629   6.10629   6.36499
 Alpha virt. eigenvalues --    6.36499   6.64987   7.47491  11.28708  11.28708
 Alpha virt. eigenvalues --   11.29431  11.29431  11.29713  11.29713  11.31802
 Alpha virt. eigenvalues --   11.31802  11.36217  14.41711  14.41711  14.48342
 Alpha virt. eigenvalues --   14.48342  14.63553  14.63553  14.69111  14.92561
 Alpha virt. eigenvalues --   15.48293  15.65285  15.65285  15.93732  15.93732
 Alpha virt. eigenvalues --   16.17601  21.17386  21.17386  21.18061  21.18068
 Alpha virt. eigenvalues --   21.24979  21.24979  21.30336  53.49420  53.81374
 Alpha virt. eigenvalues --  177.34378 177.34378 180.13345 182.19389 284.09812
 Alpha virt. eigenvalues -- 1124.67906
          Condensed to atoms (all electrons):
               1          2
     1  Ga  30.331111   0.216538
     2  F    0.216538   9.235814
 Mulliken charges:
               1
     1  Ga   0.452351
     2  F   -0.452351
 Sum of Mulliken charges =   0.00000
 Mulliken charges with hydrogens summed into heavy atoms:
               1
     1  Ga   0.452351
     2  F   -0.452351
 Electronic spatial extent (au):  <R**2>=            128.7948
 Charge=              0.0000 electrons
 Dipole moment (field-independent basis, Debye):
    X=              0.0000    Y=              0.0000    Z=              2.2765  Tot=              2.2765
 Quadrupole moment (field-independent basis, Debye-Ang):
   XX=            -19.2166   YY=            -19.2166   ZZ=            -25.4919
   XY=              0.0000   XZ=              0.0000   YZ=              0.0000
 Traceless Quadrupole moment (field-independent basis, Debye-Ang):
   XX=              2.0918   YY=              2.0918   ZZ=             -4.1835
   XY=              0.0000   XZ=              0.0000   YZ=              0.0000
 Octapole moment (field-independent basis, Debye-Ang**2):
  XXX=              0.0000  YYY=              0.0000  ZZZ=              6.3782  XYY=              0.0000
  XXY=              0.0000  XXZ=              1.0567  XZZ=              0.0000  YZZ=              0.0000
  YYZ=              1.0567  XYZ=              0.0000
 Hexadecapole moment (field-independent basis, Debye-Ang**3):
 XXXX=            -22.0463 YYYY=            -22.0463 ZZZZ=           -116.6667 XXXY=              0.0000
 XXXZ=              0.0000 YYYX=              0.0000 YYYZ=              0.0000 ZZZX=              0.0000
 ZZZY=              0.0000 XXYY=             -7.3488 XXZZ=            -22.1433 YYZZ=            -22.1433
 XXYZ=              0.0000 YYXZ=              0.0000 ZZXY=              0.0000
 N-N= 8.173652066333D+01 E-N=-5.007779362941D+03  KE= 2.020899448990D+03
 Symmetry A1   KE= 1.505530424132D+03
 Symmetry A2   KE= 2.574950774005D+01
 Symmetry B1   KE= 2.448097585591D+02
 Symmetry B2   KE= 2.448097585591D+02
 Unable to Open any file for archive entry.
 1\1\GINC-TCOPT10\FOpt\RPBEPBE\def2QZVPP\F1Ga1\HUTTER\30-Jul-2021\0\\#N
  RPBEPBE/Def2QZVPP scf=tight Int(Grid=ultrafine) OPT FREQ\\Mol job 1\\
 0,1\Ga,8.,8.,7.0968514402\F,8.,8.,8.9031485598\\Version=ES64L-G16RevC.
 01\State=1-SG\HF=-2024.4684332\RMSD=3.562e-09\RMSF=6.373e-11\Dipole=0.
 ,0.,-0.8956621\Quadrupole=1.5551766,1.5551766,-3.1103532,0.,0.,0.\PG=C
 *V [C*(F1Ga1)]\\@
 The archive entry for this job was punched.


 THE MOLECULE ALSO HAS A BODY.  WHEN THIS BODY IS HIT, THE MOLECULE
 FEELS HURT ALL OVER -- A. KITAIGORODSKI
 Job cpu time:       0 days  0 hours  5 minutes 49.0 seconds.
 Elapsed time:       0 days  0 hours  0 minutes 44.8 seconds.
 File lengths (MBytes):  RWF=     16 Int=      0 D2E=      0 Chk=      3 Scr=      1
 Normal termination of Gaussian 16 at Fri Jul 30 12:45:20 2021.
 Link1:  Proceeding to internal job step number  2.
 ----------------------------------------------------------------------
 #N Geom=AllCheck Guess=TCheck SCRF=Check GenChk RPBEPBE/def2QZVPP Freq
 ----------------------------------------------------------------------
 1/10=4,29=7,30=1,38=1,40=1/1,3;
 2/12=2,40=1/2;
 3/5=45,7=202,11=2,14=-4,25=1,30=1,70=2,71=2,74=1009,75=-5,116=1,140=1/1,2,3;
 4/5=101/1;
 5/5=2,32=2,38=6,98=1/2;
 8/6=4,10=90,11=11/1;
 11/6=1,8=1,9=11,15=111,16=1/1,2,10;
 10/6=1/2;
 6/7=2,8=2,9=2,10=2,28=1/1;
 7/8=1,10=1,25=1/1,2,3,16;
 1/10=4,30=1/3;
 99//99;
 Structure from the checkpoint file:  "/data/hutter/SMG16/PBE/Gau-11579.chk"
 ---------
 Mol job 1
 ---------
 Charge =  0 Multiplicity = 1
 Redundant internal coordinates found in file.  (old form).
 Ga,0,8.,8.,7.0968514402
 F,0,8.,8.,8.9031485598
 Recover connectivity data from disk.

 GradGradGradGradGradGradGradGradGradGradGradGradGradGradGradGradGradGrad
 Berny optimization.
 Initialization pass.
                           ----------------------------
                           !    Initial Parameters    !
                           ! (Angstroms and Degrees)  !
 --------------------------                            --------------------------
 ! Name  Definition              Value          Derivative Info.                !
 --------------------------------------------------------------------------------
 ! R1    R(1,2)                  1.8063         calculate D2E/DX2 analytically  !
 --------------------------------------------------------------------------------
 Trust Radius=3.00D-01 FncErr=1.00D-07 GrdErr=1.00D-07 EigMax=2.50D+02 EigMin=1.00D-04
 Number of steps in this run=      2 maximum allowed number of steps=      2.
 GradGradGradGradGradGradGradGradGradGradGradGradGradGradGradGradGradGrad

                          Input orientation:                          
 ---------------------------------------------------------------------
 Center     Atomic      Atomic             Coordinates (Angstroms)
 Number     Number       Type             X           Y           Z
 ---------------------------------------------------------------------
      1         31           0        8.000000    8.000000    7.096851
      2          9           0        8.000000    8.000000    8.903149
 ---------------------------------------------------------------------
 Stoichiometry    FGa
 Framework group  C*V[C*(FGa)]
 Deg. of freedom     1
 Full point group                 C*V     NOp   4
 Largest Abelian subgroup         C2V     NOp   4
 Largest concise Abelian subgroup C1      NOp   1
                         Standard orientation:                         
 ---------------------------------------------------------------------
 Center     Atomic      Atomic             Coordinates (Angstroms)
 Number     Number       Type             X           Y           Z
 ---------------------------------------------------------------------
      1         31           0        0.000000    0.000000    0.406417
      2          9           0        0.000000    0.000000   -1.399880
 ---------------------------------------------------------------------
 Rotational constants (GHZ):           0.0000000          10.4003665          10.4003665
 Standard basis: def2QZVPP (5D, 7F)
 There are    80 symmetry adapted cartesian basis functions of A1  symmetry.
 There are    19 symmetry adapted cartesian basis functions of A2  symmetry.
 There are    42 symmetry adapted cartesian basis functions of B1  symmetry.
 There are    42 symmetry adapted cartesian basis functions of B2  symmetry.
 There are    61 symmetry adapted basis functions of A1  symmetry.
 There are    17 symmetry adapted basis functions of A2  symmetry.
 There are    34 symmetry adapted basis functions of B1  symmetry.
 There are    34 symmetry adapted basis functions of B2  symmetry.
   146 basis functions,   288 primitive gaussians,   183 cartesian basis functions
    20 alpha electrons       20 beta electrons
       nuclear repulsion energy        81.7365206633 Hartrees.
 NAtoms=    2 NActive=    2 NUniq=    2 SFac= 1.00D+00 NAtFMM=   60 NAOKFM=F Big=F
 Integral buffers will be    131072 words long.
 Raffenetti 2 integral format.
 Two-electron integral symmetry is turned on.
 One-electron integrals computed using PRISM.
   4 Symmetry operations used in ECPInt.
 ECPInt:  NShTT=     990 NPrTT=    3992 LenC2=     970 LenP2D=    3461.
 LDataN:  DoStor=T MaxTD1= 8 Len=  415
 NBasis=   146 RedAO= T EigKep=  1.03D-03  NBF=    61    17    34    34
 NBsUse=   146 1.00D-06 EigRej= -1.00D+00 NBFU=    61    17    34    34
 Initial guess from the checkpoint file:  "/data/hutter/SMG16/PBE/Gau-11579.chk"
 B after Tr=     0.000000    0.000000    0.000000
         Rot=    1.000000    0.000000    0.000000    0.000000 Ang=   0.00 deg.
 Initial guess orbital symmetries:
       Occupied  (SG) (SG) (PI) (PI) (SG) (SG) (SG) (PI) (PI) (SG)
                 (SG) (DLTA) (DLTA) (PI) (PI) (SG) (SG) (PI) (PI)
                 (SG)
       Virtual   (PI) (PI) (SG) (SG) (PI) (PI) (SG) (DLTA) (DLTA)
                 (PI) (PI) (SG) (SG) (PI) (PI) (DLTA) (DLTA) (PHI)
                 (PHI) (SG) (PI) (PI) (SG) (SG) (PI) (PI) (DLTA)
                 (DLTA) (PI) (PI) (SG) (SG) (DLTA) (DLTA) (PI)
                 (PI) (SG) (PHI) (PHI) (DLTA) (DLTA) (PI) (PI)
                 (?A) (?A) (PHI) (PHI) (SG) (PI) (PI) (DLTA) (DLTA)
                 (SG) (PI) (PI) (SG) (DLTA) (DLTA) (PI) (PI) (SG)
                 (SG) (SG) (PHI) (PHI) (DLTA) (DLTA) (PI) (PI)
                 (SG) (DLTA) (DLTA) (PI) (PI) (SG) (PI) (PI) (SG)
                 (PHI) (PHI) (DLTA) (DLTA) (PI) (PI) (PI) (PI)
                 (SG) (SG) (PHI) (PHI) (?A) (?A) (DLTA) (DLTA)
                 (PI) (PI) (SG) (PHI) (PHI) (DLTA) (DLTA) (PI)
                 (PI) (SG) (SG) (SG) (DLTA) (DLTA) (PI) (PI) (SG)
                 (PHI) (PHI) (DLTA) (DLTA) (PI) (PI) (SG) (SG)
                 (SG) (PI) (PI) (SG) (SG) (SG) (SG)
 Keep J ints in memory in symmetry-blocked form, NReq=72283602.
 Requested convergence on RMS density matrix=1.00D-08 within 128 cycles.
 Requested convergence on MAX density matrix=1.00D-06.
 Requested convergence on             energy=1.00D-06.
 No special actions if energy rises.
 SCF Done:  E(RPBE-PBE) =  -2024.46843325     A.U. after    1 cycles
            NFock=  1  Conv=0.13D-08     -V/T= 2.0018
 DoSCS=F DFT=T ScalE2(SS,OS)=  1.000000  1.000000
 Range of M.O.s used for correlation:     1   146
 NBasis=   146 NAE=    20 NBE=    20 NFC=     0 NFV=     0
 NROrb=    146 NOA=    20 NOB=    20 NVA=   126 NVB=   126

 **** Warning!!: The largest alpha MO coefficient is  0.10496874D+02

   4 Symmetry operations used in ECPInt.
 ECPInt:  NShTT=     990 NPrTT=    3992 LenC2=     970 LenP2D=    3461.
 LDataN:  DoStor=T MaxTD1= 9 Len=  602
 Symmetrizing basis deriv contribution to polar:
 IMax=3 JMax=2 DiffMx= 0.00D+00
 G2DrvN: will do     3 centers at a time, making    1 passes.
 Calling FoFCou, ICntrl=  3507 FMM=F I1Cent=   0 AccDes= 0.00D+00.
 End of G2Drv F.D. properties file   721 does not exist.
 End of G2Drv F.D. properties file   722 does not exist.
 End of G2Drv F.D. properties file   788 does not exist.
          IDoAtm=11
          Differentiating once with respect to electric field.
                with respect to dipole field.
          Differentiating once with respect to nuclear coordinates.
 Keep J ints in memory in symmetry-blocked form, NReq=72285008.
          There are     9 degrees of freedom in the 1st order CPHF.  IDoFFX=6 NUNeed=     3.
      6 vectors produced by pass  0 Test12= 2.80D-14 1.11D-08 XBig12= 6.57D+01 7.34D+00.
 AX will form     6 AO Fock derivatives at one time.
      6 vectors produced by pass  1 Test12= 2.80D-14 1.11D-08 XBig12= 1.58D+01 1.70D+00.
      6 vectors produced by pass  2 Test12= 2.80D-14 1.11D-08 XBig12= 1.59D+00 5.17D-01.
      6 vectors produced by pass  3 Test12= 2.80D-14 1.11D-08 XBig12= 1.13D-01 1.47D-01.
      6 vectors produced by pass  4 Test12= 2.80D-14 1.11D-08 XBig12= 2.02D-03 1.25D-02.
      6 vectors produced by pass  5 Test12= 2.80D-14 1.11D-08 XBig12= 2.78D-05 2.11D-03.
      4 vectors produced by pass  6 Test12= 2.80D-14 1.11D-08 XBig12= 1.05D-07 9.35D-05.
      4 vectors produced by pass  7 Test12= 2.80D-14 1.11D-08 XBig12= 7.38D-10 9.32D-06.
      1 vectors produced by pass  8 Test12= 2.80D-14 1.11D-08 XBig12= 3.92D-13 1.31D-07.
 InvSVY:  IOpt=1 It=  1 EMax= 4.44D-16
 Solved reduced A of dimension    45 with     6 vectors.
 Isotropic polarizability for W=    0.000000       33.23 Bohr**3.
 End of Minotr F.D. properties file   721 does not exist.
 End of Minotr F.D. properties file   722 does not exist.
 End of Minotr F.D. properties file   788 does not exist.

 **********************************************************************

            Population analysis using the SCF Density.

 **********************************************************************

 Orbital symmetries:
       Occupied  (SG) (SG) (PI) (PI) (SG) (SG) (SG) (PI) (PI) (SG)
                 (SG) (DLTA) (DLTA) (PI) (PI) (SG) (SG) (PI) (PI)
                 (SG)
       Virtual   (PI) (PI) (SG) (SG) (PI) (PI) (SG) (DLTA) (DLTA)
                 (PI) (PI) (SG) (SG) (PI) (PI) (DLTA) (DLTA) (PHI)
                 (PHI) (SG) (PI) (PI) (SG) (SG) (PI) (PI) (DLTA)
                 (DLTA) (PI) (PI) (SG) (SG) (DLTA) (DLTA) (PI)
                 (PI) (SG) (PHI) (PHI) (DLTA) (DLTA) (PI) (PI)
                 (?A) (?A) (PHI) (PHI) (SG) (PI) (PI) (DLTA) (DLTA)
                 (SG) (PI) (PI) (SG) (DLTA) (DLTA) (PI) (PI) (SG)
                 (SG) (SG) (PHI) (PHI) (DLTA) (DLTA) (PI) (PI)
                 (SG) (DLTA) (DLTA) (PI) (PI) (SG) (PI) (PI) (SG)
                 (PHI) (PHI) (DLTA) (DLTA) (PI) (PI) (PI) (PI)
                 (SG) (SG) (PHI) (PHI) (?A) (?A) (DLTA) (DLTA)
                 (PI) (PI) (SG) (PHI) (PHI) (DLTA) (DLTA) (PI)
                 (PI) (SG) (SG) (SG) (DLTA) (DLTA) (PI) (PI) (SG)
                 (PHI) (PHI) (DLTA) (DLTA) (PI) (PI) (SG) (SG)
                 (SG) (PI) (PI) (SG) (SG) (SG) (SG)
 The electronic state is 1-SG.
 Alpha  occ. eigenvalues -- -370.93763 -45.32796 -40.17160 -40.17160 -40.16865
 Alpha  occ. eigenvalues --  -24.19649  -5.26763  -3.59546  -3.59546  -3.58767
 Alpha  occ. eigenvalues --   -1.00893  -0.73189  -0.73189  -0.72651  -0.72651
 Alpha  occ. eigenvalues --   -0.72216  -0.38619  -0.31375  -0.31375  -0.25040
 Alpha virt. eigenvalues --   -0.08051  -0.08051  -0.00953   0.05772   0.09285
 Alpha virt. eigenvalues --    0.09285   0.13771   0.16302   0.16302   0.20050
 Alpha virt. eigenvalues --    0.20050   0.22132   0.38981   0.42163   0.42163
 Alpha virt. eigenvalues --    0.51271   0.51271   0.52031   0.52031   0.57414
 Alpha virt. eigenvalues --    0.62112   0.62112   0.62357   0.67689   0.67825
 Alpha virt. eigenvalues --    0.67825   0.75547   0.75548   0.77158   0.77158
 Alpha virt. eigenvalues --    0.89790   1.18222   1.35410   1.35410   1.50355
 Alpha virt. eigenvalues --    1.50355   1.60829   1.64111   1.64111   1.64277
 Alpha virt. eigenvalues --    1.64277   1.68460   1.68460   1.69637   1.69638
 Alpha virt. eigenvalues --    1.69832   1.69832   1.78020   1.79726   1.79726
 Alpha virt. eigenvalues --    1.88150   1.88150   1.99165   2.32301   2.32301
 Alpha virt. eigenvalues --    2.36070   2.58194   2.58196   2.70960   2.70960
 Alpha virt. eigenvalues --    2.79641   3.63275   4.02557   4.10679   4.10679
 Alpha virt. eigenvalues --    4.23216   4.23216   4.37876   4.37876   4.53299
 Alpha virt. eigenvalues --    4.97817   4.97817   5.31879   5.31879   5.38724
 Alpha virt. eigenvalues --    5.78753   5.78753   5.95541   6.06625   6.06625
 Alpha virt. eigenvalues --    6.07992   6.07993   6.10629   6.10629   6.36499
 Alpha virt. eigenvalues --    6.36499   6.64987   7.47491  11.28708  11.28708
 Alpha virt. eigenvalues --   11.29431  11.29431  11.29713  11.29713  11.31802
 Alpha virt. eigenvalues --   11.31802  11.36217  14.41711  14.41711  14.48342
 Alpha virt. eigenvalues --   14.48342  14.63553  14.63553  14.69111  14.92561
 Alpha virt. eigenvalues --   15.48293  15.65285  15.65285  15.93732  15.93732
 Alpha virt. eigenvalues --   16.17601  21.17386  21.17386  21.18061  21.18068
 Alpha virt. eigenvalues --   21.24979  21.24979  21.30336  53.49420  53.81374
 Alpha virt. eigenvalues --  177.34378 177.34378 180.13345 182.19389 284.09812
 Alpha virt. eigenvalues -- 1124.67906
          Condensed to atoms (all electrons):
               1          2
     1  Ga  30.331111   0.216538
     2  F    0.216538   9.235813
 Mulliken charges:
               1
     1  Ga   0.452351
     2  F   -0.452351
 Sum of Mulliken charges =   0.00000
 Mulliken charges with hydrogens summed into heavy atoms:
               1
     1  Ga   0.452351
     2  F   -0.452351
 APT charges:
               1
     1  Ga   0.603247
     2  F   -0.603247
 Sum of APT charges =   0.00000
 APT charges with hydrogens summed into heavy atoms:
               1
     1  Ga   0.603247
     2  F   -0.603247
 Electronic spatial extent (au):  <R**2>=            128.7948
 Charge=              0.0000 electrons
 Dipole moment (field-independent basis, Debye):
    X=              0.0000    Y=              0.0000    Z=              2.2765  Tot=              2.2765
 Quadrupole moment (field-independent basis, Debye-Ang):
   XX=            -19.2166   YY=            -19.2166   ZZ=            -25.4919
   XY=              0.0000   XZ=              0.0000   YZ=              0.0000
 Traceless Quadrupole moment (field-independent basis, Debye-Ang):
   XX=              2.0918   YY=              2.0918   ZZ=             -4.1835
   XY=              0.0000   XZ=              0.0000   YZ=              0.0000
 Octapole moment (field-independent basis, Debye-Ang**2):
  XXX=              0.0000  YYY=              0.0000  ZZZ=              6.3782  XYY=              0.0000
  XXY=              0.0000  XXZ=              1.0567  XZZ=              0.0000  YZZ=              0.0000
  YYZ=              1.0567  XYZ=              0.0000
 Hexadecapole moment (field-independent basis, Debye-Ang**3):
 XXXX=            -22.0463 YYYY=            -22.0463 ZZZZ=           -116.6667 XXXY=              0.0000
 XXXZ=              0.0000 YYYX=              0.0000 YYYZ=              0.0000 ZZZX=              0.0000
 ZZZY=              0.0000 XXYY=             -7.3488 XXZZ=            -22.1433 YYZZ=            -22.1433
 XXYZ=              0.0000 YYXZ=              0.0000 ZZXY=              0.0000
 N-N= 8.173652066333D+01 E-N=-5.007779348566D+03  KE= 2.020899442821D+03
 Symmetry A1   KE= 1.505530421264D+03
 Symmetry A2   KE= 2.574950707937D+01
 Symmetry B1   KE= 2.448097572386D+02
 Symmetry B2   KE= 2.448097572386D+02
  Exact polarizability:      31.738       0.000      31.738       0.000       0.000      36.228
 Approx polarizability:      56.714      -0.000      56.714      -0.000      -0.000      58.870
   4 Symmetry operations used in ECPInt.
 ECPInt:  NShTT=     990 NPrTT=    3992 LenC2=     970 LenP2D=    3461.
 LDataN:  DoStor=T MaxTD1=10 Len=  848
 Calling FoFJK, ICntrl=    100527 FMM=F ISym2X=1 I1Cent= 0 IOpClX= 0 NMat=1 NMatS=1 NMatT=0.
 Full mass-weighted force constant matrix:
 Low frequencies ---    0.0056    0.0056    0.0110   10.9997   10.9997  585.6220
 Diagonal vibrational polarizability:
        0.0000000       0.0000000       8.4812490
 Harmonic frequencies (cm**-1), IR intensities (KM/Mole), Raman scattering
 activities (A**4/AMU), depolarization ratios for plane and unpolarized
 incident light, reduced masses (AMU), force constants (mDyne/A),
 and normal coordinates:
                      1
                     SG
 Frequencies --    585.6220
 Red. masses --     22.5238
 Frc consts  --      4.5512
 IR Inten    --    108.0840
  Atom  AN      X      Y      Z
     1  31    -0.00  -0.00  -0.27
     2   9    -0.00  -0.00   0.96

 -------------------
 - Thermochemistry -
 -------------------
 Temperature   298.150 Kelvin.  Pressure   1.00000 Atm.
 Atom     1 has atomic number 31 and mass  68.92558
 Atom     2 has atomic number  9 and mass  18.99840
 Molecular mass:    87.92398 amu.
 Principal axes and moments of inertia in atomic units:
                           1         2         3
     Eigenvalues --     0.00000 173.52669 173.52669
           X            0.00000  -0.00000   1.00000
           Y            0.00000   1.00000   0.00000
           Z            1.00000   0.00000   0.00000
 This molecule is a prolate symmetric top.
 Rotational symmetry number  1.
 Rotational temperature (Kelvin)      0.49914
 Rotational constant (GHZ):          10.400366
 Zero-point vibrational energy       3502.8 (Joules/Mol)
                                    0.83719 (Kcal/Mol)
 Warning -- explicit consideration of   1 degrees of freedom as
           vibrations may cause significant error
 Vibrational temperatures:    842.58
          (Kelvin)
 
 Zero-point correction=                           0.001334 (Hartree/Particle)
 Thermal correction to Energy=                    0.003863
 Thermal correction to Enthalpy=                  0.004807
 Thermal correction to Gibbs Free Energy=        -0.021088
 Sum of electronic and zero-point Energies=          -2024.467099
 Sum of electronic and thermal Energies=             -2024.464571
 Sum of electronic and thermal Enthalpies=           -2024.463626
 Sum of electronic and thermal Free Energies=        -2024.489521
 
                     E (Thermal)             CV                S
                      KCal/Mol        Cal/Mol-Kelvin    Cal/Mol-Kelvin
 Total                    2.424              6.030             54.500
 Electronic               0.000              0.000              0.000
 Translational            0.889              2.981             39.334
 Rotational               0.592              1.987             14.690
 Vibrational              0.943              1.062              0.475
 Vibration     1          0.943              1.062              0.475
                       Q            Log10(Q)             Ln(Q)
 Total Bot       0.500829D+10          9.699689         22.334360
 Total V=0       0.205756D+11         10.313353         23.747373
 Vib (Bot)       0.258739D+00         -0.587139         -1.351937
 Vib (Bot)    1  0.258739D+00         -0.587139         -1.351937
 Vib (V=0)       0.106298D+01          0.026525          0.061076
 Vib (V=0)    1  0.106298D+01          0.026525          0.061076
 Electronic      0.100000D+01          0.000000          0.000000
 Translational   0.324052D+08          7.510615         17.293830
 Rotational      0.597329D+03          2.776213          6.392468
 ***** Axes restored to original set *****
 -------------------------------------------------------------------
 Center     Atomic                   Forces (Hartrees/Bohr)
 Number     Number              X              Y              Z
 -------------------------------------------------------------------
      1       31          -0.000000000   -0.000000000    0.000000048
      2        9          -0.000000000   -0.000000000   -0.000000048
 -------------------------------------------------------------------
 Cartesian Forces:  Max     0.000000048 RMS     0.000000028
 FormGI is forming the generalized inverse of G from B-inverse, IUseBI=4.

 GradGradGradGradGradGradGradGradGradGradGradGradGradGradGradGradGradGrad
 Berny optimization.
 Internal  Forces:  Max     0.000000048 RMS     0.000000048
 Search for a local minimum.
 Step number   1 out of a maximum of    2
 All quantities printed in internal units (Hartrees-Bohrs-Radians)
 Second derivative matrix not updated -- analytic derivatives used.
 The second derivative matrix:
                          R1
           R1           0.19329
 ITU=  0
     Eigenvalues ---    0.19329
 Angle between quadratic step and forces=  90.00 degrees.
 Linear search not attempted -- first point.
 Iteration  1 RMS(Cart)=  0.00000018 RMS(Int)=  0.00000000
 ClnCor:  largest displacement from symmetrization is 0.00D+00 for atom     0.
 Variable       Old X    -DE/DX   Delta X   Delta X   Delta X     New X
                                 (Linear)    (Quad)   (Total)
    R1        3.41341  -0.00000   0.00000  -0.00000  -0.00000   3.41341
         Item               Value     Threshold  Converged?
 Maximum Force            0.000000     0.000450     YES
 RMS     Force            0.000000     0.000300     YES
 Maximum Displacement     0.000000     0.001800     YES
 RMS     Displacement     0.000000     0.001200     YES
 Predicted change in Energy=-6.045203D-15
 Optimization completed.
    -- Stationary point found.
                           ----------------------------
                           !   Optimized Parameters   !
                           ! (Angstroms and Degrees)  !
 --------------------------                            --------------------------
 ! Name  Definition              Value          Derivative Info.                !
 --------------------------------------------------------------------------------
 ! R1    R(1,2)                  1.8063         -DE/DX =    0.0                 !
 --------------------------------------------------------------------------------
 GradGradGradGradGradGradGradGradGradGradGradGradGradGradGradGradGradGrad


 ----------------------------------------------------------------------

 Electric dipole moment (input orientation):
 (Debye = 10**-18 statcoulomb cm , SI units = C m)
                  (au)            (Debye)         (10**-30 SI)
   Tot        0.895661D+00      0.227654D+01      0.759373D+01
   x          0.000000D+00      0.000000D+00      0.000000D+00
   y          0.000000D+00      0.000000D+00      0.000000D+00
   z         -0.895661D+00     -0.227654D+01     -0.759373D+01

 Dipole polarizability, Alpha (input orientation).
 (esu units = cm**3 , SI units = C**2 m**2 J**-1)
 Alpha(0;0):
               (au)            (10**-24 esu)      (10**-40 SI)
   iso        0.332347D+02      0.492488D+01      0.547966D+01
   aniso      0.449018D+01      0.665377D+00      0.740331D+00
   xx         0.317380D+02      0.470308D+01      0.523289D+01
   yx         0.000000D+00      0.000000D+00      0.000000D+00
   yy         0.317380D+02      0.470308D+01      0.523289D+01
   zx         0.000000D+00      0.000000D+00      0.000000D+00
   zy         0.000000D+00      0.000000D+00      0.000000D+00
   zz         0.362282D+02      0.536846D+01      0.597322D+01

 ----------------------------------------------------------------------

 Dipole orientation:
    31         15.11780900        -15.11780900        -13.41110557
     9         15.11780900        -15.11780900        -16.82451242

 Electric dipole moment (dipole orientation):
 (Debye = 10**-18 statcoulomb cm , SI units = C m)
                  (au)            (Debye)         (10**-30 SI)
   Tot        0.895661D+00      0.227654D+01      0.759373D+01
   x          0.000000D+00      0.000000D+00      0.000000D+00
   y          0.000000D+00      0.000000D+00      0.000000D+00
   z          0.895661D+00      0.227654D+01      0.759373D+01

 Dipole polarizability, Alpha (dipole orientation).
 (esu units = cm**3 , SI units = C**2 m**2 J**-1)
 Alpha(0;0):
               (au)            (10**-24 esu)      (10**-40 SI)
   iso        0.332347D+02      0.492488D+01      0.547966D+01
   aniso      0.449018D+01      0.665377D+00      0.740331D+00
   xx         0.317380D+02      0.470308D+01      0.523289D+01
   yx         0.000000D+00      0.000000D+00      0.000000D+00
   yy         0.317380D+02      0.470308D+01      0.523289D+01
   zx         0.000000D+00      0.000000D+00      0.000000D+00
   zy         0.000000D+00      0.000000D+00      0.000000D+00
   zz         0.362282D+02      0.536846D+01      0.597322D+01

 ----------------------------------------------------------------------
 Unable to Open any file for archive entry.
 1\1\GINC-TCOPT10\Freq\RPBEPBE\def2QZVPP\F1Ga1\HUTTER\30-Jul-2021\0\\#N
  Geom=AllCheck Guess=TCheck SCRF=Check GenChk RPBEPBE/def2QZVPP Freq\\
 Mol job 1\\0,1\Ga,8.,8.,7.0968514402\F,8.,8.,8.9031485598\\Version=ES6
 4L-G16RevC.01\State=1-SG\HF=-2024.4684332\RMSD=1.309e-09\RMSF=2.791e-0
 8\ZeroPoint=0.0013341\Thermal=0.0038627\ETot=-2024.4645706\HTot=-2024.
 4636264\GTot=-2024.489521\Dipole=0.,0.,-0.8956613\DipoleDeriv=0.262374
 5,0.,0.,0.,0.2623745,0.,0.,0.,1.2849914,-0.2623745,0.,0.,0.,-0.2623745
 ,0.,0.,0.,-1.2849914\Polar=31.7379791,0.,31.7379791,0.,0.,36.2281632\Q
 uadrupole=1.555177,1.555177,-3.1103539,0.,0.,0.\PG=C*V [C*(F1Ga1)]\NIm
 ag=0\\0.00006819,0.,0.00006819,0.,0.,0.19329315,-0.00006819,0.,0.,0.00
 006819,0.,-0.00006819,0.,0.,0.00006819,0.,0.,-0.19329315,0.,0.,0.19329
 315\\0.,0.,-0.00000005,0.,0.,0.00000005\\\@
 The archive entry for this job was punched.


 ALMOST ANYTHING IS EASIER TO GET INTO THAN OUT OF.

                         -- AGNES ALLEN'S LAW FROM
                PAUL DICKSON'S "THE OFFICIAL RULES"
 Job cpu time:       0 days  0 hours  8 minutes 38.3 seconds.
 Elapsed time:       0 days  0 hours  1 minutes  5.4 seconds.
 File lengths (MBytes):  RWF=     16 Int=      0 D2E=      0 Chk=      3 Scr=      1
 Normal termination of Gaussian 16 at Fri Jul 30 12:46:26 2021.
