 Entering Gaussian System, Link 0=g16
 Initial command:
 /sw-ng/spack/opt/spack/linux-opensuse_leap15-sandybridge/pgi-18.10/gaussian-src-16-C.01-zldqaomctopxhethwccpmxmwefdscg3m/g16/l1.exe "/data/hutter/SMG16/PBE/Gau-83139.inp" -scrdir="/data/hutter/SMG16/PBE/"
 Entering Link 1 = /sw-ng/spack/opt/spack/linux-opensuse_leap15-sandybridge/pgi-18.10/gaussian-src-16-C.01-zldqaomctopxhethwccpmxmwefdscg3m/g16/l1.exe PID=     83145.
  
 Copyright (c) 1988-2019, Gaussian, Inc.  All Rights Reserved.
  
 This is part of the Gaussian(R) 16 program.  It is based on
 the Gaussian(R) 09 system (copyright 2009, Gaussian, Inc.),
 the Gaussian(R) 03 system (copyright 2003, Gaussian, Inc.),
 the Gaussian(R) 98 system (copyright 1998, Gaussian, Inc.),
 the Gaussian(R) 94 system (copyright 1995, Gaussian, Inc.),
 the Gaussian 92(TM) system (copyright 1992, Gaussian, Inc.),
 the Gaussian 90(TM) system (copyright 1990, Gaussian, Inc.),
 the Gaussian 88(TM) system (copyright 1988, Gaussian, Inc.),
 the Gaussian 86(TM) system (copyright 1986, Carnegie Mellon
 University), and the Gaussian 82(TM) system (copyright 1983,
 Carnegie Mellon University). Gaussian is a federally registered
 trademark of Gaussian, Inc.
  
 This software contains proprietary and confidential information,
 including trade secrets, belonging to Gaussian, Inc.
  
 This software is provided under written license and may be
 used, copied, transmitted, or stored only in accord with that
 written license.
  
 The following legend is applicable only to US Government
 contracts under FAR:
  
                    RESTRICTED RIGHTS LEGEND
  
 Use, reproduction and disclosure by the US Government is
 subject to restrictions as set forth in subparagraphs (a)
 and (c) of the Commercial Computer Software - Restricted
 Rights clause in FAR 52.227-19.
  
 Gaussian, Inc.
 340 Quinnipiac St., Bldg. 40, Wallingford CT 06492
  
  
 ---------------------------------------------------------------
 Warning -- This program may not be used in any manner that
 competes with the business of Gaussian, Inc. or will provide
 assistance to any competitor of Gaussian, Inc.  The licensee
 of this program is prohibited from giving any competitor of
 Gaussian, Inc. access to this program.  By using this program,
 the user acknowledges that Gaussian, Inc. is engaged in the
 business of creating and licensing software in the field of
 computational chemistry and represents and warrants to the
 licensee that it is not a competitor of Gaussian, Inc. and that
 it will not use this program in any manner prohibited above.
 ---------------------------------------------------------------
  

 Cite this work as:
 Gaussian 16, Revision C.01,
 M. J. Frisch, G. W. Trucks, H. B. Schlegel, G. E. Scuseria, 
 M. A. Robb, J. R. Cheeseman, G. Scalmani, V. Barone, 
 G. A. Petersson, H. Nakatsuji, X. Li, M. Caricato, A. V. Marenich, 
 J. Bloino, B. G. Janesko, R. Gomperts, B. Mennucci, H. P. Hratchian, 
 J. V. Ortiz, A. F. Izmaylov, J. L. Sonnenberg, D. Williams-Young, 
 F. Ding, F. Lipparini, F. Egidi, J. Goings, B. Peng, A. Petrone, 
 T. Henderson, D. Ranasinghe, V. G. Zakrzewski, J. Gao, N. Rega, 
 G. Zheng, W. Liang, M. Hada, M. Ehara, K. Toyota, R. Fukuda, 
 J. Hasegawa, M. Ishida, T. Nakajima, Y. Honda, O. Kitao, H. Nakai, 
 T. Vreven, K. Throssell, J. A. Montgomery, Jr., J. E. Peralta, 
 F. Ogliaro, M. J. Bearpark, J. J. Heyd, E. N. Brothers, K. N. Kudin, 
 V. N. Staroverov, T. A. Keith, R. Kobayashi, J. Normand, 
 K. Raghavachari, A. P. Rendell, J. C. Burant, S. S. Iyengar, 
 J. Tomasi, M. Cossi, J. M. Millam, M. Klene, C. Adamo, R. Cammi, 
 J. W. Ochterski, R. L. Martin, K. Morokuma, O. Farkas, 
 J. B. Foresman, and D. J. Fox, Gaussian, Inc., Wallingford CT, 2019.
 
 ******************************************
 Gaussian 16:  ES64L-G16RevC.01  3-Jul-2019
                30-Jul-2021 
 ******************************************
 %mem=8GB
 %NProcShare=8
 Will use up to    8 processors via shared memory.
 -----------------------------------------------------------
 #N RPBEPBE/Def2QZVPP scf=tight Int(Grid=ultrafine) OPT FREQ
 -----------------------------------------------------------
 1/18=20,19=15,26=4,38=1/1,3;
 2/9=110,12=2,17=6,18=5,40=1/2;
 3/5=45,7=202,11=2,25=1,30=1,71=1,74=1009,75=-5,116=1/1,2,3;
 4//1;
 5/5=2,32=2,38=5/2;
 6/7=2,8=2,9=2,10=2,28=1/1;
 7//1,2,3,16;
 1/18=20,19=15,26=4/3(2);
 2/9=110/2;
 99//99;
 2/9=110/2;
 3/5=45,7=202,11=2,25=1,30=1,71=1,74=1009,75=-5,116=1/1,2,3;
 4/5=5,16=3,69=1/1;
 5/5=2,32=2,38=5/2;
 7//1,2,3,16;
 1/18=20,19=15,26=4/3(-5);
 2/9=110/2;
 6/7=2,8=2,9=2,10=2,19=2,28=1/1;
 99/9=1/99;
 ---------
 Mol job 1
 ---------
 Symbolic Z-matrix:
 Charge =  0 Multiplicity = 1
 P                     7.6497    8.00001   7.59864 
 F                     9.05493   8.00001   8.40136 
 F                     6.94507   9.21695   8.39874 
 F                     6.94507   6.78305   8.39874 
 

 GradGradGradGradGradGradGradGradGradGradGradGradGradGradGradGradGradGrad
 Berny optimization.
 Initialization pass.
                           ----------------------------
                           !    Initial Parameters    !
                           ! (Angstroms and Degrees)  !
 --------------------------                            --------------------------
 ! Name  Definition              Value          Derivative Info.                !
 --------------------------------------------------------------------------------
 ! R1    R(1,2)                  1.6183         estimate D2E/DX2                !
 ! R2    R(1,3)                  1.6179         estimate D2E/DX2                !
 ! R3    R(1,4)                  1.6179         estimate D2E/DX2                !
 ! A1    A(2,1,3)               97.6355         estimate D2E/DX2                !
 ! A2    A(2,1,4)               97.6356         estimate D2E/DX2                !
 ! A3    A(3,1,4)               97.5577         estimate D2E/DX2                !
 ! D1    D(2,1,4,3)             98.8021         estimate D2E/DX2                !
 --------------------------------------------------------------------------------
 Trust Radius=3.00D-01 FncErr=1.00D-07 GrdErr=1.00D-06 EigMax=2.50D+02 EigMin=1.00D-04
 Number of steps in this run=     20 maximum allowed number of steps=    100.
 GradGradGradGradGradGradGradGradGradGradGradGradGradGradGradGradGradGrad

                          Input orientation:                          
 ---------------------------------------------------------------------
 Center     Atomic      Atomic             Coordinates (Angstroms)
 Number     Number       Type             X           Y           Z
 ---------------------------------------------------------------------
      1         15           0        7.649703    8.000007    7.598638
      2          9           0        9.054931    8.000007    8.401362
      3          9           0        6.945074    9.216946    8.398743
      4          9           0        6.945069    6.783054    8.398743
 ---------------------------------------------------------------------
                    Distance matrix (angstroms):
                    1          2          3          4
     1  P    0.000000
     2  F    1.618343   0.000000
     3  F    1.617903   2.435660   0.000000
     4  F    1.617915   2.435671   2.433891   0.000000
 Stoichiometry    F3P
 Framework group  C1[X(F3P)]
 Deg. of freedom     6
 Full point group                 C1      NOp   1
 Largest Abelian subgroup         C1      NOp   1
 Largest concise Abelian subgroup C1      NOp   1
                         Standard orientation:                         
 ---------------------------------------------------------------------
 Center     Atomic      Atomic             Coordinates (Angstroms)
 Number     Number       Type             X           Y           Z
 ---------------------------------------------------------------------
      1         15           0       -0.000293    0.000003    0.514915
      2          9           0       -1.406406   -0.003706   -0.286249
      3          9           0        0.700236    1.218792   -0.285973
      4          9           0        0.706659   -1.215091   -0.285969
 ---------------------------------------------------------------------
 Rotational constants (GHZ):           7.3088072           7.2972568           4.4861686
 Standard basis: def2QZVPP (5D, 7F)
 There are   302 symmetry adapted cartesian basis functions of A   symmetry.
 There are   241 symmetry adapted basis functions of A   symmetry.
   241 basis functions,   397 primitive gaussians,   302 cartesian basis functions
    21 alpha electrons       21 beta electrons
       nuclear repulsion energy       185.2608990123 Hartrees.
 NAtoms=    4 NActive=    4 NUniq=    4 SFac= 1.00D+00 NAtFMM=   60 NAOKFM=F Big=F
 Integral buffers will be    131072 words long.
 Raffenetti 2 integral format.
 Two-electron integral symmetry is turned on.
 One-electron integrals computed using PRISM.
   1 Symmetry operations used in ECPInt.
 ECPInt:  NShTT=    2701 NPrTT=    8450 LenC2=    2600 LenP2D=    6584.
 LDataN:  DoStor=T MaxTD1= 8 Len=  415
 NBasis=   241 RedAO= T EigKep=  4.53D-04  NBF=   241
 NBsUse=   241 1.00D-06 EigRej= -1.00D+00 NBFU=   241
 ExpMin= 7.16D-02 ExpMax= 1.09D+06 ExpMxC= 1.27D+03 IAcc=3 IRadAn=         5 AccDes= 0.00D+00
 Harris functional with IExCor= 1009 and IRadAn=       5 diagonalized for initial guess.
 HarFok:  IExCor= 1009 AccDes= 0.00D+00 IRadAn=         5 IDoV= 1 UseB2=F ITyADJ=14
 ICtDFT=  3500011 ScaDFX=  1.000000  1.000000  1.000000  1.000000
 FoFCou: FMM=F IPFlag=           0 FMFlag=      100000 FMFlg1=           0
         NFxFlg=           0 DoJE=T BraDBF=F KetDBF=T FulRan=T
         wScrn=  0.000000 ICntrl=       500 IOpCl=  0 I1Cent=   200000004 NGrid=           0
         NMat0=    1 NMatS0=      1 NMatT0=    0 NMatD0=    1 NMtDS0=    0 NMtDT0=    0
 Petite list used in FoFCou.
 Keep J ints in memory in canonical form, NReq=439106679.
 Requested convergence on RMS density matrix=1.00D-08 within 128 cycles.
 Requested convergence on MAX density matrix=1.00D-06.
 Requested convergence on             energy=1.00D-06.
 No special actions if energy rises.
 Integral accuracy reduced to 1.0D-05 until final iterations.
 Initial convergence to 1.0D-05 achieved.  Increase integral accuracy.
 SCF Done:  E(RPBE-PBE) =  -640.738616887     A.U. after   12 cycles
            NFock= 12  Conv=0.32D-08     -V/T= 2.0024

 **********************************************************************

            Population analysis using the SCF Density.

 **********************************************************************

 Orbital symmetries:
       Occupied  (A) (A) (A) (A) (A) (A) (A) (A) (A) (A) (A) (A)
                 (A) (A) (A) (A) (A) (A) (A) (A) (A)
       Virtual   (A) (A) (A) (A) (A) (A) (A) (A) (A) (A) (A) (A)
                 (A) (A) (A) (A) (A) (A) (A) (A) (A) (A) (A) (A)
                 (A) (A) (A) (A) (A) (A) (A) (A) (A) (A) (A) (A)
                 (A) (A) (A) (A) (A) (A) (A) (A) (A) (A) (A) (A)
                 (A) (A) (A) (A) (A) (A) (A) (A) (A) (A) (A) (A)
                 (A) (A) (A) (A) (A) (A) (A) (A) (A) (A) (A) (A)
                 (A) (A) (A) (A) (A) (A) (A) (A) (A) (A) (A) (A)
                 (A) (A) (A) (A) (A) (A) (A) (A) (A) (A) (A) (A)
                 (A) (A) (A) (A) (A) (A) (A) (A) (A) (A) (A) (A)
                 (A) (A) (A) (A) (A) (A) (A) (A) (A) (A) (A) (A)
                 (A) (A) (A) (A) (A) (A) (A) (A) (A) (A) (A) (A)
                 (A) (A) (A) (A) (A) (A) (A) (A) (A) (A) (A) (A)
                 (A) (A) (A) (A) (A) (A) (A) (A) (A) (A) (A) (A)
                 (A) (A) (A) (A) (A) (A) (A) (A) (A) (A) (A) (A)
                 (A) (A) (A) (A) (A) (A) (A) (A) (A) (A) (A) (A)
                 (A) (A) (A) (A) (A) (A) (A) (A) (A) (A) (A) (A)
                 (A) (A) (A) (A) (A) (A) (A) (A) (A) (A) (A) (A)
                 (A) (A) (A) (A) (A) (A) (A) (A) (A) (A) (A) (A)
                 (A) (A) (A) (A)
 The electronic state is 1-A.
 Alpha  occ. eigenvalues --  -76.45284 -24.29708 -24.29708 -24.29702  -6.44361
 Alpha  occ. eigenvalues --   -4.66199  -4.66199  -4.65516  -1.16375  -1.12047
 Alpha  occ. eigenvalues --   -1.12043  -0.61173  -0.49889  -0.49888  -0.46074
 Alpha  occ. eigenvalues --   -0.42582  -0.42573  -0.39182  -0.39180  -0.37950
 Alpha  occ. eigenvalues --   -0.29813
 Alpha virt. eigenvalues --   -0.06104  -0.06091   0.02711   0.08899   0.13304
 Alpha virt. eigenvalues --    0.13306   0.14596   0.22735   0.22740   0.23192
 Alpha virt. eigenvalues --    0.24247   0.24258   0.32461   0.32714   0.32725
 Alpha virt. eigenvalues --    0.38409   0.40481   0.40484   0.40502   0.47415
 Alpha virt. eigenvalues --    0.47423   0.68503   0.68572   0.68584   0.71780
 Alpha virt. eigenvalues --    0.71789   0.75580   0.80456   0.80994   0.80998
 Alpha virt. eigenvalues --    0.85744   0.87566   0.89504   0.89522   1.04061
 Alpha virt. eigenvalues --    1.04068   1.05001   1.16309   1.16332   1.30645
 Alpha virt. eigenvalues --    1.30681   1.41937   1.46092   1.46482   1.46543
 Alpha virt. eigenvalues --    1.57876   1.57877   1.59510   1.62013   1.62038
 Alpha virt. eigenvalues --    1.62719   1.62814   1.65714   1.65720   1.72959
 Alpha virt. eigenvalues --    1.74812   1.77352   1.77375   1.88752   1.94668
 Alpha virt. eigenvalues --    1.94673   2.18248   2.26147   2.26157   2.33045
 Alpha virt. eigenvalues --    2.33372   2.33398   2.45999   2.46038   2.48918
 Alpha virt. eigenvalues --    2.49125   2.52110   2.52116   2.72925   2.72948
 Alpha virt. eigenvalues --    2.80368   2.82206   2.82224   2.91699   2.91729
 Alpha virt. eigenvalues --    2.93231   3.13551   3.13571   3.14552   3.18798
 Alpha virt. eigenvalues --    3.45500   3.54783   3.54787   4.00650   4.01209
 Alpha virt. eigenvalues --    4.01219   4.02475   4.02479   4.04434   4.08367
 Alpha virt. eigenvalues --    4.15958   4.15964   4.17342   4.31832   4.31909
 Alpha virt. eigenvalues --    4.33028   4.46016   4.46054   4.57754   4.57771
 Alpha virt. eigenvalues --    4.61393   4.85717   4.86781   4.86781   4.88377
 Alpha virt. eigenvalues --    4.88394   4.89393   5.01858   5.04892   5.04928
 Alpha virt. eigenvalues --    5.13858   5.20007   5.20024   5.33861   5.53851
 Alpha virt. eigenvalues --    5.54863   5.54893   5.57683   5.59691   5.59733
 Alpha virt. eigenvalues --    5.88873   5.88904   6.09776   6.13281   6.13309
 Alpha virt. eigenvalues --    6.19742   6.31228   6.31236   6.72698   6.85292
 Alpha virt. eigenvalues --    6.85342   6.92384   6.95703   6.95752   7.04967
 Alpha virt. eigenvalues --    7.64961   7.65077  11.16976  11.17688  11.17690
 Alpha virt. eigenvalues --   11.18608  11.18654  11.18659  11.19042  11.20126
 Alpha virt. eigenvalues --   11.20131  11.20140  11.20160  11.20161  11.20239
 Alpha virt. eigenvalues --   11.21791  11.23589  11.23610  11.26261  11.26277
 Alpha virt. eigenvalues --   11.28419  11.28422  11.28899  11.37784  11.37790
 Alpha virt. eigenvalues --   11.40874  11.43426  11.43455  11.46531  14.31900
 Alpha virt. eigenvalues --   14.32013  14.32017  14.32979  14.32984  14.33493
 Alpha virt. eigenvalues --   14.36199  14.43091  14.43124  14.49292  14.49511
 Alpha virt. eigenvalues --   14.49524  14.60520  14.62152  14.62159  14.69331
 Alpha virt. eigenvalues --   14.69595  14.69671  14.78594  14.78597  14.81809
 Alpha virt. eigenvalues --   15.39016  15.41135  15.41250  15.53716  15.53733
 Alpha virt. eigenvalues --   15.62084  15.66301  15.66324  15.66826  15.86119
 Alpha virt. eigenvalues --   15.86918  15.86933  15.98465  16.11711  16.11750
 Alpha virt. eigenvalues --   16.28487  16.31811  16.31837  17.74429  18.23133
 Alpha virt. eigenvalues --   18.23299  20.17087  53.81587  53.85856  53.85884
 Alpha virt. eigenvalues --   70.00408 284.21249 284.26664 284.26705 380.33552
          Condensed to atoms (all electrons):
               1          2          3          4
     1  P   13.411656   0.245016   0.245222   0.245218
     2  F    0.245016   9.079739  -0.020152  -0.020152
     3  F    0.245222  -0.020152   9.079390  -0.020246
     4  F    0.245218  -0.020152  -0.020246   9.079403
 Mulliken charges:
               1
     1  P    0.852888
     2  F   -0.284452
     3  F   -0.284214
     4  F   -0.284223
 Sum of Mulliken charges =  -0.00000
 Mulliken charges with hydrogens summed into heavy atoms:
               1
     1  P    0.852888
     2  F   -0.284452
     3  F   -0.284214
     4  F   -0.284223
 Electronic spatial extent (au):  <R**2>=            274.8211
 Charge=             -0.0000 electrons
 Dipole moment (field-independent basis, Debye):
    X=              0.0003    Y=              0.0001    Z=              1.1731  Tot=              1.1731
 Quadrupole moment (field-independent basis, Debye-Ang):
   XX=            -28.2573   YY=            -28.2506   ZZ=            -27.0914
   XY=              0.0000   XZ=              0.0003   YZ=             -0.0000
 Traceless Quadrupole moment (field-independent basis, Debye-Ang):
   XX=             -0.3908   YY=             -0.3842   ZZ=              0.7750
   XY=              0.0000   XZ=              0.0003   YZ=             -0.0000
 Octapole moment (field-independent basis, Debye-Ang**2):
  XXX=              2.2327  YYY=             -0.0174  ZZZ=             -8.0424  XYY=             -2.2214
  XXY=              0.0176  XXZ=             -0.7964  XZZ=              0.0041  YZZ=              0.0000
  YYZ=             -0.7982  XYZ=              0.0000
 Hexadecapole moment (field-independent basis, Debye-Ang**3):
 XXXX=           -114.8282 YYYY=           -114.6413 ZZZZ=            -57.0169 XXXY=              0.0001
 XXXZ=              0.0634 YYYX=              0.0001 YYYZ=             -0.0005 ZZZX=              0.0040
 ZZZY=             -0.0001 XXYY=            -38.2437 XXZZ=            -27.0236 YYZZ=            -26.9944
 XXYZ=              0.0005 YYXZ=             -0.0630 ZZXY=              0.0000
 N-N= 1.852608990123D+02 E-N=-1.897561436953D+03  KE= 6.392033818254D+02
   1 Symmetry operations used in ECPInt.
 ECPInt:  NShTT=    2701 NPrTT=    8450 LenC2=    2600 LenP2D=    6584.
 LDataN:  DoStor=T MaxTD1= 9 Len=  602
 Calling FoFJK, ICntrl=      2527 FMM=F ISym2X=0 I1Cent= 0 IOpClX= 0 NMat=1 NMatS=1 NMatT=0.
 ***** Axes restored to original set *****
 -------------------------------------------------------------------
 Center     Atomic                   Forces (Hartrees/Bohr)
 Number     Number              X              Y              Z
 -------------------------------------------------------------------
      1       15           0.000041221   -0.000003578    0.019024549
      2        9          -0.011328853   -0.000000239   -0.006386662
      3        9           0.005642923   -0.009576758   -0.006317976
      4        9           0.005644709    0.009580576   -0.006319911
 -------------------------------------------------------------------
 Cartesian Forces:  Max     0.019024549 RMS     0.008456421

 GradGradGradGradGradGradGradGradGradGradGradGradGradGradGradGradGradGrad
 Berny optimization.
 FormGI is forming the generalized inverse of G from B-inverse, IUseBI=4.
 Internal  Forces:  Max     0.013003820 RMS     0.008419794
 Search for a local minimum.
 Step number   1 out of a maximum of   20
 All quantities printed in internal units (Hartrees-Bohrs-Radians)
 Mixed Optimization -- RFO/linear search
 Second derivative matrix not updated -- first step.
 The second derivative matrix:
                          R1        R2        R3        A1        A2
           R1           0.47828
           R2           0.00000   0.47906
           R3           0.00000   0.00000   0.47904
           A1           0.00000   0.00000   0.00000   0.25000
           A2           0.00000   0.00000   0.00000   0.00000   0.25000
           A3           0.00000   0.00000   0.00000   0.00000   0.00000
           D1           0.00000   0.00000   0.00000   0.00000   0.00000
                          A3        D1
           A3           0.25000
           D1           0.00000   0.02911
 ITU=  0
     Eigenvalues ---    0.13478   0.25000   0.25000   0.47828   0.47904
     Eigenvalues ---    0.47906
 RFO step:  Lambda=-1.03442346D-03 EMin= 1.34778466D-01
 Linear search not attempted -- first point.
 Iteration  1 RMS(Cart)=  0.01599878 RMS(Int)=  0.00000442
 Iteration  2 RMS(Cart)=  0.00000669 RMS(Int)=  0.00000010
 Iteration  3 RMS(Cart)=  0.00000000 RMS(Int)=  0.00000010
 Variable       Old X    -DE/DX   Delta X   Delta X   Delta X     New X
                                 (Linear)    (Quad)   (Total)
    R1        3.05822  -0.01300   0.00000  -0.02713  -0.02713   3.03109
    R2        3.05739  -0.01279   0.00000  -0.02663  -0.02663   3.03076
    R3        3.05742  -0.01279   0.00000  -0.02664  -0.02664   3.03077
    A1        1.70406  -0.00009   0.00000  -0.00063  -0.00063   1.70343
    A2        1.70406  -0.00017   0.00000  -0.00070  -0.00070   1.70336
    A3        1.70270   0.00017   0.00000   0.00065   0.00065   1.70335
    D1        1.72442  -0.00009   0.00000  -0.00065  -0.00065   1.72377
         Item               Value     Threshold  Converged?
 Maximum Force            0.013004     0.000450     NO 
 RMS     Force            0.008420     0.000300     NO 
 Maximum Displacement     0.024541     0.001800     NO 
 RMS     Displacement     0.015997     0.001200     NO 
 Predicted change in Energy=-5.183297D-04
 GradGradGradGradGradGradGradGradGradGradGradGradGradGradGradGradGradGrad

                          Input orientation:                          
 ---------------------------------------------------------------------
 Center     Atomic      Atomic             Coordinates (Angstroms)
 Number     Number       Type             X           Y           Z
 ---------------------------------------------------------------------
      1         15           0        7.649428    8.000021    7.603719
      2          9           0        9.041944    7.999976    8.399754
      3          9           0        6.951682    9.206693    8.397002
      4          9           0        6.951722    6.793323    8.397011
 ---------------------------------------------------------------------
                    Distance matrix (angstroms):
                    1          2          3          4
     1  P    0.000000
     2  F    1.603986   0.000000
     3  F    1.603810   2.413580   0.000000
     4  F    1.603816   2.413513   2.413370   0.000000
 Stoichiometry    F3P
 Framework group  C1[X(F3P)]
 Deg. of freedom     6
 Full point group                 C1      NOp   1
 Largest Abelian subgroup         C1      NOp   1
 Largest concise Abelian subgroup C1      NOp   1
                         Standard orientation:                         
 ---------------------------------------------------------------------
 Center     Atomic      Atomic             Coordinates (Angstroms)
 Number     Number       Type             X           Y           Z
 ---------------------------------------------------------------------
      1         15           0        0.000057    0.000013    0.510560
      2          9           0       -1.375977    0.220456   -0.283610
      3          9           0        0.878887    1.081243   -0.283674
      4          9           0        0.496995   -1.301721   -0.283649
 ---------------------------------------------------------------------
 Rotational constants (GHZ):           7.4337365           7.4324984           4.5667783
 Standard basis: def2QZVPP (5D, 7F)
 There are   302 symmetry adapted cartesian basis functions of A   symmetry.
 There are   241 symmetry adapted basis functions of A   symmetry.
   241 basis functions,   397 primitive gaussians,   302 cartesian basis functions
    21 alpha electrons       21 beta electrons
       nuclear repulsion energy       186.9044774731 Hartrees.
 NAtoms=    4 NActive=    4 NUniq=    4 SFac= 1.00D+00 NAtFMM=   60 NAOKFM=F Big=F
 Integral buffers will be    131072 words long.
 Raffenetti 2 integral format.
 Two-electron integral symmetry is turned on.
 One-electron integrals computed using PRISM.
   1 Symmetry operations used in ECPInt.
 ECPInt:  NShTT=    2701 NPrTT=    8450 LenC2=    2603 LenP2D=    6596.
 LDataN:  DoStor=T MaxTD1= 8 Len=  415
 NBasis=   241 RedAO= T EigKep=  4.27D-04  NBF=   241
 NBsUse=   241 1.00D-06 EigRej= -1.00D+00 NBFU=   241
 Initial guess from the checkpoint file:  "/data/hutter/SMG16/PBE/Gau-83145.chk"
 B after Tr=    -0.000000   -0.000000    0.000000
         Rot=    0.996740   -0.000003   -0.000127    0.080676 Ang=  -9.25 deg.
 ExpMin= 7.16D-02 ExpMax= 1.09D+06 ExpMxC= 1.27D+03 IAcc=3 IRadAn=         5 AccDes= 0.00D+00
 Harris functional with IExCor= 1009 and IRadAn=       5 diagonalized for initial guess.
 HarFok:  IExCor= 1009 AccDes= 0.00D+00 IRadAn=         5 IDoV= 1 UseB2=F ITyADJ=14
 ICtDFT=  3500011 ScaDFX=  1.000000  1.000000  1.000000  1.000000
 FoFCou: FMM=F IPFlag=           0 FMFlag=      100000 FMFlg1=           0
         NFxFlg=           0 DoJE=T BraDBF=F KetDBF=T FulRan=T
         wScrn=  0.000000 ICntrl=       500 IOpCl=  0 I1Cent=   200000004 NGrid=           0
         NMat0=    1 NMatS0=      1 NMatT0=    0 NMatD0=    1 NMtDS0=    0 NMtDT0=    0
 Petite list used in FoFCou.
 Keep J ints in memory in canonical form, NReq=439106679.
 Requested convergence on RMS density matrix=1.00D-08 within 128 cycles.
 Requested convergence on MAX density matrix=1.00D-06.
 Requested convergence on             energy=1.00D-06.
 No special actions if energy rises.
 Integral accuracy reduced to 1.0D-05 until final iterations.
 Initial convergence to 1.0D-05 achieved.  Increase integral accuracy.
 SCF Done:  E(RPBE-PBE) =  -640.739331379     A.U. after    9 cycles
            NFock=  9  Conv=0.42D-08     -V/T= 2.0023
   1 Symmetry operations used in ECPInt.
 ECPInt:  NShTT=    2701 NPrTT=    8450 LenC2=    2603 LenP2D=    6596.
 LDataN:  DoStor=T MaxTD1= 9 Len=  602
 Calling FoFJK, ICntrl=      2527 FMM=F ISym2X=0 I1Cent= 0 IOpClX= 0 NMat=1 NMatS=1 NMatT=0.
 ***** Axes restored to original set *****
 -------------------------------------------------------------------
 Center     Atomic                   Forces (Hartrees/Bohr)
 Number     Number              X              Y              Z
 -------------------------------------------------------------------
      1       15           0.000063275    0.000000009    0.007870489
      2        9          -0.004038003    0.000003376   -0.002652538
      3        9           0.001990535   -0.003431256   -0.002605729
      4        9           0.001984193    0.003427871   -0.002612221
 -------------------------------------------------------------------
 Cartesian Forces:  Max     0.007870489 RMS     0.003295535

 GradGradGradGradGradGradGradGradGradGradGradGradGradGradGradGradGradGrad
 Berny optimization.
 Using GEDIIS/GDIIS optimizer.
 FormGI is forming the generalized inverse of G from B-inverse, IUseBI=4.
 Internal  Forces:  Max     0.004823313 RMS     0.003143917
 Search for a local minimum.
 Step number   2 out of a maximum of   20
 All quantities printed in internal units (Hartrees-Bohrs-Radians)
 Mixed Optimization -- RFO/linear search
 Update second derivatives using D2CorX and points    1    2
 DE= -7.14D-04 DEPred=-5.18D-04 R= 1.38D+00
 TightC=F SS=  1.41D+00  RLast= 4.64D-02 DXNew= 5.0454D-01 1.3933D-01
 Trust test= 1.38D+00 RLast= 4.64D-02 DXMaxT set to 3.00D-01
 The second derivative matrix:
                          R1        R2        R3        A1        A2
           R1           0.41784
           R2          -0.05937   0.42076
           R3          -0.05931  -0.05825   0.42084
           A1           0.00214   0.00210   0.00211   0.25014
           A2           0.00792   0.00780   0.00781   0.00038   0.25097
           A3           0.00800   0.00787   0.00788   0.00026   0.00062
           D1           0.00647   0.00637   0.00638   0.00027   0.00066
                          A3        D1
           A3           0.25032
           D1           0.00039   0.02955
 ITU=  1  0
 Use linear search instead of GDIIS.
     Eigenvalues ---    0.13455   0.24531   0.25005   0.30860   0.47855
     Eigenvalues ---    0.47905
 RFO step:  Lambda=-1.45220510D-05 EMin= 1.34552072D-01
 Quartic linear search produced a step of  0.54044.
 Iteration  1 RMS(Cart)=  0.00743699 RMS(Int)=  0.00002160
 Iteration  2 RMS(Cart)=  0.00002616 RMS(Int)=  0.00000739
 Iteration  3 RMS(Cart)=  0.00000000 RMS(Int)=  0.00000739
 Variable       Old X    -DE/DX   Delta X   Delta X   Delta X     New X
                                 (Linear)    (Quad)   (Total)
    R1        3.03109  -0.00482  -0.01466  -0.00043  -0.01510   3.01600
    R2        3.03076  -0.00474  -0.01439  -0.00041  -0.01480   3.01596
    R3        3.03077  -0.00473  -0.01440  -0.00039  -0.01479   3.01599
    A1        1.70343   0.00024  -0.00034   0.00408   0.00372   1.70715
    A2        1.70336   0.00064  -0.00038   0.00470   0.00432   1.70768
    A3        1.70335   0.00065   0.00035   0.00396   0.00431   1.70766
    D1        1.72377   0.00045  -0.00035   0.00551   0.00517   1.72894
         Item               Value     Threshold  Converged?
 Maximum Force            0.004823     0.000450     NO 
 RMS     Force            0.003144     0.000300     NO 
 Maximum Displacement     0.011761     0.001800     NO 
 RMS     Displacement     0.007447     0.001200     NO 
 Predicted change in Energy=-1.192433D-04
 GradGradGradGradGradGradGradGradGradGradGradGradGradGradGradGradGradGrad

                          Input orientation:                          
 ---------------------------------------------------------------------
 Center     Atomic      Atomic             Coordinates (Angstroms)
 Number     Number       Type             X           Y           Z
 ---------------------------------------------------------------------
      1         15           0        7.649395    7.999888    7.609942
      2          9           0        9.037442    8.000231    8.397683
      3          9           0        6.954132    9.203003    8.394970
      4          9           0        6.953808    6.796892    8.394891
 ---------------------------------------------------------------------
                    Distance matrix (angstroms):
                    1          2          3          4
     1  P    0.000000
     2  F    1.595998   0.000000
     3  F    1.595977   2.405587   0.000000
     4  F    1.595991   2.406152   2.406111   0.000000
 Stoichiometry    F3P
 Framework group  C1[X(F3P)]
 Deg. of freedom     6
 Full point group                 C1      NOp   1
 Largest Abelian subgroup         C1      NOp   1
 Largest concise Abelian subgroup C1      NOp   1
                         Standard orientation:                         
 ---------------------------------------------------------------------
 Center     Atomic      Atomic             Coordinates (Angstroms)
 Number     Number       Type             X           Y           Z
 ---------------------------------------------------------------------
      1         15           0        0.000173   -0.000005    0.505225
      2          9           0       -0.732996   -1.179883   -0.280626
      3          9           0       -0.655766    1.224464   -0.280627
      4          9           0        1.388474   -0.044572   -0.280789
 ---------------------------------------------------------------------
 Rotational constants (GHZ):           7.5020646           7.4983606           4.5954385
 Standard basis: def2QZVPP (5D, 7F)
 There are   302 symmetry adapted cartesian basis functions of A   symmetry.
 There are   241 symmetry adapted basis functions of A   symmetry.
   241 basis functions,   397 primitive gaussians,   302 cartesian basis functions
    21 alpha electrons       21 beta electrons
       nuclear repulsion energy       187.7313303331 Hartrees.
 NAtoms=    4 NActive=    4 NUniq=    4 SFac= 1.00D+00 NAtFMM=   60 NAOKFM=F Big=F
 Integral buffers will be    131072 words long.
 Raffenetti 2 integral format.
 Two-electron integral symmetry is turned on.
 One-electron integrals computed using PRISM.
   1 Symmetry operations used in ECPInt.
 ECPInt:  NShTT=    2701 NPrTT=    8450 LenC2=    2603 LenP2D=    6599.
 LDataN:  DoStor=T MaxTD1= 8 Len=  415
 NBasis=   241 RedAO= T EigKep=  4.13D-04  NBF=   241
 NBsUse=   241 1.00D-06 EigRej= -1.00D+00 NBFU=   241
 Initial guess from the checkpoint file:  "/data/hutter/SMG16/PBE/Gau-83145.chk"
 B after Tr=     0.000000   -0.000000   -0.000000
         Rot=    0.832609   -0.000053   -0.000037   -0.553861 Ang= -67.26 deg.
 Keep J ints in memory in canonical form, NReq=439106679.
 Requested convergence on RMS density matrix=1.00D-08 within 128 cycles.
 Requested convergence on MAX density matrix=1.00D-06.
 Requested convergence on             energy=1.00D-06.
 No special actions if energy rises.
 SCF Done:  E(RPBE-PBE) =  -640.739440228     A.U. after    8 cycles
            NFock=  8  Conv=0.35D-08     -V/T= 2.0022
   1 Symmetry operations used in ECPInt.
 ECPInt:  NShTT=    2701 NPrTT=    8450 LenC2=    2603 LenP2D=    6599.
 LDataN:  DoStor=T MaxTD1= 9 Len=  602
 Calling FoFJK, ICntrl=      2527 FMM=F ISym2X=0 I1Cent= 0 IOpClX= 0 NMat=1 NMatS=1 NMatT=0.
 ***** Axes restored to original set *****
 -------------------------------------------------------------------
 Center     Atomic                   Forces (Hartrees/Bohr)
 Number     Number              X              Y              Z
 -------------------------------------------------------------------
      1       15           0.000026969    0.000033825   -0.000489536
      2        9          -0.000190457   -0.000032025    0.000158875
      3        9           0.000059317   -0.000177775    0.000158483
      4        9           0.000104171    0.000175975    0.000172178
 -------------------------------------------------------------------
 Cartesian Forces:  Max     0.000489536 RMS     0.000190561

 GradGradGradGradGradGradGradGradGradGradGradGradGradGradGradGradGradGrad
 Berny optimization.
 Using GEDIIS/GDIIS optimizer.
 FormGI is forming the generalized inverse of G from B-inverse, IUseBI=4.
 Internal  Forces:  Max     0.000544786 RMS     0.000324029
 Search for a local minimum.
 Step number   3 out of a maximum of   20
 All quantities printed in internal units (Hartrees-Bohrs-Radians)
 Mixed Optimization -- En-DIIS/RFO-DIIS
 Update second derivatives using D2CorX and points    1    2    3
 DE= -1.09D-04 DEPred=-1.19D-04 R= 9.13D-01
 TightC=F SS=  1.41D+00  RLast= 2.73D-02 DXNew= 5.0454D-01 8.1799D-02
 Trust test= 9.13D-01 RLast= 2.73D-02 DXMaxT set to 3.00D-01
 The second derivative matrix:
                          R1        R2        R3        A1        A2
           R1           0.42124
           R2          -0.05592   0.42425
           R3          -0.05605  -0.05494   0.42397
           A1           0.01242   0.01221   0.01221   0.24847
           A2          -0.00133  -0.00131  -0.00126  -0.00044   0.25352
           A3          -0.00161  -0.00160  -0.00155  -0.00063   0.00331
           D1          -0.01270  -0.01249  -0.01244   0.00117   0.00391
                          A3        D1
           A3           0.25317
           D1           0.00385   0.03172
 ITU=  1  1  0
 Use linear search instead of GDIIS.
     Eigenvalues ---    0.13726   0.25002   0.25558   0.31306   0.47855
     Eigenvalues ---    0.47905
 RFO step:  Lambda=-3.41078491D-06 EMin= 1.37263282D-01
 Quartic linear search produced a step of -0.01325.
 Iteration  1 RMS(Cart)=  0.00214681 RMS(Int)=  0.00000314
 Iteration  2 RMS(Cart)=  0.00000243 RMS(Int)=  0.00000184
 Iteration  3 RMS(Cart)=  0.00000000 RMS(Int)=  0.00000184
 Variable       Old X    -DE/DX   Delta X   Delta X   Delta X     New X
                                 (Linear)    (Quad)   (Total)
    R1        3.01600  -0.00009   0.00020  -0.00054  -0.00034   3.01566
    R2        3.01596  -0.00008   0.00020  -0.00051  -0.00032   3.01564
    R3        3.01599  -0.00009   0.00020  -0.00053  -0.00034   3.01565
    A1        1.70715  -0.00014  -0.00005  -0.00144  -0.00149   1.70566
    A2        1.70768  -0.00054  -0.00006  -0.00219  -0.00225   1.70544
    A3        1.70766  -0.00054  -0.00006  -0.00219  -0.00225   1.70541
    D1        1.72894  -0.00032  -0.00007  -0.00218  -0.00224   1.72670
         Item               Value     Threshold  Converged?
 Maximum Force            0.000545     0.000450     NO 
 RMS     Force            0.000324     0.000300     NO 
 Maximum Displacement     0.002900     0.001800     NO 
 RMS     Displacement     0.002148     0.001200     NO 
 Predicted change in Energy=-1.722232D-06
 GradGradGradGradGradGradGradGradGradGradGradGradGradGradGradGradGradGrad

                          Input orientation:                          
 ---------------------------------------------------------------------
 Center     Atomic      Atomic             Coordinates (Angstroms)
 Number     Number       Type             X           Y           Z
 ---------------------------------------------------------------------
      1         15           0        7.649498    8.000056    7.608407
      2          9           0        9.036199    7.999908    8.398155
      3          9           0        6.954471    9.201769    8.395446
      4          9           0        6.954608    6.798280    8.395478
 ---------------------------------------------------------------------
                    Distance matrix (angstroms):
                    1          2          3          4
     1  P    0.000000
     2  F    1.595820   0.000000
     3  F    1.595809   2.403761   0.000000
     4  F    1.595813   2.403527   2.403490   0.000000
 Stoichiometry    F3P
 Framework group  C1[X(F3P)]
 Deg. of freedom     6
 Full point group                 C1      NOp   1
 Largest Abelian subgroup         C1      NOp   1
 Largest concise Abelian subgroup C1      NOp   1
                         Standard orientation:                         
 ---------------------------------------------------------------------
 Center     Atomic      Atomic             Coordinates (Angstroms)
 Number     Number       Type             X           Y           Z
 ---------------------------------------------------------------------
      1         15           0       -0.000009    0.000080    0.506541
      2          9           0       -1.243074    0.616941   -0.281439
      3          9           0        1.155945    0.767849   -0.281435
      4          9           0        0.087144   -1.384923   -0.281361
 ---------------------------------------------------------------------
 Rotational constants (GHZ):           7.5058741           7.5041422           4.6044570
 Standard basis: def2QZVPP (5D, 7F)
 There are   302 symmetry adapted cartesian basis functions of A   symmetry.
 There are   241 symmetry adapted basis functions of A   symmetry.
   241 basis functions,   397 primitive gaussians,   302 cartesian basis functions
    21 alpha electrons       21 beta electrons
       nuclear repulsion energy       187.7984642768 Hartrees.
 NAtoms=    4 NActive=    4 NUniq=    4 SFac= 1.00D+00 NAtFMM=   60 NAOKFM=F Big=F
 Integral buffers will be    131072 words long.
 Raffenetti 2 integral format.
 Two-electron integral symmetry is turned on.
 One-electron integrals computed using PRISM.
   1 Symmetry operations used in ECPInt.
 ECPInt:  NShTT=    2701 NPrTT=    8450 LenC2=    2603 LenP2D=    6599.
 LDataN:  DoStor=T MaxTD1= 8 Len=  415
 NBasis=   241 RedAO= T EigKep=  4.12D-04  NBF=   241
 NBsUse=   241 1.00D-06 EigRej= -1.00D+00 NBFU=   241
 Initial guess from the checkpoint file:  "/data/hutter/SMG16/PBE/Gau-83145.chk"
 B after Tr=     0.000000   -0.000000   -0.000000
         Rot=    0.739861    0.000064    0.000068    0.672760 Ang=  84.56 deg.
 Keep J ints in memory in canonical form, NReq=439106679.
 Requested convergence on RMS density matrix=1.00D-08 within 128 cycles.
 Requested convergence on MAX density matrix=1.00D-06.
 Requested convergence on             energy=1.00D-06.
 No special actions if energy rises.
 SCF Done:  E(RPBE-PBE) =  -640.739441788     A.U. after    7 cycles
            NFock=  7  Conv=0.40D-08     -V/T= 2.0022
   1 Symmetry operations used in ECPInt.
 ECPInt:  NShTT=    2701 NPrTT=    8450 LenC2=    2603 LenP2D=    6599.
 LDataN:  DoStor=T MaxTD1= 9 Len=  602
 Calling FoFJK, ICntrl=      2527 FMM=F ISym2X=0 I1Cent= 0 IOpClX= 0 NMat=1 NMatS=1 NMatT=0.
 ***** Axes restored to original set *****
 -------------------------------------------------------------------
 Center     Atomic                   Forces (Hartrees/Bohr)
 Number     Number              X              Y              Z
 -------------------------------------------------------------------
      1       15          -0.000003538   -0.000010650    0.000196202
      2        9           0.000117370    0.000009999   -0.000066432
      3        9          -0.000046211    0.000121703   -0.000057151
      4        9          -0.000067621   -0.000121053   -0.000072619
 -------------------------------------------------------------------
 Cartesian Forces:  Max     0.000196202 RMS     0.000092025

 GradGradGradGradGradGradGradGradGradGradGradGradGradGradGradGradGradGrad
 Berny optimization.
 Using GEDIIS/GDIIS optimizer.
 FormGI is forming the generalized inverse of G from B-inverse, IUseBI=4.
 Internal  Forces:  Max     0.000282539 RMS     0.000169238
 Search for a local minimum.
 Step number   4 out of a maximum of   20
 All quantities printed in internal units (Hartrees-Bohrs-Radians)
 Mixed Optimization -- En-DIIS/RFO-DIIS
 Swapping is turned off.
 Update second derivatives using D2CorX and points    1    2    3    4
 DE= -1.56D-06 DEPred=-1.72D-06 R= 9.06D-01
 TightC=F SS=  1.41D+00  RLast= 4.20D-03 DXNew= 5.0454D-01 1.2615D-02
 Trust test= 9.06D-01 RLast= 4.20D-03 DXMaxT set to 3.00D-01
 The second derivative matrix:
                          R1        R2        R3        A1        A2
           R1           0.42361
           R2          -0.05287   0.42795
           R3          -0.05285  -0.05106   0.42804
           A1           0.00118   0.00200   0.00157   0.21435
           A2           0.00692   0.00885   0.00939  -0.03139   0.28088
           A3           0.00755   0.00949   0.01006  -0.03047   0.03332
           D1           0.00755   0.00827   0.00925   0.01261   0.06376
                          A3        D1
           A3           0.28586
           D1           0.06481   0.07200
 ITU=  1  1  1  0
     Eigenvalues ---    0.15097   0.24998   0.30734   0.35918   0.47866
     Eigenvalues ---    0.47906
 En-DIIS/RFO-DIIS/Sim-DIIS IScMMF=       -3 using points:     4    3
 RFO step:  Lambda=-6.11159559D-07.
 DidBck=T Rises=F RFO-DIIS coefs:    0.66181    0.33819
 Iteration  1 RMS(Cart)=  0.00074254 RMS(Int)=  0.00000052
 Iteration  2 RMS(Cart)=  0.00000025 RMS(Int)=  0.00000044
 Variable       Old X    -DE/DX   Delta X   Delta X   Delta X     New X
                                 (Linear)    (Quad)   (Total)
    R1        3.01566   0.00007   0.00011   0.00006   0.00017   3.01583
    R2        3.01564   0.00008   0.00011   0.00008   0.00019   3.01583
    R3        3.01565   0.00009   0.00011   0.00008   0.00019   3.01584
    A1        1.70566   0.00007   0.00050   0.00000   0.00051   1.70617
    A2        1.70544   0.00027   0.00076  -0.00004   0.00072   1.70616
    A3        1.70541   0.00028   0.00076   0.00001   0.00077   1.70618
    D1        1.72670   0.00016   0.00076  -0.00000   0.00075   1.72745
         Item               Value     Threshold  Converged?
 Maximum Force            0.000283     0.000450     YES
 RMS     Force            0.000169     0.000300     YES
 Maximum Displacement     0.000948     0.001800     YES
 RMS     Displacement     0.000743     0.001200     YES
 Predicted change in Energy=-3.055796D-07
 Optimization completed.
    -- Stationary point found.
                           ----------------------------
                           !   Optimized Parameters   !
                           ! (Angstroms and Degrees)  !
 --------------------------                            --------------------------
 ! Name  Definition              Value          Derivative Info.                !
 --------------------------------------------------------------------------------
 ! R1    R(1,2)                  1.5958         -DE/DX =    0.0001              !
 ! R2    R(1,3)                  1.5958         -DE/DX =    0.0001              !
 ! R3    R(1,4)                  1.5958         -DE/DX =    0.0001              !
 ! A1    A(2,1,3)               97.7272         -DE/DX =    0.0001              !
 ! A2    A(2,1,4)               97.7142         -DE/DX =    0.0003              !
 ! A3    A(3,1,4)               97.7127         -DE/DX =    0.0003              !
 ! D1    D(2,1,4,3)             98.9324         -DE/DX =    0.0002              !
 --------------------------------------------------------------------------------
 GradGradGradGradGradGradGradGradGradGradGradGradGradGradGradGradGradGrad

                          Input orientation:                          
 ---------------------------------------------------------------------
 Center     Atomic      Atomic             Coordinates (Angstroms)
 Number     Number       Type             X           Y           Z
 ---------------------------------------------------------------------
      1         15           0        7.649498    8.000056    7.608407
      2          9           0        9.036199    7.999908    8.398155
      3          9           0        6.954471    9.201769    8.395446
      4          9           0        6.954608    6.798280    8.395478
 ---------------------------------------------------------------------
                    Distance matrix (angstroms):
                    1          2          3          4
     1  P    0.000000
     2  F    1.595820   0.000000
     3  F    1.595809   2.403761   0.000000
     4  F    1.595813   2.403527   2.403490   0.000000
 Stoichiometry    F3P
 Framework group  C1[X(F3P)]
 Deg. of freedom     6
 Full point group                 C1      NOp   1
 Largest Abelian subgroup         C1      NOp   1
 Largest concise Abelian subgroup C1      NOp   1
                         Standard orientation:                         
 ---------------------------------------------------------------------
 Center     Atomic      Atomic             Coordinates (Angstroms)
 Number     Number       Type             X           Y           Z
 ---------------------------------------------------------------------
      1         15           0       -0.000009    0.000080    0.506541
      2          9           0       -1.243074    0.616941   -0.281439
      3          9           0        1.155945    0.767849   -0.281435
      4          9           0        0.087144   -1.384923   -0.281361
 ---------------------------------------------------------------------
 Rotational constants (GHZ):           7.5058741           7.5041422           4.6044570

 **********************************************************************

            Population analysis using the SCF Density.

 **********************************************************************

 Orbital symmetries:
       Occupied  (A) (A) (A) (A) (A) (A) (A) (A) (A) (A) (A) (A)
                 (A) (A) (A) (A) (A) (A) (A) (A) (A)
       Virtual   (A) (A) (A) (A) (A) (A) (A) (A) (A) (A) (A) (A)
                 (A) (A) (A) (A) (A) (A) (A) (A) (A) (A) (A) (A)
                 (A) (A) (A) (A) (A) (A) (A) (A) (A) (A) (A) (A)
                 (A) (A) (A) (A) (A) (A) (A) (A) (A) (A) (A) (A)
                 (A) (A) (A) (A) (A) (A) (A) (A) (A) (A) (A) (A)
                 (A) (A) (A) (A) (A) (A) (A) (A) (A) (A) (A) (A)
                 (A) (A) (A) (A) (A) (A) (A) (A) (A) (A) (A) (A)
                 (A) (A) (A) (A) (A) (A) (A) (A) (A) (A) (A) (A)
                 (A) (A) (A) (A) (A) (A) (A) (A) (A) (A) (A) (A)
                 (A) (A) (A) (A) (A) (A) (A) (A) (A) (A) (A) (A)
                 (A) (A) (A) (A) (A) (A) (A) (A) (A) (A) (A) (A)
                 (A) (A) (A) (A) (A) (A) (A) (A) (A) (A) (A) (A)
                 (A) (A) (A) (A) (A) (A) (A) (A) (A) (A) (A) (A)
                 (A) (A) (A) (A) (A) (A) (A) (A) (A) (A) (A) (A)
                 (A) (A) (A) (A) (A) (A) (A) (A) (A) (A) (A) (A)
                 (A) (A) (A) (A) (A) (A) (A) (A) (A) (A) (A) (A)
                 (A) (A) (A) (A) (A) (A) (A) (A) (A) (A) (A) (A)
                 (A) (A) (A) (A) (A) (A) (A) (A) (A) (A) (A) (A)
                 (A) (A) (A) (A)
 The electronic state is 1-A.
 Alpha  occ. eigenvalues --  -76.44593 -24.29839 -24.29839 -24.29838  -6.43778
 Alpha  occ. eigenvalues --   -4.65615  -4.65615  -4.64904  -1.17270  -1.12621
 Alpha  occ. eigenvalues --   -1.12619  -0.61229  -0.50343  -0.50342  -0.46644
 Alpha  occ. eigenvalues --   -0.43075  -0.43074  -0.39487  -0.39485  -0.38179
 Alpha  occ. eigenvalues --   -0.29226
 Alpha virt. eigenvalues --   -0.05327  -0.05324   0.03854   0.08974   0.13475
 Alpha virt. eigenvalues --    0.13476   0.15480   0.22850   0.22851   0.23663
 Alpha virt. eigenvalues --    0.24845   0.24847   0.32519   0.32696   0.32698
 Alpha virt. eigenvalues --    0.38515   0.40523   0.40761   0.40762   0.47647
 Alpha virt. eigenvalues --    0.47649   0.68614   0.69623   0.69624   0.72192
 Alpha virt. eigenvalues --    0.72193   0.75661   0.80579   0.81235   0.81235
 Alpha virt. eigenvalues --    0.86228   0.86913   0.89980   0.89984   1.04361
 Alpha virt. eigenvalues --    1.04363   1.05715   1.16958   1.16962   1.30962
 Alpha virt. eigenvalues --    1.30969   1.41778   1.47620   1.47629   1.47716
 Alpha virt. eigenvalues --    1.57678   1.57679   1.59370   1.62089   1.62093
 Alpha virt. eigenvalues --    1.62486   1.64186   1.65693   1.65695   1.74649
 Alpha virt. eigenvalues --    1.75926   1.78875   1.78878   1.90219   1.95432
 Alpha virt. eigenvalues --    1.95432   2.18678   2.27977   2.27978   2.34156
 Alpha virt. eigenvalues --    2.35030   2.35038   2.47362   2.47368   2.48980
 Alpha virt. eigenvalues --    2.50013   2.52864   2.52868   2.72307   2.72314
 Alpha virt. eigenvalues --    2.79469   2.84719   2.84720   2.94142   2.94145
 Alpha virt. eigenvalues --    2.95568   3.15268   3.15270   3.17048   3.20662
 Alpha virt. eigenvalues --    3.46357   3.54650   3.54651   4.00543   4.01091
 Alpha virt. eigenvalues --    4.01094   4.03266   4.03267   4.05126   4.08835
 Alpha virt. eigenvalues --    4.18802   4.18807   4.20969   4.34204   4.34221
 Alpha virt. eigenvalues --    4.35137   4.49207   4.49211   4.60375   4.60378
 Alpha virt. eigenvalues --    4.64038   4.88079   4.88304   4.88307   4.88403
 Alpha virt. eigenvalues --    4.91127   4.91131   5.04525   5.06418   5.06426
 Alpha virt. eigenvalues --    5.15891   5.22592   5.22595   5.36147   5.56239
 Alpha virt. eigenvalues --    5.57716   5.57720   5.60262   5.62147   5.62155
 Alpha virt. eigenvalues --    5.88078   5.88082   6.10911   6.13871   6.13876
 Alpha virt. eigenvalues --    6.20224   6.33311   6.33312   6.78025   6.87764
 Alpha virt. eigenvalues --    6.87772   6.94699   6.96921   6.96928   7.07700
 Alpha virt. eigenvalues --    7.72166   7.72172  11.16509  11.17194  11.17195
 Alpha virt. eigenvalues --   11.18226  11.18228  11.18325  11.18828  11.19749
 Alpha virt. eigenvalues --   11.19756  11.19766  11.19790  11.19791  11.19896
 Alpha virt. eigenvalues --   11.22166  11.24178  11.24182  11.27083  11.27089
 Alpha virt. eigenvalues --   11.29314  11.29316  11.29751  11.38739  11.38742
 Alpha virt. eigenvalues --   11.42434  11.45493  11.45498  11.47816  14.31760
 Alpha virt. eigenvalues --   14.31835  14.31836  14.32819  14.32820  14.33498
 Alpha virt. eigenvalues --   14.36430  14.44062  14.44069  14.49960  14.49961
 Alpha virt. eigenvalues --   14.50495  14.61267  14.63381  14.63383  14.72165
 Alpha virt. eigenvalues --   14.72566  14.72576  14.81401  14.81406  14.84852
 Alpha virt. eigenvalues --   15.47133  15.48926  15.48931  15.53892  15.53896
 Alpha virt. eigenvalues --   15.62978  15.67416  15.67419  15.67555  15.87021
 Alpha virt. eigenvalues --   15.87895  15.87898  15.99331  16.13535  16.13540
 Alpha virt. eigenvalues --   16.29917  16.34028  16.34029  17.75675  18.25908
 Alpha virt. eigenvalues --   18.25940  20.22444  53.86229  53.89634  53.89636
 Alpha virt. eigenvalues --   70.05448 284.27010 284.31405 284.31407 380.41858
          Condensed to atoms (all electrons):
               1          2          3          4
     1  P   13.440374   0.246151   0.246143   0.246170
     2  F    0.246151   9.068511  -0.020464  -0.020479
     3  F    0.246143  -0.020464   9.068511  -0.020480
     4  F    0.246170  -0.020479  -0.020480   9.068520
 Mulliken charges:
               1
     1  P    0.821161
     2  F   -0.273720
     3  F   -0.273710
     4  F   -0.273731
 Sum of Mulliken charges =  -0.00000
 Mulliken charges with hydrogens summed into heavy atoms:
               1
     1  P    0.821161
     2  F   -0.273720
     3  F   -0.273710
     4  F   -0.273731
 Electronic spatial extent (au):  <R**2>=            269.0411
 Charge=             -0.0000 electrons
 Dipole moment (field-independent basis, Debye):
    X=              0.0000    Y=              0.0003    Z=              1.0027  Tot=              1.0027
 Quadrupole moment (field-independent basis, Debye-Ang):
   XX=            -28.0715   YY=            -28.0710   ZZ=            -27.2263
   XY=              0.0000   XZ=              0.0000   YZ=             -0.0001
 Traceless Quadrupole moment (field-independent basis, Debye-Ang):
   XX=             -0.2819   YY=             -0.2814   ZZ=              0.5633
   XY=              0.0000   XZ=              0.0000   YZ=             -0.0001
 Octapole moment (field-independent basis, Debye-Ang**2):
  XXX=              0.4003  YYY=              2.0968  ZZZ=             -8.3977  XYY=             -0.4000
  XXY=             -2.0976  XXZ=             -0.8624  XZZ=              0.0001  YZZ=             -0.0007
  YYZ=             -0.8627  XYZ=              0.0000
 Hexadecapole moment (field-independent basis, Debye-Ang**3):
 XXXX=           -111.8775 YYYY=           -111.8531 ZZZZ=            -56.8509 XXXY=              0.0001
 XXXZ=              0.0076 YYYX=              0.0000 YYYZ=              0.0395 ZZZX=              0.0001
 ZZZY=             -0.0012 XXYY=            -37.2886 XXZZ=            -26.5357 YYZZ=            -26.5318
 XXYZ=             -0.0400 YYXZ=             -0.0076 ZZXY=              0.0000
 N-N= 1.877984642768D+02 E-N=-1.902691377478D+03  KE= 6.393198214410D+02
 Unable to Open any file for archive entry.
 1\1\GINC-TCOPT10\FOpt\RPBEPBE\def2QZVPP\F3P1\HUTTER\30-Jul-2021\0\\#N 
 RPBEPBE/Def2QZVPP scf=tight Int(Grid=ultrafine) OPT FREQ\\Mol job 1\\0
 ,1\P,7.6494978783,8.0000560654,7.6084073056\F,9.0361993642,7.999908377
 4,8.3981547276\F,6.9544713882,9.2017692905,8.3954456694\F,6.9546083393
 ,6.7982796768,8.3954777574\\Version=ES64L-G16RevC.01\State=1-A\HF=-640
 .7394418\RMSD=4.008e-09\RMSF=9.203e-05\Dipole=0.0005597,0.0001028,-0.3
 944843\Quadrupole=-0.2095453,-0.2092665,0.4188118,0.0001463,-0.0007505
 ,0.0001103\PG=C01 [X(F3P1)]\\@
 The archive entry for this job was punched.


 TERENCE, THIS IS STUPID STUFF:
 YOU EAT YOUR VICTUALS FAST ENOUGH;
 THERE CAN'T BE MUCH AMISS, 'TIS CLEAR
 TO SEE THE RATE YOU DRINK YOUR BEER.
 BUT OH, GOOD LORD, THE VERSE YOU MAKE,
 IT GIVES A CHAP THE BELLY-ACHE.
 THE COW, THE OLD COW, SHE IS DEAD;
 IT SLEEPS WELL, THE HORNED HEAD:
 WE POOR LADS, 'TIS OUR TURN NOW
 TO HEAR SUCH TUNES AS KILLED THE COW.
 PRETTY FRIENDSHIP 'TIS TO RHYME
 YOUR FRIENDS TO DEATH BEFORE THEIR TIME.
 MOPING, MELANCHOLY MAD:
 COME PIPE A TUNE TO DANCE TO, LAD.

     -- A. E. HOUSMAN
 Job cpu time:       0 days  0 hours 18 minutes  4.2 seconds.
 Elapsed time:       0 days  0 hours  2 minutes 36.6 seconds.
 File lengths (MBytes):  RWF=     33 Int=      0 D2E=      0 Chk=      5 Scr=      1
 Normal termination of Gaussian 16 at Fri Jul 30 17:31:58 2021.
 Link1:  Proceeding to internal job step number  2.
 ----------------------------------------------------------------------
 #N Geom=AllCheck Guess=TCheck SCRF=Check GenChk RPBEPBE/def2QZVPP Freq
 ----------------------------------------------------------------------
 1/10=4,29=7,30=1,38=1,40=1/1,3;
 2/12=2,40=1/2;
 3/5=45,7=202,11=2,14=-4,25=1,30=1,70=2,71=2,74=1009,75=-5,116=1,140=1/1,2,3;
 4/5=101/1;
 5/5=2,32=2,38=6,98=1/2;
 8/6=4,10=90,11=11/1;
 11/6=1,8=1,9=11,15=111,16=1/1,2,10;
 10/6=1/2;
 6/7=2,8=2,9=2,10=2,28=1/1;
 7/8=1,10=1,25=1/1,2,3,16;
 1/10=4,30=1/3;
 99//99;
 Structure from the checkpoint file:  "/data/hutter/SMG16/PBE/Gau-83145.chk"
 ---------
 Mol job 1
 ---------
 Charge =  0 Multiplicity = 1
 Redundant internal coordinates found in file.  (old form).
 P,0,7.6494978783,8.0000560654,7.6084073056
 F,0,9.0361993642,7.9999083774,8.3981547276
 F,0,6.9544713882,9.2017692905,8.3954456694
 F,0,6.9546083393,6.7982796768,8.3954777574
 Recover connectivity data from disk.

 GradGradGradGradGradGradGradGradGradGradGradGradGradGradGradGradGradGrad
 Berny optimization.
 Initialization pass.
                           ----------------------------
                           !    Initial Parameters    !
                           ! (Angstroms and Degrees)  !
 --------------------------                            --------------------------
 ! Name  Definition              Value          Derivative Info.                !
 --------------------------------------------------------------------------------
 ! R1    R(1,2)                  1.5958         calculate D2E/DX2 analytically  !
 ! R2    R(1,3)                  1.5958         calculate D2E/DX2 analytically  !
 ! R3    R(1,4)                  1.5958         calculate D2E/DX2 analytically  !
 ! A1    A(2,1,3)               97.7272         calculate D2E/DX2 analytically  !
 ! A2    A(2,1,4)               97.7142         calculate D2E/DX2 analytically  !
 ! A3    A(3,1,4)               97.7127         calculate D2E/DX2 analytically  !
 ! D1    D(2,1,4,3)             98.9324         calculate D2E/DX2 analytically  !
 --------------------------------------------------------------------------------
 Trust Radius=3.00D-01 FncErr=1.00D-07 GrdErr=1.00D-07 EigMax=2.50D+02 EigMin=1.00D-04
 Number of steps in this run=      2 maximum allowed number of steps=      2.
 GradGradGradGradGradGradGradGradGradGradGradGradGradGradGradGradGradGrad

                          Input orientation:                          
 ---------------------------------------------------------------------
 Center     Atomic      Atomic             Coordinates (Angstroms)
 Number     Number       Type             X           Y           Z
 ---------------------------------------------------------------------
      1         15           0        7.649498    8.000056    7.608407
      2          9           0        9.036199    7.999908    8.398155
      3          9           0        6.954471    9.201769    8.395446
      4          9           0        6.954608    6.798280    8.395478
 ---------------------------------------------------------------------
                    Distance matrix (angstroms):
                    1          2          3          4
     1  P    0.000000
     2  F    1.595820   0.000000
     3  F    1.595809   2.403761   0.000000
     4  F    1.595813   2.403527   2.403490   0.000000
 Stoichiometry    F3P
 Framework group  C1[X(F3P)]
 Deg. of freedom     6
 Full point group                 C1      NOp   1
 Largest Abelian subgroup         C1      NOp   1
 Largest concise Abelian subgroup C1      NOp   1
                         Standard orientation:                         
 ---------------------------------------------------------------------
 Center     Atomic      Atomic             Coordinates (Angstroms)
 Number     Number       Type             X           Y           Z
 ---------------------------------------------------------------------
      1         15           0       -0.000009    0.000080    0.506541
      2          9           0       -1.243074    0.616941   -0.281439
      3          9           0        1.155945    0.767849   -0.281435
      4          9           0        0.087144   -1.384923   -0.281361
 ---------------------------------------------------------------------
 Rotational constants (GHZ):           7.5058741           7.5041422           4.6044570
 Standard basis: def2QZVPP (5D, 7F)
 There are   302 symmetry adapted cartesian basis functions of A   symmetry.
 There are   241 symmetry adapted basis functions of A   symmetry.
   241 basis functions,   397 primitive gaussians,   302 cartesian basis functions
    21 alpha electrons       21 beta electrons
       nuclear repulsion energy       187.7984642768 Hartrees.
 NAtoms=    4 NActive=    4 NUniq=    4 SFac= 1.00D+00 NAtFMM=   60 NAOKFM=F Big=F
 Integral buffers will be    131072 words long.
 Raffenetti 2 integral format.
 Two-electron integral symmetry is turned on.
 One-electron integrals computed using PRISM.
   1 Symmetry operations used in ECPInt.
 ECPInt:  NShTT=    2701 NPrTT=    8450 LenC2=    2603 LenP2D=    6599.
 LDataN:  DoStor=T MaxTD1= 8 Len=  415
 NBasis=   241 RedAO= T EigKep=  4.12D-04  NBF=   241
 NBsUse=   241 1.00D-06 EigRej= -1.00D+00 NBFU=   241
 Initial guess from the checkpoint file:  "/data/hutter/SMG16/PBE/Gau-83145.chk"
 B after Tr=     0.000000    0.000000    0.000000
         Rot=    1.000000    0.000000    0.000000    0.000000 Ang=   0.00 deg.
 Keep J ints in memory in canonical form, NReq=439106679.
 Requested convergence on RMS density matrix=1.00D-08 within 128 cycles.
 Requested convergence on MAX density matrix=1.00D-06.
 Requested convergence on             energy=1.00D-06.
 No special actions if energy rises.
 SCF Done:  E(RPBE-PBE) =  -640.739441788     A.U. after    1 cycles
            NFock=  1  Conv=0.16D-08     -V/T= 2.0022
 DoSCS=F DFT=T ScalE2(SS,OS)=  1.000000  1.000000
 Range of M.O.s used for correlation:     1   241
 NBasis=   241 NAE=    21 NBE=    21 NFC=     0 NFV=     0
 NROrb=    241 NOA=    21 NOB=    21 NVA=   220 NVB=   220

 **** Warning!!: The largest alpha MO coefficient is  0.16836613D+02

   1 Symmetry operations used in ECPInt.
 ECPInt:  NShTT=    2701 NPrTT=    8450 LenC2=    2603 LenP2D=    6599.
 LDataN:  DoStor=T MaxTD1= 9 Len=  602
 Symmetrizing basis deriv contribution to polar:
 IMax=3 JMax=2 DiffMx= 0.00D+00
 G2DrvN: will do     5 centers at a time, making    1 passes.
 Calling FoFCou, ICntrl=  3507 FMM=F I1Cent=   0 AccDes= 0.00D+00.
 End of G2Drv F.D. properties file   721 does not exist.
 End of G2Drv F.D. properties file   722 does not exist.
 End of G2Drv F.D. properties file   788 does not exist.
          IDoAtm=1111
          Differentiating once with respect to electric field.
                with respect to dipole field.
          Differentiating once with respect to nuclear coordinates.
 Keep J ints in memory in canonical form, NReq=439109135.
          There are    15 degrees of freedom in the 1st order CPHF.  IDoFFX=6 NUNeed=     3.
     12 vectors produced by pass  0 Test12= 3.08D-14 6.67D-09 XBig12= 3.23D+01 4.48D+00.
 AX will form    12 AO Fock derivatives at one time.
     12 vectors produced by pass  1 Test12= 3.08D-14 6.67D-09 XBig12= 8.67D+00 1.04D+00.
     12 vectors produced by pass  2 Test12= 3.08D-14 6.67D-09 XBig12= 2.13D-01 1.51D-01.
     12 vectors produced by pass  3 Test12= 3.08D-14 6.67D-09 XBig12= 9.39D-03 3.42D-02.
     12 vectors produced by pass  4 Test12= 3.08D-14 6.67D-09 XBig12= 2.77D-05 8.88D-04.
     12 vectors produced by pass  5 Test12= 3.08D-14 6.67D-09 XBig12= 2.04D-07 1.03D-04.
      6 vectors produced by pass  6 Test12= 3.08D-14 6.67D-09 XBig12= 2.32D-10 3.20D-06.
      3 vectors produced by pass  7 Test12= 3.08D-14 6.67D-09 XBig12= 5.77D-13 2.07D-07.
      1 vectors produced by pass  8 Test12= 3.08D-14 6.67D-09 XBig12= 1.29D-15 8.52D-09.
 InvSVY:  IOpt=1 It=  1 EMax= 9.99D-16
 Solved reduced A of dimension    82 with    12 vectors.
 Isotropic polarizability for W=    0.000000       26.31 Bohr**3.
 End of Minotr F.D. properties file   721 does not exist.
 End of Minotr F.D. properties file   722 does not exist.
 End of Minotr F.D. properties file   788 does not exist.

 **********************************************************************

            Population analysis using the SCF Density.

 **********************************************************************

 Orbital symmetries:
       Occupied  (A) (A) (A) (A) (A) (A) (A) (A) (A) (A) (A) (A)
                 (A) (A) (A) (A) (A) (A) (A) (A) (A)
       Virtual   (A) (A) (A) (A) (A) (A) (A) (A) (A) (A) (A) (A)
                 (A) (A) (A) (A) (A) (A) (A) (A) (A) (A) (A) (A)
                 (A) (A) (A) (A) (A) (A) (A) (A) (A) (A) (A) (A)
                 (A) (A) (A) (A) (A) (A) (A) (A) (A) (A) (A) (A)
                 (A) (A) (A) (A) (A) (A) (A) (A) (A) (A) (A) (A)
                 (A) (A) (A) (A) (A) (A) (A) (A) (A) (A) (A) (A)
                 (A) (A) (A) (A) (A) (A) (A) (A) (A) (A) (A) (A)
                 (A) (A) (A) (A) (A) (A) (A) (A) (A) (A) (A) (A)
                 (A) (A) (A) (A) (A) (A) (A) (A) (A) (A) (A) (A)
                 (A) (A) (A) (A) (A) (A) (A) (A) (A) (A) (A) (A)
                 (A) (A) (A) (A) (A) (A) (A) (A) (A) (A) (A) (A)
                 (A) (A) (A) (A) (A) (A) (A) (A) (A) (A) (A) (A)
                 (A) (A) (A) (A) (A) (A) (A) (A) (A) (A) (A) (A)
                 (A) (A) (A) (A) (A) (A) (A) (A) (A) (A) (A) (A)
                 (A) (A) (A) (A) (A) (A) (A) (A) (A) (A) (A) (A)
                 (A) (A) (A) (A) (A) (A) (A) (A) (A) (A) (A) (A)
                 (A) (A) (A) (A) (A) (A) (A) (A) (A) (A) (A) (A)
                 (A) (A) (A) (A) (A) (A) (A) (A) (A) (A) (A) (A)
                 (A) (A) (A) (A)
 The electronic state is 1-A.
 Alpha  occ. eigenvalues --  -76.44593 -24.29839 -24.29839 -24.29838  -6.43778
 Alpha  occ. eigenvalues --   -4.65615  -4.65615  -4.64904  -1.17270  -1.12621
 Alpha  occ. eigenvalues --   -1.12619  -0.61229  -0.50343  -0.50342  -0.46644
 Alpha  occ. eigenvalues --   -0.43075  -0.43074  -0.39487  -0.39485  -0.38179
 Alpha  occ. eigenvalues --   -0.29226
 Alpha virt. eigenvalues --   -0.05327  -0.05324   0.03854   0.08974   0.13475
 Alpha virt. eigenvalues --    0.13476   0.15480   0.22850   0.22851   0.23663
 Alpha virt. eigenvalues --    0.24845   0.24847   0.32519   0.32696   0.32698
 Alpha virt. eigenvalues --    0.38515   0.40523   0.40761   0.40762   0.47647
 Alpha virt. eigenvalues --    0.47649   0.68614   0.69623   0.69624   0.72192
 Alpha virt. eigenvalues --    0.72193   0.75660   0.80579   0.81235   0.81235
 Alpha virt. eigenvalues --    0.86228   0.86913   0.89980   0.89984   1.04361
 Alpha virt. eigenvalues --    1.04363   1.05715   1.16958   1.16962   1.30962
 Alpha virt. eigenvalues --    1.30969   1.41778   1.47620   1.47629   1.47716
 Alpha virt. eigenvalues --    1.57678   1.57679   1.59370   1.62089   1.62093
 Alpha virt. eigenvalues --    1.62486   1.64186   1.65693   1.65695   1.74649
 Alpha virt. eigenvalues --    1.75926   1.78875   1.78878   1.90219   1.95432
 Alpha virt. eigenvalues --    1.95432   2.18678   2.27977   2.27978   2.34156
 Alpha virt. eigenvalues --    2.35030   2.35038   2.47362   2.47368   2.48980
 Alpha virt. eigenvalues --    2.50013   2.52864   2.52868   2.72307   2.72314
 Alpha virt. eigenvalues --    2.79469   2.84719   2.84720   2.94142   2.94145
 Alpha virt. eigenvalues --    2.95568   3.15268   3.15270   3.17048   3.20662
 Alpha virt. eigenvalues --    3.46357   3.54650   3.54651   4.00543   4.01091
 Alpha virt. eigenvalues --    4.01094   4.03266   4.03267   4.05126   4.08835
 Alpha virt. eigenvalues --    4.18802   4.18807   4.20969   4.34204   4.34221
 Alpha virt. eigenvalues --    4.35137   4.49207   4.49211   4.60375   4.60378
 Alpha virt. eigenvalues --    4.64038   4.88079   4.88304   4.88307   4.88403
 Alpha virt. eigenvalues --    4.91127   4.91131   5.04525   5.06418   5.06426
 Alpha virt. eigenvalues --    5.15891   5.22592   5.22595   5.36147   5.56239
 Alpha virt. eigenvalues --    5.57716   5.57720   5.60262   5.62147   5.62155
 Alpha virt. eigenvalues --    5.88078   5.88082   6.10911   6.13871   6.13876
 Alpha virt. eigenvalues --    6.20224   6.33311   6.33312   6.78025   6.87764
 Alpha virt. eigenvalues --    6.87772   6.94699   6.96921   6.96928   7.07700
 Alpha virt. eigenvalues --    7.72166   7.72172  11.16509  11.17194  11.17195
 Alpha virt. eigenvalues --   11.18226  11.18228  11.18325  11.18828  11.19749
 Alpha virt. eigenvalues --   11.19756  11.19766  11.19790  11.19791  11.19896
 Alpha virt. eigenvalues --   11.22166  11.24178  11.24182  11.27083  11.27089
 Alpha virt. eigenvalues --   11.29314  11.29316  11.29751  11.38739  11.38742
 Alpha virt. eigenvalues --   11.42434  11.45493  11.45498  11.47816  14.31760
 Alpha virt. eigenvalues --   14.31835  14.31836  14.32819  14.32820  14.33498
 Alpha virt. eigenvalues --   14.36430  14.44062  14.44069  14.49960  14.49961
 Alpha virt. eigenvalues --   14.50495  14.61267  14.63381  14.63383  14.72165
 Alpha virt. eigenvalues --   14.72566  14.72576  14.81401  14.81406  14.84852
 Alpha virt. eigenvalues --   15.47133  15.48926  15.48931  15.53892  15.53896
 Alpha virt. eigenvalues --   15.62978  15.67416  15.67419  15.67555  15.87021
 Alpha virt. eigenvalues --   15.87895  15.87898  15.99331  16.13535  16.13540
 Alpha virt. eigenvalues --   16.29917  16.34028  16.34029  17.75675  18.25908
 Alpha virt. eigenvalues --   18.25940  20.22444  53.86229  53.89634  53.89636
 Alpha virt. eigenvalues --   70.05448 284.27010 284.31405 284.31407 380.41858
          Condensed to atoms (all electrons):
               1          2          3          4
     1  P   13.440374   0.246151   0.246143   0.246170
     2  F    0.246151   9.068511  -0.020464  -0.020479
     3  F    0.246143  -0.020464   9.068511  -0.020480
     4  F    0.246170  -0.020479  -0.020480   9.068520
 Mulliken charges:
               1
     1  P    0.821161
     2  F   -0.273720
     3  F   -0.273710
     4  F   -0.273731
 Sum of Mulliken charges =  -0.00000
 Mulliken charges with hydrogens summed into heavy atoms:
               1
     1  P    0.821161
     2  F   -0.273720
     3  F   -0.273710
     4  F   -0.273731
 APT charges:
               1
     1  P    1.674498
     2  F   -0.558176
     3  F   -0.558157
     4  F   -0.558166
 Sum of APT charges =   0.00000
 APT charges with hydrogens summed into heavy atoms:
               1
     1  P    1.674498
     2  F   -0.558176
     3  F   -0.558157
     4  F   -0.558166
 Electronic spatial extent (au):  <R**2>=            269.0411
 Charge=              0.0000 electrons
 Dipole moment (field-independent basis, Debye):
    X=              0.0000    Y=              0.0003    Z=              1.0027  Tot=              1.0027
 Quadrupole moment (field-independent basis, Debye-Ang):
   XX=            -28.0715   YY=            -28.0710   ZZ=            -27.2263
   XY=              0.0000   XZ=              0.0000   YZ=             -0.0001
 Traceless Quadrupole moment (field-independent basis, Debye-Ang):
   XX=             -0.2819   YY=             -0.2814   ZZ=              0.5633
   XY=              0.0000   XZ=              0.0000   YZ=             -0.0001
 Octapole moment (field-independent basis, Debye-Ang**2):
  XXX=              0.4003  YYY=              2.0968  ZZZ=             -8.3977  XYY=             -0.4000
  XXY=             -2.0976  XXZ=             -0.8624  XZZ=              0.0001  YZZ=             -0.0007
  YYZ=             -0.8627  XYZ=              0.0000
 Hexadecapole moment (field-independent basis, Debye-Ang**3):
 XXXX=           -111.8775 YYYY=           -111.8531 ZZZZ=            -56.8509 XXXY=              0.0001
 XXXZ=              0.0076 YYYX=              0.0000 YYYZ=              0.0395 ZZZX=              0.0001
 ZZZY=             -0.0012 XXYY=            -37.2886 XXZZ=            -26.5357 YYZZ=            -26.5318
 XXYZ=             -0.0400 YYXZ=             -0.0076 ZZXY=              0.0000
 N-N= 1.877984642768D+02 E-N=-1.902691376598D+03  KE= 6.393198210060D+02
  Exact polarizability:      27.449      -0.000      27.447       0.000       0.001      24.028
 Approx polarizability:      47.561      -0.000      47.559       0.000      -0.000      35.749
   1 Symmetry operations used in ECPInt.
 ECPInt:  NShTT=    2701 NPrTT=    8450 LenC2=    2603 LenP2D=    6599.
 LDataN:  DoStor=T MaxTD1=10 Len=  848
 Calling FoFJK, ICntrl=    100527 FMM=F ISym2X=0 I1Cent= 0 IOpClX= 0 NMat=1 NMatS=1 NMatT=0.
 Full mass-weighted force constant matrix:
 Low frequencies ---   -9.5897   -8.2653   -0.0014   -0.0013   -0.0006    7.2348
 Low frequencies ---  317.9834  318.1434  446.4507
 Diagonal vibrational polarizability:
        8.4235286       8.4206249       7.1746967
 Harmonic frequencies (cm**-1), IR intensities (KM/Mole), Raman scattering
 activities (A**4/AMU), depolarization ratios for plane and unpolarized
 incident light, reduced masses (AMU), force constants (mDyne/A),
 and normal coordinates:
                      1                      2                      3
                      A                      A                      A
 Frequencies --    317.9833               318.1433               446.4506
 Red. masses --     19.7916                19.7912                21.0183
 Frc consts  --      1.1791                 1.1802                 2.4683
 IR Inten    --      3.4016                 3.3998                18.8907
  Atom  AN      X      Y      Z        X      Y      Z        X      Y      Z
     1  15     0.11  -0.23   0.00    -0.23  -0.11   0.00     0.00   0.00   0.41
     2   9     0.46   0.24  -0.12     0.01   0.57   0.10     0.43  -0.21  -0.22
     3   9    -0.42   0.52  -0.02    -0.26  -0.30  -0.16    -0.40  -0.26  -0.22
     4   9    -0.22  -0.38   0.15     0.63  -0.10   0.06    -0.03   0.48  -0.22
                      4                      5                      6
                      A                      A                      A
 Frequencies --    798.6311               798.8127               831.2151
 Red. masses --     22.7278                22.7273                22.4672
 Frc consts  --      8.5408                 8.5445                 9.1459
 IR Inten    --    178.2240               178.1925               118.7206
  Atom  AN      X      Y      Z        X      Y      Z        X      Y      Z
     1  15     0.47   0.30  -0.00    -0.30   0.47  -0.00     0.00   0.00   0.54
     2   9    -0.28   0.11  -0.18     0.44  -0.23   0.30    -0.35   0.17  -0.29
     3   9    -0.49  -0.32   0.35     0.00  -0.03   0.01     0.32   0.21  -0.29
     4   9    -0.00  -0.28  -0.17     0.04  -0.51  -0.30     0.02  -0.39  -0.29

 -------------------
 - Thermochemistry -
 -------------------
 Temperature   298.150 Kelvin.  Pressure   1.00000 Atm.
 Atom     1 has atomic number 15 and mass  30.97376
 Atom     2 has atomic number  9 and mass  18.99840
 Atom     3 has atomic number  9 and mass  18.99840
 Atom     4 has atomic number  9 and mass  18.99840
 Molecular mass:    87.96897 amu.
 Principal axes and moments of inertia in atomic units:
                           1         2         3
     Eigenvalues --   240.44384 240.49933 391.95528
           X            1.00000  -0.00000  -0.00000
           Y            0.00000   1.00000   0.00000
           Z            0.00000  -0.00000   1.00000
 This molecule is an asymmetric top.
 Rotational symmetry number  1.
 Rotational temperatures (Kelvin)      0.36023     0.36014     0.22098
 Rotational constants (GHZ):           7.50587     7.50414     4.60446
 Zero-point vibrational energy      21001.9 (Joules/Mol)
                                    5.01956 (Kcal/Mol)
 Warning -- explicit consideration of   3 degrees of freedom as
           vibrations may cause significant error
 Vibrational temperatures:    457.51   457.74   642.34  1149.05  1149.31
          (Kelvin)           1195.93
 
 Zero-point correction=                           0.007999 (Hartree/Particle)
 Thermal correction to Energy=                    0.012122
 Thermal correction to Enthalpy=                  0.013066
 Thermal correction to Gibbs Free Energy=        -0.019249
 Sum of electronic and zero-point Energies=           -640.731443
 Sum of electronic and thermal Energies=              -640.727320
 Sum of electronic and thermal Enthalpies=            -640.726376
 Sum of electronic and thermal Free Energies=         -640.758691
 
                     E (Thermal)             CV                S
                      KCal/Mol        Cal/Mol-Kelvin    Cal/Mol-Kelvin
 Total                    7.607             12.515             68.014
 Electronic               0.000              0.000              0.000
 Translational            0.889              2.981             39.336
 Rotational               0.889              2.981             24.631
 Vibrational              5.829              6.553              4.047
 Vibration     1          0.704              1.639              1.320
 Vibration     2          0.705              1.639              1.320
 Vibration     3          0.806              1.369              0.807
                       Q            Log10(Q)             Ln(Q)
 Total Bot       0.714457D+09          8.853976         20.387034
 Total V=0       0.341462D+13         12.533342         28.859088
 Vib (Bot)       0.408790D-03         -3.388499         -7.802308
 Vib (Bot)    1  0.591881D+00         -0.227766         -0.524450
 Vib (Bot)    2  0.591527D+00         -0.228025         -0.525048
 Vib (Bot)    3  0.385216D+00         -0.414295         -0.953951
 Vib (V=0)       0.195374D+01          0.290867          0.669745
 Vib (V=0)    1  0.127481D+01          0.105444          0.242793
 Vib (V=0)    2  0.127453D+01          0.105352          0.242581
 Vib (V=0)    3  0.113118D+01          0.053533          0.123264
 Electronic      0.100000D+01          0.000000          0.000000
 Translational   0.324301D+08          7.510948         17.294597
 Rotational      0.538924D+05          4.731528         10.894745
 ***** Axes restored to original set *****
 -------------------------------------------------------------------
 Center     Atomic                   Forces (Hartrees/Bohr)
 Number     Number              X              Y              Z
 -------------------------------------------------------------------
      1       15          -0.000003456   -0.000010519    0.000196268
      2        9           0.000117288    0.000010007   -0.000066503
      3        9          -0.000046167    0.000121643   -0.000057216
      4        9          -0.000067666   -0.000121131   -0.000072549
 -------------------------------------------------------------------
 Cartesian Forces:  Max     0.000196268 RMS     0.000092032
 FormGI is forming the generalized inverse of G from B-inverse, IUseBI=4.

 GradGradGradGradGradGradGradGradGradGradGradGradGradGradGradGradGradGrad
 Berny optimization.
 Internal  Forces:  Max     0.000282562 RMS     0.000169245
 Search for a local minimum.
 Step number   1 out of a maximum of    2
 All quantities printed in internal units (Hartrees-Bohrs-Radians)
 Second derivative matrix not updated -- analytic derivatives used.
 The second derivative matrix:
                          R1        R2        R3        A1        A2
           R1           0.29028
           R2           0.01962   0.29013
           R3           0.01961   0.01962   0.29036
           A1           0.00741   0.00740  -0.00449   0.07171
           A2           0.01532  -0.00527   0.01681  -0.01111   0.28738
           A3          -0.00528   0.01536   0.01674  -0.01107   0.04021
           D1           0.00916   0.00915   0.00073   0.06973   0.04054
                          A3        D1
           A3           0.28721
           D1           0.04056   0.08408
 ITU=  0
     Eigenvalues ---    0.14112   0.23511   0.26979   0.28257   0.31223
     Eigenvalues ---    0.36033
 Angle between quadratic step and forces=  16.74 degrees.
 Linear search not attempted -- first point.
 Iteration  1 RMS(Cart)=  0.00074002 RMS(Int)=  0.00000035
 Iteration  2 RMS(Cart)=  0.00000025 RMS(Int)=  0.00000021
 Variable       Old X    -DE/DX   Delta X   Delta X   Delta X     New X
                                 (Linear)    (Quad)   (Total)
    R1        3.01566   0.00007   0.00000   0.00015   0.00015   3.01582
    R2        3.01564   0.00008   0.00000   0.00019   0.00019   3.01584
    R3        3.01565   0.00009   0.00000   0.00019   0.00019   3.01584
    A1        1.70566   0.00007   0.00000   0.00050   0.00050   1.70616
    A2        1.70544   0.00027   0.00000   0.00071   0.00071   1.70615
    A3        1.70541   0.00028   0.00000   0.00078   0.00078   1.70619
    D1        1.72670   0.00016   0.00000   0.00074   0.00074   1.72744
         Item               Value     Threshold  Converged?
 Maximum Force            0.000283     0.000450     YES
 RMS     Force            0.000169     0.000300     YES
 Maximum Displacement     0.000959     0.001800     YES
 RMS     Displacement     0.000740     0.001200     YES
 Predicted change in Energy=-3.043446D-07
 Optimization completed.
    -- Stationary point found.
                           ----------------------------
                           !   Optimized Parameters   !
                           ! (Angstroms and Degrees)  !
 --------------------------                            --------------------------
 ! Name  Definition              Value          Derivative Info.                !
 --------------------------------------------------------------------------------
 ! R1    R(1,2)                  1.5958         -DE/DX =    0.0001              !
 ! R2    R(1,3)                  1.5958         -DE/DX =    0.0001              !
 ! R3    R(1,4)                  1.5958         -DE/DX =    0.0001              !
 ! A1    A(2,1,3)               97.7272         -DE/DX =    0.0001              !
 ! A2    A(2,1,4)               97.7142         -DE/DX =    0.0003              !
 ! A3    A(3,1,4)               97.7127         -DE/DX =    0.0003              !
 ! D1    D(2,1,4,3)             98.9324         -DE/DX =    0.0002              !
 --------------------------------------------------------------------------------
 GradGradGradGradGradGradGradGradGradGradGradGradGradGradGradGradGradGrad


 ----------------------------------------------------------------------

 Electric dipole moment (input orientation):
 (Debye = 10**-18 statcoulomb cm , SI units = C m)
                  (au)            (Debye)         (10**-30 SI)
   Tot        0.394484D+00      0.100268D+01      0.334457D+01
   x          0.560717D-03      0.142520D-02      0.475395D-02
   y          0.104319D-03      0.265152D-03      0.884453D-03
   z         -0.394484D+00     -0.100268D+01     -0.334457D+01

 Dipole polarizability, Alpha (input orientation).
 (esu units = cm**3 , SI units = C**2 m**2 J**-1)
 Alpha(0;0):
               (au)            (10**-24 esu)      (10**-40 SI)
   iso        0.263077D+02      0.389840D+01      0.433755D+01
   aniso      0.341965D+01      0.506740D+00      0.563825D+00
   xx         0.274484D+02      0.406743D+01      0.452563D+01
   yx        -0.633055D-03     -0.938091D-04     -0.104377D-03
   yy         0.274467D+02      0.406719D+01      0.452535D+01
   zx         0.419835D-02      0.622131D-03      0.692214D-03
   zy        -0.928911D-03     -0.137650D-03     -0.153157D-03
   zz         0.240279D+02      0.356057D+01      0.396167D+01

 ----------------------------------------------------------------------

 Dipole orientation:
    15         14.47587505        -15.12171382        -14.35324630
     9         17.09847972        -15.12182890        -15.84192641
     9         13.16458025        -17.39301617        -15.84179805
     9         13.16483999        -12.85107923        -15.84305941

 Electric dipole moment (dipole orientation):
 (Debye = 10**-18 statcoulomb cm , SI units = C m)
                  (au)            (Debye)         (10**-30 SI)
   Tot        0.394484D+00      0.100268D+01      0.334457D+01
   x          0.000000D+00      0.000000D+00      0.000000D+00
   y          0.000000D+00      0.000000D+00      0.000000D+00
   z          0.394484D+00      0.100268D+01      0.334457D+01

 Dipole polarizability, Alpha (dipole orientation).
 (esu units = cm**3 , SI units = C**2 m**2 J**-1)
 Alpha(0;0):
               (au)            (10**-24 esu)      (10**-40 SI)
   iso        0.263077D+02      0.389840D+01      0.433755D+01
   aniso      0.341965D+01      0.506740D+00      0.563825D+00
   xx         0.274484D+02      0.406743D+01      0.452563D+01
   yx         0.634550D-03      0.940307D-04      0.104623D-03
   yy         0.274467D+02      0.406719D+01      0.452535D+01
   zx         0.663334D-03      0.982959D-04      0.109369D-03
   zy        -0.183210D-02     -0.271489D-03     -0.302072D-03
   zz         0.240279D+02      0.356057D+01      0.396167D+01

 ----------------------------------------------------------------------
 Unable to Open any file for archive entry.
 1\1\GINC-TCOPT10\Freq\RPBEPBE\def2QZVPP\F3P1\HUTTER\30-Jul-2021\0\\#N 
 Geom=AllCheck Guess=TCheck SCRF=Check GenChk RPBEPBE/def2QZVPP Freq\\M
 ol job 1\\0,1\P,7.6494978783,8.0000560654,7.6084073056\F,9.0361993642,
 7.9999083774,8.3981547276\F,6.9544713882,9.2017692905,8.3954456694\F,6
 .9546083393,6.7982796768,8.3954777574\\Version=ES64L-G16RevC.01\State=
 1-A\HF=-640.7394418\RMSD=1.618e-09\RMSF=9.203e-05\ZeroPoint=0.0079992\
 Thermal=0.0121221\ETot=-640.7273197\HTot=-640.7263755\GTot=-640.758690
 9\Dipole=0.0005607,0.0001043,-0.3944835\DipoleDeriv=1.7050583,-0.00013
 17,0.0000818,-0.0001708,1.7048844,-0.0000357,0.0000868,-0.0000923,1.61
 35519,-0.9107097,0.000032,-0.26943,0.0001091,-0.2249083,0.00005,-0.545
 5715,0.0000376,-0.5389096,-0.3971931,0.2981005,0.1347133,0.2977163,-0.
 7399598,-0.2324873,0.2727644,-0.4716499,-0.5373169,-0.3971554,-0.29800
 08,0.134635,-0.2976546,-0.7400162,0.2324729,0.2727203,0.4717047,-0.537
 3254\Polar=27.448386,-0.0006331,27.4467279,0.0041983,-0.0009289,24.027
 9123\Quadrupole=-0.2095451,-0.2092661,0.4188112,0.0001465,-0.0007516,0
 .0001085\PG=C01 [X(F3P1)]\NImag=0\\0.32972101,0.00007422,0.32965335,-0
 .00000915,-0.00003828,0.38147926,-0.19171089,0.00001910,-0.10211522,0.
 23354724,0.00002142,-0.02781965,0.00002798,-0.00000914,0.03140050,-0.1
 2487824,0.00002733,-0.12744913,0.10690040,-0.00002937,0.08985479,-0.06
 894124,0.07122628,0.05108199,-0.02090980,0.01914601,0.00898833,0.08206
 001,0.07119247,-0.15084158,-0.08819966,0.01393406,-0.00178896,0.002538
 00,-0.08775383,0.18312311,0.06245452,-0.10792606,-0.12699893,-0.002390
 02,0.00911771,0.01879670,-0.05334728,0.09223511,0.08942581,-0.06906888
 ,-0.07131961,0.05104238,-0.02092654,-0.01915830,0.00898951,0.00779103,
 0.00262730,-0.00671721,0.08220439,-0.07128811,-0.15099212,0.08820996,-
 0.01394402,-0.00179189,-0.00253596,-0.00261847,-0.03049257,0.00657325,
 0.08785060,0.18327657,0.06243287,0.10793701,-0.12703121,-0.00239515,-0
 .00911631,0.01879764,-0.00672304,-0.00657345,0.01877642,-0.05331467,-0
 .09224725,0.08945714\\0.00000346,0.00001052,-0.00019627,-0.00011729,-0
 .00001001,0.00006650,0.00004617,-0.00012164,0.00005722,0.00006767,0.00
 012113,0.00007255\\\@
 The archive entry for this job was punched.


 Once you get people laughing, they're
 listening and you can tell them almost anything.
                                 -- Herb Gardner
 Job cpu time:       0 days  0 hours 21 minutes 29.2 seconds.
 Elapsed time:       0 days  0 hours  2 minutes 42.0 seconds.
 File lengths (MBytes):  RWF=     34 Int=      0 D2E=      0 Chk=      6 Scr=      1
 Normal termination of Gaussian 16 at Fri Jul 30 17:34:40 2021.
