 Entering Gaussian System, Link 0=g16
 Initial command:
 /sw-ng/spack/opt/spack/linux-opensuse_leap15-sandybridge/pgi-18.10/gaussian-src-16-C.01-zldqaomctopxhethwccpmxmwefdscg3m/g16/l1.exe "/data/hutter/SMG16/PBE/Gau-18945.inp" -scrdir="/data/hutter/SMG16/PBE/"
 Entering Link 1 = /sw-ng/spack/opt/spack/linux-opensuse_leap15-sandybridge/pgi-18.10/gaussian-src-16-C.01-zldqaomctopxhethwccpmxmwefdscg3m/g16/l1.exe PID=     18954.
  
 Copyright (c) 1988-2019, Gaussian, Inc.  All Rights Reserved.
  
 This is part of the Gaussian(R) 16 program.  It is based on
 the Gaussian(R) 09 system (copyright 2009, Gaussian, Inc.),
 the Gaussian(R) 03 system (copyright 2003, Gaussian, Inc.),
 the Gaussian(R) 98 system (copyright 1998, Gaussian, Inc.),
 the Gaussian(R) 94 system (copyright 1995, Gaussian, Inc.),
 the Gaussian 92(TM) system (copyright 1992, Gaussian, Inc.),
 the Gaussian 90(TM) system (copyright 1990, Gaussian, Inc.),
 the Gaussian 88(TM) system (copyright 1988, Gaussian, Inc.),
 the Gaussian 86(TM) system (copyright 1986, Carnegie Mellon
 University), and the Gaussian 82(TM) system (copyright 1983,
 Carnegie Mellon University). Gaussian is a federally registered
 trademark of Gaussian, Inc.
  
 This software contains proprietary and confidential information,
 including trade secrets, belonging to Gaussian, Inc.
  
 This software is provided under written license and may be
 used, copied, transmitted, or stored only in accord with that
 written license.
  
 The following legend is applicable only to US Government
 contracts under FAR:
  
                    RESTRICTED RIGHTS LEGEND
  
 Use, reproduction and disclosure by the US Government is
 subject to restrictions as set forth in subparagraphs (a)
 and (c) of the Commercial Computer Software - Restricted
 Rights clause in FAR 52.227-19.
  
 Gaussian, Inc.
 340 Quinnipiac St., Bldg. 40, Wallingford CT 06492
  
  
 ---------------------------------------------------------------
 Warning -- This program may not be used in any manner that
 competes with the business of Gaussian, Inc. or will provide
 assistance to any competitor of Gaussian, Inc.  The licensee
 of this program is prohibited from giving any competitor of
 Gaussian, Inc. access to this program.  By using this program,
 the user acknowledges that Gaussian, Inc. is engaged in the
 business of creating and licensing software in the field of
 computational chemistry and represents and warrants to the
 licensee that it is not a competitor of Gaussian, Inc. and that
 it will not use this program in any manner prohibited above.
 ---------------------------------------------------------------
  

 Cite this work as:
 Gaussian 16, Revision C.01,
 M. J. Frisch, G. W. Trucks, H. B. Schlegel, G. E. Scuseria, 
 M. A. Robb, J. R. Cheeseman, G. Scalmani, V. Barone, 
 G. A. Petersson, H. Nakatsuji, X. Li, M. Caricato, A. V. Marenich, 
 J. Bloino, B. G. Janesko, R. Gomperts, B. Mennucci, H. P. Hratchian, 
 J. V. Ortiz, A. F. Izmaylov, J. L. Sonnenberg, D. Williams-Young, 
 F. Ding, F. Lipparini, F. Egidi, J. Goings, B. Peng, A. Petrone, 
 T. Henderson, D. Ranasinghe, V. G. Zakrzewski, J. Gao, N. Rega, 
 G. Zheng, W. Liang, M. Hada, M. Ehara, K. Toyota, R. Fukuda, 
 J. Hasegawa, M. Ishida, T. Nakajima, Y. Honda, O. Kitao, H. Nakai, 
 T. Vreven, K. Throssell, J. A. Montgomery, Jr., J. E. Peralta, 
 F. Ogliaro, M. J. Bearpark, J. J. Heyd, E. N. Brothers, K. N. Kudin, 
 V. N. Staroverov, T. A. Keith, R. Kobayashi, J. Normand, 
 K. Raghavachari, A. P. Rendell, J. C. Burant, S. S. Iyengar, 
 J. Tomasi, M. Cossi, J. M. Millam, M. Klene, C. Adamo, R. Cammi, 
 J. W. Ochterski, R. L. Martin, K. Morokuma, O. Farkas, 
 J. B. Foresman, and D. J. Fox, Gaussian, Inc., Wallingford CT, 2019.
 
 ******************************************
 Gaussian 16:  ES64L-G16RevC.01  3-Jul-2019
                30-Jul-2021 
 ******************************************
 %mem=8GB
 %NProcShare=8
 Will use up to    8 processors via shared memory.
 -----------------------------------------------------------
 #N UPBEPBE/Def2QZVPP scf=tight Int(Grid=ultrafine) OPT FREQ
 -----------------------------------------------------------
 1/18=20,19=15,26=4,38=1/1,3;
 2/9=110,12=2,17=6,18=5,40=1/2;
 3/5=45,7=202,11=2,25=1,30=1,71=1,74=1009,75=-5,116=2/1,2,3;
 4//1;
 5/5=2,32=2,38=5/2;
 6/7=2,8=2,9=2,10=2,28=1/1;
 7//1,2,3,16;
 1/18=20,19=15,26=4/3(2);
 2/9=110/2;
 99//99;
 2/9=110/2;
 3/5=45,7=202,11=2,25=1,30=1,71=1,74=1009,75=-5,116=2/1,2,3;
 4/5=5,16=3,69=1/1;
 5/5=2,32=2,38=5/2;
 7//1,2,3,16;
 1/18=20,19=15,26=4/3(-5);
 2/9=110/2;
 6/7=2,8=2,9=2,10=2,19=2,28=1/1;
 99/9=1/99;
 ---------
 Mol job 1
 ---------
 Symbolic Z-matrix:
 Charge =  0 Multiplicity = 2
 Sn                    8.95309   8.5       8.87909 
 F                     9.85927   6.93045   8.12091 
 F                     9.85927   10.06955   8.12091 
 F                     7.14073   8.5       8.12091 
 

 GradGradGradGradGradGradGradGradGradGradGradGradGradGradGradGradGradGrad
 Berny optimization.
 Initialization pass.
                           ----------------------------
                           !    Initial Parameters    !
                           ! (Angstroms and Degrees)  !
 --------------------------                            --------------------------
 ! Name  Definition              Value          Derivative Info.                !
 --------------------------------------------------------------------------------
 ! R1    R(1,2)                  1.9646         estimate D2E/DX2                !
 ! R2    R(1,3)                  1.9646         estimate D2E/DX2                !
 ! R3    R(1,4)                  1.9646         estimate D2E/DX2                !
 ! A1    A(2,1,3)              106.0566         estimate D2E/DX2                !
 ! A2    A(2,1,4)              106.0566         estimate D2E/DX2                !
 ! A3    A(3,1,4)              106.0566         estimate D2E/DX2                !
 ! D1    D(2,1,4,3)           -112.4785         estimate D2E/DX2                !
 --------------------------------------------------------------------------------
 Trust Radius=3.00D-01 FncErr=1.00D-07 GrdErr=1.00D-06 EigMax=2.50D+02 EigMin=1.00D-04
 Number of steps in this run=     20 maximum allowed number of steps=    100.
 GradGradGradGradGradGradGradGradGradGradGradGradGradGradGradGradGradGrad

                          Input orientation:                          
 ---------------------------------------------------------------------
 Center     Atomic      Atomic             Coordinates (Angstroms)
 Number     Number       Type             X           Y           Z
 ---------------------------------------------------------------------
      1         50           0        8.953091    8.500000    8.879091
      2          9           0        9.859272    6.930448    8.120909
      3          9           0        9.859272   10.069552    8.120909
      4          9           0        7.140728    8.500000    8.120909
 ---------------------------------------------------------------------
                    Distance matrix (angstroms):
                    1          2          3          4
     1  Sn   0.000000
     2  F    1.964561   0.000000
     3  F    1.964561   3.139105   0.000000
     4  F    1.964561   3.139105   3.139105   0.000000
 Stoichiometry    F3Sn(2)
 Framework group  C3V[C3(Sn),3SGV(F)]
 Deg. of freedom     2
 Full point group                 C3V     NOp   6
 Largest Abelian subgroup         CS      NOp   2
 Largest concise Abelian subgroup CS      NOp   2
                         Standard orientation:                         
 ---------------------------------------------------------------------
 Center     Atomic      Atomic             Coordinates (Angstroms)
 Number     Number       Type             X           Y           Z
 ---------------------------------------------------------------------
      1         50           0        0.000000    0.000000    0.265856
      2          9           0        0.000000    1.812363   -0.492326
      3          9           0       -1.569552   -0.906181   -0.492326
      4          9           0        1.569552   -0.906181   -0.492326
 ---------------------------------------------------------------------
 Rotational constants (GHZ):           4.3683414           4.3683414           2.6995322
 Standard basis: def2QZVPP (5D, 7F)
 There are   188 symmetry adapted cartesian basis functions of A'  symmetry.
 There are   132 symmetry adapted cartesian basis functions of A"  symmetry.
 There are   146 symmetry adapted basis functions of A'  symmetry.
 There are   107 symmetry adapted basis functions of A"  symmetry.
   253 basis functions,   456 primitive gaussians,   320 cartesian basis functions
    25 alpha electrons       24 beta electrons
       nuclear repulsion energy       200.9646891883 Hartrees.
 NAtoms=    4 NActive=    4 NUniq=    2 SFac= 4.00D+00 NAtFMM=   60 NAOKFM=F Big=F
 Integral buffers will be    131072 words long.
 Raffenetti 2 integral format.
 Two-electron integral symmetry is turned on.
 One-electron integrals computed using PRISM.
   6 Symmetry operations used in ECPInt.
 ECPInt:  NShTT=    2701 NPrTT=    9253 LenC2=    2561 LenP2D=    7192.
 LDataN:  DoStor=T MaxTD1= 8 Len=  415
 NBasis=   253 RedAO= T EigKep=  9.38D-04  NBF=   146   107
 NBsUse=   253 1.00D-06 EigRej= -1.00D+00 NBFU=   146   107
 Defaulting to unpruned grid for atomic number  50.
 ExpMin= 3.74D-02 ExpMax= 1.33D+05 ExpMxC= 1.27D+03 IAcc=3 IRadAn=         5 AccDes= 0.00D+00
 Harris functional with IExCor= 1009 and IRadAn=       5 diagonalized for initial guess.
 HarFok:  IExCor= 1009 AccDes= 0.00D+00 IRadAn=         5 IDoV= 1 UseB2=F ITyADJ=14
 ICtDFT=  3500011 ScaDFX=  1.000000  1.000000  1.000000  1.000000
 Defaulting to unpruned grid for atomic number  50.
 FoFCou: FMM=F IPFlag=           0 FMFlag=      100000 FMFlg1=           0
         NFxFlg=           0 DoJE=T BraDBF=F KetDBF=T FulRan=T
         wScrn=  0.000000 ICntrl=       500 IOpCl=  0 I1Cent=   200000004 NGrid=           0
         NMat0=    1 NMatS0=      1 NMatT0=    0 NMatD0=    1 NMtDS0=    0 NMtDT0=    0
 Petite list used in FoFCou.
 Initial guess orbital symmetries:
 Alpha Orbitals:
       Occupied  (A1) (E) (E) (A1) (E) (E) (A1) (E) (E) (A1) (E)
                 (E) (A1) (E) (E) (A1) (E) (E) (A1) (E) (E) (E)
                 (E) (A2) (A1)
       Virtual   (A1) (E) (E) (A1) (A1) (E) (E) (A1) (E) (E) (E)
                 (E) (A1) (E) (E) (A2) (E) (E) (A1) (E) (E) (A1)
                 (E) (E) (A1) (E) (E) (A1) (A2) (A1) (E) (E) (E)
                 (E) (A1) (E) (E) (E) (E) (A2) (A1) (E) (E) (A1)
                 (A1) (E) (E) (E) (E) (E) (E) (A2) (A1) (E) (E)
                 (A1) (A1) (E) (E) (A2) (E) (E) (A1) (E) (E) (A2)
                 (E) (E) (A1) (E) (E) (E) (E) (A1) (E) (E) (A1)
                 (E) (E) (E) (E) (A1) (A1) (E) (E) (A2) (A1) (E)
                 (E) (A1) (E) (E) (A2) (E) (E) (A1) (E) (E) (A1)
                 (A2) (E) (E) (E) (E) (A1) (A2) (A1) (E) (E) (E)
                 (E) (A1) (E) (E) (E) (E) (E) (E) (A2) (A1) (A2)
                 (E) (E) (A1) (E) (E) (E) (E) (A1) (E) (E) (A2)
                 (E) (E) (A1) (E) (E) (A2) (A1) (E) (E) (A1) (E)
                 (E) (A1) (E) (E) (A2) (E) (E) (A1) (A1) (E) (E)
                 (A2) (E) (E) (A2) (E) (E) (A1) (E) (E) (A1) (E)
                 (E) (A2) (E) (E) (A1) (E) (E) (E) (E) (E) (E)
                 (A2) (A1) (A1) (A2) (E) (E) (E) (E) (A1) (A2)
                 (A1) (E) (E) (E) (E) (E) (E) (A1) (E) (E) (E)
                 (E) (A1) (A2) (E) (E) (A1) (A2) (E) (E) (E) (E)
                 (A1) (A1) (E) (E) (E) (E) (A2) (E) (E) (A1) (A1)
                 (E) (E) (E) (E) (A1) (A1) (E) (E) (A1)
 Beta  Orbitals:
       Occupied  (A1) (E) (E) (A1) (E) (E) (A1) (E) (E) (A1) (E)
                 (E) (A1) (E) (E) (A1) (E) (E) (A1) (E) (E) (E)
                 (E) (A2)
       Virtual   (A1) (A1) (E) (E) (A1) (A1) (E) (E) (A1) (E) (E)
                 (E) (E) (A1) (E) (E) (A2) (E) (E) (A1) (E) (E)
                 (A1) (E) (E) (A1) (E) (E) (A1) (A2) (A1) (E) (E)
                 (E) (E) (A1) (E) (E) (E) (E) (A2) (A1) (E) (E)
                 (A1) (A1) (E) (E) (E) (E) (E) (E) (A2) (A1) (E)
                 (E) (A1) (A1) (E) (E) (A2) (E) (E) (A1) (E) (E)
                 (A2) (E) (E) (A1) (E) (E) (E) (E) (A1) (E) (E)
                 (A1) (E) (E) (E) (E) (A1) (A1) (E) (E) (A2) (A1)
                 (E) (E) (A1) (E) (E) (A2) (E) (E) (A1) (E) (E)
                 (A1) (A2) (E) (E) (E) (E) (A1) (A2) (A1) (E) (E)
                 (E) (E) (A1) (E) (E) (E) (E) (E) (E) (A2) (A1)
                 (A2) (E) (E) (A1) (E) (E) (E) (E) (A1) (E) (E)
                 (A2) (E) (E) (A1) (E) (E) (A2) (A1) (E) (E) (A1)
                 (E) (E) (A1) (E) (E) (A2) (E) (E) (A1) (A1) (E)
                 (E) (A2) (E) (E) (A2) (E) (E) (A1) (E) (E) (A1)
                 (E) (E) (A2) (E) (E) (A1) (E) (E) (E) (E) (E)
                 (E) (A2) (A1) (A1) (A2) (E) (E) (E) (E) (A1) (A2)
                 (A1) (E) (E) (E) (E) (E) (E) (A1) (E) (E) (E)
                 (E) (A1) (A2) (E) (E) (A1) (A2) (E) (E) (E) (E)
                 (A1) (A1) (E) (E) (E) (E) (A2) (E) (E) (A1) (A1)
                 (E) (E) (E) (E) (A1) (A1) (E) (E) (A1)
 The electronic state of the initial guess is 2-A1.
 Initial guess <Sx>= 0.0000 <Sy>= 0.0000 <Sz>= 0.5000 <S**2>= 0.7500 S= 0.5000
 Keep J ints in memory in symmetry-blocked form, NReq=774599017.
 Requested convergence on RMS density matrix=1.00D-08 within 128 cycles.
 Requested convergence on MAX density matrix=1.00D-06.
 Requested convergence on             energy=1.00D-06.
 No special actions if energy rises.
 Defaulting to unpruned grid for atomic number  50.
 Defaulting to unpruned grid for atomic number  50.
 Defaulting to unpruned grid for atomic number  50.
 Defaulting to unpruned grid for atomic number  50.
 Defaulting to unpruned grid for atomic number  50.
 Defaulting to unpruned grid for atomic number  50.
 Defaulting to unpruned grid for atomic number  50.
 Defaulting to unpruned grid for atomic number  50.
 SCF Done:  E(UPBE-PBE) =  -513.785034502     A.U. after   11 cycles
            NFock= 11  Conv=0.17D-08     -V/T= 2.3484
 <Sx>= 0.0000 <Sy>= 0.0000 <Sz>= 0.5000 <S**2>= 0.7517 S= 0.5009
 <L.S>=  0.00000000000    
 Annihilation of the first spin contaminant:
 S**2 before annihilation     0.7517,   after     0.7500

 **********************************************************************

            Population analysis using the SCF Density.

 **********************************************************************

 Orbital symmetries:
 Alpha Orbitals:
       Occupied  (E) (E) (A1) (A1) (A1) (E) (E) (E) (E) (A1) (E)
                 (E) (A1) (E) (E) (A1) (E) (E) (A1) (E) (E) (E)
                 (E) (A2) (A1)
       Virtual   (A1) (E) (E) (A1) (A1) (E) (E) (A1) (E) (E) (E)
                 (E) (A1) (E) (E) (A1) (E) (E) (E) (E) (A2) (A1)
                 (E) (E) (A1) (E) (E) (A1) (A1) (A2) (E) (E) (E)
                 (E) (A1) (E) (E) (E) (E) (A2) (A1) (E) (E) (A1)
                 (A1) (E) (E) (E) (E) (E) (E) (A2) (A1) (A1) (E)
                 (E) (E) (E) (A1) (A2) (E) (E) (A1) (E) (E) (E)
                 (E) (A2) (E) (E) (A1) (E) (E) (A1) (E) (E) (A1)
                 (E) (E) (A1) (E) (E) (A1) (E) (E) (A2) (A1) (E)
                 (E) (A1) (E) (E) (A2) (E) (E) (A1) (E) (E) (A1)
                 (A2) (E) (E) (E) (E) (A1) (A2) (A1) (E) (E) (E)
                 (E) (A1) (E) (E) (E) (E) (E) (E) (A2) (A1) (A2)
                 (E) (E) (A1) (E) (E) (E) (E) (A1) (E) (E) (A2)
                 (E) (E) (A1) (E) (E) (A2) (A1) (E) (E) (A1) (E)
                 (E) (A1) (E) (E) (A2) (E) (E) (A1) (A1) (E) (E)
                 (A2) (E) (E) (A2) (A1) (E) (E) (E) (E) (A1) (E)
                 (E) (E) (E) (A2) (E) (E) (A1) (E) (E) (E) (E)
                 (A2) (A1) (A1) (E) (E) (A2) (E) (E) (A1) (A2)
                 (A1) (E) (E) (E) (E) (E) (E) (A1) (E) (E) (E)
                 (E) (A1) (A2) (E) (E) (A1) (A2) (E) (E) (E) (E)
                 (A1) (A1) (E) (E) (E) (E) (A2) (E) (E) (A1) (A1)
                 (E) (E) (E) (E) (A1) (A1) (E) (E) (A1)
 Beta  Orbitals:
       Occupied  (E) (E) (A1) (A1) (A1) (E) (E) (E) (E) (A1) (E)
                 (E) (A1) (E) (E) (A1) (E) (E) (A1) (E) (E) (E)
                 (E) (A2)
       Virtual   (A1) (A1) (E) (E) (A1) (A1) (E) (E) (A1) (E) (E)
                 (E) (E) (A1) (E) (E) (E) (E) (A1) (A2) (E) (E)
                 (A1) (E) (E) (A1) (E) (E) (A1) (A1) (A2) (E) (E)
                 (E) (E) (A1) (E) (E) (E) (E) (A2) (A1) (E) (E)
                 (A1) (A1) (E) (E) (E) (E) (E) (E) (A2) (A1) (E)
                 (E) (A1) (E) (E) (A1) (A2) (E) (E) (E) (E) (A1)
                 (A2) (E) (E) (A1) (E) (E) (E) (E) (A1) (E) (E)
                 (A1) (E) (E) (A1) (E) (E) (A1) (E) (E) (A2) (A1)
                 (E) (E) (A1) (E) (E) (A2) (E) (E) (A1) (E) (E)
                 (A1) (A2) (E) (E) (E) (E) (A1) (A2) (A1) (E) (E)
                 (E) (E) (A1) (E) (E) (E) (E) (E) (E) (A2) (A1)
                 (A2) (E) (E) (A1) (E) (E) (E) (E) (A1) (E) (E)
                 (A2) (E) (E) (A1) (E) (E) (A2) (A1) (E) (E) (A1)
                 (E) (E) (A1) (E) (E) (A2) (E) (E) (A1) (A1) (A2)
                 (E) (E) (E) (E) (E) (E) (A2) (A1) (E) (E) (A1)
                 (E) (E) (E) (E) (A2) (A1) (E) (E) (E) (E) (E)
                 (E) (A2) (A1) (A1) (A2) (E) (E) (E) (E) (A1) (A2)
                 (A1) (E) (E) (E) (E) (E) (E) (A1) (E) (E) (E)
                 (E) (A1) (A2) (E) (E) (A1) (A2) (E) (E) (E) (E)
                 (A1) (A1) (E) (E) (E) (E) (A2) (E) (E) (A1) (A1)
                 (E) (E) (E) (E) (A1) (A1) (E) (E) (A1)
 The electronic state is 2-A1.
 Alpha  occ. eigenvalues --  -24.25389 -24.25389 -24.25389  -4.96779  -3.35147
 Alpha  occ. eigenvalues --   -3.34728  -3.34728  -1.08399  -1.08399  -1.07138
 Alpha  occ. eigenvalues --   -1.01170  -1.01170  -1.00842  -0.98390  -0.98390
 Alpha  occ. eigenvalues --   -0.50306  -0.40972  -0.40972  -0.37619  -0.36050
 Alpha  occ. eigenvalues --   -0.36050  -0.35452  -0.35452  -0.35072  -0.28231
 Alpha virt. eigenvalues --   -0.06989  -0.06049  -0.06049   0.02662   0.06571
 Alpha virt. eigenvalues --    0.06685   0.06685   0.11654   0.13483   0.13483
 Alpha virt. eigenvalues --    0.15769   0.15769   0.30365   0.32652   0.32652
 Alpha virt. eigenvalues --    0.34910   0.35558   0.35558   0.37823   0.37823
 Alpha virt. eigenvalues --    0.38128   0.39352   0.44602   0.44602   0.45003
 Alpha virt. eigenvalues --    0.49303   0.49303   0.50317   0.52277   0.52853
 Alpha virt. eigenvalues --    0.53235   0.53235   0.55765   0.55765   0.67234
 Alpha virt. eigenvalues --    0.71258   0.71258   1.03636   1.03636   1.04354
 Alpha virt. eigenvalues --    1.06700   1.07232   1.07232   1.08191   1.10307
 Alpha virt. eigenvalues --    1.11099   1.11099   1.18165   1.18165   1.28889
 Alpha virt. eigenvalues --    1.28889   1.30995   1.34368   1.38711   1.38748
 Alpha virt. eigenvalues --    1.38748   1.45256   1.45256   1.46895   1.48352
 Alpha virt. eigenvalues --    1.55979   1.55979   1.58210   1.58341   1.58341
 Alpha virt. eigenvalues --    1.64741   1.64741   1.64766   1.65685   1.65685
 Alpha virt. eigenvalues --    1.65839   1.68353   1.68353   1.70921   1.72166
 Alpha virt. eigenvalues --    1.72166   1.87767   1.92519   1.92519   2.02750
 Alpha virt. eigenvalues --    2.03525   2.03525   2.09275   2.20140   2.20140
 Alpha virt. eigenvalues --    2.23535   2.49363   2.54188   2.54188   2.72121
 Alpha virt. eigenvalues --    2.78076   2.78076   2.81442   3.18583   3.18583
 Alpha virt. eigenvalues --    3.44714   3.92705   3.92705   3.94216   4.04341
 Alpha virt. eigenvalues --    4.04556   4.04556   4.05604   4.05604   4.06992
 Alpha virt. eigenvalues --    4.08004   4.09260   4.13193   4.13193   4.13829
 Alpha virt. eigenvalues --    4.13829   4.23795   4.25513   4.25513   4.34865
 Alpha virt. eigenvalues --    4.34865   4.40316   4.40316   4.42747   4.72436
 Alpha virt. eigenvalues --    4.86216   4.87946   4.87946   4.94413   4.95301
 Alpha virt. eigenvalues --    4.95301   5.22500   5.22500   5.22806   5.31318
 Alpha virt. eigenvalues --    5.31318   5.38712   5.40727   5.40727   5.55330
 Alpha virt. eigenvalues --    6.11656   6.11656   6.12833   6.14203   6.16168
 Alpha virt. eigenvalues --    6.16168   6.81481   6.90285   6.90285   8.83216
 Alpha virt. eigenvalues --    8.90694   8.90694   8.98200   9.02149   9.02149
 Alpha virt. eigenvalues --    9.33830  11.22408  11.22548  11.22548  11.22702
 Alpha virt. eigenvalues --   11.22751  11.22751  11.23179  11.23220  11.23221
 Alpha virt. eigenvalues --   11.23221  11.23595  11.23595  11.23764  11.24130
 Alpha virt. eigenvalues --   11.24130  11.24828  11.24828  11.24914  11.24919
 Alpha virt. eigenvalues --   11.24919  11.24954  11.25097  11.25097  11.26477
 Alpha virt. eigenvalues --   11.26477  11.27877  11.31378  12.03721  14.36012
 Alpha virt. eigenvalues --   14.36012  14.36126  14.36494  14.36494  14.36867
 Alpha virt. eigenvalues --   14.36997  14.38318  14.39581  14.39581  14.40110
 Alpha virt. eigenvalues --   14.40110  14.46559  14.46559  14.46700  14.52402
 Alpha virt. eigenvalues --   14.52402  14.55589  14.55589  14.58951  14.59752
 Alpha virt. eigenvalues --   14.80651  14.80651  15.04469  15.55767  15.56665
 Alpha virt. eigenvalues --   15.56665  15.60847  15.60847  15.61456  15.80764
 Alpha virt. eigenvalues --   15.81673  15.81673  15.85095  15.85095  15.89204
 Alpha virt. eigenvalues --   16.10534  16.10534  16.17057  34.36315  34.41463
 Alpha virt. eigenvalues --   34.41463  53.59947  53.59947  53.66799  72.29870
 Alpha virt. eigenvalues --  283.95199 283.95199 284.03712
  Beta  occ. eigenvalues --  -24.24964 -24.24964 -24.24964  -4.96624  -3.34824
  Beta  occ. eigenvalues --   -3.34619  -3.34619  -1.07660  -1.07660  -1.06267
  Beta  occ. eigenvalues --   -1.00779  -1.00779  -1.00273  -0.97835  -0.97835
  Beta  occ. eigenvalues --   -0.48897  -0.39550  -0.39550  -0.36895  -0.35464
  Beta  occ. eigenvalues --   -0.35464  -0.35071  -0.35071  -0.34701
  Beta virt. eigenvalues --   -0.24743  -0.05589  -0.04177  -0.04177   0.04161
  Beta virt. eigenvalues --    0.07124   0.07540   0.07540   0.12983   0.14411
  Beta virt. eigenvalues --    0.14411   0.16578   0.16578   0.30922   0.33416
  Beta virt. eigenvalues --    0.33416   0.36213   0.36213   0.36290   0.38232
  Beta virt. eigenvalues --    0.38589   0.38589   0.40073   0.45435   0.45435
  Beta virt. eigenvalues --    0.47455   0.49897   0.49897   0.51401   0.53333
  Beta virt. eigenvalues --    0.53526   0.55005   0.55005   0.57719   0.57719
  Beta virt. eigenvalues --    0.68474   0.72105   0.72105   1.04196   1.04196
  Beta virt. eigenvalues --    1.04644   1.08179   1.08485   1.08485   1.08933
  Beta virt. eigenvalues --    1.10963   1.12078   1.12078   1.18826   1.18826
  Beta virt. eigenvalues --    1.30121   1.30121   1.31642   1.36352   1.39909
  Beta virt. eigenvalues --    1.39909   1.40512   1.46326   1.46326   1.47258
  Beta virt. eigenvalues --    1.49469   1.57155   1.57155   1.59312   1.59312
  Beta virt. eigenvalues --    1.59474   1.65083   1.65621   1.65621   1.66633
  Beta virt. eigenvalues --    1.66733   1.66733   1.68969   1.68969   1.71776
  Beta virt. eigenvalues --    1.72747   1.72747   1.89617   1.93421   1.93421
  Beta virt. eigenvalues --    2.03729   2.04866   2.04866   2.11141   2.21451
  Beta virt. eigenvalues --    2.21451   2.24761   2.50378   2.55117   2.55117
  Beta virt. eigenvalues --    2.72760   2.78878   2.78878   2.81623   3.19395
  Beta virt. eigenvalues --    3.19395   3.45269   3.93425   3.93425   3.94985
  Beta virt. eigenvalues --    4.04375   4.04707   4.04707   4.05770   4.05770
  Beta virt. eigenvalues --    4.07217   4.08665   4.09695   4.13644   4.13644
  Beta virt. eigenvalues --    4.14400   4.14400   4.24743   4.26319   4.26319
  Beta virt. eigenvalues --    4.35924   4.35924   4.41090   4.41090   4.43518
  Beta virt. eigenvalues --    4.73403   4.86544   4.88326   4.88326   4.94733
  Beta virt. eigenvalues --    4.95767   4.95767   5.23445   5.23445   5.24045
  Beta virt. eigenvalues --    5.32375   5.32375   5.39682   5.42166   5.42166
  Beta virt. eigenvalues --    5.56838   6.12237   6.12237   6.13149   6.14762
  Beta virt. eigenvalues --    6.16527   6.16527   6.82734   6.91579   6.91579
  Beta virt. eigenvalues --    8.83691   8.91244   8.91244   8.98410   9.02597
  Beta virt. eigenvalues --    9.02597   9.34290  11.23336  11.23457  11.23529
  Beta virt. eigenvalues --   11.23529  11.23691  11.23691  11.24036  11.24036
  Beta virt. eigenvalues --   11.24108  11.24151  11.24397  11.24397  11.24859
  Beta virt. eigenvalues --   11.25065  11.25065  11.25083  11.25083  11.25089
  Beta virt. eigenvalues --   11.25124  11.25303  11.25303  11.26242  11.26242
  Beta virt. eigenvalues --   11.27541  11.27541  11.28977  11.32616  12.04362
  Beta virt. eigenvalues --   14.36279  14.36442  14.36442  14.36920  14.36920
  Beta virt. eigenvalues --   14.37388  14.38476  14.39338  14.40491  14.40491
  Beta virt. eigenvalues --   14.41472  14.41472  14.48277  14.48277  14.48613
  Beta virt. eigenvalues --   14.54574  14.54574  14.57253  14.57253  14.60996
  Beta virt. eigenvalues --   14.61356  14.81828  14.81828  15.05595  15.56150
  Beta virt. eigenvalues --   15.57230  15.57230  15.61550  15.61550  15.61873
  Beta virt. eigenvalues --   15.82776  15.83207  15.83207  15.86830  15.86830
  Beta virt. eigenvalues --   15.90923  16.12614  16.12614  16.19167  34.36837
  Beta virt. eigenvalues --   34.41544  34.41544  53.60707  53.60707  53.67560
  Beta virt. eigenvalues --   72.30085 283.95489 283.95489 284.04002
          Condensed to atoms (all electrons):
               1          2          3          4
     1  Sn  19.992839   0.239595   0.239595   0.239595
     2  F    0.239595   9.204267  -0.007202  -0.007202
     3  F    0.239595  -0.007202   9.204267  -0.007202
     4  F    0.239595  -0.007202  -0.007202   9.204267
          Atomic-Atomic Spin Densities.
               1          2          3          4
     1  Sn   0.783173  -0.052248  -0.052248  -0.052248
     2  F   -0.052248   0.171863   0.002454   0.002454
     3  F   -0.052248   0.002454   0.171863   0.002454
     4  F   -0.052248   0.002454   0.002454   0.171863
 Mulliken charges and spin densities:
               1          2
     1  Sn   1.288375   0.626430
     2  F   -0.429458   0.124523
     3  F   -0.429458   0.124523
     4  F   -0.429458   0.124523
 Sum of Mulliken charges =  -0.00000   1.00000
 Mulliken charges and spin densities with hydrogens summed into heavy atoms:
               1          2
     1  Sn   1.288375   0.626430
     2  F   -0.429458   0.124523
     3  F   -0.429458   0.124523
     4  F   -0.429458   0.124523
 Electronic spatial extent (au):  <R**2>=            436.8248
 Charge=              0.0000 electrons
 Dipole moment (field-independent basis, Debye):
    X=              0.0000    Y=              0.0000    Z=              3.0249  Tot=              3.0249
 Quadrupole moment (field-independent basis, Debye-Ang):
   XX=            -43.2640   YY=            -43.2640   ZZ=            -36.1375
   XY=              0.0000   XZ=              0.0000   YZ=             -0.0000
 Traceless Quadrupole moment (field-independent basis, Debye-Ang):
   XX=             -2.3755   YY=             -2.3755   ZZ=              4.7510
   XY=              0.0000   XZ=              0.0000   YZ=             -0.0000
 Octapole moment (field-independent basis, Debye-Ang**2):
  XXX=              0.0000  YYY=             -7.0891  ZZZ=              6.4881  XYY=             -0.0000
  XXY=              7.0891  XXZ=              5.7729  XZZ=              0.0000  YZZ=              0.0000
  YYZ=              5.7729  XYZ=              0.0000
 Hexadecapole moment (field-independent basis, Debye-Ang**3):
 XXXX=           -207.3463 YYYY=           -207.3463 ZZZZ=            -68.0525 XXXY=              0.0000
 XXXZ=             -0.0000 YYYX=              0.0000 YYYZ=              1.9246 ZZZX=             -0.0000
 ZZZY=             -0.0000 XXYY=            -69.1154 XXZZ=            -43.8533 YYZZ=            -43.8533
 XXYZ=             -1.9246 YYXZ=              0.0000 ZZXY=              0.0000
 N-N= 2.009646891883D+02 E-N=-1.576629901490D+03  KE= 3.810320488143D+02
 Symmetry A'   KE= 2.457471834280D+02
 Symmetry A"   KE= 1.352848653863D+02
 Symmetry A'   SP= 1.000000000000D+00
 Symmetry A"   SP=-1.127207633992D-14
                          Isotropic Fermi Contact Couplings
        Atom                 a.u.       MegaHertz       Gauss      10(-4) cm-1
     1  Sn(117             0.00165      -2.64686      -0.94447      -0.88290
     2  F(19)              0.03379     142.18702      50.73587      47.42849
     3  F(19)              0.03379     142.18702      50.73587      47.42849
     4  F(19)              0.03379     142.18702      50.73587      47.42849
 --------------------------------------------------------
       Center         ----  Spin Dipole Couplings  ----
                      3XX-RR        3YY-RR        3ZZ-RR
 --------------------------------------------------------
     1   Atom       -0.061474     -0.061474      0.122947
     2   Atom       -0.520288      0.230199      0.290088
     3   Atom        0.042578     -0.332666      0.290088
     4   Atom        0.042578     -0.332666      0.290088
 --------------------------------------------------------
                        XY            XZ            YZ
 --------------------------------------------------------
     1   Atom        0.000000      0.000000      0.000000
     2   Atom        0.000000     -0.000000     -0.786826
     3   Atom        0.324970      0.681412      0.393413
     4   Atom       -0.324970     -0.681412      0.393413
 --------------------------------------------------------


 ---------------------------------------------------------------------------------
              Anisotropic Spin Dipole Couplings in Principal Axis System
 ---------------------------------------------------------------------------------

       Atom             a.u.   MegaHertz   Gauss  10(-4) cm-1        Axes

              Baa    -0.0615    11.756     4.195     3.922 -0.2661  0.9639 -0.0000
     1 Sn(117 Bbb    -0.0615    11.756     4.195     3.922  0.9639  0.2661 -0.0000
              Bcc     0.1229   -23.513    -8.390    -7.843  0.0000  0.0000  1.0000
 
              Baa    -0.5273  -264.800   -94.487   -88.328 -0.0000  0.7204  0.6935
     2 F(19)  Bbb    -0.5203  -261.302   -93.239   -87.161  1.0000  0.0000  0.0000
              Bcc     1.0475   526.101   187.726   175.489 -0.0000 -0.6935  0.7204
 
              Baa    -0.5273  -264.800   -94.487   -88.328 -0.6239 -0.3602  0.6935
     3 F(19)  Bbb    -0.5203  -261.302   -93.239   -87.161 -0.5000  0.8660 -0.0000
              Bcc     1.0475   526.101   187.726   175.489  0.6006  0.3468  0.7204
 
              Baa    -0.5273  -264.800   -94.487   -88.328  0.6239 -0.3602  0.6935
     4 F(19)  Bbb    -0.5203  -261.302   -93.239   -87.161  0.5000  0.8660 -0.0000
              Bcc     1.0475   526.101   187.726   175.489 -0.6006  0.3468  0.7204
 

 ---------------------------------------------------------------------------------

   6 Symmetry operations used in ECPInt.
 ECPInt:  NShTT=    2701 NPrTT=    9253 LenC2=    2561 LenP2D=    7192.
 LDataN:  DoStor=T MaxTD1= 9 Len=  602
 Calling FoFJK, ICntrl=      2527 FMM=F ISym2X=1 I1Cent= 0 IOpClX= 0 NMat=1 NMatS=1 NMatT=0.
 Defaulting to unpruned grid for atomic number  50.
 Defaulting to unpruned grid for atomic number  50.
 Defaulting to unpruned grid for atomic number  50.
 Defaulting to unpruned grid for atomic number  50.
 Defaulting to unpruned grid for atomic number  50.
 Defaulting to unpruned grid for atomic number  50.
 Defaulting to unpruned grid for atomic number  50.
 Defaulting to unpruned grid for atomic number  50.
 ***** Axes restored to original set *****
 -------------------------------------------------------------------
 Center     Atomic                   Forces (Hartrees/Bohr)
 Number     Number              X              Y              Z
 -------------------------------------------------------------------
      1       50          -0.000000000    0.000000000   -0.011078872
      2        9          -0.003995673    0.006920708    0.003692957
      3        9          -0.003995673   -0.006920708    0.003692957
      4        9           0.007991345    0.000000000    0.003692957
 -------------------------------------------------------------------
 Cartesian Forces:  Max     0.011078872 RMS     0.005440894

 GradGradGradGradGradGradGradGradGradGradGradGradGradGradGradGradGradGrad
 Berny optimization.
 FormGI is forming the generalized inverse of G from B-inverse, IUseBI=4.
 Internal  Forces:  Max     0.008797463 RMS     0.005780923
 Search for a local minimum.
 Step number   1 out of a maximum of   20
 All quantities printed in internal units (Hartrees-Bohrs-Radians)
 Mixed Optimization -- RFO/linear search
 Second derivative matrix not updated -- first step.
 The second derivative matrix:
                          R1        R2        R3        A1        A2
           R1           0.19906
           R2           0.00000   0.19906
           R3           0.00000   0.00000   0.19906
           A1           0.00000   0.00000   0.00000   0.25000
           A2           0.00000   0.00000   0.00000   0.00000   0.25000
           A3           0.00000   0.00000   0.00000   0.00000   0.00000
           D1           0.00000   0.00000   0.00000   0.00000   0.00000
                          A3        D1
           A3           0.25000
           D1           0.00000   0.00230
 ITU=  0
     Eigenvalues ---    0.09616   0.19906   0.19906   0.19906   0.25000
     Eigenvalues ---    0.25000
 RFO step:  Lambda=-1.17323075D-03 EMin= 9.61608755D-02
 Linear search not attempted -- first point.
 Iteration  1 RMS(Cart)=  0.02498094 RMS(Int)=  0.00005784
 Iteration  2 RMS(Cart)=  0.00007657 RMS(Int)=  0.00001321
 Iteration  3 RMS(Cart)=  0.00000000 RMS(Int)=  0.00001321
 ClnCor:  largest displacement from symmetrization is 9.58D-05 for atom     4.
 Variable       Old X    -DE/DX   Delta X   Delta X   Delta X     New X
                                 (Linear)    (Quad)   (Total)
    R1        3.71248  -0.00880   0.00000  -0.04394  -0.04396   3.66852
    R2        3.71248  -0.00880   0.00000  -0.04394  -0.04396   3.66852
    R3        3.71248  -0.00880   0.00000  -0.04394  -0.04396   3.66852
    A1        1.85104   0.00016   0.00000   0.00416   0.00420   1.85523
    A2        1.85104   0.00073   0.00000   0.00424   0.00420   1.85523
    A3        1.85104   0.00073   0.00000   0.00424   0.00420   1.85523
    D1       -1.96312  -0.00081   0.00000  -0.00834  -0.00839  -1.97151
         Item               Value     Threshold  Converged?
 Maximum Force            0.008797     0.000450     NO 
 RMS     Force            0.005781     0.000300     NO 
 Maximum Displacement     0.035219     0.001800     NO 
 RMS     Displacement     0.025034     0.001200     NO 
 Predicted change in Energy=-5.901320D-04
 GradGradGradGradGradGradGradGradGradGradGradGradGradGradGradGradGradGrad

                          Input orientation:                          
 ---------------------------------------------------------------------
 Center     Atomic      Atomic             Coordinates (Angstroms)
 Number     Number       Type             X           Y           Z
 ---------------------------------------------------------------------
      1         50           0        8.953091    8.500000    8.867264
      2          9           0        9.849954    6.946588    8.124847
      3          9           0        9.849954   10.053412    8.124847
      4          9           0        7.159365    8.500000    8.124847
 ---------------------------------------------------------------------
                    Distance matrix (angstroms):
                    1          2          3          4
     1  Sn   0.000000
     2  F    1.941297   0.000000
     3  F    1.941297   3.106824   0.000000
     4  F    1.941297   3.106824   3.106824   0.000000
 Stoichiometry    F3Sn(2)
 Framework group  C3V[C3(Sn),3SGV(F)]
 Deg. of freedom     2
 Full point group                 C3V     NOp   6
 Largest Abelian subgroup         CS      NOp   2
 Largest concise Abelian subgroup CS      NOp   2
                         Standard orientation:                         
 ---------------------------------------------------------------------
 Center     Atomic      Atomic             Coordinates (Angstroms)
 Number     Number       Type             X           Y           Z
 ---------------------------------------------------------------------
      1         50           0        0.000000    0.000000    0.260328
      2          9           0        0.000000    1.793726   -0.482089
      3          9           0       -1.553412   -0.896863   -0.482089
      4          9           0        1.553412   -0.896863   -0.482089
 ---------------------------------------------------------------------
 Rotational constants (GHZ):           4.4776488           4.4776488           2.7559215
 Standard basis: def2QZVPP (5D, 7F)
 There are   188 symmetry adapted cartesian basis functions of A'  symmetry.
 There are   132 symmetry adapted cartesian basis functions of A"  symmetry.
 There are   146 symmetry adapted basis functions of A'  symmetry.
 There are   107 symmetry adapted basis functions of A"  symmetry.
   253 basis functions,   456 primitive gaussians,   320 cartesian basis functions
    25 alpha electrons       24 beta electrons
       nuclear repulsion energy       203.3077154752 Hartrees.
 NAtoms=    4 NActive=    4 NUniq=    2 SFac= 4.00D+00 NAtFMM=   60 NAOKFM=F Big=F
 Integral buffers will be    131072 words long.
 Raffenetti 2 integral format.
 Two-electron integral symmetry is turned on.
 One-electron integrals computed using PRISM.
   6 Symmetry operations used in ECPInt.
 ECPInt:  NShTT=    2701 NPrTT=    9253 LenC2=    2561 LenP2D=    7207.
 LDataN:  DoStor=T MaxTD1= 8 Len=  415
 NBasis=   253 RedAO= T EigKep=  9.08D-04  NBF=   146   107
 NBsUse=   253 1.00D-06 EigRej= -1.00D+00 NBFU=   146   107
 Defaulting to unpruned grid for atomic number  50.
 Initial guess from the checkpoint file:  "/data/hutter/SMG16/PBE/Gau-18954.chk"
 B after Tr=    -0.000000    0.000000   -0.000000
         Rot=    1.000000   -0.000000   -0.000000   -0.000000 Ang=   0.00 deg.
 Initial guess orbital symmetries:
 Alpha Orbitals:
       Occupied  (E) (E) (A1) (A1) (A1) (E) (E) (E) (E) (A1) (E)
                 (E) (A1) (E) (E) (A1) (E) (E) (A1) (E) (E) (E)
                 (E) (A2) (A1)
       Virtual   (A1) (E) (E) (A1) (A1) (E) (E) (A1) (E) (E) (E)
                 (E) (A1) (E) (E) (A1) (E) (E) (E) (E) (A2) (A1)
                 (E) (E) (A1) (E) (E) (A1) (A1) (A2) (E) (E) (E)
                 (E) (A1) (E) (E) (E) (E) (A2) (A1) (E) (E) (A1)
                 (A1) (E) (E) (E) (E) (E) (E) (A2) (A1) (A1) (E)
                 (E) (E) (E) (A1) (A2) (E) (E) (A1) (E) (E) (E)
                 (E) (A2) (E) (E) (A1) (E) (E) (A1) (E) (E) (A1)
                 (E) (E) (A1) (E) (E) (A1) (E) (E) (A2) (A1) (E)
                 (E) (A1) (E) (E) (A2) (E) (E) (A1) (E) (E) (A1)
                 (A2) (E) (E) (E) (E) (A1) (A2) (A1) (E) (E) (E)
                 (E) (A1) (E) (E) (E) (E) (E) (E) (A2) (A1) (A2)
                 (E) (E) (A1) (E) (E) (E) (E) (A1) (E) (E) (A2)
                 (E) (E) (A1) (E) (E) (A2) (A1) (E) (E) (A1) (E)
                 (E) (A1) (E) (E) (A2) (E) (E) (A1) (A1) (E) (E)
                 (A2) (E) (E) (A2) (A1) (E) (E) (E) (E) (A1) (E)
                 (E) (E) (E) (A2) (E) (E) (A1) (E) (E) (E) (E)
                 (A2) (A1) (A1) (E) (E) (A2) (E) (E) (A1) (A2)
                 (A1) (E) (E) (E) (E) (E) (E) (A1) (E) (E) (E)
                 (E) (A1) (A2) (E) (E) (A1) (A2) (E) (E) (E) (E)
                 (A1) (A1) (E) (E) (E) (E) (A2) (E) (E) (A1) (A1)
                 (E) (E) (E) (E) (A1) (A1) (E) (E) (A1)
 Beta  Orbitals:
       Occupied  (E) (E) (A1) (A1) (A1) (E) (E) (E) (E) (A1) (E)
                 (E) (A1) (E) (E) (A1) (E) (E) (A1) (E) (E) (E)
                 (E) (A2)
       Virtual   (A1) (A1) (E) (E) (A1) (A1) (E) (E) (A1) (E) (E)
                 (E) (E) (A1) (E) (E) (E) (E) (A1) (A2) (E) (E)
                 (A1) (E) (E) (A1) (E) (E) (A1) (A1) (A2) (E) (E)
                 (E) (E) (A1) (E) (E) (E) (E) (A2) (A1) (E) (E)
                 (A1) (A1) (E) (E) (E) (E) (E) (E) (A2) (A1) (E)
                 (E) (A1) (E) (E) (A1) (A2) (E) (E) (E) (E) (A1)
                 (A2) (E) (E) (A1) (E) (E) (E) (E) (A1) (E) (E)
                 (A1) (E) (E) (A1) (E) (E) (A1) (E) (E) (A2) (A1)
                 (E) (E) (A1) (E) (E) (A2) (E) (E) (A1) (E) (E)
                 (A1) (A2) (E) (E) (E) (E) (A1) (A2) (A1) (E) (E)
                 (E) (E) (A1) (E) (E) (E) (E) (E) (E) (A2) (A1)
                 (A2) (E) (E) (A1) (E) (E) (E) (E) (A1) (E) (E)
                 (A2) (E) (E) (A1) (E) (E) (A2) (A1) (E) (E) (A1)
                 (E) (E) (A1) (E) (E) (A2) (E) (E) (A1) (A1) (A2)
                 (E) (E) (E) (E) (E) (E) (A2) (A1) (E) (E) (A1)
                 (E) (E) (E) (E) (A2) (A1) (E) (E) (E) (E) (E)
                 (E) (A2) (A1) (A1) (A2) (E) (E) (E) (E) (A1) (A2)
                 (A1) (E) (E) (E) (E) (E) (E) (A1) (E) (E) (E)
                 (E) (A1) (A2) (E) (E) (A1) (A2) (E) (E) (E) (E)
                 (A1) (A1) (E) (E) (E) (E) (A2) (E) (E) (A1) (A1)
                 (E) (E) (E) (E) (A1) (A1) (E) (E) (A1)
 Initial guess <Sx>= 0.0000 <Sy>= 0.0000 <Sz>= 0.5000 <S**2>= 0.7517 S= 0.5008
 ExpMin= 3.74D-02 ExpMax= 1.33D+05 ExpMxC= 1.27D+03 IAcc=3 IRadAn=         5 AccDes= 0.00D+00
 Harris functional with IExCor= 1009 and IRadAn=       5 diagonalized for initial guess.
 HarFok:  IExCor= 1009 AccDes= 0.00D+00 IRadAn=         5 IDoV= 1 UseB2=F ITyADJ=14
 ICtDFT=  3500011 ScaDFX=  1.000000  1.000000  1.000000  1.000000
 Defaulting to unpruned grid for atomic number  50.
 FoFCou: FMM=F IPFlag=           0 FMFlag=      100000 FMFlg1=           0
         NFxFlg=           0 DoJE=T BraDBF=F KetDBF=T FulRan=T
         wScrn=  0.000000 ICntrl=       500 IOpCl=  0 I1Cent=   200000004 NGrid=           0
         NMat0=    1 NMatS0=      1 NMatT0=    0 NMatD0=    1 NMtDS0=    0 NMtDT0=    0
 Petite list used in FoFCou.
 Keep J ints in memory in symmetry-blocked form, NReq=774599017.
 Requested convergence on RMS density matrix=1.00D-08 within 128 cycles.
 Requested convergence on MAX density matrix=1.00D-06.
 Requested convergence on             energy=1.00D-06.
 No special actions if energy rises.
 Defaulting to unpruned grid for atomic number  50.
 Defaulting to unpruned grid for atomic number  50.
 Defaulting to unpruned grid for atomic number  50.
 Defaulting to unpruned grid for atomic number  50.
 Defaulting to unpruned grid for atomic number  50.
 Defaulting to unpruned grid for atomic number  50.
 Defaulting to unpruned grid for atomic number  50.
 Defaulting to unpruned grid for atomic number  50.
 SCF Done:  E(UPBE-PBE) =  -513.785650506     A.U. after    9 cycles
            NFock=  9  Conv=0.84D-08     -V/T= 2.3481
 <Sx>= 0.0000 <Sy>= 0.0000 <Sz>= 0.5000 <S**2>= 0.7516 S= 0.5008
 <L.S>=  0.00000000000    
 Annihilation of the first spin contaminant:
 S**2 before annihilation     0.7516,   after     0.7500
   6 Symmetry operations used in ECPInt.
 ECPInt:  NShTT=    2701 NPrTT=    9253 LenC2=    2561 LenP2D=    7207.
 LDataN:  DoStor=T MaxTD1= 9 Len=  602
 Calling FoFJK, ICntrl=      2527 FMM=F ISym2X=1 I1Cent= 0 IOpClX= 0 NMat=1 NMatS=1 NMatT=0.
 Defaulting to unpruned grid for atomic number  50.
 Defaulting to unpruned grid for atomic number  50.
 Defaulting to unpruned grid for atomic number  50.
 Defaulting to unpruned grid for atomic number  50.
 Defaulting to unpruned grid for atomic number  50.
 Defaulting to unpruned grid for atomic number  50.
 Defaulting to unpruned grid for atomic number  50.
 Defaulting to unpruned grid for atomic number  50.
 ***** Axes restored to original set *****
 -------------------------------------------------------------------
 Center     Atomic                   Forces (Hartrees/Bohr)
 Number     Number              X              Y              Z
 -------------------------------------------------------------------
      1       50          -0.000000000    0.000000000   -0.000155772
      2        9          -0.000131950    0.000228544    0.000051924
      3        9          -0.000131950   -0.000228544    0.000051924
      4        9           0.000263900   -0.000000000    0.000051924
 -------------------------------------------------------------------
 Cartesian Forces:  Max     0.000263900 RMS     0.000141799

 GradGradGradGradGradGradGradGradGradGradGradGradGradGradGradGradGradGrad
 Berny optimization.
 Using GEDIIS/GDIIS optimizer.
 FormGI is forming the generalized inverse of G from B-inverse, IUseBI=4.
 Internal  Forces:  Max     0.000263697 RMS     0.000190636
 Search for a local minimum.
 Step number   2 out of a maximum of   20
 All quantities printed in internal units (Hartrees-Bohrs-Radians)
 Mixed Optimization -- En-DIIS/RFO-DIIS
 Update second derivatives using D2CorX and points    1    2
 DE= -6.16D-04 DEPred=-5.90D-04 R= 1.04D+00
 TightC=F SS=  1.41D+00  RLast= 7.70D-02 DXNew= 5.0454D-01 2.3085D-01
 Trust test= 1.04D+00 RLast= 7.70D-02 DXMaxT set to 3.00D-01
 The second derivative matrix:
                          R1        R2        R3        A1        A2
           R1           0.19727
           R2          -0.00178   0.19727
           R3          -0.00178  -0.00178   0.19727
           A1           0.00644   0.00644   0.00644   0.24909
           A2           0.00154   0.00154   0.00154  -0.00080   0.24968
           A3           0.00154   0.00154   0.00154  -0.00080  -0.00032
           D1           0.00692   0.00692   0.00692  -0.00014  -0.00068
                          A3        D1
           A3           0.24968
           D1          -0.00068   0.00308
 ITU=  1  0
 Use linear search instead of GDIIS.
     Eigenvalues ---    0.09540   0.19368   0.19906   0.19906   0.25000
     Eigenvalues ---    0.25034
 RFO step:  Lambda=-5.44123516D-07 EMin= 9.53988502D-02
 Quartic linear search produced a step of  0.02668.
 Iteration  1 RMS(Cart)=  0.00150171 RMS(Int)=  0.00000094
 Iteration  2 RMS(Cart)=  0.00000052 RMS(Int)=  0.00000075
 ClnCor:  largest displacement from symmetrization is 2.09D-06 for atom     4.
 Variable       Old X    -DE/DX   Delta X   Delta X   Delta X     New X
                                 (Linear)    (Quad)   (Total)
    R1        3.66852  -0.00026  -0.00117  -0.00012  -0.00130   3.66722
    R2        3.66852  -0.00026  -0.00117  -0.00012  -0.00130   3.66722
    R3        3.66852  -0.00026  -0.00117  -0.00012  -0.00130   3.66722
    A1        1.85523  -0.00003   0.00011  -0.00084  -0.00073   1.85450
    A2        1.85523  -0.00012   0.00011  -0.00084  -0.00073   1.85450
    A3        1.85523  -0.00012   0.00011  -0.00084  -0.00073   1.85450
    D1       -1.97151   0.00013  -0.00022   0.00169   0.00147  -1.97005
         Item               Value     Threshold  Converged?
 Maximum Force            0.000264     0.000450     YES
 RMS     Force            0.000191     0.000300     YES
 Maximum Displacement     0.002123     0.001800     NO 
 RMS     Displacement     0.001501     0.001200     NO 
 Predicted change in Energy=-7.313116D-07
 GradGradGradGradGradGradGradGradGradGradGradGradGradGradGradGradGradGrad

                          Input orientation:                          
 ---------------------------------------------------------------------
 Center     Atomic      Atomic             Coordinates (Angstroms)
 Number     Number       Type             X           Y           Z
 ---------------------------------------------------------------------
      1         50           0        8.953091    8.500000    8.867954
      2          9           0        9.849392    6.947561    8.124617
      3          9           0        9.849392   10.052439    8.124617
      4          9           0        7.160488    8.500000    8.124617
 ---------------------------------------------------------------------
                    Distance matrix (angstroms):
                    1          2          3          4
     1  Sn   0.000000
     2  F    1.940611   0.000000
     3  F    1.940611   3.104878   0.000000
     4  F    1.940611   3.104878   3.104878   0.000000
 Stoichiometry    F3Sn(2)
 Framework group  C3V[C3(Sn),3SGV(F)]
 Deg. of freedom     2
 Full point group                 C3V     NOp   6
 Largest Abelian subgroup         CS      NOp   2
 Largest concise Abelian subgroup CS      NOp   2
                         Standard orientation:                         
 ---------------------------------------------------------------------
 Center     Atomic      Atomic             Coordinates (Angstroms)
 Number     Number       Type             X           Y           Z
 ---------------------------------------------------------------------
      1         50           0        0.000000    0.000000    0.260650
      2          9           0        0.000000    1.792602   -0.482686
      3          9           0       -1.552439   -0.896301   -0.482686
      4          9           0        1.552439   -0.896301   -0.482686
 ---------------------------------------------------------------------
 Rotational constants (GHZ):           4.4801222           4.4801222           2.7593762
 Standard basis: def2QZVPP (5D, 7F)
 There are   188 symmetry adapted cartesian basis functions of A'  symmetry.
 There are   132 symmetry adapted cartesian basis functions of A"  symmetry.
 There are   146 symmetry adapted basis functions of A'  symmetry.
 There are   107 symmetry adapted basis functions of A"  symmetry.
   253 basis functions,   456 primitive gaussians,   320 cartesian basis functions
    25 alpha electrons       24 beta electrons
       nuclear repulsion energy       203.3908720288 Hartrees.
 NAtoms=    4 NActive=    4 NUniq=    2 SFac= 4.00D+00 NAtFMM=   60 NAOKFM=F Big=F
 Integral buffers will be    131072 words long.
 Raffenetti 2 integral format.
 Two-electron integral symmetry is turned on.
 One-electron integrals computed using PRISM.
   6 Symmetry operations used in ECPInt.
 ECPInt:  NShTT=    2701 NPrTT=    9253 LenC2=    2561 LenP2D=    7207.
 LDataN:  DoStor=T MaxTD1= 8 Len=  415
 NBasis=   253 RedAO= T EigKep=  9.07D-04  NBF=   146   107
 NBsUse=   253 1.00D-06 EigRej= -1.00D+00 NBFU=   146   107
 Defaulting to unpruned grid for atomic number  50.
 Initial guess from the checkpoint file:  "/data/hutter/SMG16/PBE/Gau-18954.chk"
 B after Tr=     0.000000   -0.000000   -0.000000
         Rot=    1.000000    0.000000   -0.000000    0.000000 Ang=   0.00 deg.
 Initial guess orbital symmetries:
 Alpha Orbitals:
       Occupied  (E) (E) (A1) (A1) (A1) (E) (E) (E) (E) (A1) (E)
                 (E) (A1) (E) (E) (A1) (E) (E) (A1) (E) (E) (E)
                 (E) (A2) (A1)
       Virtual   (A1) (E) (E) (A1) (A1) (E) (E) (A1) (E) (E) (E)
                 (E) (A1) (E) (E) (A1) (E) (E) (E) (E) (A2) (A1)
                 (E) (E) (A1) (E) (E) (A1) (A1) (A2) (E) (E) (E)
                 (E) (A1) (E) (E) (E) (E) (A2) (A1) (E) (E) (A1)
                 (E) (E) (A1) (E) (E) (E) (E) (A2) (A1) (E) (E)
                 (A1) (E) (E) (A1) (A2) (E) (E) (A1) (E) (E) (A2)
                 (E) (E) (E) (E) (A1) (E) (E) (A1) (E) (E) (A1)
                 (E) (E) (A1) (E) (E) (A1) (E) (E) (A2) (A1) (E)
                 (E) (A1) (E) (E) (A2) (E) (E) (A1) (E) (E) (A1)
                 (A2) (E) (E) (E) (E) (A1) (A2) (A1) (E) (E) (E)
                 (E) (A1) (E) (E) (E) (E) (E) (E) (A2) (A1) (A2)
                 (E) (E) (A1) (E) (E) (E) (E) (A1) (E) (E) (A2)
                 (E) (E) (A1) (E) (E) (A2) (A1) (E) (E) (A1) (E)
                 (E) (A1) (E) (E) (A2) (E) (E) (A1) (A1) (E) (E)
                 (A2) (E) (E) (A2) (E) (E) (A1) (E) (E) (A1) (E)
                 (E) (E) (E) (A2) (E) (E) (A1) (E) (E) (E) (E)
                 (A2) (A1) (A1) (E) (E) (A2) (E) (E) (A1) (A2)
                 (A1) (E) (E) (E) (E) (E) (E) (A1) (E) (E) (E)
                 (E) (A1) (A2) (E) (E) (A1) (A2) (E) (E) (E) (E)
                 (A1) (A1) (E) (E) (E) (E) (A2) (E) (E) (A1) (A1)
                 (E) (E) (E) (E) (A1) (A1) (E) (E) (A1)
 Beta  Orbitals:
       Occupied  (E) (E) (A1) (A1) (A1) (E) (E) (E) (E) (A1) (E)
                 (E) (A1) (E) (E) (A1) (E) (E) (A1) (E) (E) (E)
                 (E) (A2)
       Virtual   (A1) (A1) (E) (E) (A1) (A1) (E) (E) (A1) (E) (E)
                 (E) (E) (A1) (E) (E) (A1) (E) (E) (A2) (E) (E)
                 (A1) (E) (E) (A1) (E) (E) (A1) (A1) (A2) (E) (E)
                 (E) (E) (A1) (E) (E) (E) (E) (A2) (A1) (E) (E)
                 (A1) (A1) (E) (E) (E) (E) (E) (E) (A2) (A1) (E)
                 (E) (A1) (A1) (E) (E) (A2) (E) (E) (E) (E) (A1)
                 (A2) (E) (E) (A1) (E) (E) (E) (E) (A1) (E) (E)
                 (A1) (E) (E) (A1) (E) (E) (A1) (E) (E) (A2) (A1)
                 (E) (E) (A1) (E) (E) (A2) (E) (E) (A1) (E) (E)
                 (A1) (A2) (E) (E) (E) (E) (A1) (A2) (A1) (E) (E)
                 (E) (E) (A1) (E) (E) (E) (E) (E) (E) (A2) (A1)
                 (A2) (E) (E) (A1) (E) (E) (E) (E) (A1) (E) (E)
                 (A2) (E) (E) (A1) (E) (E) (A2) (A1) (E) (E) (A1)
                 (E) (E) (A1) (E) (E) (A2) (E) (E) (A1) (A1) (A2)
                 (E) (E) (E) (E) (E) (E) (A2) (A1) (E) (E) (A1)
                 (E) (E) (E) (E) (A2) (A1) (E) (E) (E) (E) (E)
                 (E) (A2) (A1) (A1) (A2) (E) (E) (E) (E) (A1) (A2)
                 (A1) (E) (E) (E) (E) (E) (E) (A1) (E) (E) (E)
                 (E) (A1) (A2) (E) (E) (A1) (A2) (E) (E) (E) (E)
                 (A1) (A1) (E) (E) (E) (E) (A2) (E) (E) (A1) (A1)
                 (E) (E) (E) (E) (A1) (A1) (E) (E) (A1)
 Initial guess <Sx>= 0.0000 <Sy>= 0.0000 <Sz>= 0.5000 <S**2>= 0.7516 S= 0.5008
 Keep J ints in memory in symmetry-blocked form, NReq=774599017.
 Requested convergence on RMS density matrix=1.00D-08 within 128 cycles.
 Requested convergence on MAX density matrix=1.00D-06.
 Requested convergence on             energy=1.00D-06.
 No special actions if energy rises.
 Defaulting to unpruned grid for atomic number  50.
 Defaulting to unpruned grid for atomic number  50.
 Defaulting to unpruned grid for atomic number  50.
 Defaulting to unpruned grid for atomic number  50.
 Defaulting to unpruned grid for atomic number  50.
 Defaulting to unpruned grid for atomic number  50.
 Defaulting to unpruned grid for atomic number  50.
 Defaulting to unpruned grid for atomic number  50.
 SCF Done:  E(UPBE-PBE) =  -513.785651315     A.U. after    7 cycles
            NFock=  7  Conv=0.34D-08     -V/T= 2.3481
 <Sx>= 0.0000 <Sy>= 0.0000 <Sz>= 0.5000 <S**2>= 0.7516 S= 0.5008
 <L.S>=  0.00000000000    
 Annihilation of the first spin contaminant:
 S**2 before annihilation     0.7516,   after     0.7500
   6 Symmetry operations used in ECPInt.
 ECPInt:  NShTT=    2701 NPrTT=    9253 LenC2=    2561 LenP2D=    7207.
 LDataN:  DoStor=T MaxTD1= 9 Len=  602
 Calling FoFJK, ICntrl=      2527 FMM=F ISym2X=1 I1Cent= 0 IOpClX= 0 NMat=1 NMatS=1 NMatT=0.
 Defaulting to unpruned grid for atomic number  50.
 Defaulting to unpruned grid for atomic number  50.
 Defaulting to unpruned grid for atomic number  50.
 Defaulting to unpruned grid for atomic number  50.
 Defaulting to unpruned grid for atomic number  50.
 Defaulting to unpruned grid for atomic number  50.
 Defaulting to unpruned grid for atomic number  50.
 Defaulting to unpruned grid for atomic number  50.
 ***** Axes restored to original set *****
 -------------------------------------------------------------------
 Center     Atomic                   Forces (Hartrees/Bohr)
 Number     Number              X              Y              Z
 -------------------------------------------------------------------
      1       50           0.000000000    0.000000000    0.000061969
      2        9          -0.000007804    0.000013518   -0.000020656
      3        9          -0.000007804   -0.000013518   -0.000020656
      4        9           0.000015609   -0.000000000   -0.000020656
 -------------------------------------------------------------------
 Cartesian Forces:  Max     0.000061969 RMS     0.000022081

 GradGradGradGradGradGradGradGradGradGradGradGradGradGradGradGradGradGrad
 Berny optimization.
 Using GEDIIS/GDIIS optimizer.
 FormGI is forming the generalized inverse of G from B-inverse, IUseBI=4.
 Internal  Forces:  Max     0.000062685 RMS     0.000038511
 Search for a local minimum.
 Step number   3 out of a maximum of   20
 All quantities printed in internal units (Hartrees-Bohrs-Radians)
 Mixed Optimization -- En-DIIS/RFO-DIIS
 Swapping is turned off.
 Update second derivatives using D2CorX and points    1    2    3
 DE= -8.09D-07 DEPred=-7.31D-07 R= 1.11D+00
 Trust test= 1.11D+00 RLast= 2.96D-03 DXMaxT set to 3.00D-01
 The second derivative matrix:
                          R1        R2        R3        A1        A2
           R1           0.20716
           R2           0.00811   0.20716
           R3           0.00811   0.00811   0.20716
           A1          -0.02878  -0.02878  -0.02878   0.21941
           A2          -0.02002  -0.02002  -0.02002  -0.02751   0.22763
           A3          -0.02002  -0.02002  -0.02002  -0.02751  -0.02237
           D1          -0.01215  -0.01215  -0.01215  -0.00385  -0.00689
                          A3        D1
           A3           0.22763
           D1          -0.00689   0.00676
 ITU=  0  1  0
     Eigenvalues ---    0.07548   0.19906   0.19906   0.21665   0.25000
     Eigenvalues ---    0.25346
 En-DIIS/RFO-DIIS/Sim-DIIS IScMMF=       -3 using points:     3    2
 RFO step:  Lambda=-1.08959984D-07.
 DidBck=F Rises=F RFO-DIIS coefs:    1.30047   -0.30047
 Iteration  1 RMS(Cart)=  0.00059413 RMS(Int)=  0.00000032
 Iteration  2 RMS(Cart)=  0.00000019 RMS(Int)=  0.00000026
 ClnCor:  largest displacement from symmetrization is 2.84D-06 for atom     4.
 Variable       Old X    -DE/DX   Delta X   Delta X   Delta X     New X
                                 (Linear)    (Quad)   (Total)
    R1        3.66722  -0.00001  -0.00039   0.00028  -0.00011   3.66711
    R2        3.66722  -0.00001  -0.00039   0.00028  -0.00011   3.66711
    R3        3.66722  -0.00001  -0.00039   0.00028  -0.00011   3.66711
    A1        1.85450  -0.00001  -0.00022  -0.00021  -0.00043   1.85408
    A2        1.85450  -0.00006  -0.00022  -0.00021  -0.00043   1.85408
    A3        1.85450  -0.00006  -0.00022  -0.00021  -0.00043   1.85408
    D1       -1.97005   0.00006   0.00044   0.00042   0.00086  -1.96919
         Item               Value     Threshold  Converged?
 Maximum Force            0.000063     0.000450     YES
 RMS     Force            0.000039     0.000300     YES
 Maximum Displacement     0.000951     0.001800     YES
 RMS     Displacement     0.000594     0.001200     YES
 Predicted change in Energy=-5.445216D-08
 Optimization completed.
    -- Stationary point found.
                           ----------------------------
                           !   Optimized Parameters   !
                           ! (Angstroms and Degrees)  !
 --------------------------                            --------------------------
 ! Name  Definition              Value          Derivative Info.                !
 --------------------------------------------------------------------------------
 ! R1    R(1,2)                  1.9406         -DE/DX =    0.0                 !
 ! R2    R(1,3)                  1.9406         -DE/DX =    0.0                 !
 ! R3    R(1,4)                  1.9406         -DE/DX =    0.0                 !
 ! A1    A(2,1,3)              106.2553         -DE/DX =    0.0                 !
 ! A2    A(2,1,4)              106.2553         -DE/DX =   -0.0001              !
 ! A3    A(3,1,4)              106.2553         -DE/DX =   -0.0001              !
 ! D1    D(2,1,4,3)           -112.8755         -DE/DX =    0.0001              !
 --------------------------------------------------------------------------------
 GradGradGradGradGradGradGradGradGradGradGradGradGradGradGradGradGradGrad

                          Input orientation:                          
 ---------------------------------------------------------------------
 Center     Atomic      Atomic             Coordinates (Angstroms)
 Number     Number       Type             X           Y           Z
 ---------------------------------------------------------------------
      1         50           0        8.953091    8.500000    8.867954
      2          9           0        9.849392    6.947561    8.124617
      3          9           0        9.849392   10.052439    8.124617
      4          9           0        7.160488    8.500000    8.124617
 ---------------------------------------------------------------------
                    Distance matrix (angstroms):
                    1          2          3          4
     1  Sn   0.000000
     2  F    1.940611   0.000000
     3  F    1.940611   3.104878   0.000000
     4  F    1.940611   3.104878   3.104878   0.000000
 Stoichiometry    F3Sn(2)
 Framework group  C3V[C3(Sn),3SGV(F)]
 Deg. of freedom     2
 Full point group                 C3V     NOp   6
 Largest Abelian subgroup         CS      NOp   2
 Largest concise Abelian subgroup CS      NOp   2
                         Standard orientation:                         
 ---------------------------------------------------------------------
 Center     Atomic      Atomic             Coordinates (Angstroms)
 Number     Number       Type             X           Y           Z
 ---------------------------------------------------------------------
      1         50           0        0.000000    0.000000    0.260650
      2          9           0        0.000000    1.792602   -0.482686
      3          9           0       -1.552439   -0.896301   -0.482686
      4          9           0        1.552439   -0.896301   -0.482686
 ---------------------------------------------------------------------
 Rotational constants (GHZ):           4.4801222           4.4801222           2.7593762

 **********************************************************************

            Population analysis using the SCF Density.

 **********************************************************************

 Orbital symmetries:
 Alpha Orbitals:
       Occupied  (E) (E) (A1) (A1) (A1) (E) (E) (E) (E) (A1) (E)
                 (E) (A1) (E) (E) (A1) (E) (E) (A1) (E) (E) (E)
                 (E) (A2) (A1)
       Virtual   (A1) (E) (E) (A1) (A1) (E) (E) (A1) (E) (E) (E)
                 (E) (A1) (E) (E) (A1) (E) (E) (E) (E) (A2) (A1)
                 (E) (E) (A1) (E) (E) (A1) (A1) (A2) (E) (E) (E)
                 (E) (A1) (E) (E) (E) (E) (A2) (A1) (E) (E) (A1)
                 (E) (E) (A1) (E) (E) (E) (E) (A2) (A1) (E) (E)
                 (A1) (E) (E) (A1) (A2) (E) (E) (A1) (E) (E) (A2)
                 (E) (E) (E) (E) (A1) (E) (E) (A1) (E) (E) (A1)
                 (E) (E) (A1) (E) (E) (A1) (E) (E) (A2) (A1) (E)
                 (E) (A1) (E) (E) (A2) (E) (E) (A1) (E) (E) (A1)
                 (A2) (E) (E) (E) (E) (A1) (A2) (A1) (E) (E) (E)
                 (E) (A1) (E) (E) (E) (E) (E) (E) (A2) (A1) (A2)
                 (E) (E) (A1) (E) (E) (E) (E) (A1) (E) (E) (A2)
                 (E) (E) (A1) (E) (E) (A2) (A1) (E) (E) (A1) (E)
                 (E) (A1) (E) (E) (A2) (E) (E) (A1) (A1) (E) (E)
                 (A2) (E) (E) (A2) (E) (E) (A1) (E) (E) (A1) (E)
                 (E) (E) (E) (A2) (E) (E) (A1) (E) (E) (E) (E)
                 (A2) (A1) (A1) (E) (E) (A2) (E) (E) (A1) (A2)
                 (A1) (E) (E) (E) (E) (A1) (E) (E) (E) (E) (E)
                 (E) (A1) (A2) (E) (E) (A1) (A2) (E) (E) (E) (E)
                 (A1) (A1) (E) (E) (E) (E) (A2) (E) (E) (A1) (A1)
                 (E) (E) (E) (E) (A1) (A1) (E) (E) (A1)
 Beta  Orbitals:
       Occupied  (E) (E) (A1) (A1) (A1) (E) (E) (E) (E) (A1) (E)
                 (E) (A1) (E) (E) (A1) (E) (E) (A1) (E) (E) (E)
                 (E) (A2)
       Virtual   (A1) (A1) (E) (E) (A1) (A1) (E) (E) (A1) (E) (E)
                 (E) (E) (A1) (E) (E) (A1) (E) (E) (A2) (E) (E)
                 (A1) (E) (E) (A1) (E) (E) (A1) (A1) (A2) (E) (E)
                 (E) (E) (A1) (E) (E) (E) (E) (A2) (A1) (E) (E)
                 (A1) (A1) (E) (E) (E) (E) (E) (E) (A2) (A1) (E)
                 (E) (A1) (A1) (E) (E) (A2) (E) (E) (E) (E) (A1)
                 (A2) (E) (E) (A1) (E) (E) (E) (E) (A1) (E) (E)
                 (A1) (E) (E) (A1) (E) (E) (A1) (E) (E) (A2) (A1)
                 (E) (E) (A1) (E) (E) (A2) (E) (E) (A1) (E) (E)
                 (A1) (A2) (E) (E) (E) (E) (A1) (A2) (A1) (E) (E)
                 (E) (E) (A1) (E) (E) (E) (E) (E) (E) (A2) (A1)
                 (A2) (E) (E) (A1) (E) (E) (E) (E) (A1) (E) (E)
                 (A2) (E) (E) (A1) (E) (E) (A2) (A1) (E) (E) (A1)
                 (E) (E) (A1) (E) (E) (A2) (E) (E) (A1) (A1) (A2)
                 (E) (E) (E) (E) (E) (E) (A2) (A1) (E) (E) (A1)
                 (E) (E) (E) (E) (A2) (A1) (E) (E) (E) (E) (E)
                 (E) (A2) (A1) (A1) (A2) (E) (E) (E) (E) (A1) (A2)
                 (A1) (E) (E) (E) (E) (E) (E) (A1) (E) (E) (E)
                 (E) (A1) (A2) (E) (E) (A1) (A2) (E) (E) (E) (E)
                 (A1) (A1) (E) (E) (E) (E) (A2) (E) (E) (A1) (A1)
                 (E) (E) (E) (E) (A1) (A1) (E) (E) (A1)
 The electronic state is 2-A1.
 Alpha  occ. eigenvalues --  -24.25424 -24.25424 -24.25424  -4.96411  -3.34796
 Alpha  occ. eigenvalues --   -3.34371  -3.34371  -1.08796  -1.08796  -1.07533
 Alpha  occ. eigenvalues --   -1.00862  -1.00862  -1.00507  -0.97977  -0.97977
 Alpha  occ. eigenvalues --   -0.50399  -0.41142  -0.41142  -0.37907  -0.36246
 Alpha  occ. eigenvalues --   -0.36246  -0.35639  -0.35639  -0.35264  -0.27784
 Alpha virt. eigenvalues --   -0.06421  -0.05585  -0.05585   0.02744   0.06730
 Alpha virt. eigenvalues --    0.06839   0.06839   0.11766   0.13668   0.13668
 Alpha virt. eigenvalues --    0.15923   0.15923   0.30440   0.32709   0.32709
 Alpha virt. eigenvalues --    0.34990   0.35743   0.35743   0.37953   0.37953
 Alpha virt. eigenvalues --    0.38214   0.39425   0.44813   0.44813   0.45259
 Alpha virt. eigenvalues --    0.49644   0.49644   0.50283   0.52282   0.53301
 Alpha virt. eigenvalues --    0.53395   0.53395   0.55922   0.55922   0.67661
 Alpha virt. eigenvalues --    0.72614   0.72614   1.04046   1.04046   1.04335
 Alpha virt. eigenvalues --    1.07185   1.07371   1.07371   1.08638   1.10867
 Alpha virt. eigenvalues --    1.10867   1.10950   1.18090   1.18090   1.29258
 Alpha virt. eigenvalues --    1.29258   1.31622   1.35078   1.38838   1.38838
 Alpha virt. eigenvalues --    1.38967   1.47041   1.47041   1.47578   1.49587
 Alpha virt. eigenvalues --    1.55968   1.55968   1.58330   1.58365   1.58365
 Alpha virt. eigenvalues --    1.64751   1.65119   1.65119   1.66467   1.66467
 Alpha virt. eigenvalues --    1.66679   1.69843   1.69843   1.71212   1.72534
 Alpha virt. eigenvalues --    1.72534   1.87180   1.93364   1.93364   2.04395
 Alpha virt. eigenvalues --    2.05254   2.05254   2.11824   2.21167   2.21167
 Alpha virt. eigenvalues --    2.23943   2.50889   2.56358   2.56358   2.72595
 Alpha virt. eigenvalues --    2.79633   2.79633   2.83683   3.19216   3.19216
 Alpha virt. eigenvalues --    3.46801   3.93551   3.93551   3.95125   4.04073
 Alpha virt. eigenvalues --    4.04358   4.04358   4.05471   4.05471   4.07082
 Alpha virt. eigenvalues --    4.08482   4.09525   4.14233   4.14233   4.14582
 Alpha virt. eigenvalues --    4.14582   4.24732   4.26780   4.26780   4.36546
 Alpha virt. eigenvalues --    4.36546   4.42890   4.42890   4.45285   4.76247
 Alpha virt. eigenvalues --    4.86482   4.88356   4.88356   4.95180   4.96263
 Alpha virt. eigenvalues --    4.96263   5.24092   5.24092   5.24347   5.33106
 Alpha virt. eigenvalues --    5.33106   5.41354   5.41963   5.41963   5.57399
 Alpha virt. eigenvalues --    6.12086   6.12086   6.13277   6.14937   6.17204
 Alpha virt. eigenvalues --    6.17204   6.83273   6.92438   6.92438   8.83853
 Alpha virt. eigenvalues --    8.91865   8.91865   9.00579   9.02691   9.02691
 Alpha virt. eigenvalues --    9.35256  11.22216  11.22356  11.22356  11.22555
 Alpha virt. eigenvalues --   11.22599  11.22599  11.22967  11.23031  11.23031
 Alpha virt. eigenvalues --   11.23081  11.23462  11.23462  11.23589  11.24064
 Alpha virt. eigenvalues --   11.24064  11.24656  11.24656  11.24691  11.24699
 Alpha virt. eigenvalues --   11.24699  11.24742  11.25073  11.25073  11.26625
 Alpha virt. eigenvalues --   11.26625  11.28247  11.31514  12.05031  14.35865
 Alpha virt. eigenvalues --   14.35865  14.35954  14.36400  14.36400  14.36859
 Alpha virt. eigenvalues --   14.37197  14.38462  14.39893  14.39893  14.40603
 Alpha virt. eigenvalues --   14.40603  14.47408  14.47416  14.47416  14.53296
 Alpha virt. eigenvalues --   14.53296  14.57159  14.57159  14.59392  14.61934
 Alpha virt. eigenvalues --   14.82067  14.82067  15.07480  15.55903  15.56878
 Alpha virt. eigenvalues --   15.56878  15.61331  15.61331  15.61889  15.81957
 Alpha virt. eigenvalues --   15.82932  15.82932  15.86252  15.86252  15.90736
 Alpha virt. eigenvalues --   16.11464  16.11464  16.17335  34.37169  34.42736
 Alpha virt. eigenvalues --   34.42736  53.60773  53.60773  53.68557  72.30889
 Alpha virt. eigenvalues --  283.96197 283.96197 284.05895
  Beta  occ. eigenvalues --  -24.25016 -24.25016 -24.25016  -4.96252  -3.34463
  Beta  occ. eigenvalues --   -3.34261  -3.34261  -1.08077  -1.08077  -1.06695
  Beta  occ. eigenvalues --   -1.00462  -1.00462  -0.99933  -0.97435  -0.97435
  Beta  occ. eigenvalues --   -0.49022  -0.39793  -0.39793  -0.37181  -0.35668
  Beta  occ. eigenvalues --   -0.35668  -0.35276  -0.35276  -0.34910
  Beta virt. eigenvalues --   -0.24221  -0.05037  -0.03691  -0.03691   0.04311
  Beta virt. eigenvalues --    0.07309   0.07760   0.07760   0.13128   0.14613
  Beta virt. eigenvalues --    0.14613   0.16753   0.16753   0.30996   0.33471
  Beta virt. eigenvalues --    0.33471   0.36396   0.36435   0.36435   0.38315
  Beta virt. eigenvalues --    0.38735   0.38735   0.40171   0.45697   0.45697
  Beta virt. eigenvalues --    0.47794   0.50259   0.50259   0.51404   0.53382
  Beta virt. eigenvalues --    0.54002   0.55180   0.55180   0.57964   0.57964
  Beta virt. eigenvalues --    0.68938   0.73472   0.73472   1.04607   1.04607
  Beta virt. eigenvalues --    1.04635   1.08596   1.08659   1.08659   1.09499
  Beta virt. eigenvalues --    1.11626   1.11854   1.11854   1.18786   1.18786
  Beta virt. eigenvalues --    1.30512   1.30512   1.32231   1.37108   1.40003
  Beta virt. eigenvalues --    1.40003   1.40835   1.47932   1.48112   1.48112
  Beta virt. eigenvalues --    1.50786   1.57188   1.57188   1.59351   1.59351
  Beta virt. eigenvalues --    1.59623   1.65054   1.65732   1.65732   1.67427
  Beta virt. eigenvalues --    1.67860   1.67860   1.70440   1.70440   1.72110
  Beta virt. eigenvalues --    1.73113   1.73113   1.89076   1.94301   1.94301
  Beta virt. eigenvalues --    2.05431   2.06630   2.06630   2.13684   2.22534
  Beta virt. eigenvalues --    2.22534   2.25183   2.51894   2.57262   2.57262
  Beta virt. eigenvalues --    2.73245   2.80447   2.80447   2.83862   3.20023
  Beta virt. eigenvalues --    3.20023   3.47369   3.94240   3.94240   3.95862
  Beta virt. eigenvalues --    4.04107   4.04507   4.04507   4.05632   4.05632
  Beta virt. eigenvalues --    4.07297   4.09121   4.09944   4.14679   4.14679
  Beta virt. eigenvalues --    4.15119   4.15119   4.25650   4.27559   4.27559
  Beta virt. eigenvalues --    4.37570   4.37570   4.43636   4.43636   4.46029
  Beta virt. eigenvalues --    4.77177   4.86811   4.88727   4.88727   4.95507
  Beta virt. eigenvalues --    4.96719   4.96719   5.24986   5.24986   5.25526
  Beta virt. eigenvalues --    5.34127   5.34127   5.42264   5.43310   5.43310
  Beta virt. eigenvalues --    5.58853   6.12645   6.12645   6.13579   6.15482
  Beta virt. eigenvalues --    6.17553   6.17553   6.84468   6.93663   6.93663
  Beta virt. eigenvalues --    8.84341   8.92429   8.92429   9.00792   9.03146
  Beta virt. eigenvalues --    9.03146   9.35729  11.23091  11.23192  11.23253
  Beta virt. eigenvalues --   11.23253  11.23464  11.23464  11.23851  11.23851
  Beta virt. eigenvalues --   11.23922  11.23947  11.24240  11.24240  11.24638
  Beta virt. eigenvalues --   11.24847  11.24847  11.24863  11.24863  11.24870
  Beta virt. eigenvalues --   11.24928  11.25182  11.25182  11.26196  11.26196
  Beta virt. eigenvalues --   11.27625  11.27625  11.29289  11.32686  12.05688
  Beta virt. eigenvalues --   14.36110  14.36286  14.36286  14.36817  14.36817
  Beta virt. eigenvalues --   14.37350  14.38614  14.39455  14.40774  14.40774
  Beta virt. eigenvalues --   14.41902  14.41902  14.49048  14.49048  14.49240
  Beta virt. eigenvalues --   14.55380  14.55380  14.58748  14.58748  14.61344
  Beta virt. eigenvalues --   14.63469  14.83178  14.83178  15.08554  15.56277
  Beta virt. eigenvalues --   15.57429  15.57429  15.62015  15.62015  15.62295
  Beta virt. eigenvalues --   15.83881  15.84392  15.84392  15.87892  15.87892
  Beta virt. eigenvalues --   15.92361  16.13447  16.13447  16.19344  34.37707
  Beta virt. eigenvalues --   34.42816  34.42816  53.61501  53.61501  53.69287
  Beta virt. eigenvalues --   72.31110 283.96477 283.96477 284.06175
          Condensed to atoms (all electrons):
               1          2          3          4
     1  Sn  19.975365   0.244184   0.244184   0.244184
     2  F    0.244184   9.202309  -0.007900  -0.007900
     3  F    0.244184  -0.007900   9.202309  -0.007900
     4  F    0.244184  -0.007900  -0.007900   9.202309
          Atomic-Atomic Spin Densities.
               1          2          3          4
     1  Sn   0.806834  -0.052557  -0.052557  -0.052557
     2  F   -0.052557   0.164504   0.002500   0.002500
     3  F   -0.052557   0.002500   0.164504   0.002500
     4  F   -0.052557   0.002500   0.002500   0.164504
 Mulliken charges and spin densities:
               1          2
     1  Sn   1.292083   0.649163
     2  F   -0.430694   0.116946
     3  F   -0.430694   0.116946
     4  F   -0.430694   0.116946
 Sum of Mulliken charges =  -0.00000   1.00000
 Mulliken charges and spin densities with hydrogens summed into heavy atoms:
               1          2
     1  Sn   1.292083   0.649163
     2  F   -0.430694   0.116946
     3  F   -0.430694   0.116946
     4  F   -0.430694   0.116946
 Electronic spatial extent (au):  <R**2>=            428.5283
 Charge=             -0.0000 electrons
 Dipole moment (field-independent basis, Debye):
    X=             -0.0000    Y=              0.0000    Z=              2.8926  Tot=              2.8926
 Quadrupole moment (field-independent basis, Debye-Ang):
   XX=            -43.0473   YY=            -43.0473   ZZ=            -36.1586
   XY=             -0.0000   XZ=              0.0000   YZ=             -0.0000
 Traceless Quadrupole moment (field-independent basis, Debye-Ang):
   XX=             -2.2962   YY=             -2.2962   ZZ=              4.5925
   XY=             -0.0000   XZ=              0.0000   YZ=             -0.0000
 Octapole moment (field-independent basis, Debye-Ang**2):
  XXX=             -0.0000  YYY=             -6.9030  ZZZ=              6.0306  XYY=              0.0000
  XXY=              6.9030  XXZ=              5.5654  XZZ=             -0.0000  YZZ=              0.0000
  YYZ=              5.5654  XYZ=             -0.0000
 Hexadecapole moment (field-independent basis, Debye-Ang**3):
 XXXX=           -202.9328 YYYY=           -202.9328 ZZZZ=            -67.1712 XXXY=              0.0000
 XXXZ=              0.0000 YYYX=             -0.0000 YYYZ=              1.8696 ZZZX=             -0.0000
 ZZZY=             -0.0000 XXYY=            -67.6443 XXZZ=            -43.0378 YYZZ=            -43.0378
 XXYZ=             -1.8696 YYXZ=             -0.0000 ZZXY=              0.0000
 N-N= 2.033908720288D+02 E-N=-1.581557832712D+03  KE= 3.811147890167D+02
 Symmetry A'   KE= 2.458013986399D+02
 Symmetry A"   KE= 1.353133903768D+02
 Symmetry A'   SP= 1.000000000000D+00
 Symmetry A"   SP= 3.814020606053D-14
                          Isotropic Fermi Contact Couplings
        Atom                 a.u.       MegaHertz       Gauss      10(-4) cm-1
     1  Sn(117             0.00166      -2.65375      -0.94693      -0.88520
     2  F(19)              0.03816     160.53478      57.28280      53.54864
     3  F(19)              0.03816     160.53478      57.28280      53.54864
     4  F(19)              0.03816     160.53478      57.28280      53.54864
 --------------------------------------------------------
       Center         ----  Spin Dipole Couplings  ----
                      3XX-RR        3YY-RR        3ZZ-RR
 --------------------------------------------------------
     1   Atom       -0.063884     -0.063884      0.127767
     2   Atom       -0.498896      0.213650      0.285246
     3   Atom        0.035513     -0.320760      0.285246
     4   Atom        0.035513     -0.320760      0.285246
 --------------------------------------------------------
                        XY            XZ            YZ
 --------------------------------------------------------
     1   Atom       -0.000000     -0.000000      0.000000
     2   Atom        0.000000     -0.000000     -0.753468
     3   Atom        0.308542      0.652523      0.376734
     4   Atom       -0.308542     -0.652523      0.376734
 --------------------------------------------------------


 ---------------------------------------------------------------------------------
              Anisotropic Spin Dipole Couplings in Principal Axis System
 ---------------------------------------------------------------------------------

       Atom             a.u.   MegaHertz   Gauss  10(-4) cm-1        Axes

              Baa    -0.0639    12.217     4.359     4.075  0.5475  0.8368 -0.0000
     1 Sn(117 Bbb    -0.0639    12.217     4.359     4.075  0.8368 -0.5475  0.0000
              Bcc     0.1278   -24.435    -8.719    -8.151 -0.0000  0.0000  1.0000
 
              Baa    -0.5049  -253.559   -90.476   -84.578 -0.0000  0.7237  0.6901
     2 F(19)  Bbb    -0.4989  -250.558   -89.405   -83.577  1.0000  0.0000  0.0000
              Bcc     1.0038   504.117   179.881   168.155 -0.0000 -0.6901  0.7237
 
              Baa    -0.5049  -253.559   -90.476   -84.578 -0.6267 -0.3618  0.6901
     3 F(19)  Bbb    -0.4989  -250.558   -89.405   -83.577 -0.5000  0.8660  0.0000
              Bcc     1.0038   504.117   179.881   168.155  0.5977  0.3451  0.7237
 
              Baa    -0.5049  -253.559   -90.476   -84.578  0.6267 -0.3618  0.6901
     4 F(19)  Bbb    -0.4989  -250.558   -89.405   -83.577  0.5000  0.8660 -0.0000
              Bcc     1.0038   504.117   179.881   168.155 -0.5977  0.3451  0.7237
 

 ---------------------------------------------------------------------------------

 Unable to Open any file for archive entry.
 1\1\GINC-TCOPT10\FOpt\UPBEPBE\def2QZVPP\F3Sn1(2)\HUTTER\30-Jul-2021\0\
 \#N UPBEPBE/Def2QZVPP scf=tight Int(Grid=ultrafine) OPT FREQ\\Mol job 
 1\\0,2\Sn,8.9530907212,8.5,8.8679537576\F,9.8493918963,6.9475608257,8.
 1246171918\F,9.8493918963,10.0524391743,8.1246171918\F,7.1604883708,8.
 5,8.1246171918\\Version=ES64L-G16RevC.01\State=2-A1\HF=-513.7856513\S2
 =0.751607\S2-1=0.\S2A=0.750002\RMSD=3.411e-09\RMSF=2.208e-05\Dipole=0.
 ,0.,1.1380475\Quadrupole=-1.7071942,-1.7071942,3.4143884,0.,0.,0.\PG=C
 03V [C3(Sn1),3SGV(F1)]\\@
 The archive entry for this job was punched.


 IBM COMPATIBILITY IS LIKE PREGNANCY. YOU ARE OR
 OR YOU ARE NOT. -- ADAM OSBORNE
 Job cpu time:       0 days  0 hours 16 minutes  2.9 seconds.
 Elapsed time:       0 days  0 hours  2 minutes  5.7 seconds.
 File lengths (MBytes):  RWF=     56 Int=      0 D2E=      0 Chk=      7 Scr=      1
 Normal termination of Gaussian 16 at Fri Jul 30 20:11:12 2021.
 Link1:  Proceeding to internal job step number  2.
 ----------------------------------------------------------------------
 #N Geom=AllCheck Guess=TCheck SCRF=Check GenChk UPBEPBE/def2QZVPP Freq
 ----------------------------------------------------------------------
 1/10=4,29=7,30=1,38=1,40=1/1,3;
 2/12=2,40=1/2;
 3/5=45,7=202,11=2,14=-4,25=1,30=1,70=2,71=2,74=1009,75=-5,116=2,140=1/1,2,3;
 4/5=101/1;
 5/5=2,32=2,38=6,98=1/2;
 8/6=4,10=90,11=11/1;
 11/6=1,8=1,9=11,15=111,16=1/1,2,10;
 10/6=1/2;
 6/7=2,8=2,9=2,10=2,28=1/1;
 7/8=1,10=1,25=1/1,2,3,16;
 1/10=4,30=1/3;
 99//99;
 Structure from the checkpoint file:  "/data/hutter/SMG16/PBE/Gau-18954.chk"
 ---------
 Mol job 1
 ---------
 Charge =  0 Multiplicity = 2
 Redundant internal coordinates found in file.  (old form).
 Sn,0,8.9530907212,8.5,8.8679537576
 F,0,9.8493918963,6.9475608257,8.1246171918
 F,0,9.8493918963,10.0524391743,8.1246171918
 F,0,7.1604883708,8.5,8.1246171918
 Recover connectivity data from disk.

 GradGradGradGradGradGradGradGradGradGradGradGradGradGradGradGradGradGrad
 Berny optimization.
 Initialization pass.
                           ----------------------------
                           !    Initial Parameters    !
                           ! (Angstroms and Degrees)  !
 --------------------------                            --------------------------
 ! Name  Definition              Value          Derivative Info.                !
 --------------------------------------------------------------------------------
 ! R1    R(1,2)                  1.9406         calculate D2E/DX2 analytically  !
 ! R2    R(1,3)                  1.9406         calculate D2E/DX2 analytically  !
 ! R3    R(1,4)                  1.9406         calculate D2E/DX2 analytically  !
 ! A1    A(2,1,3)              106.2553         calculate D2E/DX2 analytically  !
 ! A2    A(2,1,4)              106.2553         calculate D2E/DX2 analytically  !
 ! A3    A(3,1,4)              106.2553         calculate D2E/DX2 analytically  !
 ! D1    D(2,1,4,3)           -112.8755         calculate D2E/DX2 analytically  !
 --------------------------------------------------------------------------------
 Trust Radius=3.00D-01 FncErr=1.00D-07 GrdErr=1.00D-07 EigMax=2.50D+02 EigMin=1.00D-04
 Number of steps in this run=      2 maximum allowed number of steps=      2.
 GradGradGradGradGradGradGradGradGradGradGradGradGradGradGradGradGradGrad

                          Input orientation:                          
 ---------------------------------------------------------------------
 Center     Atomic      Atomic             Coordinates (Angstroms)
 Number     Number       Type             X           Y           Z
 ---------------------------------------------------------------------
      1         50           0        8.953091    8.500000    8.867954
      2          9           0        9.849392    6.947561    8.124617
      3          9           0        9.849392   10.052439    8.124617
      4          9           0        7.160488    8.500000    8.124617
 ---------------------------------------------------------------------
                    Distance matrix (angstroms):
                    1          2          3          4
     1  Sn   0.000000
     2  F    1.940611   0.000000
     3  F    1.940611   3.104878   0.000000
     4  F    1.940611   3.104878   3.104878   0.000000
 Stoichiometry    F3Sn(2)
 Framework group  C3V[C3(Sn),3SGV(F)]
 Deg. of freedom     2
 Full point group                 C3V     NOp   6
 Largest Abelian subgroup         CS      NOp   2
 Largest concise Abelian subgroup CS      NOp   2
                         Standard orientation:                         
 ---------------------------------------------------------------------
 Center     Atomic      Atomic             Coordinates (Angstroms)
 Number     Number       Type             X           Y           Z
 ---------------------------------------------------------------------
      1         50           0        0.000000    0.000000    0.260650
      2          9           0        0.000000    1.792602   -0.482686
      3          9           0       -1.552439   -0.896301   -0.482686
      4          9           0        1.552439   -0.896301   -0.482686
 ---------------------------------------------------------------------
 Rotational constants (GHZ):           4.4801222           4.4801222           2.7593762
 Standard basis: def2QZVPP (5D, 7F)
 There are   188 symmetry adapted cartesian basis functions of A'  symmetry.
 There are   132 symmetry adapted cartesian basis functions of A"  symmetry.
 There are   146 symmetry adapted basis functions of A'  symmetry.
 There are   107 symmetry adapted basis functions of A"  symmetry.
   253 basis functions,   456 primitive gaussians,   320 cartesian basis functions
    25 alpha electrons       24 beta electrons
       nuclear repulsion energy       203.3908720288 Hartrees.
 NAtoms=    4 NActive=    4 NUniq=    2 SFac= 4.00D+00 NAtFMM=   60 NAOKFM=F Big=F
 Integral buffers will be    131072 words long.
 Raffenetti 2 integral format.
 Two-electron integral symmetry is turned on.
 One-electron integrals computed using PRISM.
   6 Symmetry operations used in ECPInt.
 ECPInt:  NShTT=    2701 NPrTT=    9253 LenC2=    2561 LenP2D=    7207.
 LDataN:  DoStor=T MaxTD1= 8 Len=  415
 NBasis=   253 RedAO= T EigKep=  9.07D-04  NBF=   146   107
 NBsUse=   253 1.00D-06 EigRej= -1.00D+00 NBFU=   146   107
 Defaulting to unpruned grid for atomic number  50.
 Initial guess from the checkpoint file:  "/data/hutter/SMG16/PBE/Gau-18954.chk"
 B after Tr=    -0.000000    0.000000    0.000000
         Rot=    1.000000   -0.000000    0.000000    0.000000 Ang=   0.00 deg.
 Initial guess orbital symmetries:
 Alpha Orbitals:
       Occupied  (E) (E) (A1) (A1) (A1) (E) (E) (E) (E) (A1) (E)
                 (E) (A1) (E) (E) (A1) (E) (E) (A1) (E) (E) (E)
                 (E) (A2) (A1)
       Virtual   (A1) (E) (E) (A1) (A1) (E) (E) (A1) (E) (E) (E)
                 (E) (A1) (E) (E) (A1) (E) (E) (E) (E) (A2) (A1)
                 (E) (E) (A1) (E) (E) (A1) (A1) (A2) (E) (E) (E)
                 (E) (A1) (E) (E) (E) (E) (A2) (A1) (E) (E) (A1)
                 (E) (E) (A1) (E) (E) (E) (E) (A2) (A1) (E) (E)
                 (A1) (E) (E) (A1) (A2) (E) (E) (A1) (E) (E) (A2)
                 (E) (E) (E) (E) (A1) (E) (E) (A1) (E) (E) (A1)
                 (E) (E) (A1) (E) (E) (A1) (E) (E) (A2) (A1) (E)
                 (E) (A1) (E) (E) (A2) (E) (E) (A1) (E) (E) (A1)
                 (A2) (E) (E) (E) (E) (A1) (A2) (A1) (E) (E) (E)
                 (E) (A1) (E) (E) (E) (E) (E) (E) (A2) (A1) (A2)
                 (E) (E) (A1) (E) (E) (E) (E) (A1) (E) (E) (A2)
                 (E) (E) (A1) (E) (E) (A2) (A1) (E) (E) (A1) (E)
                 (E) (A1) (E) (E) (A2) (E) (E) (A1) (A1) (E) (E)
                 (A2) (E) (E) (A2) (E) (E) (A1) (E) (E) (A1) (E)
                 (E) (E) (E) (A2) (E) (E) (A1) (E) (E) (E) (E)
                 (A2) (A1) (A1) (E) (E) (A2) (E) (E) (A1) (A2)
                 (A1) (E) (E) (E) (E) (A1) (E) (E) (E) (E) (E)
                 (E) (A1) (A2) (E) (E) (A1) (A2) (E) (E) (E) (E)
                 (A1) (A1) (E) (E) (E) (E) (A2) (E) (E) (A1) (A1)
                 (E) (E) (E) (E) (A1) (A1) (E) (E) (A1)
 Beta  Orbitals:
       Occupied  (E) (E) (A1) (A1) (A1) (E) (E) (E) (E) (A1) (E)
                 (E) (A1) (E) (E) (A1) (E) (E) (A1) (E) (E) (E)
                 (E) (A2)
       Virtual   (A1) (A1) (E) (E) (A1) (A1) (E) (E) (A1) (E) (E)
                 (E) (E) (A1) (E) (E) (A1) (E) (E) (A2) (E) (E)
                 (A1) (E) (E) (A1) (E) (E) (A1) (A1) (A2) (E) (E)
                 (E) (E) (A1) (E) (E) (E) (E) (A2) (A1) (E) (E)
                 (A1) (A1) (E) (E) (E) (E) (E) (E) (A2) (A1) (E)
                 (E) (A1) (A1) (E) (E) (A2) (E) (E) (E) (E) (A1)
                 (A2) (E) (E) (A1) (E) (E) (E) (E) (A1) (E) (E)
                 (A1) (E) (E) (A1) (E) (E) (A1) (E) (E) (A2) (A1)
                 (E) (E) (A1) (E) (E) (A2) (E) (E) (A1) (E) (E)
                 (A1) (A2) (E) (E) (E) (E) (A1) (A2) (A1) (E) (E)
                 (E) (E) (A1) (E) (E) (E) (E) (E) (E) (A2) (A1)
                 (A2) (E) (E) (A1) (E) (E) (E) (E) (A1) (E) (E)
                 (A2) (E) (E) (A1) (E) (E) (A2) (A1) (E) (E) (A1)
                 (E) (E) (A1) (E) (E) (A2) (E) (E) (A1) (A1) (A2)
                 (E) (E) (E) (E) (E) (E) (A2) (A1) (E) (E) (A1)
                 (E) (E) (E) (E) (A2) (A1) (E) (E) (E) (E) (E)
                 (E) (A2) (A1) (A1) (A2) (E) (E) (E) (E) (A1) (A2)
                 (A1) (E) (E) (E) (E) (E) (E) (A1) (E) (E) (E)
                 (E) (A1) (A2) (E) (E) (A1) (A2) (E) (E) (E) (E)
                 (A1) (A1) (E) (E) (E) (E) (A2) (E) (E) (A1) (A1)
                 (E) (E) (E) (E) (A1) (A1) (E) (E) (A1)
 Initial guess <Sx>= 0.0000 <Sy>= 0.0000 <Sz>= 0.5000 <S**2>= 0.7516 S= 0.5008
 Keep J ints in memory in symmetry-blocked form, NReq=774599017.
 Requested convergence on RMS density matrix=1.00D-08 within 128 cycles.
 Requested convergence on MAX density matrix=1.00D-06.
 Requested convergence on             energy=1.00D-06.
 No special actions if energy rises.
 Defaulting to unpruned grid for atomic number  50.
 Defaulting to unpruned grid for atomic number  50.
 Defaulting to unpruned grid for atomic number  50.
 Defaulting to unpruned grid for atomic number  50.
 Defaulting to unpruned grid for atomic number  50.
 Defaulting to unpruned grid for atomic number  50.
 Defaulting to unpruned grid for atomic number  50.
 Defaulting to unpruned grid for atomic number  50.
 SCF Done:  E(UPBE-PBE) =  -513.785651315     A.U. after    1 cycles
            NFock=  1  Conv=0.77D-09     -V/T= 2.3481
 <Sx>= 0.0000 <Sy>= 0.0000 <Sz>= 0.5000 <S**2>= 0.7516 S= 0.5008
 <L.S>=  0.00000000000    
 Annihilation of the first spin contaminant:
 S**2 before annihilation     0.7516,   after     0.7500
 DoSCS=F DFT=T ScalE2(SS,OS)=  1.000000  1.000000
 Range of M.O.s used for correlation:     1   253
 NBasis=   253 NAE=    25 NBE=    24 NFC=     0 NFV=     0
 NROrb=    253 NOA=    25 NOB=    24 NVA=   228 NVB=   229

 **** Warning!!: The largest alpha MO coefficient is  0.12223263D+02


 **** Warning!!: The largest beta MO coefficient is  0.12230801D+02

   6 Symmetry operations used in ECPInt.
 ECPInt:  NShTT=    2701 NPrTT=    9253 LenC2=    2561 LenP2D=    7207.
 LDataN:  DoStor=T MaxTD1= 9 Len=  602
 Symmetrizing basis deriv contribution to polar:
 IMax=3 JMax=2 DiffMx= 0.00D+00
 G2DrvN: will do     5 centers at a time, making    1 passes.
 Calling FoFCou, ICntrl=  3507 FMM=F I1Cent=   0 AccDes= 0.00D+00.
 Defaulting to unpruned grid for atomic number  50.
 Defaulting to unpruned grid for atomic number  50.
 Defaulting to unpruned grid for atomic number  50.
 Defaulting to unpruned grid for atomic number  50.
 Defaulting to unpruned grid for atomic number  50.
 Defaulting to unpruned grid for atomic number  50.
 Defaulting to unpruned grid for atomic number  50.
 Defaulting to unpruned grid for atomic number  50.
 End of G2Drv F.D. properties file   721 does not exist.
 End of G2Drv F.D. properties file   722 does not exist.
 End of G2Drv F.D. properties file   788 does not exist.
          IDoAtm=1111
          Differentiating once with respect to electric field.
                with respect to dipole field.
          Differentiating once with respect to nuclear coordinates.
 Defaulting to unpruned grid for atomic number  50.
 Keep J ints in memory in symmetry-blocked form, NReq=774601803.
 Defaulting to unpruned grid for atomic number  50.
 Defaulting to unpruned grid for atomic number  50.
 Defaulting to unpruned grid for atomic number  50.
 Defaulting to unpruned grid for atomic number  50.
 Defaulting to unpruned grid for atomic number  50.
 Defaulting to unpruned grid for atomic number  50.
 Defaulting to unpruned grid for atomic number  50.
 Defaulting to unpruned grid for atomic number  50.
          There are     9 degrees of freedom in the 1st order CPHF.  IDoFFX=4 NUNeed=     9.
      9 vectors produced by pass  0 Test12= 1.24D-13 1.11D-08 XBig12= 1.54D+02 6.15D+00.
 AX will form     9 AO Fock derivatives at one time.
      9 vectors produced by pass  1 Test12= 1.24D-13 1.11D-08 XBig12= 6.22D+01 1.93D+00.
      9 vectors produced by pass  2 Test12= 1.24D-13 1.11D-08 XBig12= 1.22D+00 3.14D-01.
      9 vectors produced by pass  3 Test12= 1.24D-13 1.11D-08 XBig12= 1.63D-01 9.47D-02.
      9 vectors produced by pass  4 Test12= 1.24D-13 1.11D-08 XBig12= 1.68D-02 3.31D-02.
      9 vectors produced by pass  5 Test12= 1.24D-13 1.11D-08 XBig12= 2.48D-04 2.97D-03.
      9 vectors produced by pass  6 Test12= 1.24D-13 1.11D-08 XBig12= 5.03D-06 4.88D-04.
      8 vectors produced by pass  7 Test12= 1.24D-13 1.11D-08 XBig12= 3.02D-08 4.43D-05.
      6 vectors produced by pass  8 Test12= 1.24D-13 1.11D-08 XBig12= 2.82D-10 5.76D-06.
      3 vectors produced by pass  9 Test12= 1.24D-13 1.11D-08 XBig12= 2.85D-12 2.41D-07.
      2 vectors produced by pass 10 Test12= 1.24D-13 1.11D-08 XBig12= 3.49D-14 6.96D-08.
 InvSVY:  IOpt=1 It=  1 EMax= 7.11D-15
 Solved reduced A of dimension    82 with     9 vectors.
 Isotropic polarizability for W=    0.000000       39.63 Bohr**3.
 End of Minotr F.D. properties file   721 does not exist.
 End of Minotr F.D. properties file   722 does not exist.
 End of Minotr F.D. properties file   788 does not exist.

 **********************************************************************

            Population analysis using the SCF Density.

 **********************************************************************

 Orbital symmetries:
 Alpha Orbitals:
       Occupied  (E) (E) (A1) (A1) (A1) (E) (E) (E) (E) (A1) (E)
                 (E) (A1) (E) (E) (A1) (E) (E) (A1) (E) (E) (E)
                 (E) (A2) (A1)
       Virtual   (A1) (E) (E) (A1) (A1) (E) (E) (A1) (E) (E) (E)
                 (E) (A1) (E) (E) (A1) (E) (E) (E) (E) (A2) (A1)
                 (E) (E) (A1) (E) (E) (A1) (A1) (A2) (E) (E) (E)
                 (E) (A1) (E) (E) (E) (E) (A2) (A1) (E) (E) (A1)
                 (E) (E) (A1) (E) (E) (E) (E) (A2) (A1) (E) (E)
                 (A1) (E) (E) (A1) (A2) (E) (E) (A1) (E) (E) (A2)
                 (E) (E) (E) (E) (A1) (E) (E) (A1) (E) (E) (A1)
                 (E) (E) (A1) (E) (E) (A1) (E) (E) (A2) (A1) (E)
                 (E) (A1) (E) (E) (A2) (E) (E) (A1) (E) (E) (A1)
                 (A2) (E) (E) (E) (E) (A1) (A2) (A1) (E) (E) (E)
                 (E) (A1) (E) (E) (E) (E) (E) (E) (A2) (A1) (A2)
                 (E) (E) (A1) (E) (E) (E) (E) (A1) (E) (E) (A2)
                 (E) (E) (A1) (E) (E) (A2) (A1) (E) (E) (A1) (E)
                 (E) (A1) (E) (E) (A2) (E) (E) (A1) (A1) (E) (E)
                 (A2) (E) (E) (A2) (E) (E) (A1) (E) (E) (A1) (E)
                 (E) (E) (E) (A2) (E) (E) (A1) (E) (E) (E) (E)
                 (A2) (A1) (A1) (E) (E) (A2) (E) (E) (A1) (A2)
                 (A1) (E) (E) (E) (E) (A1) (E) (E) (E) (E) (E)
                 (E) (A1) (A2) (E) (E) (A1) (A2) (E) (E) (E) (E)
                 (A1) (A1) (E) (E) (E) (E) (A2) (E) (E) (A1) (A1)
                 (E) (E) (E) (E) (A1) (A1) (E) (E) (A1)
 Beta  Orbitals:
       Occupied  (E) (E) (A1) (A1) (A1) (E) (E) (E) (E) (A1) (E)
                 (E) (A1) (E) (E) (A1) (E) (E) (A1) (E) (E) (E)
                 (E) (A2)
       Virtual   (A1) (A1) (E) (E) (A1) (A1) (E) (E) (A1) (E) (E)
                 (E) (E) (A1) (E) (E) (A1) (E) (E) (A2) (E) (E)
                 (A1) (E) (E) (A1) (E) (E) (A1) (A1) (A2) (E) (E)
                 (E) (E) (A1) (E) (E) (E) (E) (A2) (A1) (E) (E)
                 (A1) (A1) (E) (E) (E) (E) (E) (E) (A2) (A1) (E)
                 (E) (A1) (A1) (E) (E) (A2) (E) (E) (E) (E) (A1)
                 (A2) (E) (E) (A1) (E) (E) (E) (E) (A1) (E) (E)
                 (A1) (E) (E) (A1) (E) (E) (A1) (E) (E) (A2) (A1)
                 (E) (E) (A1) (E) (E) (A2) (E) (E) (A1) (E) (E)
                 (A1) (A2) (E) (E) (E) (E) (A1) (A2) (A1) (E) (E)
                 (E) (E) (A1) (E) (E) (E) (E) (E) (E) (A2) (A1)
                 (A2) (E) (E) (A1) (E) (E) (E) (E) (A1) (E) (E)
                 (A2) (E) (E) (A1) (E) (E) (A2) (A1) (E) (E) (A1)
                 (E) (E) (A1) (E) (E) (A2) (E) (E) (A1) (A1) (A2)
                 (E) (E) (E) (E) (E) (E) (A2) (A1) (E) (E) (A1)
                 (E) (E) (E) (E) (A2) (A1) (E) (E) (E) (E) (E)
                 (E) (A2) (A1) (A1) (A2) (E) (E) (E) (E) (A1) (A2)
                 (A1) (E) (E) (E) (E) (E) (E) (A1) (E) (E) (E)
                 (E) (A1) (A2) (E) (E) (A1) (A2) (E) (E) (E) (E)
                 (A1) (A1) (E) (E) (E) (E) (A2) (E) (E) (A1) (A1)
                 (E) (E) (E) (E) (A1) (A1) (E) (E) (A1)
 The electronic state is 2-A1.
 Alpha  occ. eigenvalues --  -24.25424 -24.25424 -24.25424  -4.96411  -3.34796
 Alpha  occ. eigenvalues --   -3.34371  -3.34371  -1.08796  -1.08796  -1.07533
 Alpha  occ. eigenvalues --   -1.00862  -1.00862  -1.00507  -0.97977  -0.97977
 Alpha  occ. eigenvalues --   -0.50399  -0.41142  -0.41142  -0.37907  -0.36246
 Alpha  occ. eigenvalues --   -0.36246  -0.35639  -0.35639  -0.35264  -0.27784
 Alpha virt. eigenvalues --   -0.06421  -0.05585  -0.05585   0.02744   0.06730
 Alpha virt. eigenvalues --    0.06839   0.06839   0.11766   0.13668   0.13668
 Alpha virt. eigenvalues --    0.15923   0.15923   0.30440   0.32709   0.32709
 Alpha virt. eigenvalues --    0.34990   0.35743   0.35743   0.37953   0.37953
 Alpha virt. eigenvalues --    0.38214   0.39425   0.44813   0.44813   0.45259
 Alpha virt. eigenvalues --    0.49644   0.49644   0.50283   0.52282   0.53301
 Alpha virt. eigenvalues --    0.53395   0.53395   0.55922   0.55922   0.67661
 Alpha virt. eigenvalues --    0.72614   0.72614   1.04046   1.04046   1.04335
 Alpha virt. eigenvalues --    1.07185   1.07371   1.07371   1.08638   1.10867
 Alpha virt. eigenvalues --    1.10867   1.10950   1.18090   1.18090   1.29258
 Alpha virt. eigenvalues --    1.29258   1.31622   1.35078   1.38838   1.38838
 Alpha virt. eigenvalues --    1.38967   1.47041   1.47041   1.47578   1.49587
 Alpha virt. eigenvalues --    1.55968   1.55968   1.58330   1.58365   1.58365
 Alpha virt. eigenvalues --    1.64751   1.65119   1.65119   1.66467   1.66467
 Alpha virt. eigenvalues --    1.66679   1.69843   1.69843   1.71212   1.72534
 Alpha virt. eigenvalues --    1.72534   1.87180   1.93364   1.93364   2.04395
 Alpha virt. eigenvalues --    2.05254   2.05254   2.11824   2.21167   2.21167
 Alpha virt. eigenvalues --    2.23943   2.50889   2.56358   2.56358   2.72595
 Alpha virt. eigenvalues --    2.79633   2.79633   2.83683   3.19216   3.19216
 Alpha virt. eigenvalues --    3.46801   3.93551   3.93551   3.95125   4.04073
 Alpha virt. eigenvalues --    4.04358   4.04358   4.05471   4.05471   4.07082
 Alpha virt. eigenvalues --    4.08482   4.09525   4.14233   4.14233   4.14582
 Alpha virt. eigenvalues --    4.14582   4.24732   4.26780   4.26780   4.36546
 Alpha virt. eigenvalues --    4.36546   4.42890   4.42890   4.45285   4.76247
 Alpha virt. eigenvalues --    4.86482   4.88356   4.88356   4.95180   4.96263
 Alpha virt. eigenvalues --    4.96263   5.24092   5.24092   5.24347   5.33106
 Alpha virt. eigenvalues --    5.33106   5.41354   5.41963   5.41963   5.57399
 Alpha virt. eigenvalues --    6.12086   6.12086   6.13277   6.14937   6.17204
 Alpha virt. eigenvalues --    6.17204   6.83273   6.92438   6.92438   8.83853
 Alpha virt. eigenvalues --    8.91865   8.91865   9.00579   9.02691   9.02691
 Alpha virt. eigenvalues --    9.35256  11.22216  11.22356  11.22356  11.22555
 Alpha virt. eigenvalues --   11.22599  11.22599  11.22967  11.23031  11.23031
 Alpha virt. eigenvalues --   11.23081  11.23462  11.23462  11.23589  11.24064
 Alpha virt. eigenvalues --   11.24064  11.24656  11.24656  11.24691  11.24699
 Alpha virt. eigenvalues --   11.24699  11.24742  11.25073  11.25073  11.26625
 Alpha virt. eigenvalues --   11.26625  11.28247  11.31514  12.05031  14.35865
 Alpha virt. eigenvalues --   14.35865  14.35954  14.36400  14.36400  14.36859
 Alpha virt. eigenvalues --   14.37197  14.38462  14.39893  14.39893  14.40603
 Alpha virt. eigenvalues --   14.40603  14.47408  14.47416  14.47416  14.53296
 Alpha virt. eigenvalues --   14.53296  14.57159  14.57159  14.59392  14.61934
 Alpha virt. eigenvalues --   14.82067  14.82067  15.07480  15.55903  15.56878
 Alpha virt. eigenvalues --   15.56878  15.61331  15.61331  15.61889  15.81957
 Alpha virt. eigenvalues --   15.82932  15.82932  15.86252  15.86252  15.90736
 Alpha virt. eigenvalues --   16.11464  16.11464  16.17335  34.37169  34.42736
 Alpha virt. eigenvalues --   34.42736  53.60773  53.60773  53.68557  72.30889
 Alpha virt. eigenvalues --  283.96197 283.96197 284.05895
  Beta  occ. eigenvalues --  -24.25016 -24.25016 -24.25016  -4.96252  -3.34463
  Beta  occ. eigenvalues --   -3.34261  -3.34261  -1.08077  -1.08077  -1.06695
  Beta  occ. eigenvalues --   -1.00462  -1.00462  -0.99933  -0.97435  -0.97435
  Beta  occ. eigenvalues --   -0.49022  -0.39793  -0.39793  -0.37181  -0.35668
  Beta  occ. eigenvalues --   -0.35668  -0.35276  -0.35276  -0.34910
  Beta virt. eigenvalues --   -0.24221  -0.05037  -0.03691  -0.03691   0.04311
  Beta virt. eigenvalues --    0.07309   0.07760   0.07760   0.13128   0.14613
  Beta virt. eigenvalues --    0.14613   0.16753   0.16753   0.30996   0.33471
  Beta virt. eigenvalues --    0.33471   0.36396   0.36435   0.36435   0.38315
  Beta virt. eigenvalues --    0.38735   0.38735   0.40171   0.45697   0.45697
  Beta virt. eigenvalues --    0.47794   0.50259   0.50259   0.51404   0.53382
  Beta virt. eigenvalues --    0.54002   0.55180   0.55180   0.57964   0.57964
  Beta virt. eigenvalues --    0.68938   0.73472   0.73472   1.04607   1.04607
  Beta virt. eigenvalues --    1.04635   1.08596   1.08659   1.08659   1.09499
  Beta virt. eigenvalues --    1.11626   1.11854   1.11854   1.18786   1.18786
  Beta virt. eigenvalues --    1.30512   1.30512   1.32231   1.37108   1.40003
  Beta virt. eigenvalues --    1.40003   1.40835   1.47932   1.48112   1.48112
  Beta virt. eigenvalues --    1.50786   1.57188   1.57188   1.59351   1.59351
  Beta virt. eigenvalues --    1.59623   1.65054   1.65732   1.65732   1.67427
  Beta virt. eigenvalues --    1.67860   1.67860   1.70440   1.70440   1.72110
  Beta virt. eigenvalues --    1.73113   1.73113   1.89076   1.94301   1.94301
  Beta virt. eigenvalues --    2.05431   2.06630   2.06630   2.13684   2.22534
  Beta virt. eigenvalues --    2.22534   2.25183   2.51894   2.57262   2.57262
  Beta virt. eigenvalues --    2.73245   2.80447   2.80447   2.83862   3.20023
  Beta virt. eigenvalues --    3.20023   3.47369   3.94240   3.94240   3.95862
  Beta virt. eigenvalues --    4.04107   4.04507   4.04507   4.05632   4.05632
  Beta virt. eigenvalues --    4.07297   4.09121   4.09944   4.14679   4.14679
  Beta virt. eigenvalues --    4.15119   4.15119   4.25650   4.27559   4.27559
  Beta virt. eigenvalues --    4.37570   4.37570   4.43636   4.43636   4.46029
  Beta virt. eigenvalues --    4.77177   4.86811   4.88727   4.88727   4.95507
  Beta virt. eigenvalues --    4.96719   4.96719   5.24986   5.24986   5.25526
  Beta virt. eigenvalues --    5.34127   5.34127   5.42264   5.43310   5.43310
  Beta virt. eigenvalues --    5.58853   6.12645   6.12645   6.13579   6.15482
  Beta virt. eigenvalues --    6.17553   6.17553   6.84468   6.93663   6.93663
  Beta virt. eigenvalues --    8.84341   8.92429   8.92429   9.00792   9.03146
  Beta virt. eigenvalues --    9.03146   9.35729  11.23091  11.23192  11.23253
  Beta virt. eigenvalues --   11.23253  11.23464  11.23464  11.23851  11.23851
  Beta virt. eigenvalues --   11.23922  11.23948  11.24240  11.24240  11.24638
  Beta virt. eigenvalues --   11.24847  11.24847  11.24863  11.24863  11.24870
  Beta virt. eigenvalues --   11.24928  11.25182  11.25182  11.26196  11.26196
  Beta virt. eigenvalues --   11.27625  11.27625  11.29289  11.32686  12.05688
  Beta virt. eigenvalues --   14.36110  14.36286  14.36286  14.36817  14.36817
  Beta virt. eigenvalues --   14.37350  14.38614  14.39455  14.40774  14.40774
  Beta virt. eigenvalues --   14.41902  14.41902  14.49048  14.49048  14.49240
  Beta virt. eigenvalues --   14.55380  14.55380  14.58748  14.58748  14.61344
  Beta virt. eigenvalues --   14.63469  14.83178  14.83178  15.08554  15.56277
  Beta virt. eigenvalues --   15.57429  15.57429  15.62015  15.62015  15.62295
  Beta virt. eigenvalues --   15.83881  15.84392  15.84392  15.87892  15.87892
  Beta virt. eigenvalues --   15.92361  16.13447  16.13447  16.19344  34.37707
  Beta virt. eigenvalues --   34.42816  34.42816  53.61501  53.61501  53.69287
  Beta virt. eigenvalues --   72.31110 283.96477 283.96477 284.06175
          Condensed to atoms (all electrons):
               1          2          3          4
     1  Sn  19.975365   0.244184   0.244184   0.244184
     2  F    0.244184   9.202309  -0.007900  -0.007900
     3  F    0.244184  -0.007900   9.202309  -0.007900
     4  F    0.244184  -0.007900  -0.007900   9.202309
          Atomic-Atomic Spin Densities.
               1          2          3          4
     1  Sn   0.806834  -0.052557  -0.052557  -0.052557
     2  F   -0.052557   0.164503   0.002500   0.002500
     3  F   -0.052557   0.002500   0.164503   0.002500
     4  F   -0.052557   0.002500   0.002500   0.164503
 Mulliken charges and spin densities:
               1          2
     1  Sn   1.292083   0.649163
     2  F   -0.430694   0.116946
     3  F   -0.430694   0.116946
     4  F   -0.430694   0.116946
 Sum of Mulliken charges =  -0.00000   1.00000
 Mulliken charges and spin densities with hydrogens summed into heavy atoms:
               1          2
     1  Sn   1.292083   0.649163
     2  F   -0.430694   0.116946
     3  F   -0.430694   0.116946
     4  F   -0.430694   0.116946
 APT charges:
               1
     1  Sn   1.643327
     2  F   -0.547763
     3  F   -0.547773
     4  F   -0.547773
 Sum of APT charges =   0.00002
 APT charges with hydrogens summed into heavy atoms:
               1
     1  Sn   1.643327
     2  F   -0.547763
     3  F   -0.547773
     4  F   -0.547773
 Electronic spatial extent (au):  <R**2>=            428.5283
 Charge=              0.0000 electrons
 Dipole moment (field-independent basis, Debye):
    X=              0.0000    Y=             -0.0000    Z=              2.8926  Tot=              2.8926
 Quadrupole moment (field-independent basis, Debye-Ang):
   XX=            -43.0473   YY=            -43.0473   ZZ=            -36.1586
   XY=              0.0000   XZ=             -0.0000   YZ=             -0.0000
 Traceless Quadrupole moment (field-independent basis, Debye-Ang):
   XX=             -2.2962   YY=             -2.2962   ZZ=              4.5925
   XY=              0.0000   XZ=             -0.0000   YZ=             -0.0000
 Octapole moment (field-independent basis, Debye-Ang**2):
  XXX=              0.0000  YYY=             -6.9030  ZZZ=              6.0306  XYY=             -0.0000
  XXY=              6.9030  XXZ=              5.5654  XZZ=              0.0000  YZZ=              0.0000
  YYZ=              5.5654  XYZ=             -0.0000
 Hexadecapole moment (field-independent basis, Debye-Ang**3):
 XXXX=           -202.9328 YYYY=           -202.9328 ZZZZ=            -67.1712 XXXY=              0.0000
 XXXZ=             -0.0000 YYYX=              0.0000 YYYZ=              1.8696 ZZZX=             -0.0000
 ZZZY=              0.0000 XXYY=            -67.6443 XXZZ=            -43.0378 YYZZ=            -43.0378
 XXYZ=             -1.8696 YYXZ=             -0.0000 ZZXY=              0.0000
 N-N= 2.033908720288D+02 E-N=-1.581557830971D+03  KE= 3.811147882292D+02
 Symmetry A'   KE= 2.458013981214D+02
 Symmetry A"   KE= 1.353133901078D+02
 Symmetry A'   SP= 9.999999999999D-01
 Symmetry A"   SP=-5.636670723579D-14
  Exact polarizability:      42.225       0.000      42.226       0.000       0.001      34.430
 Approx polarizability:      77.310      -0.000      77.310       0.000       0.000      57.780
                          Isotropic Fermi Contact Couplings
        Atom                 a.u.       MegaHertz       Gauss      10(-4) cm-1
     1  Sn(117             0.00166      -2.65375      -0.94692      -0.88520
     2  F(19)              0.03815     160.53419      57.28259      53.54844
     3  F(19)              0.03815     160.53419      57.28259      53.54844
     4  F(19)              0.03815     160.53419      57.28259      53.54844
 --------------------------------------------------------
       Center         ----  Spin Dipole Couplings  ----
                      3XX-RR        3YY-RR        3ZZ-RR
 --------------------------------------------------------
     1   Atom       -0.063884     -0.063884      0.127767
     2   Atom       -0.498896      0.213650      0.285246
     3   Atom        0.035513     -0.320760      0.285246
     4   Atom        0.035513     -0.320760      0.285246
 --------------------------------------------------------
                        XY            XZ            YZ
 --------------------------------------------------------
     1   Atom        0.000000      0.000000      0.000000
     2   Atom       -0.000000     -0.000000     -0.753468
     3   Atom        0.308541      0.652523      0.376734
     4   Atom       -0.308541     -0.652523      0.376734
 --------------------------------------------------------


 ---------------------------------------------------------------------------------
              Anisotropic Spin Dipole Couplings in Principal Axis System
 ---------------------------------------------------------------------------------

       Atom             a.u.   MegaHertz   Gauss  10(-4) cm-1        Axes

              Baa    -0.0639    12.217     4.359     4.075 -0.1259  0.9920 -0.0000
     1 Sn(117 Bbb    -0.0639    12.217     4.359     4.075  0.9920  0.1259 -0.0000
              Bcc     0.1278   -24.435    -8.719    -8.151  0.0000  0.0000  1.0000
 
              Baa    -0.5049  -253.559   -90.476   -84.578  0.0000  0.7237  0.6901
     2 F(19)  Bbb    -0.4989  -250.558   -89.405   -83.577  1.0000 -0.0000 -0.0000
              Bcc     1.0038   504.117   179.881   168.155  0.0000 -0.6901  0.7237
 
              Baa    -0.5049  -253.559   -90.476   -84.578 -0.6267 -0.3618  0.6901
     3 F(19)  Bbb    -0.4989  -250.558   -89.405   -83.577 -0.5000  0.8660  0.0000
              Bcc     1.0038   504.117   179.881   168.155  0.5977  0.3451  0.7237
 
              Baa    -0.5049  -253.559   -90.476   -84.578  0.6267 -0.3618  0.6901
     4 F(19)  Bbb    -0.4989  -250.558   -89.405   -83.577  0.5000  0.8660 -0.0000
              Bcc     1.0038   504.117   179.881   168.155 -0.5977  0.3451  0.7237
 

 ---------------------------------------------------------------------------------

   6 Symmetry operations used in ECPInt.
 ECPInt:  NShTT=    2701 NPrTT=    9253 LenC2=    2561 LenP2D=    7207.
 LDataN:  DoStor=T MaxTD1=10 Len=  848
 Calling FoFJK, ICntrl=    100527 FMM=F ISym2X=1 I1Cent= 0 IOpClX= 0 NMat=1 NMatS=1 NMatT=0.
 Defaulting to unpruned grid for atomic number  50.
 Defaulting to unpruned grid for atomic number  50.
 Defaulting to unpruned grid for atomic number  50.
 Defaulting to unpruned grid for atomic number  50.
 Defaulting to unpruned grid for atomic number  50.
 Defaulting to unpruned grid for atomic number  50.
 Defaulting to unpruned grid for atomic number  50.
 Defaulting to unpruned grid for atomic number  50.
 Full mass-weighted force constant matrix:
 Low frequencies ---  -18.4344  -18.4330  -10.6460    0.0010    0.0023    0.0057
 Low frequencies ---  138.2591  138.2593  162.3930
 Diagonal vibrational polarizability:
       18.9107423      18.9108032      27.2512312
 Harmonic frequencies (cm**-1), IR intensities (KM/Mole), Raman scattering
 activities (A**4/AMU), depolarization ratios for plane and unpolarized
 incident light, reduced masses (AMU), force constants (mDyne/A),
 and normal coordinates:
                      1                      2                      3
                      E                      E                     A1
 Frequencies --    138.2582               138.2584               162.3930
 Red. masses --     20.4974                20.4974                24.0169
 Frc consts  --      0.2309                 0.2309                 0.3732
 IR Inten    --      8.5019                 8.5018                24.7993
  Atom  AN      X      Y      Z        X      Y      Z        X      Y      Z
     1  50    -0.00  -0.12   0.00    -0.12   0.00  -0.00     0.00   0.00   0.23
     2   9     0.00  -0.24  -0.21     0.75   0.00   0.00    -0.00  -0.32  -0.47
     3   9    -0.43   0.50   0.11     0.01  -0.43   0.18     0.27   0.16  -0.47
     4   9     0.43   0.50   0.11     0.01   0.43  -0.18    -0.27   0.16  -0.47
                      4                      5                      6
                     A1                      E                      E
 Frequencies --    557.9906               574.9541               574.9542
 Red. masses --     20.3064                22.3192                22.3192
 Frc consts  --      3.7251                 4.3471                 4.3471
 IR Inten    --     22.4960                85.2681                85.2695
  Atom  AN      X      Y      Z        X      Y      Z        X      Y      Z
     1  50    -0.00   0.00   0.11     0.00  -0.18   0.00    -0.18  -0.00  -0.00
     2   9     0.00   0.52  -0.24    -0.00   0.74  -0.31     0.02   0.00  -0.00
     3   9    -0.45  -0.26  -0.24     0.31   0.20   0.16     0.56   0.31   0.27
     4   9     0.45  -0.26  -0.24    -0.31   0.20   0.16     0.56  -0.31  -0.27

 -------------------
 - Thermochemistry -
 -------------------
 Temperature   298.150 Kelvin.  Pressure   1.00000 Atm.
 Atom     1 has atomic number 50 and mass 117.90180
 Atom     2 has atomic number  9 and mass  18.99840
 Atom     3 has atomic number  9 and mass  18.99840
 Atom     4 has atomic number  9 and mass  18.99840
 Molecular mass:   174.89701 amu.
 Principal axes and moments of inertia in atomic units:
                           1         2         3
     Eigenvalues --   402.83303 402.83303 654.03955
           X            0.85168   0.52406  -0.00000
           Y           -0.52406   0.85168  -0.00000
           Z            0.00000   0.00000   1.00000
 This molecule is an oblate symmetric top.
 Rotational symmetry number  3.
 Rotational temperatures (Kelvin)      0.21501     0.21501     0.13243
 Rotational constants (GHZ):           4.48012     4.48012     2.75938
 Zero-point vibrational energy      12840.8 (Joules/Mol)
                                    3.06902 (Kcal/Mol)
 Warning -- explicit consideration of   6 degrees of freedom as
           vibrations may cause significant error
 Vibrational temperatures:    198.92   198.92   233.65   802.82   827.23
          (Kelvin)            827.23
 
 Zero-point correction=                           0.004891 (Hartree/Particle)
 Thermal correction to Energy=                    0.010207
 Thermal correction to Enthalpy=                  0.011151
 Thermal correction to Gibbs Free Energy=        -0.025168
 Sum of electronic and zero-point Energies=           -513.780761
 Sum of electronic and thermal Energies=              -513.775445
 Sum of electronic and thermal Enthalpies=            -513.774501
 Sum of electronic and thermal Free Energies=         -513.810819
 
                     E (Thermal)             CV                S
                      KCal/Mol        Cal/Mol-Kelvin    Cal/Mol-Kelvin
 Total                    6.405             14.973             76.438
 Electronic               0.000              0.000              1.377
 Translational            0.889              2.981             41.384
 Rotational               0.889              2.981             23.982
 Vibrational              4.627              9.012              9.695
 Vibration     1          0.614              1.915              2.828
 Vibration     2          0.614              1.915              2.828
 Vibration     3          0.623              1.889              2.522
 Vibration     4          0.914              1.122              0.528
 Vibration     5          0.931              1.085              0.495
 Vibration     6          0.931              1.085              0.495
                       Q            Log10(Q)             Ln(Q)
 Total Bot       0.376951D+12         11.576285         26.655380
 Total V=0       0.669715D+14         13.825890         31.835288
 Vib (Bot)       0.533305D-01         -1.273024         -2.931247
 Vib (Bot)    1  0.147138D+01          0.167725          0.386201
 Vib (Bot)    2  0.147138D+01          0.167724          0.386199
 Vib (Bot)    3  0.124399D+01          0.094818          0.218326
 Vib (Bot)    4  0.279084D+00         -0.554265         -1.276243
 Vib (Bot)    5  0.266371D+00         -0.574513         -1.322864
 Vib (Bot)    6  0.266371D+00         -0.574513         -1.322865
 Vib (V=0)       0.947504D+01          0.976581          2.248661
 Vib (V=0)    1  0.205401D+01          0.312603          0.719796
 Vib (V=0)    2  0.205401D+01          0.312603          0.719795
 Vib (V=0)    3  0.184071D+01          0.264987          0.610154
 Vib (V=0)    4  0.107261D+01          0.030444          0.070099
 Vib (V=0)    5  0.106653D+01          0.027972          0.064408
 Vib (V=0)    6  0.106653D+01          0.027972          0.064408
 Electronic      0.200000D+01          0.301030          0.693147
 Translational   0.909133D+08          7.958627         18.325417
 Rotational      0.388733D+05          4.589651         10.568063
 ***** Axes restored to original set *****
 -------------------------------------------------------------------
 Center     Atomic                   Forces (Hartrees/Bohr)
 Number     Number              X              Y              Z
 -------------------------------------------------------------------
      1       50           0.000000000    0.000000000    0.000061960
      2        9          -0.000007814    0.000013535   -0.000020653
      3        9          -0.000007814   -0.000013535   -0.000020653
      4        9           0.000015629   -0.000000000   -0.000020653
 -------------------------------------------------------------------
 Cartesian Forces:  Max     0.000061960 RMS     0.000022082
 FormGI is forming the generalized inverse of G from B-inverse, IUseBI=4.

 GradGradGradGradGradGradGradGradGradGradGradGradGradGradGradGradGradGrad
 Berny optimization.
 Internal  Forces:  Max     0.000062698 RMS     0.000038520
 Search for a local minimum.
 Step number   1 out of a maximum of    2
 All quantities printed in internal units (Hartrees-Bohrs-Radians)
 Second derivative matrix not updated -- analytic derivatives used.
 The second derivative matrix:
                          R1        R2        R3        A1        A2
           R1           0.19942
           R2           0.00378   0.19942
           R3           0.00378   0.00378   0.19942
           A1          -0.00240  -0.00240   0.00268   0.02422
           A2          -0.00534   0.00185  -0.00616  -0.01504   0.07495
           A3           0.00185  -0.00534  -0.00616  -0.01504   0.00550
           D1           0.00425   0.00425   0.00238  -0.01416  -0.01835
                          A3        D1
           A3           0.07495
           D1          -0.01835   0.03214
 ITU=  0
     Eigenvalues ---    0.04182   0.06904   0.09376   0.19601   0.19605
     Eigenvalues ---    0.20785
 Angle between quadratic step and forces=  21.79 degrees.
 Linear search not attempted -- first point.
 Iteration  1 RMS(Cart)=  0.00073750 RMS(Int)=  0.00000038
 Iteration  2 RMS(Cart)=  0.00000032 RMS(Int)=  0.00000023
 ClnCor:  largest displacement from symmetrization is 4.12D-07 for atom     4.
 Variable       Old X    -DE/DX   Delta X   Delta X   Delta X     New X
                                 (Linear)    (Quad)   (Total)
    R1        3.66722  -0.00001   0.00000  -0.00007  -0.00007   3.66715
    R2        3.66722  -0.00001   0.00000  -0.00007  -0.00007   3.66715
    R3        3.66722  -0.00001   0.00000  -0.00007  -0.00007   3.66715
    A1        1.85450  -0.00001   0.00000  -0.00055  -0.00055   1.85395
    A2        1.85450  -0.00006   0.00000  -0.00055  -0.00055   1.85395
    A3        1.85450  -0.00006   0.00000  -0.00055  -0.00055   1.85395
    D1       -1.97005   0.00006   0.00000   0.00110   0.00110  -1.96894
         Item               Value     Threshold  Converged?
 Maximum Force            0.000063     0.000450     YES
 RMS     Force            0.000039     0.000300     YES
 Maximum Displacement     0.001243     0.001800     YES
 RMS     Displacement     0.000738     0.001200     YES
 Predicted change in Energy=-6.924110D-08
 Optimization completed.
    -- Stationary point found.
                           ----------------------------
                           !   Optimized Parameters   !
                           ! (Angstroms and Degrees)  !
 --------------------------                            --------------------------
 ! Name  Definition              Value          Derivative Info.                !
 --------------------------------------------------------------------------------
 ! R1    R(1,2)                  1.9406         -DE/DX =    0.0                 !
 ! R2    R(1,3)                  1.9406         -DE/DX =    0.0                 !
 ! R3    R(1,4)                  1.9406         -DE/DX =    0.0                 !
 ! A1    A(2,1,3)              106.2553         -DE/DX =    0.0                 !
 ! A2    A(2,1,4)              106.2553         -DE/DX =   -0.0001              !
 ! A3    A(3,1,4)              106.2553         -DE/DX =   -0.0001              !
 ! D1    D(2,1,4,3)           -112.8755         -DE/DX =    0.0001              !
 --------------------------------------------------------------------------------
 GradGradGradGradGradGradGradGradGradGradGradGradGradGradGradGradGradGrad


 ----------------------------------------------------------------------

 Electric dipole moment (input orientation):
 (Debye = 10**-18 statcoulomb cm , SI units = C m)
                  (au)            (Debye)         (10**-30 SI)
   Tot        0.113805D+01      0.289263D+01      0.964876D+01
   x          0.000000D+00      0.000000D+00      0.000000D+00
   y          0.000000D+00      0.000000D+00      0.000000D+00
   z          0.113805D+01      0.289263D+01      0.964876D+01

 Dipole polarizability, Alpha (input orientation).
 (esu units = cm**3 , SI units = C**2 m**2 J**-1)
 Alpha(0;0):
               (au)            (10**-24 esu)      (10**-40 SI)
   iso        0.396274D+02      0.587217D+01      0.653367D+01
   aniso      0.779556D+01      0.115518D+01      0.128531D+01
   xx         0.422256D+02      0.625718D+01      0.696206D+01
   yx        -0.519741D-03     -0.770176D-04     -0.856936D-04
   yy         0.422262D+02      0.625727D+01      0.696216D+01
   zx         0.414289D-03      0.613912D-04      0.683070D-04
   zy        -0.717569D-03     -0.106333D-03     -0.118311D-03
   zz         0.344303D+02      0.510205D+01      0.567679D+01

 ----------------------------------------------------------------------

 Dipole orientation:
    50         16.91888943         16.06267206         16.75800389
     9         18.61265318         13.12898719         15.35330136
     9         18.61265318         18.99635692         15.35330136
     9         13.53136194         16.06267206         15.35330136

 Electric dipole moment (dipole orientation):
 (Debye = 10**-18 statcoulomb cm , SI units = C m)
                  (au)            (Debye)         (10**-30 SI)
   Tot        0.113805D+01      0.289263D+01      0.964876D+01
   x          0.000000D+00      0.000000D+00      0.000000D+00
   y          0.000000D+00      0.000000D+00      0.000000D+00
   z          0.113805D+01      0.289263D+01      0.964876D+01

 Dipole polarizability, Alpha (dipole orientation).
 (esu units = cm**3 , SI units = C**2 m**2 J**-1)
 Alpha(0;0):
               (au)            (10**-24 esu)      (10**-40 SI)
   iso        0.396274D+02      0.587217D+01      0.653367D+01
   aniso      0.779556D+01      0.115518D+01      0.128531D+01
   xx         0.422256D+02      0.625718D+01      0.696206D+01
   yx        -0.519741D-03     -0.770176D-04     -0.856936D-04
   yy         0.422262D+02      0.625727D+01      0.696216D+01
   zx         0.414289D-03      0.613912D-04      0.683070D-04
   zy        -0.717569D-03     -0.106333D-03     -0.118311D-03
   zz         0.344303D+02      0.510205D+01      0.567679D+01

 ----------------------------------------------------------------------
 Unable to Open any file for archive entry.
 1\1\GINC-TCOPT10\Freq\UPBEPBE\def2QZVPP\F3Sn1(2)\HUTTER\30-Jul-2021\0\
 \#N Geom=AllCheck Guess=TCheck SCRF=Check GenChk UPBEPBE/def2QZVPP Fre
 q\\Mol job 1\\0,2\Sn,8.9530907212,8.5,8.8679537576\F,9.8493918963,6.94
 75608257,8.1246171918\F,9.8493918963,10.0524391743,8.1246171918\F,7.16
 04883708,8.5,8.1246171918\\Version=ES64L-G16RevC.01\State=2-A1\HF=-513
 .7856513\S2=0.751607\S2-1=0.\S2A=0.750002\RMSD=7.704e-10\RMSF=2.208e-0
 5\ZeroPoint=0.0048908\Thermal=0.0102065\ETot=-513.7754448\HTot=-513.77
 45006\GTot=-513.8108189\Dipole=0.,0.,1.1380466\DipoleDeriv=1.8042828,0
 .0000081,0.0000063,0.0000081,1.8042734,-0.0000109,0.0000066,-0.0000115
 ,1.3214251,-0.4840146,0.2033479,0.0696927,0.2033479,-0.7188206,-0.1207
 114,0.137439,-0.2380514,-0.4404545,-0.4840141,-0.2033546,0.069695,-0.2
 033546,-0.7188338,0.1207163,0.1374382,0.2380547,-0.4404699,-0.8362391,
 0.0000026,-0.1393909,0.0000026,-0.3666087,0.0000005,-0.2748805,0.00000
 24,-0.4404699\Polar=42.2255751,-0.0005197,42.2261752,0.0004143,-0.0007
 176,34.4303118\Quadrupole=-1.7071937,-1.7071937,3.4143874,0.,0.,0.\PG=
 C03V [C3(Sn1),3SGV(F1)]\NImag=0\\0.26863081,0.00000030,0.26863046,-0.0
 0000006,0.00000010,0.13597960,-0.05064736,0.06737034,0.03569679,0.0477
 0657,0.06737034,-0.12843993,-0.06182865,-0.07026750,0.12884450,0.03731
 767,-0.06463611,-0.04532642,-0.03514374,0.06087075,0.03564451,-0.05064
 731,-0.06737037,0.03569676,0.00397923,-0.00006080,-0.00272695,0.047706
 57,-0.06737048,-0.12843983,0.06182860,0.00006080,-0.00271112,0.0009358
 8,0.07026750,0.12884450,0.03731787,0.06463619,-0.04532651,-0.00272695,
 -0.00093588,0.00484095,-0.03514374,-0.06087075,0.03564451,-0.16733620,
 -0.00000012,-0.07139351,-0.00103853,0.00295781,0.00055298,-0.00103853,
 -0.00295781,0.00055298,0.16941346,0.,-0.01175094,0.,0.00283621,0.00230
 664,0.00282954,-0.00283621,0.00230664,-0.00282954,0.,0.00713761,-0.074
 63552,-0.00000013,-0.04532651,0.00217397,0.00189367,0.00484095,0.00217
 397,-0.00189367,0.00484095,0.07028748,0.,0.03564451\\0.,0.,-0.00006196
 ,0.00000781,-0.00001353,0.00002065,0.00000781,0.00001353,0.00002065,-0
 .00001563,0.,0.00002065\\\@
 The archive entry for this job was punched.


 WE DON'T KNOW ONE MILLIONTH OF ONE PERCENT ABOUT
 ANYTHING.
                                     T. A. EDISON.
 Job cpu time:       0 days  0 hours 16 minutes 29.1 seconds.
 Elapsed time:       0 days  0 hours  2 minutes  4.4 seconds.
 File lengths (MBytes):  RWF=     56 Int=      0 D2E=      0 Chk=      8 Scr=      1
 Normal termination of Gaussian 16 at Fri Jul 30 20:13:17 2021.
