 Entering Gaussian System, Link 0=g16
 Initial command:
 /sw-ng/spack/opt/spack/linux-opensuse_leap15-sandybridge/pgi-18.10/gaussian-src-16-C.01-zldqaomctopxhethwccpmxmwefdscg3m/g16/l1.exe "/data/hutter/SMG16/PBE/Gau-52423.inp" -scrdir="/data/hutter/SMG16/PBE/"
 Entering Link 1 = /sw-ng/spack/opt/spack/linux-opensuse_leap15-sandybridge/pgi-18.10/gaussian-src-16-C.01-zldqaomctopxhethwccpmxmwefdscg3m/g16/l1.exe PID=     52442.
  
 Copyright (c) 1988-2019, Gaussian, Inc.  All Rights Reserved.
  
 This is part of the Gaussian(R) 16 program.  It is based on
 the Gaussian(R) 09 system (copyright 2009, Gaussian, Inc.),
 the Gaussian(R) 03 system (copyright 2003, Gaussian, Inc.),
 the Gaussian(R) 98 system (copyright 1998, Gaussian, Inc.),
 the Gaussian(R) 94 system (copyright 1995, Gaussian, Inc.),
 the Gaussian 92(TM) system (copyright 1992, Gaussian, Inc.),
 the Gaussian 90(TM) system (copyright 1990, Gaussian, Inc.),
 the Gaussian 88(TM) system (copyright 1988, Gaussian, Inc.),
 the Gaussian 86(TM) system (copyright 1986, Carnegie Mellon
 University), and the Gaussian 82(TM) system (copyright 1983,
 Carnegie Mellon University). Gaussian is a federally registered
 trademark of Gaussian, Inc.
  
 This software contains proprietary and confidential information,
 including trade secrets, belonging to Gaussian, Inc.
  
 This software is provided under written license and may be
 used, copied, transmitted, or stored only in accord with that
 written license.
  
 The following legend is applicable only to US Government
 contracts under FAR:
  
                    RESTRICTED RIGHTS LEGEND
  
 Use, reproduction and disclosure by the US Government is
 subject to restrictions as set forth in subparagraphs (a)
 and (c) of the Commercial Computer Software - Restricted
 Rights clause in FAR 52.227-19.
  
 Gaussian, Inc.
 340 Quinnipiac St., Bldg. 40, Wallingford CT 06492
  
  
 ---------------------------------------------------------------
 Warning -- This program may not be used in any manner that
 competes with the business of Gaussian, Inc. or will provide
 assistance to any competitor of Gaussian, Inc.  The licensee
 of this program is prohibited from giving any competitor of
 Gaussian, Inc. access to this program.  By using this program,
 the user acknowledges that Gaussian, Inc. is engaged in the
 business of creating and licensing software in the field of
 computational chemistry and represents and warrants to the
 licensee that it is not a competitor of Gaussian, Inc. and that
 it will not use this program in any manner prohibited above.
 ---------------------------------------------------------------
  

 Cite this work as:
 Gaussian 16, Revision C.01,
 M. J. Frisch, G. W. Trucks, H. B. Schlegel, G. E. Scuseria, 
 M. A. Robb, J. R. Cheeseman, G. Scalmani, V. Barone, 
 G. A. Petersson, H. Nakatsuji, X. Li, M. Caricato, A. V. Marenich, 
 J. Bloino, B. G. Janesko, R. Gomperts, B. Mennucci, H. P. Hratchian, 
 J. V. Ortiz, A. F. Izmaylov, J. L. Sonnenberg, D. Williams-Young, 
 F. Ding, F. Lipparini, F. Egidi, J. Goings, B. Peng, A. Petrone, 
 T. Henderson, D. Ranasinghe, V. G. Zakrzewski, J. Gao, N. Rega, 
 G. Zheng, W. Liang, M. Hada, M. Ehara, K. Toyota, R. Fukuda, 
 J. Hasegawa, M. Ishida, T. Nakajima, Y. Honda, O. Kitao, H. Nakai, 
 T. Vreven, K. Throssell, J. A. Montgomery, Jr., J. E. Peralta, 
 F. Ogliaro, M. J. Bearpark, J. J. Heyd, E. N. Brothers, K. N. Kudin, 
 V. N. Staroverov, T. A. Keith, R. Kobayashi, J. Normand, 
 K. Raghavachari, A. P. Rendell, J. C. Burant, S. S. Iyengar, 
 J. Tomasi, M. Cossi, J. M. Millam, M. Klene, C. Adamo, R. Cammi, 
 J. W. Ochterski, R. L. Martin, K. Morokuma, O. Farkas, 
 J. B. Foresman, and D. J. Fox, Gaussian, Inc., Wallingford CT, 2019.
 
 ******************************************
 Gaussian 16:  ES64L-G16RevC.01  3-Jul-2019
                30-Jul-2021 
 ******************************************
 %mem=32GB
 %NProcShare=16
 Will use up to   16 processors via shared memory.
 -----------------------------------------------------------
 #N RPBEPBE/Def2QZVPP scf=tight Int(Grid=ultrafine) OPT FREQ
 -----------------------------------------------------------
 1/18=20,19=15,26=4,38=1/1,3;
 2/9=110,12=2,17=6,18=5,40=1/2;
 3/5=45,7=202,11=2,25=1,30=1,71=1,74=1009,75=-5,116=1/1,2,3;
 4//1;
 5/5=2,32=2,38=5/2;
 6/7=2,8=2,9=2,10=2,28=1/1;
 7//1,2,3,16;
 1/18=20,19=15,26=4/3(2);
 2/9=110/2;
 99//99;
 2/9=110/2;
 3/5=45,7=202,11=2,25=1,30=1,71=1,74=1009,75=-5,116=1/1,2,3;
 4/5=5,16=3,69=1/1;
 5/5=2,32=2,38=5/2;
 7//1,2,3,16;
 1/18=20,19=15,26=4/3(-5);
 2/9=110/2;
 6/7=2,8=2,9=2,10=2,19=2,28=1/1;
 99/9=1/99;
 ---------
 Mol job 1
 ---------
 Symbolic Z-matrix:
 Charge =  0 Multiplicity = 1
 Li                    9.37159   7.62841   9.37159 
 Li                    7.62841   9.37159   9.37159 
 Li                    7.62841   7.62841   7.62841 
 Li                    9.37159   9.37159   7.62841 
 C                     7.21389   7.21389   9.78611 
 C                     7.21389   9.78611   7.21389 
 C                     9.78612   7.2139    7.21389 
 C                     9.78611   9.78611   9.78611 
 H                     6.51392   6.51392   9.25557 
 H                     6.51392   9.25557   6.51392 
 H                     10.48608   6.51392   7.74444 
 H                     10.48608   9.25557   10.48608 
 H                     10.48609   7.74442   6.51393 
 H                     7.74443   10.48608   6.51392 
 H                     7.74443   6.51392   10.48608 
 H                     10.48608   10.48608   9.25557 
 H                     9.25557   6.51392   6.51392 
 H                     6.51392   7.74443   10.48608 
 H                     9.25557   10.48608   10.48608 
 H                     6.51391   10.48608   7.74445 
 

 GradGradGradGradGradGradGradGradGradGradGradGradGradGradGradGradGradGrad
 Berny optimization.
 Initialization pass.
                           ----------------------------
                           !    Initial Parameters    !
                           ! (Angstroms and Degrees)  !
 --------------------------                            --------------------------
 ! Name  Definition              Value          Derivative Info.                !
 --------------------------------------------------------------------------------
 ! R1    R(1,2)                  2.4652         estimate D2E/DX2                !
 ! R2    R(1,3)                  2.4652         estimate D2E/DX2                !
 ! R3    R(1,4)                  2.4652         estimate D2E/DX2                !
 ! R4    R(1,5)                  2.2359         estimate D2E/DX2                !
 ! R5    R(1,7)                  2.2359         estimate D2E/DX2                !
 ! R6    R(1,8)                  2.2359         estimate D2E/DX2                !
 ! R7    R(2,3)                  2.4652         estimate D2E/DX2                !
 ! R8    R(2,4)                  2.4652         estimate D2E/DX2                !
 ! R9    R(2,5)                  2.2359         estimate D2E/DX2                !
 ! R10   R(2,6)                  2.2359         estimate D2E/DX2                !
 ! R11   R(2,8)                  2.2359         estimate D2E/DX2                !
 ! R12   R(3,4)                  2.4652         estimate D2E/DX2                !
 ! R13   R(3,5)                  2.2359         estimate D2E/DX2                !
 ! R14   R(3,6)                  2.2359         estimate D2E/DX2                !
 ! R15   R(3,7)                  2.2359         estimate D2E/DX2                !
 ! R16   R(4,6)                  2.2359         estimate D2E/DX2                !
 ! R17   R(4,7)                  2.2359         estimate D2E/DX2                !
 ! R18   R(4,8)                  2.2359         estimate D2E/DX2                !
 ! R19   R(5,9)                  1.1231         estimate D2E/DX2                !
 ! R20   R(5,15)                 1.1231         estimate D2E/DX2                !
 ! R21   R(5,18)                 1.1231         estimate D2E/DX2                !
 ! R22   R(6,10)                 1.1231         estimate D2E/DX2                !
 ! R23   R(6,14)                 1.1231         estimate D2E/DX2                !
 ! R24   R(6,20)                 1.1231         estimate D2E/DX2                !
 ! R25   R(7,11)                 1.1231         estimate D2E/DX2                !
 ! R26   R(7,13)                 1.1231         estimate D2E/DX2                !
 ! R27   R(7,17)                 1.1231         estimate D2E/DX2                !
 ! R28   R(8,12)                 1.1231         estimate D2E/DX2                !
 ! R29   R(8,16)                 1.1231         estimate D2E/DX2                !
 ! R30   R(8,19)                 1.1231         estimate D2E/DX2                !
 ! A1    A(2,1,7)              105.1996         estimate D2E/DX2                !
 ! A2    A(3,1,8)              105.1997         estimate D2E/DX2                !
 ! A3    A(4,1,5)              105.1997         estimate D2E/DX2                !
 ! A4    A(5,1,7)              108.8715         estimate D2E/DX2                !
 ! A5    A(5,1,8)              108.8713         estimate D2E/DX2                !
 ! A6    A(7,1,8)              108.871          estimate D2E/DX2                !
 ! A7    A(1,2,6)              105.1998         estimate D2E/DX2                !
 ! A8    A(3,2,8)              105.1997         estimate D2E/DX2                !
 ! A9    A(4,2,5)              105.1997         estimate D2E/DX2                !
 ! A10   A(5,2,6)              108.8713         estimate D2E/DX2                !
 ! A11   A(5,2,8)              108.8713         estimate D2E/DX2                !
 ! A12   A(6,2,8)              108.8713         estimate D2E/DX2                !
 ! A13   A(1,3,6)              105.1996         estimate D2E/DX2                !
 ! A14   A(2,3,7)              105.1996         estimate D2E/DX2                !
 ! A15   A(4,3,5)              105.1997         estimate D2E/DX2                !
 ! A16   A(5,3,6)              108.8712         estimate D2E/DX2                !
 ! A17   A(5,3,7)              108.8714         estimate D2E/DX2                !
 ! A18   A(6,3,7)              108.871          estimate D2E/DX2                !
 ! A19   A(1,4,6)              105.1996         estimate D2E/DX2                !
 ! A20   A(2,4,7)              105.2            estimate D2E/DX2                !
 ! A21   A(3,4,8)              105.1997         estimate D2E/DX2                !
 ! A22   A(6,4,7)              108.8715         estimate D2E/DX2                !
 ! A23   A(6,4,8)              108.8712         estimate D2E/DX2                !
 ! A24   A(7,4,8)              108.8714         estimate D2E/DX2                !
 ! A25   A(1,5,9)              129.0062         estimate D2E/DX2                !
 ! A26   A(1,5,15)              77.0106         estimate D2E/DX2                !
 ! A27   A(1,5,18)             129.0062         estimate D2E/DX2                !
 ! A28   A(2,5,9)              129.0062         estimate D2E/DX2                !
 ! A29   A(2,5,15)             129.0063         estimate D2E/DX2                !
 ! A30   A(2,5,18)              77.0107         estimate D2E/DX2                !
 ! A31   A(3,5,9)               77.0107         estimate D2E/DX2                !
 ! A32   A(3,5,15)             129.0062         estimate D2E/DX2                !
 ! A33   A(3,5,18)             129.0063         estimate D2E/DX2                !
 ! A34   A(9,5,15)             101.5596         estimate D2E/DX2                !
 ! A35   A(9,5,18)             101.5596         estimate D2E/DX2                !
 ! A36   A(15,5,18)            101.5596         estimate D2E/DX2                !
 ! A37   A(2,6,10)             129.0063         estimate D2E/DX2                !
 ! A38   A(2,6,14)             129.0064         estimate D2E/DX2                !
 ! A39   A(2,6,20)              77.0102         estimate D2E/DX2                !
 ! A40   A(3,6,10)              77.0107         estimate D2E/DX2                !
 ! A41   A(3,6,14)             129.0061         estimate D2E/DX2                !
 ! A42   A(3,6,20)             129.0056         estimate D2E/DX2                !
 ! A43   A(4,6,10)             129.0063         estimate D2E/DX2                !
 ! A44   A(4,6,14)              77.0107         estimate D2E/DX2                !
 ! A45   A(4,6,20)             129.0062         estimate D2E/DX2                !
 ! A46   A(10,6,14)            101.5593         estimate D2E/DX2                !
 ! A47   A(10,6,20)            101.5595         estimate D2E/DX2                !
 ! A48   A(14,6,20)            101.5604         estimate D2E/DX2                !
 ! A49   A(1,7,11)              77.0102         estimate D2E/DX2                !
 ! A50   A(1,7,13)             129.0067         estimate D2E/DX2                !
 ! A51   A(1,7,17)             129.0053         estimate D2E/DX2                !
 ! A52   A(3,7,11)             129.0052         estimate D2E/DX2                !
 ! A53   A(3,7,13)             129.0072         estimate D2E/DX2                !
 ! A54   A(3,7,17)              77.0102         estimate D2E/DX2                !
 ! A55   A(4,7,11)             129.0065         estimate D2E/DX2                !
 ! A56   A(4,7,13)              77.0115         estimate D2E/DX2                !
 ! A57   A(4,7,17)             129.0063         estimate D2E/DX2                !
 ! A58   A(11,7,13)            101.5597         estimate D2E/DX2                !
 ! A59   A(11,7,17)            101.559          estimate D2E/DX2                !
 ! A60   A(13,7,17)            101.5602         estimate D2E/DX2                !
 ! A61   A(1,8,12)              77.0106         estimate D2E/DX2                !
 ! A62   A(1,8,16)             129.0063         estimate D2E/DX2                !
 ! A63   A(1,8,19)             129.0062         estimate D2E/DX2                !
 ! A64   A(2,8,12)             129.0063         estimate D2E/DX2                !
 ! A65   A(2,8,16)             129.0062         estimate D2E/DX2                !
 ! A66   A(2,8,19)              77.0107         estimate D2E/DX2                !
 ! A67   A(4,8,12)             129.0062         estimate D2E/DX2                !
 ! A68   A(4,8,16)              77.0106         estimate D2E/DX2                !
 ! A69   A(4,8,19)             129.0063         estimate D2E/DX2                !
 ! A70   A(12,8,16)            101.5596         estimate D2E/DX2                !
 ! A71   A(12,8,19)            101.5596         estimate D2E/DX2                !
 ! A72   A(16,8,19)            101.5596         estimate D2E/DX2                !
 ! D1    D(7,1,2,6)              0.0003         estimate D2E/DX2                !
 ! D2    D(8,1,3,6)             -0.0001         estimate D2E/DX2                !
 ! D3    D(5,1,4,6)              0.0001         estimate D2E/DX2                !
 ! D4    D(4,1,5,9)             85.5374         estimate D2E/DX2                !
 ! D5    D(4,1,5,15)           179.9999         estimate D2E/DX2                !
 ! D6    D(4,1,5,18)           -85.5375         estimate D2E/DX2                !
 ! D7    D(7,1,5,9)             26.2579         estimate D2E/DX2                !
 ! D8    D(7,1,5,15)           120.7204         estimate D2E/DX2                !
 ! D9    D(7,1,5,18)          -144.817          estimate D2E/DX2                !
 ! D10   D(8,1,5,9)            144.8172         estimate D2E/DX2                !
 ! D11   D(8,1,5,15)          -120.7203         estimate D2E/DX2                !
 ! D12   D(8,1,5,18)           -26.2577         estimate D2E/DX2                !
 ! D13   D(2,1,7,11)          -179.9994         estimate D2E/DX2                !
 ! D14   D(2,1,7,13)            85.5383         estimate D2E/DX2                !
 ! D15   D(2,1,7,17)           -85.5377         estimate D2E/DX2                !
 ! D16   D(5,1,7,11)          -120.7196         estimate D2E/DX2                !
 ! D17   D(5,1,7,13)           144.8181         estimate D2E/DX2                !
 ! D18   D(5,1,7,17)           -26.258          estimate D2E/DX2                !
 ! D19   D(8,1,7,11)           120.7209         estimate D2E/DX2                !
 ! D20   D(8,1,7,13)            26.2586         estimate D2E/DX2                !
 ! D21   D(8,1,7,17)          -144.8175         estimate D2E/DX2                !
 ! D22   D(3,1,8,12)          -179.9999         estimate D2E/DX2                !
 ! D23   D(3,1,8,16)           -85.5374         estimate D2E/DX2                !
 ! D24   D(3,1,8,19)            85.5375         estimate D2E/DX2                !
 ! D25   D(5,1,8,12)           120.7203         estimate D2E/DX2                !
 ! D26   D(5,1,8,16)          -144.8171         estimate D2E/DX2                !
 ! D27   D(5,1,8,19)            26.2577         estimate D2E/DX2                !
 ! D28   D(7,1,8,12)          -120.7201         estimate D2E/DX2                !
 ! D29   D(7,1,8,16)           -26.2575         estimate D2E/DX2                !
 ! D30   D(7,1,8,19)           144.8173         estimate D2E/DX2                !
 ! D31   D(8,2,3,7)             -0.0003         estimate D2E/DX2                !
 ! D32   D(5,2,4,7)              0.0            estimate D2E/DX2                !
 ! D33   D(4,2,5,9)            -85.5374         estimate D2E/DX2                !
 ! D34   D(4,2,5,15)            85.5373         estimate D2E/DX2                !
 ! D35   D(4,2,5,18)           179.9999         estimate D2E/DX2                !
 ! D36   D(6,2,5,9)            -26.2575         estimate D2E/DX2                !
 ! D37   D(6,2,5,15)           144.8172         estimate D2E/DX2                !
 ! D38   D(6,2,5,18)          -120.7202         estimate D2E/DX2                !
 ! D39   D(8,2,5,9)           -144.8172         estimate D2E/DX2                !
 ! D40   D(8,2,5,15)            26.2575         estimate D2E/DX2                !
 ! D41   D(8,2,5,18)           120.7201         estimate D2E/DX2                !
 ! D42   D(1,2,6,10)            85.5375         estimate D2E/DX2                !
 ! D43   D(1,2,6,14)           -85.5373         estimate D2E/DX2                !
 ! D44   D(1,2,6,20)           179.9996         estimate D2E/DX2                !
 ! D45   D(5,2,6,10)            26.2577         estimate D2E/DX2                !
 ! D46   D(5,2,6,14)          -144.8171         estimate D2E/DX2                !
 ! D47   D(5,2,6,20)           120.7197         estimate D2E/DX2                !
 ! D48   D(8,2,6,10)           144.8173         estimate D2E/DX2                !
 ! D49   D(8,2,6,14)           -26.2575         estimate D2E/DX2                !
 ! D50   D(8,2,6,20)          -120.7206         estimate D2E/DX2                !
 ! D51   D(3,2,8,12)           -85.5373         estimate D2E/DX2                !
 ! D52   D(3,2,8,16)            85.5374         estimate D2E/DX2                !
 ! D53   D(3,2,8,19)          -180.0            estimate D2E/DX2                !
 ! D54   D(5,2,8,12)           -26.2575         estimate D2E/DX2                !
 ! D55   D(5,2,8,16)           144.8173         estimate D2E/DX2                !
 ! D56   D(5,2,8,19)          -120.7202         estimate D2E/DX2                !
 ! D57   D(6,2,8,12)          -144.8172         estimate D2E/DX2                !
 ! D58   D(6,2,8,16)            26.2576         estimate D2E/DX2                !
 ! D59   D(6,2,8,19)           120.7202         estimate D2E/DX2                !
 ! D60   D(5,3,4,8)              0.0            estimate D2E/DX2                !
 ! D61   D(4,3,5,9)           -179.9999         estimate D2E/DX2                !
 ! D62   D(4,3,5,15)           -85.5374         estimate D2E/DX2                !
 ! D63   D(4,3,5,18)            85.5374         estimate D2E/DX2                !
 ! D64   D(6,3,5,9)            120.7203         estimate D2E/DX2                !
 ! D65   D(6,3,5,15)          -144.8172         estimate D2E/DX2                !
 ! D66   D(6,3,5,18)            26.2577         estimate D2E/DX2                !
 ! D67   D(7,3,5,9)           -120.7204         estimate D2E/DX2                !
 ! D68   D(7,3,5,15)           -26.2578         estimate D2E/DX2                !
 ! D69   D(7,3,5,18)           144.817          estimate D2E/DX2                !
 ! D70   D(1,3,6,10)          -180.0            estimate D2E/DX2                !
 ! D71   D(1,3,6,14)            85.5377         estimate D2E/DX2                !
 ! D72   D(1,3,6,20)           -85.5373         estimate D2E/DX2                !
 ! D73   D(5,3,6,10)          -120.7202         estimate D2E/DX2                !
 ! D74   D(5,3,6,14)           144.8175         estimate D2E/DX2                !
 ! D75   D(5,3,6,20)           -26.2576         estimate D2E/DX2                !
 ! D76   D(7,3,6,10)           120.7202         estimate D2E/DX2                !
 ! D77   D(7,3,6,14)            26.2579         estimate D2E/DX2                !
 ! D78   D(7,3,6,20)          -144.8172         estimate D2E/DX2                !
 ! D79   D(2,3,7,11)            85.538          estimate D2E/DX2                !
 ! D80   D(2,3,7,13)           -85.5376         estimate D2E/DX2                !
 ! D81   D(2,3,7,17)           179.9996         estimate D2E/DX2                !
 ! D82   D(5,3,7,11)            26.2581         estimate D2E/DX2                !
 ! D83   D(5,3,7,13)          -144.8174         estimate D2E/DX2                !
 ! D84   D(5,3,7,17)           120.7198         estimate D2E/DX2                !
 ! D85   D(6,3,7,11)           144.8176         estimate D2E/DX2                !
 ! D86   D(6,3,7,13)           -26.2579         estimate D2E/DX2                !
 ! D87   D(6,3,7,17)          -120.7207         estimate D2E/DX2                !
 ! D88   D(1,4,6,10)           -85.5376         estimate D2E/DX2                !
 ! D89   D(1,4,6,14)          -179.9999         estimate D2E/DX2                !
 ! D90   D(1,4,6,20)            85.5365         estimate D2E/DX2                !
 ! D91   D(7,4,6,10)           -26.2576         estimate D2E/DX2                !
 ! D92   D(7,4,6,14)          -120.7198         estimate D2E/DX2                !
 ! D93   D(7,4,6,20)           144.8166         estimate D2E/DX2                !
 ! D94   D(8,4,6,10)          -144.8174         estimate D2E/DX2                !
 ! D95   D(8,4,6,14)           120.7204         estimate D2E/DX2                !
 ! D96   D(8,4,6,20)            26.2568         estimate D2E/DX2                !
 ! D97   D(2,4,7,11)           -85.5362         estimate D2E/DX2                !
 ! D98   D(2,4,7,13)          -179.9996         estimate D2E/DX2                !
 ! D99   D(2,4,7,17)            85.5364         estimate D2E/DX2                !
 ! D100  D(6,4,7,11)          -144.816          estimate D2E/DX2                !
 ! D101  D(6,4,7,13)           120.7206         estimate D2E/DX2                !
 ! D102  D(6,4,7,17)            26.2566         estimate D2E/DX2                !
 ! D103  D(8,4,7,11)           -26.2563         estimate D2E/DX2                !
 ! D104  D(8,4,7,13)          -120.7197         estimate D2E/DX2                !
 ! D105  D(8,4,7,17)           144.8163         estimate D2E/DX2                !
 ! D106  D(3,4,8,12)            85.5375         estimate D2E/DX2                !
 ! D107  D(3,4,8,16)          -179.9999         estimate D2E/DX2                !
 ! D108  D(3,4,8,19)           -85.5374         estimate D2E/DX2                !
 ! D109  D(6,4,8,12)           144.8172         estimate D2E/DX2                !
 ! D110  D(6,4,8,16)          -120.7202         estimate D2E/DX2                !
 ! D111  D(6,4,8,19)           -26.2576         estimate D2E/DX2                !
 ! D112  D(7,4,8,12)            26.2574         estimate D2E/DX2                !
 ! D113  D(7,4,8,16)           120.72           estimate D2E/DX2                !
 ! D114  D(7,4,8,19)          -144.8175         estimate D2E/DX2                !
 --------------------------------------------------------------------------------
 Trust Radius=3.00D-01 FncErr=1.00D-07 GrdErr=1.00D-06 EigMax=2.50D+02 EigMin=1.00D-04
 Number of steps in this run=    120 maximum allowed number of steps=    120.
 GradGradGradGradGradGradGradGradGradGradGradGradGradGradGradGradGradGrad

                          Input orientation:                          
 ---------------------------------------------------------------------
 Center     Atomic      Atomic             Coordinates (Angstroms)
 Number     Number       Type             X           Y           Z
 ---------------------------------------------------------------------
      1          3           0        9.371590    7.628413    9.371592
      2          3           0        7.628413    9.371591    9.371588
      3          3           0        7.628412    7.628413    7.628412
      4          3           0        9.371592    9.371591    7.628412
      5          6           0        7.213891    7.213892    9.786111
      6          6           0        7.213892    9.786113    7.213893
      7          6           0        9.786119    7.213900    7.213886
      8          6           0        9.786112    9.786112    9.786112
      9          1           0        6.513921    6.513921    9.255571
     10          1           0        6.513920    9.255574    6.513921
     11          1           0       10.486082    6.513916    7.744436
     12          1           0       10.486083    9.255572   10.486082
     13          1           0       10.486085    7.744418    6.513932
     14          1           0        7.744433   10.486083    6.513918
     15          1           0        7.744432    6.513921   10.486082
     16          1           0       10.486083   10.486084    9.255571
     17          1           0        9.255570    6.513919    6.513920
     18          1           0        6.513920    7.744432   10.486082
     19          1           0        9.255572   10.486083   10.486082
     20          1           0        6.513915   10.486079    7.744446
 ---------------------------------------------------------------------
                    Distance matrix (angstroms):
                    1          2          3          4          5
     1  Li   0.000000
     2  Li   2.465226   0.000000
     3  Li   2.465227   2.465225   0.000000
     4  Li   2.465227   2.465225   2.465226   0.000000
     5  C    2.235916   2.235917   2.235916   3.737245   0.000000
     6  C    3.737244   2.235912   2.235916   2.235916   3.637668
     7  C    2.235923   3.737246   2.235923   2.235910   3.637679
     8  C    2.235916   2.235916   3.737245   2.235917   3.637669
     9  H    3.069500   3.069500   2.265355   4.356628   1.123117
    10  H    4.356630   3.069499   2.265356   3.069502   3.919905
    11  H    2.265354   4.356627   3.069502   3.069503   3.919903
    12  H    2.265354   3.069500   4.356627   3.069500   3.919905
    13  H    3.069491   4.356625   3.069498   2.265359   4.657883
    14  H    4.356630   3.069501   3.069501   2.265356   4.657892
    15  H    2.265353   3.069501   3.069500   4.356628   1.123117
    16  H    3.069501   3.069500   4.356628   2.265354   4.657891
    17  H    3.069503   4.356627   2.265354   3.069502   3.919905
    18  H    3.069500   2.265356   3.069500   4.356628   1.123117
    19  H    3.069500   2.265355   4.356627   3.069500   3.919905
    20  H    4.356624   2.265344   3.069499   3.069506   3.919894
                    6          7          8          9         10
     6  C    0.000000
     7  C    3.637669   0.000000
     8  C    3.637667   3.637667   0.000000
     9  H    3.919904   3.919915   4.657891   0.000000
    10  H    1.123118   3.919908   4.657891   3.877281   0.000000
    11  H    4.657893   1.123124   3.919906   4.249894   4.980856
    12  H    4.657889   3.919904   1.123117   4.980851   5.617486
    13  H    3.919912   1.123093   3.919903   4.980843   4.249905
    14  H    1.123120   3.919901   3.919906   4.980853   1.740206
    15  H    4.657889   3.919914   3.919905   1.740206   4.980853
    16  H    3.919903   3.919899   1.123118   5.617486   4.980851
    17  H    3.919906   1.123124   4.657893   3.877279   3.877282
    18  H    3.919903   4.657899   3.919905   1.740206   4.249896
    19  H    3.919902   4.657889   1.123116   4.980851   4.980851
    20  H    1.123123   4.657894   3.919902   4.249887   1.740211
                   11         12         13         14         15
    11  H    0.000000
    12  H    3.877280   0.000000
    13  H    1.740194   4.249890   0.000000
    14  H    4.980856   4.980853   3.877291   0.000000
    15  H    3.877276   3.877280   4.980840   5.617488   0.000000
    16  H    4.249899   1.740206   3.877282   3.877280   4.980852
    17  H    1.740210   4.980853   1.740200   4.249896   4.249896
    18  H    4.980850   4.249896   5.617479   4.980854   1.740206
    19  H    4.980852   1.740206   4.980850   4.249898   4.249896
    20  H    5.617489   4.980847   4.980864   1.740223   4.980842
                   16         17         18         19         20
    16  H    0.000000
    17  H    4.980854   0.000000
    18  H    4.980852   4.980851   0.000000
    19  H    1.740206   5.617487   3.877280   0.000000
    20  H    4.249896   4.980855   3.877267   3.877274   0.000000
 This structure is nearly, but not quite of a higher symmetry.
 Consider Symm=Loose if the higher symmetry is desired.
 This structure is nearly, but not quite of a higher symmetry.
 Consider Symm=Loose if the higher symmetry is desired.
 Stoichiometry    C4H12Li4
 Framework group  C1[X(C4H12Li4)]
 Deg. of freedom    54
 Full point group                 C1      NOp   1
 Largest Abelian subgroup         C1      NOp   1
 Largest concise Abelian subgroup C1      NOp   1
                         Standard orientation:                         
 ---------------------------------------------------------------------
 Center     Atomic      Atomic             Coordinates (Angstroms)
 Number     Number       Type             X           Y           Z
 ---------------------------------------------------------------------
      1          3           0        0.619336   -1.372746   -0.104858
      2          3           0        0.324058    0.794474   -1.242093
      3          3           0        0.554239    0.710948    1.210940
      4          3           0       -1.497631   -0.132675    0.136013
      5          6           0        2.209895    0.195775   -0.200698
      6          6           0       -0.913884    2.025614    0.154725
      7          6           0       -0.478190   -1.172320    1.832826
      8          6           0       -0.817829   -1.049068   -1.786853
      9          1           0        2.746697    0.710529    0.640886
     10          1           0       -0.582844    2.660901    1.019721
     11          1           0       -0.072481   -2.218564    1.879534
     12          1           0       -0.434511   -2.087193   -1.978571
     13          1           0       -1.566840   -1.343205    2.049565
     14          1           0       -2.031263    2.065385    0.260932
     15          1           0        2.792648   -0.760353   -0.287937
     16          1           0       -1.928880   -1.211825   -1.808541
     17          1           0       -0.118436   -0.747679    2.808359
     18          1           0        2.584213    0.769490   -1.090714
     19          1           0       -0.642946   -0.557350   -2.781348
     20          1           0       -0.745314    2.719859   -0.711886
 ---------------------------------------------------------------------
 Rotational constants (GHZ):           1.8742806           1.8742771           1.8742763
 Standard basis: def2QZVPP (5D, 7F)
 There are   868 symmetry adapted cartesian basis functions of A   symmetry.
 There are   728 symmetry adapted basis functions of A   symmetry.
   728 basis functions,  1044 primitive gaussians,   868 cartesian basis functions
    24 alpha electrons       24 beta electrons
       nuclear repulsion energy       200.9636883204 Hartrees.
 NAtoms=   20 NActive=   20 NUniq=   20 SFac= 1.00D+00 NAtFMM=   60 NAOKFM=F Big=F
 Integral buffers will be    131072 words long.
 Raffenetti 2 integral format.
 Two-electron integral symmetry is turned on.
 One-electron integrals computed using PRISM.
   1 Symmetry operations used in ECPInt.
 ECPInt:  NShTT=   28920 NPrTT=   68284 LenC2=   27459 LenP2D=   53162.
 LDataN:  DoStor=T MaxTD1= 8 Len=  415
 NBasis=   728 RedAO= T EigKep=  7.51D-06  NBF=   728
 NBsUse=   728 1.00D-06 EigRej= -1.00D+00 NBFU=   728
 ExpMin= 2.05D-02 ExpMax= 6.70D+04 ExpMxC= 6.47D+02 IAcc=3 IRadAn=         5 AccDes= 0.00D+00
 Harris functional with IExCor= 1009 and IRadAn=       5 diagonalized for initial guess.
 HarFok:  IExCor= 1009 AccDes= 0.00D+00 IRadAn=         5 IDoV= 1 UseB2=F ITyADJ=14
 ICtDFT=  3500011 ScaDFX=  1.000000  1.000000  1.000000  1.000000
 FoFCou: FMM=F IPFlag=           0 FMFlag=      100000 FMFlg1=           0
         NFxFlg=           0 DoJE=T BraDBF=F KetDBF=T FulRan=T
         wScrn=  0.000000 ICntrl=       500 IOpCl=  0 I1Cent=   200000004 NGrid=           0
         NMat0=    1 NMatS0=      1 NMatT0=    0 NMatD0=    1 NMtDS0=    0 NMtDT0=    0
 Petite list used in FoFCou.
 Requested convergence on RMS density matrix=1.00D-08 within 128 cycles.
 Requested convergence on MAX density matrix=1.00D-06.
 Requested convergence on             energy=1.00D-06.
 No special actions if energy rises.
 SCF Done:  E(RPBE-PBE) =  -189.527675535     A.U. after   12 cycles
            NFock= 12  Conv=0.35D-08     -V/T= 2.0079

 **********************************************************************

            Population analysis using the SCF Density.

 **********************************************************************

 Orbital symmetries:
       Occupied  (A) (A) (A) (A) (A) (A) (A) (A) (A) (A) (A) (A)
                 (A) (A) (A) (A) (A) (A) (A) (A) (A) (A) (A) (A)
       Virtual   (A) (A) (A) (A) (A) (A) (A) (A) (A) (A) (A) (A)
                 (A) (A) (A) (A) (A) (A) (A) (A) (A) (A) (A) (A)
                 (A) (A) (A) (A) (A) (A) (A) (A) (A) (A) (A) (A)
                 (A) (A) (A) (A) (A) (A) (A) (A) (A) (A) (A) (A)
                 (A) (A) (A) (A) (A) (A) (A) (A) (A) (A) (A) (A)
                 (A) (A) (A) (A) (A) (A) (A) (A) (A) (A) (A) (A)
                 (A) (A) (A) (A) (A) (A) (A) (A) (A) (A) (A) (A)
                 (A) (A) (A) (A) (A) (A) (A) (A) (A) (A) (A) (A)
                 (A) (A) (A) (A) (A) (A) (A) (A) (A) (A) (A) (A)
                 (A) (A) (A) (A) (A) (A) (A) (A) (A) (A) (A) (A)
                 (A) (A) (A) (A) (A) (A) (A) (A) (A) (A) (A) (A)
                 (A) (A) (A) (A) (A) (A) (A) (A) (A) (A) (A) (A)
                 (A) (A) (A) (A) (A) (A) (A) (A) (A) (A) (A) (A)
                 (A) (A) (A) (A) (A) (A) (A) (A) (A) (A) (A) (A)
                 (A) (A) (A) (A) (A) (A) (A) (A) (A) (A) (A) (A)
                 (A) (A) (A) (A) (A) (A) (A) (A) (A) (A) (A) (A)
                 (A) (A) (A) (A) (A) (A) (A) (A) (A) (A) (A) (A)
                 (A) (A) (A) (A) (A) (A) (A) (A) (A) (A) (A) (A)
                 (A) (A) (A) (A) (A) (A) (A) (A) (A) (A) (A) (A)
                 (A) (A) (A) (A) (A) (A) (A) (A) (A) (A) (A) (A)
                 (A) (A) (A) (A) (A) (A) (A) (A) (A) (A) (A) (A)
                 (A) (A) (A) (A) (A) (A) (A) (A) (A) (A) (A) (A)
                 (A) (A) (A) (A) (A) (A) (A) (A) (A) (A) (A) (A)
                 (A) (A) (A) (A) (A) (A) (A) (A) (A) (A) (A) (A)
                 (A) (A) (A) (A) (A) (A) (A) (A) (A) (A) (A) (A)
                 (A) (A) (A) (A) (A) (A) (A) (A) (A) (A) (A) (A)
                 (A) (A) (A) (A) (A) (A) (A) (A) (A) (A) (A) (A)
                 (A) (A) (A) (A) (A) (A) (A) (A) (A) (A) (A) (A)
                 (A) (A) (A) (A) (A) (A) (A) (A) (A) (A) (A) (A)
                 (A) (A) (A) (A) (A) (A) (A) (A) (A) (A) (A) (A)
                 (A) (A) (A) (A) (A) (A) (A) (A) (A) (A) (A) (A)
                 (A) (A) (A) (A) (A) (A) (A) (A) (A) (A) (A) (A)
                 (A) (A) (A) (A) (A) (A) (A) (A) (A) (A) (A) (A)
                 (A) (A) (A) (A) (A) (A) (A) (A) (A) (A) (A) (A)
                 (A) (A) (A) (A) (A) (A) (A) (A) (A) (A) (A) (A)
                 (A) (A) (A) (A) (A) (A) (A) (A) (A) (A) (A) (A)
                 (A) (A) (A) (A) (A) (A) (A) (A) (A) (A) (A) (A)
                 (A) (A) (A) (A) (A) (A) (A) (A) (A) (A) (A) (A)
                 (A) (A) (A) (A) (A) (A) (A) (A) (A) (A) (A) (A)
                 (A) (A) (A) (A) (A) (A) (A) (A) (A) (A) (A) (A)
                 (A) (A) (A) (A) (A) (A) (A) (A) (A) (A) (A) (A)
                 (A) (A) (A) (A) (A) (A) (A) (A) (A) (A) (A) (A)
                 (A) (A) (A) (A) (A) (A) (A) (A) (A) (A) (A) (A)
                 (A) (A) (A) (A) (A) (A) (A) (A) (A) (A) (A) (A)
                 (A) (A) (A) (A) (A) (A) (A) (A) (A) (A) (A) (A)
                 (A) (A) (A) (A) (A) (A) (A) (A) (A) (A) (A) (A)
                 (A) (A) (A) (A) (A) (A) (A) (A) (A) (A) (A) (A)
                 (A) (A) (A) (A) (A) (A) (A) (A) (A) (A) (A) (A)
                 (A) (A) (A) (A) (A) (A) (A) (A) (A) (A) (A) (A)
                 (A) (A) (A) (A) (A) (A) (A) (A) (A) (A) (A) (A)
                 (A) (A) (A) (A) (A) (A) (A) (A) (A) (A) (A) (A)
                 (A) (A) (A) (A) (A) (A) (A) (A) (A) (A) (A) (A)
                 (A) (A) (A) (A) (A) (A) (A) (A) (A) (A) (A) (A)
                 (A) (A) (A) (A) (A) (A) (A) (A) (A) (A) (A) (A)
                 (A) (A) (A) (A) (A) (A) (A) (A) (A) (A) (A) (A)
                 (A) (A) (A) (A) (A) (A) (A) (A) (A) (A) (A) (A)
                 (A) (A) (A) (A) (A) (A) (A) (A) (A) (A) (A) (A)
                 (A) (A) (A) (A) (A) (A) (A) (A) (A) (A) (A) (A)
                 (A) (A) (A) (A) (A) (A) (A) (A)
 The electronic state is 1-A.
 Alpha  occ. eigenvalues --   -9.83616  -9.83616  -9.83616  -9.83616  -1.80492
 Alpha  occ. eigenvalues --   -1.80286  -1.80286  -1.80286  -0.57864  -0.57540
 Alpha  occ. eigenvalues --   -0.57540  -0.57540  -0.31985  -0.31985  -0.31784
 Alpha  occ. eigenvalues --   -0.31784  -0.31784  -0.31132  -0.31132  -0.31132
 Alpha  occ. eigenvalues --   -0.23167  -0.18229  -0.18228  -0.18228
 Alpha virt. eigenvalues --   -0.04380  -0.01500  -0.01500  -0.01500   0.00922
 Alpha virt. eigenvalues --    0.00923   0.00923   0.02267   0.02267   0.03210
 Alpha virt. eigenvalues --    0.04525   0.04525   0.04525   0.04616   0.04616
 Alpha virt. eigenvalues --    0.04616   0.05351   0.06158   0.06158   0.07131
 Alpha virt. eigenvalues --    0.07131   0.07132   0.09034   0.09034   0.09034
 Alpha virt. eigenvalues --    0.11920   0.11920   0.11920   0.12482   0.12482
 Alpha virt. eigenvalues --    0.12482   0.12840   0.12840   0.13406   0.15901
 Alpha virt. eigenvalues --    0.15901   0.15901   0.16960   0.16960   0.16960
 Alpha virt. eigenvalues --    0.18089   0.18089   0.18089   0.18750   0.20006
 Alpha virt. eigenvalues --    0.22110   0.22110   0.22110   0.22466   0.22466
 Alpha virt. eigenvalues --    0.23995   0.23995   0.23995   0.24392   0.24392
 Alpha virt. eigenvalues --    0.25788   0.25788   0.25788   0.27123   0.27204
 Alpha virt. eigenvalues --    0.27204   0.27204   0.27704   0.27705   0.27705
 Alpha virt. eigenvalues --    0.29590   0.30334   0.30334   0.30334   0.31050
 Alpha virt. eigenvalues --    0.31050   0.31050   0.31767   0.31767   0.34788
 Alpha virt. eigenvalues --    0.34788   0.34788   0.36244   0.36245   0.36245
 Alpha virt. eigenvalues --    0.37978   0.37978   0.38343   0.38343   0.38343
 Alpha virt. eigenvalues --    0.40273   0.40273   0.40273   0.43736   0.43736
 Alpha virt. eigenvalues --    0.43736   0.46188   0.46431   0.46431   0.46431
 Alpha virt. eigenvalues --    0.47085   0.47085   0.48736   0.49609   0.49609
 Alpha virt. eigenvalues --    0.49609   0.52691   0.52692   0.52692   0.57287
 Alpha virt. eigenvalues --    0.57287   0.59224   0.59603   0.59603   0.59603
 Alpha virt. eigenvalues --    0.61058   0.61058   0.61058   0.62836   0.62836
 Alpha virt. eigenvalues --    0.62836   0.63061   0.63407   0.63407   0.63407
 Alpha virt. eigenvalues --    0.70770   0.70771   0.71161   0.71161   0.71162
 Alpha virt. eigenvalues --    0.71334   0.71334   0.71334   0.71739   0.71739
 Alpha virt. eigenvalues --    0.71739   0.76918   0.76918   0.78742   0.78893
 Alpha virt. eigenvalues --    0.78894   0.78894   0.79806   0.79807   0.79807
 Alpha virt. eigenvalues --    0.81555   0.82588   0.82588   0.82731   0.82731
 Alpha virt. eigenvalues --    0.82731   0.85899   0.85899   0.85899   0.86851
 Alpha virt. eigenvalues --    0.86851   0.87052   0.87052   0.87052   0.88289
 Alpha virt. eigenvalues --    0.88289   0.88289   0.91816   0.91816   0.91817
 Alpha virt. eigenvalues --    0.92075   0.92128   0.92128   0.92128   0.97312
 Alpha virt. eigenvalues --    0.97313   0.99038   0.99038   0.99039   1.00139
 Alpha virt. eigenvalues --    1.00139   1.01541   1.01541   1.01541   1.03667
 Alpha virt. eigenvalues --    1.03667   1.03667   1.05402   1.07690   1.07690
 Alpha virt. eigenvalues --    1.07690   1.10424   1.10424   1.10425   1.11135
 Alpha virt. eigenvalues --    1.11135   1.11135   1.13399   1.13399   1.13399
 Alpha virt. eigenvalues --    1.16901   1.17814   1.17814   1.17814   1.18314
 Alpha virt. eigenvalues --    1.19890   1.19890   1.19890   1.24506   1.24507
 Alpha virt. eigenvalues --    1.26445   1.28032   1.28032   1.28033   1.33491
 Alpha virt. eigenvalues --    1.33491   1.33492   1.33563   1.33563   1.34524
 Alpha virt. eigenvalues --    1.34524   1.34524   1.37288   1.37288   1.42123
 Alpha virt. eigenvalues --    1.42124   1.42124   1.46955   1.46956   1.46956
 Alpha virt. eigenvalues --    1.50769   1.50770   1.50770   1.51387   1.56180
 Alpha virt. eigenvalues --    1.56180   1.56181   1.56901   1.56901   1.56902
 Alpha virt. eigenvalues --    1.57274   1.57274   1.60661   1.63457   1.63457
 Alpha virt. eigenvalues --    1.63457   1.78074   1.83408   1.83835   1.83836
 Alpha virt. eigenvalues --    1.83836   1.87348   1.87348   1.87348   1.87697
 Alpha virt. eigenvalues --    1.87697   1.87697   1.93512   1.93512   1.93512
 Alpha virt. eigenvalues --    1.94299   1.94300   1.95814   1.95814   1.95815
 Alpha virt. eigenvalues --    2.00398   2.03610   2.03610   2.03610   2.04703
 Alpha virt. eigenvalues --    2.04704   2.04704   2.06689   2.07273   2.07274
 Alpha virt. eigenvalues --    2.07274   2.08868   2.08868   2.12432   2.12432
 Alpha virt. eigenvalues --    2.14051   2.14051   2.14051   2.17108   2.17108
 Alpha virt. eigenvalues --    2.17108   2.20828   2.21111   2.21111   2.21111
 Alpha virt. eigenvalues --    2.28547   2.28547   2.28547   2.31531   2.31531
 Alpha virt. eigenvalues --    2.32883   2.32884   2.33822   2.33822   2.33822
 Alpha virt. eigenvalues --    2.37458   2.37458   2.37458   2.37492   2.37493
 Alpha virt. eigenvalues --    2.37493   2.42261   2.42261   2.42262   2.42561
 Alpha virt. eigenvalues --    2.42561   2.42561   2.43026   2.43026   2.48928
 Alpha virt. eigenvalues --    2.48929   2.48929   2.60201   2.63332   2.63333
 Alpha virt. eigenvalues --    2.63333   2.66120   2.67055   2.67055   2.67056
 Alpha virt. eigenvalues --    2.74935   2.74935   2.74935   2.76250   2.78333
 Alpha virt. eigenvalues --    2.78334   2.81863   2.81863   2.81863   2.83439
 Alpha virt. eigenvalues --    2.84655   2.86201   2.86202   2.86202   2.89279
 Alpha virt. eigenvalues --    2.89279   2.90560   2.90561   2.90561   2.90749
 Alpha virt. eigenvalues --    2.90749   2.90749   2.94220   2.94220   2.94220
 Alpha virt. eigenvalues --    2.95621   3.01834   3.01834   3.01834   3.02005
 Alpha virt. eigenvalues --    3.02005   3.03425   3.05548   3.05548   3.05548
 Alpha virt. eigenvalues --    3.07367   3.07368   3.07368   3.14332   3.14332
 Alpha virt. eigenvalues --    3.14333   3.18353   3.18354   3.26866   3.26866
 Alpha virt. eigenvalues --    3.26867   3.28987   3.28988   3.28988   3.36637
 Alpha virt. eigenvalues --    3.37533   3.37534   3.37535   3.41419   3.41419
 Alpha virt. eigenvalues --    3.41420   3.43708   3.43709   3.46775   3.46775
 Alpha virt. eigenvalues --    3.46776   3.62110   3.62110   3.62111   3.65912
 Alpha virt. eigenvalues --    3.78260   3.78260   3.78260   3.79601   3.79602
 Alpha virt. eigenvalues --    3.79602   3.80140   3.80140   3.82356   3.82356
 Alpha virt. eigenvalues --    3.82356   3.91420   4.04726   4.04726   4.04726
 Alpha virt. eigenvalues --    4.05760   4.05760   4.12702   4.12702   4.12703
 Alpha virt. eigenvalues --    4.91888   4.91888   4.91889   4.94903   4.94904
 Alpha virt. eigenvalues --    4.95642   4.95643   4.95644   5.11807   5.11807
 Alpha virt. eigenvalues --    5.11807   5.17143   5.27917   5.27917   5.27919
 Alpha virt. eigenvalues --    5.29378   5.29378   5.30210   5.30211   5.30211
 Alpha virt. eigenvalues --    5.35187   5.44220   5.44220   5.44220   5.56741
 Alpha virt. eigenvalues --    5.56741   5.56741   5.61805   5.61805   5.61806
 Alpha virt. eigenvalues --    5.62040   5.62040   5.67340   5.68944   5.68944
 Alpha virt. eigenvalues --    5.68945   5.76853   5.76854   5.76854   5.77289
 Alpha virt. eigenvalues --    5.77289   5.79496   5.79497   5.79497   5.80997
 Alpha virt. eigenvalues --    5.80997   5.81417   5.81417   5.81418   5.81791
 Alpha virt. eigenvalues --    5.81791   5.81792   5.86636   5.86636   5.86636
 Alpha virt. eigenvalues --    5.90758   5.94944   5.94945   5.94945   5.96210
 Alpha virt. eigenvalues --    5.97951   5.97951   5.97951   5.99140   5.99141
 Alpha virt. eigenvalues --    5.99141   5.99377   5.99377   6.08637   6.08637
 Alpha virt. eigenvalues --    6.08639   6.12580   6.12580   6.12582   6.14581
 Alpha virt. eigenvalues --    6.14583   6.14637   6.19068   6.23059   6.23059
 Alpha virt. eigenvalues --    6.23060   6.23805   6.23806   6.23807   6.33986
 Alpha virt. eigenvalues --    6.33987   6.33987   6.34253   6.34254   6.34254
 Alpha virt. eigenvalues --    6.35363   6.39734   6.39735   6.41846   6.41846
 Alpha virt. eigenvalues --    6.41846   6.42832   6.42832   6.42833   6.58567
 Alpha virt. eigenvalues --    6.58567   6.60235   6.60235   6.60235   6.64880
 Alpha virt. eigenvalues --    6.64880   6.64880   6.65098   6.70333   6.70333
 Alpha virt. eigenvalues --    6.70334   6.70978   6.76292   6.76292   6.76292
 Alpha virt. eigenvalues --    6.79173   6.87557   6.87557   6.87557   6.90055
 Alpha virt. eigenvalues --    6.90055   6.90055   6.94731   6.94869   6.94869
 Alpha virt. eigenvalues --    7.08978   7.08979   7.08979   7.25372   7.25373
 Alpha virt. eigenvalues --    7.25374   7.26417   7.26417   7.26597   7.26597
 Alpha virt. eigenvalues --    7.26599   7.35328   7.35328   7.35329   7.37837
 Alpha virt. eigenvalues --    7.37837   7.37838   7.38375   7.38438   7.38438
 Alpha virt. eigenvalues --    7.44691   7.44692   7.44693   7.51449   7.51450
 Alpha virt. eigenvalues --    7.51450   7.53345   7.58688   7.58688   7.58689
 Alpha virt. eigenvalues --    7.59865   7.59865   7.63586   7.63586   7.66454
 Alpha virt. eigenvalues --    7.66454   7.66455   7.67328   7.67328   7.67329
 Alpha virt. eigenvalues --    7.67879   7.70650   7.70650   7.70650   7.71711
 Alpha virt. eigenvalues --    7.71712   7.71712   7.74033   7.74034   7.74035
 Alpha virt. eigenvalues --    7.74679   7.87888   7.87889   7.87889   7.90835
 Alpha virt. eigenvalues --    7.90836   7.92444   7.92444   7.92445   8.01010
 Alpha virt. eigenvalues --    8.05193   8.05193   8.05194   8.11813   8.11813
 Alpha virt. eigenvalues --    8.11815   8.12458   8.12459   8.13488   8.13488
 Alpha virt. eigenvalues --    8.13488   8.13629   8.18065   8.18065   8.18066
 Alpha virt. eigenvalues --    8.21727   8.21727   8.21728   8.24478   8.24478
 Alpha virt. eigenvalues --    8.24479   8.24981   8.24981   8.25023   8.25023
 Alpha virt. eigenvalues --    8.25025   8.26619   8.26619   8.26619   8.28407
 Alpha virt. eigenvalues --    8.28407   8.28408   8.29232   8.29233   8.29585
 Alpha virt. eigenvalues --    8.50222   8.50222   8.50223   8.51538   8.51538
 Alpha virt. eigenvalues --    8.54995   8.54996   8.54996   8.59780   8.59780
 Alpha virt. eigenvalues --    8.59780   8.62024   8.79213   8.79214   8.81328
 Alpha virt. eigenvalues --    8.81328   8.81329   8.81720   8.81721   8.81722
 Alpha virt. eigenvalues --    8.89563   8.92027   8.92028   8.92029   9.41086
 Alpha virt. eigenvalues --    9.41086   9.41087   9.42293   9.42293   9.43613
 Alpha virt. eigenvalues --    9.43613   9.43615   9.50126   9.50274   9.50275
 Alpha virt. eigenvalues --    9.50276   9.81915   9.81915   9.81918   9.83007
 Alpha virt. eigenvalues --    9.83008   9.83010   9.83089   9.83089   9.87251
 Alpha virt. eigenvalues --    9.87252   9.87253   9.91343   9.91344   9.91345
 Alpha virt. eigenvalues --    9.92362   9.98147   9.98149   9.99354   9.99355
 Alpha virt. eigenvalues --    9.99356  10.05213  10.14529  10.14531  10.14532
 Alpha virt. eigenvalues --   10.24867  10.24867  10.24868  10.26015  11.96652
 Alpha virt. eigenvalues --   11.96653  12.05326  12.05327  12.05329  12.10899
 Alpha virt. eigenvalues --   12.10900  12.10901  12.45607  12.45608  12.45610
 Alpha virt. eigenvalues --   12.57273  28.48681  28.48682  28.48683  28.50386
 Alpha virt. eigenvalues --  147.20483 147.20485 147.20486 147.21044
          Condensed to atoms (all electrons):
               1          2          3          4          5          6
     1  Li   2.228993   0.057720   0.057700   0.057695   0.191658   0.008887
     2  Li   0.057720   2.228978   0.057663   0.057663   0.191696   0.191665
     3  Li   0.057700   0.057663   2.229010   0.057673   0.191699   0.191716
     4  Li   0.057695   0.057663   0.057673   2.228995   0.008899   0.191741
     5  C    0.191658   0.191696   0.191699   0.008899   5.051647   0.028791
     6  C    0.008887   0.191665   0.191716   0.191741   0.028791   5.052192
     7  C    0.191704   0.008830   0.191693   0.191779   0.028795   0.028796
     8  C    0.191732   0.191722   0.008858   0.191716   0.028795   0.028785
     9  H   -0.049711  -0.049699  -0.005690   0.003829   0.213963  -0.004145
    10  H    0.003832  -0.049693  -0.005693  -0.049720  -0.004143   0.213818
    11  H   -0.005698   0.003843  -0.049693  -0.049711  -0.004143   0.001009
    12  H   -0.005709  -0.049705   0.003839  -0.049688  -0.004143   0.001010
    13  H   -0.049712   0.003834  -0.049705  -0.005710   0.001007  -0.004143
    14  H    0.003826  -0.049687  -0.049708  -0.005701   0.001008   0.213827
    15  H   -0.005694  -0.049695  -0.049708   0.003827   0.213960   0.001008
    16  H   -0.049723  -0.049706   0.003833  -0.005705   0.001008  -0.004145
    17  H   -0.049703   0.003843  -0.005712  -0.049704  -0.004144  -0.004146
    18  H   -0.049695  -0.005710  -0.049701   0.003829   0.213948  -0.004145
    19  H   -0.049711  -0.005708   0.003835  -0.049696  -0.004143  -0.004145
    20  H    0.003837  -0.005695  -0.049712  -0.049686  -0.004143   0.213790
               7          8          9         10         11         12
     1  Li   0.191704   0.191732  -0.049711   0.003832  -0.005698  -0.005709
     2  Li   0.008830   0.191722  -0.049699  -0.049693   0.003843  -0.049705
     3  Li   0.191693   0.008858  -0.005690  -0.005693  -0.049693   0.003839
     4  Li   0.191779   0.191716   0.003829  -0.049720  -0.049711  -0.049688
     5  C    0.028795   0.028795   0.213963  -0.004143  -0.004143  -0.004143
     6  C    0.028796   0.028785  -0.004145   0.213818   0.001009   0.001010
     7  C    5.052082   0.028797  -0.004145  -0.004143   0.213839  -0.004144
     8  C    0.028797   5.052102   0.001007   0.001009  -0.004144   0.213847
     9  H   -0.004145   0.001007   0.856248   0.001523  -0.000066  -0.000358
    10  H   -0.004143   0.001009   0.001523   0.856299  -0.000359  -0.000326
    11  H    0.213839  -0.004144  -0.000066  -0.000359   0.856283   0.001523
    12  H   -0.004144   0.213847  -0.000358  -0.000326   0.001523   0.856279
    13  H    0.213845  -0.004143  -0.000358  -0.000066   0.014577  -0.000066
    14  H   -0.004143  -0.004142  -0.000358   0.014577  -0.000358  -0.000358
    15  H   -0.004145  -0.004145   0.014553  -0.000358   0.001523   0.001523
    16  H   -0.004144   0.213800  -0.000326  -0.000358  -0.000066   0.014591
    17  H    0.213827   0.001009   0.001523   0.001523   0.014584  -0.000359
    18  H    0.001008  -0.004144   0.014556  -0.000066  -0.000359  -0.000066
    19  H    0.001008   0.213838  -0.000358  -0.000359  -0.000359   0.014579
    20  H    0.001009  -0.004144  -0.000066   0.014584  -0.000326  -0.000358
              13         14         15         16         17         18
     1  Li  -0.049712   0.003826  -0.005694  -0.049723  -0.049703  -0.049695
     2  Li   0.003834  -0.049687  -0.049695  -0.049706   0.003843  -0.005710
     3  Li  -0.049705  -0.049708  -0.049708   0.003833  -0.005712  -0.049701
     4  Li  -0.005710  -0.005701   0.003827  -0.005705  -0.049704   0.003829
     5  C    0.001007   0.001008   0.213960   0.001008  -0.004144   0.213948
     6  C   -0.004143   0.213827   0.001008  -0.004145  -0.004146  -0.004145
     7  C    0.213845  -0.004143  -0.004145  -0.004144   0.213827   0.001008
     8  C   -0.004143  -0.004142  -0.004145   0.213800   0.001009  -0.004144
     9  H   -0.000358  -0.000358   0.014553  -0.000326   0.001523   0.014556
    10  H   -0.000066   0.014577  -0.000358  -0.000358   0.001523  -0.000066
    11  H    0.014577  -0.000358   0.001523  -0.000066   0.014584  -0.000359
    12  H   -0.000066  -0.000358   0.001523   0.014591  -0.000359  -0.000066
    13  H    0.856290   0.001523  -0.000358   0.001523   0.014579  -0.000326
    14  H    0.001523   0.856287  -0.000326   0.001523  -0.000066  -0.000359
    15  H   -0.000358  -0.000326   0.856223  -0.000359  -0.000066   0.014551
    16  H    0.001523   0.001523  -0.000359   0.856298  -0.000358  -0.000359
    17  H    0.014579  -0.000066  -0.000066  -0.000358   0.856278  -0.000359
    18  H   -0.000326  -0.000359   0.014551  -0.000359  -0.000359   0.856234
    19  H   -0.000359  -0.000066  -0.000066   0.014584  -0.000326   0.001523
    20  H   -0.000359   0.014588  -0.000359  -0.000066  -0.000359   0.001523
              19         20
     1  Li  -0.049711   0.003837
     2  Li  -0.005708  -0.005695
     3  Li   0.003835  -0.049712
     4  Li  -0.049696  -0.049686
     5  C   -0.004143  -0.004143
     6  C   -0.004145   0.213790
     7  C    0.001008   0.001009
     8  C    0.213838  -0.004144
     9  H   -0.000358  -0.000066
    10  H   -0.000359   0.014584
    11  H   -0.000359  -0.000326
    12  H    0.014579  -0.000358
    13  H   -0.000359  -0.000359
    14  H   -0.000066   0.014588
    15  H   -0.000066  -0.000359
    16  H    0.014584  -0.000066
    17  H   -0.000326  -0.000359
    18  H    0.001523   0.001523
    19  H    0.856270   0.001523
    20  H    0.001523   0.856305
 Mulliken charges:
               1
     1  Li   0.317772
     2  Li   0.317838
     3  Li   0.317803
     4  Li   0.317676
     5  C   -0.342016
     6  C   -0.342167
     7  C   -0.342149
     8  C   -0.342153
     9  H    0.008079
    10  H    0.008119
    11  H    0.008101
    12  H    0.008091
    13  H    0.008128
    14  H    0.008113
    15  H    0.008110
    16  H    0.008154
    17  H    0.008134
    18  H    0.008117
    19  H    0.008135
    20  H    0.008113
 Sum of Mulliken charges =  -0.00000
 Mulliken charges with hydrogens summed into heavy atoms:
               1
     1  Li   0.317772
     2  Li   0.317838
     3  Li   0.317803
     4  Li   0.317676
     5  C   -0.317709
     6  C   -0.317821
     7  C   -0.317787
     8  C   -0.317772
 Electronic spatial extent (au):  <R**2>=            989.6676
 Charge=              0.0000 electrons
 Dipole moment (field-independent basis, Debye):
    X=              0.0000    Y=              0.0001    Z=             -0.0001  Tot=              0.0001
 Quadrupole moment (field-independent basis, Debye-Ang):
   XX=            -46.7098   YY=            -46.7102   ZZ=            -46.7102
   XY=              0.0000   XZ=             -0.0001   YZ=              0.0001
 Traceless Quadrupole moment (field-independent basis, Debye-Ang):
   XX=              0.0003   YY=             -0.0001   ZZ=             -0.0001
   XY=              0.0000   XZ=             -0.0001   YZ=              0.0001
 Octapole moment (field-independent basis, Debye-Ang**2):
  XXX=            -30.5679  YYY=            -18.1110  ZZZ=             -1.4596  XYY=             17.0322
  XXY=             -5.4731  XXZ=              5.3061  XZZ=             13.5362  YZZ=             23.5844
  YYZ=             -3.8472  XYZ=              2.8662
 Hexadecapole moment (field-independent basis, Debye-Ang**3):
 XXXX=           -556.8134 YYYY=           -552.8118 ZZZZ=           -554.0221 XXXY=             -0.9946
 XXXZ=              1.1809 YYYX=              4.5974 YYYZ=             -0.3082 ZZZX=             -1.3331
 ZZZY=              0.9628 XXYY=           -182.7164 XXZZ=           -181.5056 YYZZ=           -185.5130
 XXYZ=             -0.6524 YYXZ=              0.1514 ZZXY=             -3.6028
 N-N= 2.009636883204D+02 E-N=-8.407829412239D+02  KE= 1.880467479667D+02
   1 Symmetry operations used in ECPInt.
 ECPInt:  NShTT=   28920 NPrTT=   68284 LenC2=   27459 LenP2D=   53162.
 LDataN:  DoStor=T MaxTD1= 9 Len=  602
 Calling FoFJK, ICntrl=      2527 FMM=F ISym2X=0 I1Cent= 0 IOpClX= 0 NMat=1 NMatS=1 NMatT=0.
 ***** Axes restored to original set *****
 -------------------------------------------------------------------
 Center     Atomic                   Forces (Hartrees/Bohr)
 Number     Number              X              Y              Z
 -------------------------------------------------------------------
      1        3          -0.002712334    0.002739288   -0.002719875
      2        3           0.002744656   -0.002753998   -0.002725365
      3        3           0.002716513    0.002754508    0.002733160
      4        3          -0.002763874   -0.002777036    0.002734674
      5        6          -0.002818822   -0.002816728    0.002819039
      6        6          -0.002845732    0.002846008   -0.002845380
      7        6           0.002823796   -0.002843279   -0.002822224
      8        6           0.002838496    0.002836719    0.002836968
      9        1           0.004133129    0.004132104    0.002349836
     10        1           0.004131367    0.002350096    0.004129168
     11        1          -0.004133875    0.004132087   -0.002352798
     12        1          -0.004129891    0.002350568   -0.004129601
     13        1          -0.004123377   -0.002343921    0.004122108
     14        1          -0.002351059   -0.004129108    0.004132935
     15        1          -0.002349759    0.004131806   -0.004132217
     16        1          -0.004129048   -0.004131355    0.002350957
     17        1           0.002354062    0.004133293    0.004132749
     18        1           0.004132065   -0.002350211   -0.004131245
     19        1           0.002350380   -0.004130047   -0.004128391
     20        1           0.004133307   -0.004130795   -0.002354498
 -------------------------------------------------------------------
 Cartesian Forces:  Max     0.004133875 RMS     0.003322059

 GradGradGradGradGradGradGradGradGradGradGradGradGradGradGradGradGradGrad
 Berny optimization.
 FormGI is forming the generalized inverse of G from B-inverse, IUseBI=4.
 Internal  Forces:  Max     0.006265017 RMS     0.001579536
 Search for a local minimum.
 Step number   1 out of a maximum of  120
 All quantities printed in internal units (Hartrees-Bohrs-Radians)
 Mixed Optimization -- RFO/linear search
 Second derivative matrix not updated -- first step.
 ITU=  0
     Eigenvalues ---    0.01670   0.01670   0.01952   0.01952   0.01952
     Eigenvalues ---    0.01974   0.02834   0.02834   0.02834   0.03271
     Eigenvalues ---    0.03271   0.03271   0.03402   0.04181   0.04181
     Eigenvalues ---    0.04181   0.04424   0.04424   0.04613   0.04613
     Eigenvalues ---    0.05014   0.05350   0.05350   0.05350   0.05425
     Eigenvalues ---    0.05425   0.05425   0.06529   0.06529   0.06529
     Eigenvalues ---    0.07298   0.07298   0.07298   0.08275   0.08275
     Eigenvalues ---    0.08275   0.08415   0.08415   0.08842   0.11140
     Eigenvalues ---    0.11140   0.11140   0.31249   0.31249   0.31249
     Eigenvalues ---    0.31249   0.31250   0.31250   0.31250   0.31250
     Eigenvalues ---    0.31250   0.31250   0.31250   0.31252
 RFO step:  Lambda=-2.70959577D-03 EMin= 1.67022467D-02
 Linear search not attempted -- first point.
 Iteration  1 RMS(Cart)=  0.01369063 RMS(Int)=  0.00001381
 Iteration  2 RMS(Cart)=  0.00001196 RMS(Int)=  0.00000515
 Iteration  3 RMS(Cart)=  0.00000000 RMS(Int)=  0.00000515
 Variable       Old X    -DE/DX   Delta X   Delta X   Delta X     New X
                                 (Linear)    (Quad)   (Total)
    R1        4.65860  -0.00145   0.00000  -0.03321  -0.03323   4.62537
    R2        4.65860  -0.00144   0.00000  -0.03296  -0.03298   4.62562
    R3        4.65860  -0.00146   0.00000  -0.03325  -0.03327   4.62533
    R4        4.22527  -0.00204   0.00000  -0.03572  -0.03571   4.18956
    R5        4.22528  -0.00204   0.00000  -0.03563  -0.03562   4.18966
    R6        4.22527  -0.00204   0.00000  -0.03571  -0.03570   4.18957
    R7        4.65860  -0.00146   0.00000  -0.03324  -0.03326   4.62534
    R8        4.65860  -0.00146   0.00000  -0.03319  -0.03321   4.62539
    R9        4.22527  -0.00205   0.00000  -0.03588  -0.03587   4.18940
   R10        4.22526  -0.00202   0.00000  -0.03542  -0.03541   4.18985
   R11        4.22527  -0.00203   0.00000  -0.03563  -0.03562   4.18965
   R12        4.65860  -0.00147   0.00000  -0.03337  -0.03339   4.62521
   R13        4.22527  -0.00204   0.00000  -0.03578  -0.03577   4.18950
   R14        4.22527  -0.00204   0.00000  -0.03567  -0.03566   4.18961
   R15        4.22528  -0.00203   0.00000  -0.03555  -0.03554   4.18974
   R16        4.22527  -0.00203   0.00000  -0.03561  -0.03560   4.18967
   R17        4.22526  -0.00204   0.00000  -0.03580  -0.03579   4.18947
   R18        4.22527  -0.00202   0.00000  -0.03546  -0.03545   4.18982
   R19        2.12238  -0.00626   0.00000  -0.01986  -0.01986   2.10252
   R20        2.12238  -0.00626   0.00000  -0.01986  -0.01986   2.10252
   R21        2.12238  -0.00626   0.00000  -0.01986  -0.01986   2.10252
   R22        2.12239  -0.00626   0.00000  -0.01985  -0.01985   2.10253
   R23        2.12239  -0.00626   0.00000  -0.01986  -0.01986   2.10253
   R24        2.12240  -0.00626   0.00000  -0.01987  -0.01987   2.10252
   R25        2.12240  -0.00626   0.00000  -0.01987  -0.01987   2.10253
   R26        2.12234  -0.00625   0.00000  -0.01981  -0.01981   2.10252
   R27        2.12240  -0.00627   0.00000  -0.01988  -0.01988   2.10252
   R28        2.12238  -0.00626   0.00000  -0.01985  -0.01985   2.10253
   R29        2.12238  -0.00626   0.00000  -0.01986  -0.01986   2.10253
   R30        2.12238  -0.00626   0.00000  -0.01985  -0.01985   2.10254
    A1        1.83608  -0.00014   0.00000  -0.00110  -0.00110   1.83498
    A2        1.83608  -0.00014   0.00000  -0.00111  -0.00111   1.83497
    A3        1.83608  -0.00015   0.00000  -0.00117  -0.00117   1.83491
    A4        1.90017  -0.00015   0.00000  -0.00118  -0.00118   1.89898
    A5        1.90016  -0.00015   0.00000  -0.00113  -0.00113   1.89903
    A6        1.90016  -0.00014   0.00000  -0.00108  -0.00108   1.89907
    A7        1.83608  -0.00014   0.00000  -0.00105  -0.00106   1.83503
    A8        1.83608  -0.00014   0.00000  -0.00104  -0.00104   1.83504
    A9        1.83608  -0.00014   0.00000  -0.00114  -0.00115   1.83494
   A10        1.90016  -0.00014   0.00000  -0.00112  -0.00112   1.89904
   A11        1.90016  -0.00014   0.00000  -0.00110  -0.00111   1.89906
   A12        1.90016  -0.00014   0.00000  -0.00110  -0.00110   1.89906
   A13        1.83608  -0.00014   0.00000  -0.00106  -0.00106   1.83502
   A14        1.83608  -0.00014   0.00000  -0.00111  -0.00112   1.83496
   A15        1.83608  -0.00014   0.00000  -0.00111  -0.00112   1.83496
   A16        1.90016  -0.00014   0.00000  -0.00107  -0.00107   1.89909
   A17        1.90017  -0.00015   0.00000  -0.00119  -0.00119   1.89897
   A18        1.90016  -0.00014   0.00000  -0.00109  -0.00110   1.89906
   A19        1.83608  -0.00013   0.00000  -0.00099  -0.00099   1.83509
   A20        1.83609  -0.00014   0.00000  -0.00106  -0.00106   1.83503
   A21        1.83608  -0.00014   0.00000  -0.00105  -0.00105   1.83503
   A22        1.90017  -0.00014   0.00000  -0.00103  -0.00103   1.89913
   A23        1.90016  -0.00014   0.00000  -0.00109  -0.00110   1.89906
   A24        1.90016  -0.00014   0.00000  -0.00110  -0.00111   1.89906
   A25        2.25158  -0.00015   0.00000  -0.00149  -0.00149   2.25010
   A26        1.34409  -0.00037   0.00000  -0.00336  -0.00337   1.34072
   A27        2.25158  -0.00015   0.00000  -0.00149  -0.00149   2.25009
   A28        2.25158  -0.00015   0.00000  -0.00149  -0.00149   2.25010
   A29        2.25158  -0.00015   0.00000  -0.00148  -0.00148   2.25010
   A30        1.34409  -0.00037   0.00000  -0.00333  -0.00333   1.34076
   A31        1.34409  -0.00037   0.00000  -0.00337  -0.00338   1.34071
   A32        2.25158  -0.00015   0.00000  -0.00147  -0.00147   2.25011
   A33        2.25158  -0.00015   0.00000  -0.00151  -0.00151   2.25008
   A34        1.77255   0.00028   0.00000   0.00272   0.00272   1.77527
   A35        1.77255   0.00028   0.00000   0.00274   0.00274   1.77529
   A36        1.77255   0.00028   0.00000   0.00274   0.00274   1.77529
   A37        2.25159  -0.00015   0.00000  -0.00148  -0.00149   2.25010
   A38        2.25159  -0.00015   0.00000  -0.00151  -0.00151   2.25007
   A39        1.34408  -0.00037   0.00000  -0.00328  -0.00329   1.34079
   A40        1.34409  -0.00037   0.00000  -0.00330  -0.00330   1.34079
   A41        2.25158  -0.00015   0.00000  -0.00149  -0.00149   2.25009
   A42        2.25157  -0.00015   0.00000  -0.00149  -0.00149   2.25009
   A43        2.25158  -0.00015   0.00000  -0.00152  -0.00152   2.25006
   A44        1.34409  -0.00037   0.00000  -0.00330  -0.00331   1.34078
   A45        2.25158  -0.00015   0.00000  -0.00148  -0.00148   2.25010
   A46        1.77254   0.00028   0.00000   0.00274   0.00274   1.77529
   A47        1.77255   0.00028   0.00000   0.00275   0.00275   1.77530
   A48        1.77256   0.00028   0.00000   0.00273   0.00273   1.77529
   A49        1.34408  -0.00037   0.00000  -0.00335  -0.00336   1.34072
   A50        2.25159  -0.00015   0.00000  -0.00152  -0.00152   2.25007
   A51        2.25157  -0.00015   0.00000  -0.00146  -0.00146   2.25010
   A52        2.25157  -0.00015   0.00000  -0.00147  -0.00147   2.25010
   A53        2.25160  -0.00015   0.00000  -0.00151  -0.00151   2.25009
   A54        1.34408  -0.00037   0.00000  -0.00330  -0.00331   1.34077
   A55        2.25159  -0.00015   0.00000  -0.00148  -0.00148   2.25011
   A56        1.34411  -0.00037   0.00000  -0.00330  -0.00331   1.34080
   A57        2.25159  -0.00015   0.00000  -0.00150  -0.00150   2.25009
   A58        1.77255   0.00028   0.00000   0.00274   0.00273   1.77529
   A59        1.77254   0.00028   0.00000   0.00273   0.00273   1.77527
   A60        1.77256   0.00028   0.00000   0.00274   0.00274   1.77530
   A61        1.34409  -0.00037   0.00000  -0.00332  -0.00332   1.34077
   A62        2.25158  -0.00015   0.00000  -0.00150  -0.00150   2.25008
   A63        2.25158  -0.00015   0.00000  -0.00149  -0.00149   2.25009
   A64        2.25158  -0.00015   0.00000  -0.00150  -0.00150   2.25009
   A65        2.25158  -0.00015   0.00000  -0.00149  -0.00149   2.25009
   A66        1.34409  -0.00037   0.00000  -0.00332  -0.00333   1.34076
   A67        2.25158  -0.00015   0.00000  -0.00149  -0.00149   2.25010
   A68        1.34409  -0.00037   0.00000  -0.00328  -0.00329   1.34080
   A69        2.25158  -0.00015   0.00000  -0.00149  -0.00149   2.25009
   A70        1.77255   0.00028   0.00000   0.00274   0.00274   1.77529
   A71        1.77255   0.00028   0.00000   0.00272   0.00272   1.77527
   A72        1.77255   0.00028   0.00000   0.00275   0.00274   1.77529
    D1        0.00001  -0.00000   0.00000  -0.00006  -0.00006  -0.00005
    D2       -0.00000   0.00000   0.00000   0.00005   0.00005   0.00005
    D3        0.00000   0.00000   0.00000   0.00008   0.00008   0.00008
    D4        1.49291  -0.00010   0.00000  -0.00121  -0.00121   1.49170
    D5        3.14159  -0.00000   0.00000  -0.00009  -0.00010   3.14150
    D6       -1.49291   0.00009   0.00000   0.00104   0.00104  -1.49187
    D7        0.45829   0.00007   0.00000   0.00016   0.00016   0.45845
    D8        2.10697   0.00017   0.00000   0.00127   0.00127   2.10824
    D9       -2.52753   0.00026   0.00000   0.00241   0.00241  -2.52512
   D10        2.52754  -0.00026   0.00000  -0.00247  -0.00247   2.52507
   D11       -2.10697  -0.00017   0.00000  -0.00135  -0.00136  -2.10832
   D12       -0.45828  -0.00007   0.00000  -0.00022  -0.00022  -0.45850
   D13       -3.14158   0.00000   0.00000   0.00004   0.00004  -3.14154
   D14        1.49293  -0.00010   0.00000  -0.00110  -0.00110   1.49183
   D15       -1.49292   0.00010   0.00000   0.00117   0.00117  -1.49175
   D16       -2.10695  -0.00017   0.00000  -0.00132  -0.00133  -2.10828
   D17        2.52755  -0.00027   0.00000  -0.00247  -0.00247   2.52508
   D18       -0.45829  -0.00007   0.00000  -0.00020  -0.00020  -0.45849
   D19        2.10698   0.00017   0.00000   0.00133   0.00134   2.10831
   D20        0.45830   0.00007   0.00000   0.00019   0.00019   0.45849
   D21       -2.52754   0.00027   0.00000   0.00246   0.00246  -2.52508
   D22       -3.14159  -0.00000   0.00000  -0.00003  -0.00004   3.14156
   D23       -1.49291   0.00009   0.00000   0.00114   0.00114  -1.49177
   D24        1.49291  -0.00010   0.00000  -0.00119  -0.00119   1.49172
   D25        2.10697   0.00017   0.00000   0.00134   0.00134   2.10831
   D26       -2.52754   0.00027   0.00000   0.00252   0.00252  -2.52502
   D27        0.45828   0.00007   0.00000   0.00018   0.00019   0.45847
   D28       -2.10696  -0.00017   0.00000  -0.00135  -0.00135  -2.10832
   D29       -0.45828  -0.00007   0.00000  -0.00017  -0.00018  -0.45846
   D30        2.52754  -0.00027   0.00000  -0.00250  -0.00251   2.52503
   D31       -0.00001   0.00000   0.00000   0.00006   0.00006   0.00006
   D32        0.00000  -0.00000   0.00000  -0.00006  -0.00006  -0.00006
   D33       -1.49291   0.00010   0.00000   0.00120   0.00120  -1.49171
   D34        1.49291  -0.00009   0.00000  -0.00113  -0.00113   1.49178
   D35        3.14159   0.00000   0.00000   0.00004   0.00004  -3.14155
   D36       -0.45828  -0.00007   0.00000  -0.00013  -0.00013  -0.45841
   D37        2.52754  -0.00026   0.00000  -0.00246  -0.00246   2.52508
   D38       -2.10696  -0.00017   0.00000  -0.00129  -0.00129  -2.10826
   D39       -2.52754   0.00026   0.00000   0.00247   0.00247  -2.52507
   D40        0.45828   0.00007   0.00000   0.00014   0.00015   0.45842
   D41        2.10696   0.00017   0.00000   0.00131   0.00131   2.10827
   D42        1.49291  -0.00010   0.00000  -0.00115  -0.00115   1.49176
   D43       -1.49291   0.00010   0.00000   0.00125   0.00125  -1.49166
   D44        3.14158   0.00000   0.00000   0.00006   0.00006  -3.14154
   D45        0.45828   0.00007   0.00000   0.00014   0.00014   0.45842
   D46       -2.52754   0.00027   0.00000   0.00254   0.00254  -2.52500
   D47        2.10696   0.00017   0.00000   0.00135   0.00136   2.10831
   D48        2.52754  -0.00027   0.00000  -0.00246  -0.00247   2.52507
   D49       -0.45828  -0.00007   0.00000  -0.00006  -0.00007  -0.45835
   D50       -2.10697  -0.00017   0.00000  -0.00125  -0.00125  -2.10822
   D51       -1.49291   0.00010   0.00000   0.00111   0.00111  -1.49180
   D52        1.49291  -0.00010   0.00000  -0.00121  -0.00121   1.49170
   D53       -3.14159  -0.00000   0.00000  -0.00004  -0.00004   3.14155
   D54       -0.45828  -0.00007   0.00000  -0.00018  -0.00019  -0.45847
   D55        2.52754  -0.00027   0.00000  -0.00251  -0.00251   2.52503
   D56       -2.10696  -0.00017   0.00000  -0.00133  -0.00134  -2.10830
   D57       -2.52754   0.00026   0.00000   0.00242   0.00243  -2.52511
   D58        0.45828   0.00007   0.00000   0.00010   0.00010   0.45839
   D59        2.10696   0.00017   0.00000   0.00127   0.00128   2.10824
   D60       -0.00000  -0.00000   0.00000  -0.00007  -0.00007  -0.00007
   D61       -3.14159   0.00000   0.00000   0.00007   0.00007  -3.14152
   D62       -1.49291   0.00010   0.00000   0.00117   0.00117  -1.49174
   D63        1.49291  -0.00009   0.00000  -0.00106  -0.00105   1.49186
   D64        2.10697   0.00017   0.00000   0.00134   0.00134   2.10831
   D65       -2.52754   0.00026   0.00000   0.00244   0.00244  -2.52510
   D66        0.45828   0.00007   0.00000   0.00021   0.00021   0.45850
   D67       -2.10697  -0.00017   0.00000  -0.00127  -0.00128  -2.10824
   D68       -0.45829  -0.00007   0.00000  -0.00017  -0.00018  -0.45846
   D69        2.52753  -0.00026   0.00000  -0.00240  -0.00240   2.52513
   D70       -3.14159  -0.00000   0.00000  -0.00004  -0.00004   3.14156
   D71        1.49291  -0.00010   0.00000  -0.00123  -0.00123   1.49168
   D72       -1.49291   0.00010   0.00000   0.00117   0.00117  -1.49174
   D73       -2.10697  -0.00017   0.00000  -0.00137  -0.00138  -2.10834
   D74        2.52754  -0.00027   0.00000  -0.00257  -0.00257   2.52497
   D75       -0.45828  -0.00007   0.00000  -0.00017  -0.00017  -0.45845
   D76        2.10696   0.00017   0.00000   0.00130   0.00130   2.10827
   D77        0.45829   0.00007   0.00000   0.00010   0.00011   0.45839
   D78       -2.52754   0.00027   0.00000   0.00250   0.00251  -2.52503
   D79        1.49292  -0.00010   0.00000  -0.00124  -0.00124   1.49168
   D80       -1.49291   0.00009   0.00000   0.00111   0.00111  -1.49181
   D81        3.14159  -0.00000   0.00000  -0.00008  -0.00008   3.14151
   D82        0.45829   0.00007   0.00000   0.00012   0.00012   0.45841
   D83       -2.52754   0.00027   0.00000   0.00247   0.00247  -2.52507
   D84        2.10696   0.00017   0.00000   0.00128   0.00128   2.10824
   D85        2.52754  -0.00026   0.00000  -0.00248  -0.00248   2.52506
   D86       -0.45829  -0.00007   0.00000  -0.00013  -0.00013  -0.45842
   D87       -2.10697  -0.00017   0.00000  -0.00132  -0.00132  -2.10829
   D88       -1.49291   0.00010   0.00000   0.00112   0.00112  -1.49179
   D89       -3.14159  -0.00000   0.00000  -0.00007  -0.00007   3.14152
   D90        1.49289  -0.00010   0.00000  -0.00124  -0.00124   1.49166
   D91       -0.45828  -0.00007   0.00000  -0.00012  -0.00012  -0.45840
   D92       -2.10696  -0.00017   0.00000  -0.00131  -0.00132  -2.10828
   D93        2.52753  -0.00026   0.00000  -0.00248  -0.00248   2.52504
   D94       -2.52754   0.00027   0.00000   0.00243   0.00243  -2.52511
   D95        2.10697   0.00017   0.00000   0.00123   0.00124   2.10820
   D96        0.45827   0.00007   0.00000   0.00007   0.00007   0.45834
   D97       -1.49289   0.00010   0.00000   0.00123   0.00123  -1.49166
   D98       -3.14159   0.00000   0.00000   0.00006   0.00006  -3.14153
   D99        1.49289  -0.00009   0.00000  -0.00113  -0.00113   1.49176
   D100      -2.52752   0.00026   0.00000   0.00246   0.00246  -2.52505
   D101       2.10697   0.00017   0.00000   0.00129   0.00129   2.10826
   D102       0.45826   0.00007   0.00000   0.00010   0.00010   0.45837
   D103      -0.45826  -0.00007   0.00000  -0.00008  -0.00008  -0.45834
   D104      -2.10696  -0.00017   0.00000  -0.00126  -0.00126  -2.10822
   D105       2.52752  -0.00026   0.00000  -0.00244  -0.00245   2.52508
   D106       1.49291  -0.00010   0.00000  -0.00114  -0.00114   1.49177
   D107      -3.14159   0.00000   0.00000   0.00006   0.00006  -3.14153
   D108      -1.49291   0.00010   0.00000   0.00127   0.00127  -1.49164
   D109       2.52754  -0.00026   0.00000  -0.00242  -0.00242   2.52511
   D110      -2.10696  -0.00016   0.00000  -0.00122  -0.00122  -2.10818
   D111      -0.45828  -0.00007   0.00000  -0.00001  -0.00001  -0.45829
   D112       0.45828   0.00007   0.00000   0.00008   0.00008   0.45836
   D113       2.10696   0.00017   0.00000   0.00128   0.00129   2.10825
   D114      -2.52754   0.00026   0.00000   0.00249   0.00250  -2.52505
         Item               Value     Threshold  Converged?
 Maximum Force            0.006265     0.000450     NO 
 RMS     Force            0.001580     0.000300     NO 
 Maximum Displacement     0.035565     0.001800     NO 
 RMS     Displacement     0.013683     0.001200     NO 
 Predicted change in Energy=-1.391580D-03
 GradGradGradGradGradGradGradGradGradGradGradGradGradGradGradGradGradGrad

                          Input orientation:                          
 ---------------------------------------------------------------------
 Center     Atomic      Atomic             Coordinates (Angstroms)
 Number     Number       Type             X           Y           Z
 ---------------------------------------------------------------------
      1          3           0        9.365432    7.634636    9.365424
      2          3           0        7.634635    9.365327    9.365425
      3          3           0        7.634555    7.634666    7.634624
      4          3           0        9.365315    9.365273    7.634602
      5          6           0        7.225318    7.225292    9.774713
      6          6           0        7.225190    9.774779    7.225202
      7          6           0        9.774739    7.225233    7.225268
      8          6           0        9.774767    9.774743    9.774803
      9          1           0        6.532741    6.532706    9.246930
     10          1           0        6.532599    9.247021    6.532603
     11          1           0       10.467315    6.532647    7.753060
     12          1           0       10.467358    9.246986   10.467401
     13          1           0       10.467340    7.752982    6.532677
     14          1           0        7.752987   10.467358    6.532621
     15          1           0        7.753096    6.532684   10.467272
     16          1           0       10.467344   10.467339    9.247030
     17          1           0        9.246974    6.532620    6.532705
     18          1           0        6.532728    7.753032   10.467318
     19          1           0        9.246982   10.467321   10.467398
     20          1           0        6.532620   10.467383    7.752975
 ---------------------------------------------------------------------
                    Distance matrix (angstroms):
                    1          2          3          4          5
     1  Li   0.000000
     2  Li   2.447641   0.000000
     3  Li   2.447775   2.447623   0.000000
     4  Li   2.447621   2.447652   2.447556   0.000000
     5  C    2.217017   2.216936   2.216990   3.706640   0.000000
     6  C    3.706939   2.217172   2.217046   2.217079   3.605537
     7  C    2.217073   3.706793   2.217114   2.216970   3.605443
     8  C    2.217026   2.217065   3.706859   2.217155   3.605467
     9  H    3.041781   3.041702   2.242285   4.318161   1.112607
    10  H    4.318519   3.041934   2.242421   3.041820   3.883108
    11  H    2.242375   4.318318   3.041875   3.041744   3.882961
    12  H    2.242380   3.041821   4.318446   3.041914   3.883025
    13  H    3.041819   4.318371   3.041867   2.242360   4.615188
    14  H    4.318457   3.041917   3.041806   2.242445   4.615257
    15  H    2.242319   3.041704   3.041761   4.318197   1.112606
    16  H    3.041781   3.041823   4.318400   2.242529   4.615198
    17  H    3.041837   4.318352   2.242459   3.041728   3.882976
    18  H    3.041776   2.242289   3.041741   4.318235   1.112606
    19  H    3.041789   2.242409   4.318387   3.041914   3.883000
    20  H    4.318479   2.242534   3.041801   3.041845   3.883093
                    6          7          8          9         10
     6  C    0.000000
     7  C    3.605605   0.000000
     8  C    3.605664   3.605569   0.000000
     9  H    3.883028   3.882945   4.615213   0.000000
    10  H    1.112612   3.883154   4.615410   3.838630   0.000000
    11  H    4.615348   1.112610   3.883073   4.208625   4.933492
    12  H    4.615417   3.883121   1.112610   4.933364   5.564618
    13  H    3.883142   1.112608   3.883112   4.933286   4.208841
    14  H    1.112611   3.883120   3.883177   4.933352   1.725853
    15  H    4.615288   3.882944   3.882990   1.725834   4.933443
    16  H    3.883167   3.883101   1.112608   5.564390   4.933509
    17  H    3.883138   1.112606   4.615315   3.838499   3.838725
    18  H    3.883076   4.615203   3.883003   1.725845   4.208799
    19  H    3.883180   4.615308   1.112614   4.933340   4.933520
    20  H    1.112608   4.615338   3.883176   4.208750   1.725860
                   11         12         13         14         15
    11  H    0.000000
    12  H    3.838657   0.000000
    13  H    1.725848   4.208812   0.000000
    14  H    4.933458   4.933520   3.838691   0.000000
    15  H    3.838481   3.838574   4.933283   5.564454   0.000000
    16  H    4.208771   1.725853   3.838678   3.838717   4.933320
    17  H    1.725833   4.933453   1.725856   4.208820   4.208621
    18  H    4.933307   4.208707   5.564402   4.933401   1.725847
    19  H    4.933408   1.725844   4.933451   4.208859   4.208689
    20  H    5.564528   4.933522   4.933469   1.725851   4.933439
                   16         17         18         19         20
    16  H    0.000000
    17  H    4.933445   0.000000
    18  H    4.933332   4.933327   0.000000
    19  H    1.725857   5.564502   3.838560   0.000000
    20  H    4.208830   4.933471   3.838666   3.838730   0.000000
 Stoichiometry    C4H12Li4
 Framework group  C1[X(C4H12Li4)]
 Deg. of freedom    54
 Full point group                 C1      NOp   1
 Largest Abelian subgroup         C1      NOp   1
 Largest concise Abelian subgroup C1      NOp   1
                         Standard orientation:                         
 ---------------------------------------------------------------------
 Center     Atomic      Atomic             Coordinates (Angstroms)
 Number     Number       Type             X           Y           Z
 ---------------------------------------------------------------------
      1          3           0        1.384331   -0.505594    0.273471
      2          3           0       -0.154145    1.373117    0.580852
      3          3           0       -1.001748   -0.922616    0.626069
      4          3           0       -0.228410    0.055055   -1.480264
      5          6           0        0.336419   -0.081226    2.180552
      6          6           0       -2.039184    0.744808   -0.402871
      7          6           0        0.227149   -2.022719   -0.855544
      8          6           0        1.475600    1.359154   -0.922182
      9          1           0       -0.348132   -0.737058    2.762935
     10          1           0       -2.877314    0.142388    0.012501
     11          1           0        1.217889   -2.509974   -0.717995
     12          1           0        2.547044    1.090525   -0.788963
     13          1           0        0.080817   -2.114626   -1.954651
     14          1           0       -2.332009    0.831824   -1.472724
     15          1           0        1.334204   -0.443017    2.514356
     16          1           0        1.409950    1.485904   -2.025596
     17          1           0       -0.464435   -2.804065   -0.469407
     18          1           0        0.249459    0.881712    2.731081
     19          1           0        1.462262    2.415221   -0.572250
     20          1           0       -2.279720    1.761170   -0.019403
 ---------------------------------------------------------------------
 Rotational constants (GHZ):           1.9075705           1.9075019           1.9074391
 Standard basis: def2QZVPP (5D, 7F)
 There are   868 symmetry adapted cartesian basis functions of A   symmetry.
 There are   728 symmetry adapted basis functions of A   symmetry.
   728 basis functions,  1044 primitive gaussians,   868 cartesian basis functions
    24 alpha electrons       24 beta electrons
       nuclear repulsion energy       202.7549933549 Hartrees.
 NAtoms=   20 NActive=   20 NUniq=   20 SFac= 1.00D+00 NAtFMM=   60 NAOKFM=F Big=F
 Integral buffers will be    131072 words long.
 Raffenetti 2 integral format.
 Two-electron integral symmetry is turned on.
 One-electron integrals computed using PRISM.
   1 Symmetry operations used in ECPInt.
 ECPInt:  NShTT=   28920 NPrTT=   68284 LenC2=   27555 LenP2D=   53426.
 LDataN:  DoStor=T MaxTD1= 8 Len=  415
 NBasis=   728 RedAO= T EigKep=  7.24D-06  NBF=   728
 NBsUse=   728 1.00D-06 EigRej= -1.00D+00 NBFU=   728
 Initial guess from the checkpoint file:  "/data/hutter/SMG16/PBE/Gau-52442.chk"
 B after Tr=    -0.000000   -0.000000   -0.000000
         Rot=    0.613324   -0.471496    0.556536   -0.302972 Ang=-104.34 deg.
 ExpMin= 2.05D-02 ExpMax= 6.70D+04 ExpMxC= 6.47D+02 IAcc=3 IRadAn=         5 AccDes= 0.00D+00
 Harris functional with IExCor= 1009 and IRadAn=       5 diagonalized for initial guess.
 HarFok:  IExCor= 1009 AccDes= 0.00D+00 IRadAn=         5 IDoV= 1 UseB2=F ITyADJ=14
 ICtDFT=  3500011 ScaDFX=  1.000000  1.000000  1.000000  1.000000
 FoFCou: FMM=F IPFlag=           0 FMFlag=      100000 FMFlg1=           0
         NFxFlg=           0 DoJE=T BraDBF=F KetDBF=T FulRan=T
         wScrn=  0.000000 ICntrl=       500 IOpCl=  0 I1Cent=   200000004 NGrid=           0
         NMat0=    1 NMatS0=      1 NMatT0=    0 NMatD0=    1 NMtDS0=    0 NMtDT0=    0
 Petite list used in FoFCou.
 Requested convergence on RMS density matrix=1.00D-08 within 128 cycles.
 Requested convergence on MAX density matrix=1.00D-06.
 Requested convergence on             energy=1.00D-06.
 No special actions if energy rises.
 SCF Done:  E(RPBE-PBE) =  -189.529507406     A.U. after    7 cycles
            NFock=  7  Conv=0.59D-08     -V/T= 2.0068
   1 Symmetry operations used in ECPInt.
 ECPInt:  NShTT=   28920 NPrTT=   68284 LenC2=   27555 LenP2D=   53426.
 LDataN:  DoStor=T MaxTD1= 9 Len=  602
 Calling FoFJK, ICntrl=      2527 FMM=F ISym2X=0 I1Cent= 0 IOpClX= 0 NMat=1 NMatS=1 NMatT=0.
 ***** Axes restored to original set *****
 -------------------------------------------------------------------
 Center     Atomic                   Forces (Hartrees/Bohr)
 Number     Number              X              Y              Z
 -------------------------------------------------------------------
      1        3          -0.002269310    0.002322983   -0.002338109
      2        3           0.002277341   -0.002321878   -0.002305119
      3        3           0.002271032    0.002328150    0.002291684
      4        3          -0.002273175   -0.002316755    0.002339038
      5        6           0.000357518    0.000354664   -0.000361064
      6        6           0.000368106   -0.000365449    0.000368185
      7        6          -0.000353824    0.000349250    0.000357175
      8        6          -0.000370377   -0.000347030   -0.000359251
      9        1           0.000531633    0.000533518   -0.000322973
     10        1           0.000534886   -0.000324479    0.000536951
     11        1          -0.000535474    0.000536042    0.000322920
     12        1          -0.000533341   -0.000321906   -0.000532463
     13        1          -0.000533625    0.000323721    0.000532087
     14        1           0.000319101   -0.000536333    0.000536697
     15        1           0.000323083    0.000532309   -0.000531426
     16        1          -0.000534820   -0.000534264   -0.000322168
     17        1          -0.000324628    0.000534496    0.000535955
     18        1           0.000530950    0.000322713   -0.000531769
     19        1          -0.000321011   -0.000534740   -0.000537223
     20        1           0.000535933   -0.000535010    0.000320873
 -------------------------------------------------------------------
 Cartesian Forces:  Max     0.002339038 RMS     0.001105948

 GradGradGradGradGradGradGradGradGradGradGradGradGradGradGradGradGradGrad
 Berny optimization.
 Using GEDIIS/GDIIS optimizer.
 FormGI is forming the generalized inverse of G from B-inverse, IUseBI=4.
 Internal  Forces:  Max     0.001295488 RMS     0.000394094
 Search for a local minimum.
 Step number   2 out of a maximum of  120
 All quantities printed in internal units (Hartrees-Bohrs-Radians)
 Mixed Optimization -- En-DIIS/RFO-DIIS
 Update second derivatives using D2CorX and points    1    2
 DE= -1.83D-03 DEPred=-1.39D-03 R= 1.32D+00
 TightC=F SS=  1.41D+00  RLast= 1.65D-01 DXNew= 5.0454D-01 4.9412D-01
 Trust test= 1.32D+00 RLast= 1.65D-01 DXMaxT set to 4.94D-01
 ITU=  1  0
 Use linear search instead of GDIIS.
     Eigenvalues ---    0.01667   0.01667   0.01954   0.01954   0.01954
     Eigenvalues ---    0.01976   0.02690   0.02831   0.02831   0.02831
     Eigenvalues ---    0.03275   0.03275   0.03275   0.03792   0.04182
     Eigenvalues ---    0.04183   0.04183   0.04435   0.04435   0.04607
     Eigenvalues ---    0.04607   0.05354   0.05354   0.05354   0.05431
     Eigenvalues ---    0.05431   0.05431   0.06550   0.06550   0.06550
     Eigenvalues ---    0.07309   0.07309   0.07309   0.08287   0.08287
     Eigenvalues ---    0.08287   0.08417   0.08417   0.08579   0.11177
     Eigenvalues ---    0.11177   0.11177   0.31249   0.31249   0.31249
     Eigenvalues ---    0.31250   0.31250   0.31250   0.31250   0.31250
     Eigenvalues ---    0.31250   0.31250   0.31252   0.36389
 RFO step:  Lambda=-5.42235221D-04 EMin= 1.66714584D-02
 Quartic linear search produced a step of  0.50011.
 Iteration  1 RMS(Cart)=  0.01338299 RMS(Int)=  0.00000752
 Iteration  2 RMS(Cart)=  0.00000512 RMS(Int)=  0.00000453
 Iteration  3 RMS(Cart)=  0.00000000 RMS(Int)=  0.00000453
 Variable       Old X    -DE/DX   Delta X   Delta X   Delta X     New X
                                 (Linear)    (Quad)   (Total)
    R1        4.62537  -0.00113  -0.01662  -0.02954  -0.04617   4.57920
    R2        4.62562  -0.00113  -0.01649  -0.02954  -0.04604   4.57958
    R3        4.62533  -0.00115  -0.01664  -0.03024  -0.04688   4.57845
    R4        4.18956  -0.00127  -0.01786  -0.02158  -0.03944   4.15012
    R5        4.18966  -0.00129  -0.01781  -0.02227  -0.04008   4.14958
    R6        4.18957  -0.00128  -0.01785  -0.02201  -0.03986   4.14971
    R7        4.62534  -0.00113  -0.01663  -0.02996  -0.04659   4.57874
    R8        4.62539  -0.00113  -0.01661  -0.02953  -0.04614   4.57925
    R9        4.18940  -0.00129  -0.01794  -0.02210  -0.04003   4.14937
   R10        4.18985  -0.00129  -0.01771  -0.02232  -0.04003   4.14982
   R11        4.18965  -0.00128  -0.01782  -0.02183  -0.03965   4.15000
   R12        4.62521  -0.00113  -0.01670  -0.02947  -0.04618   4.57904
   R13        4.18950  -0.00128  -0.01789  -0.02194  -0.03982   4.14968
   R14        4.18961  -0.00130  -0.01783  -0.02242  -0.04025   4.14936
   R15        4.18974  -0.00127  -0.01778  -0.02177  -0.03955   4.15019
   R16        4.18967  -0.00128  -0.01780  -0.02185  -0.03965   4.15003
   R17        4.18947  -0.00128  -0.01790  -0.02195  -0.03985   4.14962
   R18        4.18982  -0.00129  -0.01773  -0.02240  -0.04013   4.14969
   R19        2.10252  -0.00051  -0.00993   0.00370  -0.00623   2.09629
   R20        2.10252  -0.00051  -0.00993   0.00371  -0.00622   2.09630
   R21        2.10252  -0.00051  -0.00993   0.00372  -0.00621   2.09631
   R22        2.10253  -0.00051  -0.00993   0.00369  -0.00624   2.09630
   R23        2.10253  -0.00052  -0.00993   0.00368  -0.00625   2.09628
   R24        2.10252  -0.00052  -0.00994   0.00369  -0.00625   2.09627
   R25        2.10253  -0.00051  -0.00994   0.00370  -0.00624   2.09629
   R26        2.10252  -0.00051  -0.00991   0.00369  -0.00622   2.09630
   R27        2.10252  -0.00051  -0.00994   0.00370  -0.00624   2.09629
   R28        2.10253  -0.00051  -0.00993   0.00370  -0.00623   2.09630
   R29        2.10253  -0.00051  -0.00993   0.00370  -0.00623   2.09629
   R30        2.10254  -0.00052  -0.00993   0.00368  -0.00625   2.09629
    A1        1.83498  -0.00005  -0.00055   0.00103   0.00048   1.83545
    A2        1.83497  -0.00005  -0.00055   0.00093   0.00037   1.83534
    A3        1.83491  -0.00005  -0.00059   0.00105   0.00046   1.83537
    A4        1.89898  -0.00005  -0.00059   0.00096   0.00037   1.89935
    A5        1.89903  -0.00005  -0.00057   0.00091   0.00034   1.89937
    A6        1.89907  -0.00005  -0.00054   0.00115   0.00060   1.89968
    A7        1.83503  -0.00005  -0.00053   0.00087   0.00034   1.83536
    A8        1.83504  -0.00005  -0.00052   0.00100   0.00048   1.83552
    A9        1.83494  -0.00005  -0.00057   0.00098   0.00041   1.83534
   A10        1.89904  -0.00005  -0.00056   0.00106   0.00050   1.89954
   A11        1.89906  -0.00005  -0.00055   0.00102   0.00047   1.89952
   A12        1.89906  -0.00005  -0.00055   0.00087   0.00032   1.89938
   A13        1.83502  -0.00005  -0.00053   0.00090   0.00036   1.83538
   A14        1.83496  -0.00005  -0.00056   0.00101   0.00045   1.83542
   A15        1.83496  -0.00005  -0.00056   0.00092   0.00036   1.83532
   A16        1.89909  -0.00005  -0.00054   0.00104   0.00050   1.89959
   A17        1.89897  -0.00005  -0.00060   0.00092   0.00032   1.89929
   A18        1.89906  -0.00005  -0.00055   0.00099   0.00044   1.89950
   A19        1.83509  -0.00005  -0.00050   0.00094   0.00045   1.83553
   A20        1.83503  -0.00005  -0.00053   0.00093   0.00040   1.83543
   A21        1.83503  -0.00005  -0.00053   0.00102   0.00049   1.83552
   A22        1.89913  -0.00006  -0.00052   0.00086   0.00034   1.89947
   A23        1.89906  -0.00005  -0.00055   0.00090   0.00035   1.89941
   A24        1.89906  -0.00005  -0.00055   0.00117   0.00062   1.89967
   A25        2.25010  -0.00012  -0.00074  -0.00212  -0.00287   2.24723
   A26        1.34072  -0.00023  -0.00169  -0.00194  -0.00363   1.33709
   A27        2.25009  -0.00012  -0.00075  -0.00214  -0.00290   2.24719
   A28        2.25010  -0.00012  -0.00074  -0.00216  -0.00291   2.24719
   A29        2.25010  -0.00012  -0.00074  -0.00213  -0.00288   2.24722
   A30        1.34076  -0.00023  -0.00167  -0.00195  -0.00362   1.33713
   A31        1.34071  -0.00023  -0.00169  -0.00190  -0.00360   1.33711
   A32        2.25011  -0.00012  -0.00074  -0.00210  -0.00285   2.24726
   A33        2.25008  -0.00012  -0.00075  -0.00216  -0.00292   2.24716
   A34        1.77527   0.00022   0.00136   0.00359   0.00494   1.78021
   A35        1.77529   0.00022   0.00137   0.00356   0.00492   1.78021
   A36        1.77529   0.00022   0.00137   0.00354   0.00491   1.78020
   A37        2.25010  -0.00012  -0.00074  -0.00218  -0.00293   2.24717
   A38        2.25007  -0.00012  -0.00076  -0.00207  -0.00284   2.24723
   A39        1.34079  -0.00023  -0.00164  -0.00196  -0.00362   1.33718
   A40        1.34079  -0.00024  -0.00165  -0.00202  -0.00368   1.33711
   A41        2.25009  -0.00012  -0.00075  -0.00212  -0.00287   2.24722
   A42        2.25009  -0.00012  -0.00074  -0.00213  -0.00288   2.24721
   A43        2.25006  -0.00012  -0.00076  -0.00211  -0.00289   2.24717
   A44        1.34078  -0.00023  -0.00165  -0.00199  -0.00365   1.33713
   A45        2.25010  -0.00012  -0.00074  -0.00214  -0.00289   2.24722
   A46        1.77529   0.00022   0.00137   0.00355   0.00492   1.78021
   A47        1.77530   0.00022   0.00138   0.00356   0.00493   1.78023
   A48        1.77529   0.00022   0.00136   0.00355   0.00491   1.78020
   A49        1.34072  -0.00023  -0.00168  -0.00194  -0.00362   1.33710
   A50        2.25007  -0.00013  -0.00076  -0.00215  -0.00292   2.24715
   A51        2.25010  -0.00012  -0.00073  -0.00214  -0.00288   2.24722
   A52        2.25010  -0.00012  -0.00074  -0.00214  -0.00289   2.24721
   A53        2.25009  -0.00012  -0.00076  -0.00215  -0.00292   2.24717
   A54        1.34077  -0.00023  -0.00166  -0.00203  -0.00370   1.33707
   A55        2.25011  -0.00013  -0.00074  -0.00218  -0.00293   2.24717
   A56        1.34080  -0.00023  -0.00166  -0.00189  -0.00355   1.33725
   A57        2.25009  -0.00012  -0.00075  -0.00209  -0.00285   2.24724
   A58        1.77529   0.00022   0.00137   0.00360   0.00496   1.78025
   A59        1.77527   0.00022   0.00136   0.00355   0.00491   1.78018
   A60        1.77530   0.00022   0.00137   0.00358   0.00494   1.78024
   A61        1.34077  -0.00023  -0.00166  -0.00189  -0.00356   1.33721
   A62        2.25008  -0.00013  -0.00075  -0.00218  -0.00294   2.24714
   A63        2.25009  -0.00012  -0.00075  -0.00206  -0.00282   2.24727
   A64        2.25009  -0.00012  -0.00075  -0.00214  -0.00290   2.24718
   A65        2.25009  -0.00012  -0.00075  -0.00213  -0.00288   2.24721
   A66        1.34076  -0.00023  -0.00166  -0.00200  -0.00367   1.33709
   A67        2.25010  -0.00013  -0.00074  -0.00217  -0.00292   2.24717
   A68        1.34080  -0.00023  -0.00164  -0.00197  -0.00362   1.33718
   A69        2.25009  -0.00012  -0.00075  -0.00211  -0.00286   2.24723
   A70        1.77529   0.00022   0.00137   0.00357   0.00494   1.78023
   A71        1.77527   0.00022   0.00136   0.00358   0.00493   1.78021
   A72        1.77529   0.00022   0.00137   0.00353   0.00490   1.78019
    D1       -0.00005  -0.00000  -0.00003  -0.00024  -0.00027  -0.00032
    D2        0.00005   0.00000   0.00002   0.00020   0.00022   0.00027
    D3        0.00008  -0.00000   0.00004  -0.00008  -0.00004   0.00004
    D4        1.49170  -0.00012  -0.00060  -0.00341  -0.00401   1.48770
    D5        3.14150   0.00000  -0.00005   0.00007   0.00003   3.14152
    D6       -1.49187   0.00013   0.00052   0.00350   0.00402  -1.48785
    D7        0.45845  -0.00007   0.00008  -0.00470  -0.00462   0.45383
    D8        2.10824   0.00006   0.00064  -0.00123  -0.00059   2.10765
    D9       -2.52512   0.00018   0.00121   0.00220   0.00340  -2.52172
   D10        2.52507  -0.00018  -0.00123  -0.00226  -0.00349   2.52158
   D11       -2.10832  -0.00006  -0.00068   0.00122   0.00054  -2.10779
   D12       -0.45850   0.00007  -0.00011   0.00464   0.00453  -0.45397
   D13       -3.14154   0.00001   0.00002   0.00026   0.00028  -3.14126
   D14        1.49183  -0.00012  -0.00055  -0.00324  -0.00379   1.48804
   D15       -1.49175   0.00013   0.00058   0.00370   0.00428  -1.48747
   D16       -2.10828  -0.00006  -0.00066   0.00134   0.00067  -2.10761
   D17        2.52508  -0.00018  -0.00123  -0.00217  -0.00340   2.52168
   D18       -0.45849   0.00006  -0.00010   0.00478   0.00467  -0.45382
   D19        2.10831   0.00006   0.00067  -0.00096  -0.00029   2.10802
   D20        0.45849  -0.00006   0.00010  -0.00446  -0.00436   0.45413
   D21       -2.52508   0.00019   0.00123   0.00248   0.00371  -2.52137
   D22        3.14156  -0.00000  -0.00002  -0.00019  -0.00021   3.14135
   D23       -1.49177   0.00012   0.00057   0.00332   0.00389  -1.48788
   D24        1.49172  -0.00013  -0.00059  -0.00368  -0.00427   1.48745
   D25        2.10831   0.00006   0.00067  -0.00128  -0.00061   2.10770
   D26       -2.52502   0.00018   0.00126   0.00223   0.00349  -2.52153
   D27        0.45847  -0.00006   0.00009  -0.00477  -0.00468   0.45380
   D28       -2.10832  -0.00006  -0.00068   0.00105   0.00037  -2.10795
   D29       -0.45846   0.00006  -0.00009   0.00456   0.00447  -0.45399
   D30        2.52503  -0.00018  -0.00125  -0.00245  -0.00370   2.52134
   D31        0.00006   0.00001   0.00003   0.00014   0.00017   0.00023
   D32       -0.00006   0.00000  -0.00003   0.00024   0.00021   0.00015
   D33       -1.49171   0.00012   0.00060   0.00322   0.00382  -1.48789
   D34        1.49178  -0.00013  -0.00056  -0.00363  -0.00419   1.48759
   D35       -3.14155  -0.00000   0.00002  -0.00021  -0.00019   3.14144
   D36       -0.45841   0.00006  -0.00007   0.00445   0.00438  -0.45404
   D37        2.52508  -0.00018  -0.00123  -0.00241  -0.00364   2.52144
   D38       -2.10826  -0.00006  -0.00065   0.00101   0.00036  -2.10790
   D39       -2.52507   0.00018   0.00124   0.00221   0.00344  -2.52162
   D40        0.45842  -0.00006   0.00007  -0.00464  -0.00457   0.45385
   D41        2.10827   0.00006   0.00065  -0.00123  -0.00057   2.10770
   D42        1.49176  -0.00012  -0.00058  -0.00326  -0.00383   1.48793
   D43       -1.49166   0.00013   0.00062   0.00358   0.00420  -1.48746
   D44       -3.14154   0.00000   0.00003   0.00017   0.00020  -3.14133
   D45        0.45842  -0.00006   0.00007  -0.00451  -0.00444   0.45399
   D46       -2.52500   0.00018   0.00127   0.00233   0.00360  -2.52140
   D47        2.10831   0.00006   0.00068  -0.00108  -0.00040   2.10791
   D48        2.52507  -0.00018  -0.00123  -0.00218  -0.00341   2.52166
   D49       -0.45835   0.00006  -0.00003   0.00466   0.00462  -0.45372
   D50       -2.10822  -0.00006  -0.00063   0.00125   0.00063  -2.10760
   D51       -1.49180   0.00012   0.00056   0.00330   0.00385  -1.48794
   D52        1.49170  -0.00013  -0.00061  -0.00348  -0.00408   1.48761
   D53        3.14155  -0.00000  -0.00002  -0.00012  -0.00014   3.14142
   D54       -0.45847   0.00006  -0.00009   0.00454   0.00445  -0.45402
   D55        2.52503  -0.00019  -0.00126  -0.00224  -0.00349   2.52153
   D56       -2.10830  -0.00006  -0.00067   0.00112   0.00045  -2.10785
   D57       -2.52511   0.00019   0.00121   0.00219   0.00340  -2.52171
   D58        0.45839  -0.00006   0.00005  -0.00459  -0.00454   0.45385
   D59        2.10824   0.00006   0.00064  -0.00123  -0.00060   2.10765
   D60       -0.00007  -0.00001  -0.00004  -0.00025  -0.00029  -0.00037
   D61       -3.14152   0.00000   0.00004   0.00014   0.00018  -3.14134
   D62       -1.49174   0.00013   0.00059   0.00365   0.00423  -1.48750
   D63        1.49186  -0.00012  -0.00053  -0.00333  -0.00386   1.48800
   D64        2.10831   0.00006   0.00067  -0.00106  -0.00040   2.10791
   D65       -2.52510   0.00018   0.00122   0.00244   0.00366  -2.52144
   D66        0.45850  -0.00006   0.00011  -0.00454  -0.00443   0.45406
   D67       -2.10824  -0.00006  -0.00064   0.00124   0.00060  -2.10764
   D68       -0.45846   0.00006  -0.00009   0.00474   0.00465  -0.45381
   D69        2.52513  -0.00018  -0.00120  -0.00224  -0.00344   2.52169
   D70        3.14156  -0.00000  -0.00002  -0.00016  -0.00018   3.14138
   D71        1.49168  -0.00013  -0.00062  -0.00353  -0.00414   1.48754
   D72       -1.49174   0.00012   0.00058   0.00322   0.00380  -1.48794
   D73       -2.10834  -0.00006  -0.00069   0.00108   0.00039  -2.10795
   D74        2.52497  -0.00018  -0.00128  -0.00229  -0.00357   2.52140
   D75       -0.45845   0.00006  -0.00009   0.00445   0.00437  -0.45409
   D76        2.10827   0.00006   0.00065  -0.00118  -0.00053   2.10773
   D77        0.45839  -0.00006   0.00005  -0.00455  -0.00449   0.45390
   D78       -2.52503   0.00018   0.00125   0.00220   0.00345  -2.52159
   D79        1.49168  -0.00013  -0.00062  -0.00346  -0.00407   1.48760
   D80       -1.49181   0.00012   0.00055   0.00330   0.00385  -1.48795
   D81        3.14151  -0.00000  -0.00004  -0.00009  -0.00013   3.14137
   D82        0.45841  -0.00006   0.00006  -0.00462  -0.00456   0.45385
   D83       -2.52507   0.00018   0.00124   0.00213   0.00337  -2.52170
   D84        2.10824   0.00006   0.00064  -0.00126  -0.00062   2.10762
   D85        2.52506  -0.00019  -0.00124  -0.00229  -0.00352   2.52154
   D86       -0.45842   0.00006  -0.00007   0.00447   0.00440  -0.45402
   D87       -2.10829  -0.00006  -0.00066   0.00108   0.00042  -2.10788
   D88       -1.49179   0.00013   0.00056   0.00347   0.00403  -1.48776
   D89        3.14152   0.00000  -0.00004   0.00008   0.00004   3.14156
   D90        1.49166  -0.00012  -0.00062  -0.00332  -0.00394   1.48772
   D91       -0.45840   0.00007  -0.00006   0.00461   0.00455  -0.45385
   D92       -2.10828  -0.00006  -0.00066   0.00122   0.00056  -2.10771
   D93        2.52504  -0.00018  -0.00124  -0.00218  -0.00342   2.52163
   D94       -2.52511   0.00018   0.00122   0.00220   0.00341  -2.52170
   D95        2.10820   0.00006   0.00062  -0.00119  -0.00058   2.10763
   D96        0.45834  -0.00007   0.00004  -0.00459  -0.00455   0.45379
   D97       -1.49166   0.00012   0.00062   0.00331   0.00393  -1.48773
   D98       -3.14153  -0.00000   0.00003  -0.00024  -0.00021   3.14145
   D99        1.49176  -0.00013  -0.00056  -0.00374  -0.00430   1.48746
   D100      -2.52505   0.00019   0.00123   0.00231   0.00353  -2.52152
   D101       2.10826   0.00006   0.00065  -0.00124  -0.00060   2.10766
   D102       0.45837  -0.00006   0.00005  -0.00475  -0.00469   0.45368
   D103      -0.45834   0.00006  -0.00004   0.00455   0.00451  -0.45384
   D104      -2.10822  -0.00006  -0.00063   0.00100   0.00037  -2.10784
   D105       2.52508  -0.00019  -0.00122  -0.00250  -0.00372   2.52136
   D106       1.49177  -0.00012  -0.00057  -0.00320  -0.00376   1.48800
   D107      -3.14153   0.00001   0.00003   0.00025   0.00028  -3.14125
   D108      -1.49164   0.00013   0.00063   0.00363   0.00426  -1.48738
   D109       2.52511  -0.00018  -0.00121  -0.00220  -0.00341   2.52171
   D110      -2.10818  -0.00006  -0.00061   0.00125   0.00064  -2.10754
   D111      -0.45829   0.00006  -0.00001   0.00463   0.00462  -0.45367
   D112       0.45836  -0.00006   0.00004  -0.00441  -0.00437   0.45399
   D113       2.10825   0.00006   0.00064  -0.00096  -0.00032   2.10793
   D114      -2.52505   0.00019   0.00125   0.00242   0.00366  -2.52139
         Item               Value     Threshold  Converged?
 Maximum Force            0.001295     0.000450     NO 
 RMS     Force            0.000394     0.000300     NO 
 Maximum Displacement     0.029483     0.001800     NO 
 RMS     Displacement     0.013384     0.001200     NO 
 Predicted change in Energy=-5.447223D-04
 GradGradGradGradGradGradGradGradGradGradGradGradGradGradGradGradGradGrad

                          Input orientation:                          
 ---------------------------------------------------------------------
 Center     Atomic      Atomic             Coordinates (Angstroms)
 Number     Number       Type             X           Y           Z
 ---------------------------------------------------------------------
      1          3           0        9.356945    7.643378    9.356610
      2          3           0        7.643189    9.356558    9.356756
      3          3           0        7.643083    7.643469    7.643253
      4          3           0        9.356813    9.356551    7.643407
      5          6           0        7.237244    7.237196    9.762753
      6          6           0        7.237192    9.762830    7.237208
      7          6           0        9.762800    7.237107    7.237166
      8          6           0        9.762800    9.762894    9.762870
      9          1           0        6.548206    6.548180    9.232607
     10          1           0        6.548182    9.232717    6.548137
     11          1           0       10.451744    6.548018    7.767332
     12          1           0       10.451848    9.232841   10.451952
     13          1           0       10.451849    7.767166    6.548086
     14          1           0        7.767408   10.451830    6.548222
     15          1           0        7.767457    6.548150   10.451715
     16          1           0       10.451757   10.451989    9.232722
     17          1           0        9.232540    6.548089    6.548225
     18          1           0        6.548240    7.767288   10.451858
     19          1           0        9.232546   10.451888   10.451840
     20          1           0        6.548194   10.451888    7.767327
 ---------------------------------------------------------------------
                    Distance matrix (angstroms):
                    1          2          3          4          5
     1  Li   0.000000
     2  Li   2.423209   0.000000
     3  Li   2.423410   2.422967   0.000000
     4  Li   2.422814   2.423236   2.423122   0.000000
     5  C    2.196149   2.195751   2.195916   3.670949   0.000000
     6  C    3.671143   2.195991   2.195748   2.196099   3.571724
     7  C    2.195864   3.671169   2.196187   2.195882   3.571698
     8  C    2.195931   2.196085   3.671231   2.195920   3.571777
     9  H    3.017258   3.016851   2.219112   4.277940   1.109311
    10  H    4.278162   3.017071   2.218963   3.017177   3.845864
    11  H    2.219055   4.278101   3.017281   3.016967   3.845736
    12  H    2.219229   3.017171   4.278324   3.017007   3.845942
    13  H    3.016943   4.278243   3.017260   2.219229   4.576969
    14  H    4.277975   3.017103   3.016859   2.219295   4.576915
    15  H    2.219291   3.016875   3.017060   4.277822   1.109315
    16  H    3.016994   3.017185   4.278182   2.219191   4.577000
    17  H    3.016979   4.278011   2.219305   3.017005   3.845681
    18  H    3.017241   2.218996   3.016997   4.277994   1.109319
    19  H    3.017073   2.219237   4.278057   3.017036   3.845818
    20  H    4.278158   2.219245   3.016852   3.017194   3.845876
                    6          7          8          9         10
     6  C    0.000000
     7  C    3.571830   0.000000
     8  C    3.571787   3.571943   0.000000
     9  H    3.845815   3.845779   4.577027   0.000000
    10  H    1.109312   3.845906   4.577048   3.796461   0.000000
    11  H    4.577050   1.109308   3.846068   4.169489   4.892019
    12  H    4.577060   3.846114   1.109314   4.892098   5.520723
    13  H    3.845982   1.109316   3.846109   4.891933   4.169707
    14  H    1.109302   3.845864   3.845800   4.891917   1.724166
    15  H    4.576943   3.845696   3.845840   1.724180   4.891979
    16  H    3.845835   3.846084   1.109311   5.520637   4.891985
    17  H    3.845863   1.109307   4.577126   3.796255   3.796447
    18  H    3.845883   4.576978   3.845848   1.724180   4.169714
    19  H    3.845790   4.577130   1.109307   4.891947   4.891941
    20  H    1.109300   4.577071   3.845855   4.169650   1.724181
                   11         12         13         14         15
    11  H    0.000000
    12  H    3.796769   0.000000
    13  H    1.724205   4.169937   0.000000
    14  H    4.891997   4.891958   3.796530   0.000000
    15  H    3.796223   3.796514   4.891859   5.520505   0.000000
    16  H    4.169934   1.724194   3.796780   3.796349   4.891970
    17  H    1.724147   4.892207   1.724199   4.169628   4.169377
    18  H    4.891896   4.169652   5.520652   4.891984   1.724178
    19  H    4.892160   1.724173   4.892211   4.169516   4.169612
    20  H    5.520680   4.892014   4.892117   1.724152   4.892006
                   16         17         18         19         20
    16  H    0.000000
    17  H    4.892182   0.000000
    18  H    4.891969   4.891856   0.000000
    19  H    1.724160   5.520675   3.796390   0.000000
    20  H    4.169555   4.891990   3.796549   3.796362   0.000000
 Stoichiometry    C4H12Li4
 Framework group  C1[X(C4H12Li4)]
 Deg. of freedom    54
 Full point group                 C1      NOp   1
 Largest Abelian subgroup         C1      NOp   1
 Largest concise Abelian subgroup C1      NOp   1
                         Standard orientation:                         
 ---------------------------------------------------------------------
 Center     Atomic      Atomic             Coordinates (Angstroms)
 Number     Number       Type             X           Y           Z
 ---------------------------------------------------------------------
      1          3           0       -0.075899   -1.302416    0.707020
      2          3           0        1.118285    0.800753    0.556854
      3          3           0       -1.274754    0.737335    0.182542
      4          3           0        0.232341   -0.235700   -1.446379
      5          6           0       -0.342575    0.347146    2.132116
      6          6           0        0.111941    1.919578   -1.042483
      7          6           0       -1.648613   -1.180287   -0.820550
      8          6           0        1.879259   -1.086439   -0.269108
      9          1           0       -1.271228    0.893459    2.396153
     10          1           0       -0.788129    2.564804   -0.978212
     11          1           0       -1.806388   -2.181109   -0.368856
     12          1           0        1.943557   -2.081411    0.217178
     13          1           0       -1.587063   -1.422155   -1.901426
     14          1           0        0.284346    1.872663   -2.137300
     15          1           0       -0.418197   -0.557683    2.769411
     16          1           0        2.162873   -1.322288   -1.315296
     17          1           0       -2.659382   -0.729995   -0.742155
     18          1           0        0.431665    0.938672    2.662435
     19          1           0        2.793184   -0.584936    0.110098
     20          1           0        0.914774    2.610075   -0.711999
 ---------------------------------------------------------------------
 Rotational constants (GHZ):           1.9434623           1.9434398           1.9433348
 Standard basis: def2QZVPP (5D, 7F)
 There are   868 symmetry adapted cartesian basis functions of A   symmetry.
 There are   728 symmetry adapted basis functions of A   symmetry.
   728 basis functions,  1044 primitive gaussians,   868 cartesian basis functions
    24 alpha electrons       24 beta electrons
       nuclear repulsion energy       204.4241200297 Hartrees.
 NAtoms=   20 NActive=   20 NUniq=   20 SFac= 1.00D+00 NAtFMM=   60 NAOKFM=F Big=F
 Integral buffers will be    131072 words long.
 Raffenetti 2 integral format.
 Two-electron integral symmetry is turned on.
 One-electron integrals computed using PRISM.
   1 Symmetry operations used in ECPInt.
 ECPInt:  NShTT=   28920 NPrTT=   68284 LenC2=   27567 LenP2D=   53522.
 LDataN:  DoStor=T MaxTD1= 8 Len=  415
 NBasis=   728 RedAO= T EigKep=  6.87D-06  NBF=   728
 NBsUse=   728 1.00D-06 EigRej= -1.00D+00 NBFU=   728
 Initial guess from the checkpoint file:  "/data/hutter/SMG16/PBE/Gau-52442.chk"
 B after Tr=     0.000000   -0.000000   -0.000000
         Rot=    0.808254    0.079308    0.162082    0.560505 Ang=  72.15 deg.
 ExpMin= 2.05D-02 ExpMax= 6.70D+04 ExpMxC= 6.47D+02 IAcc=3 IRadAn=         5 AccDes= 0.00D+00
 Harris functional with IExCor= 1009 and IRadAn=       5 diagonalized for initial guess.
 HarFok:  IExCor= 1009 AccDes= 0.00D+00 IRadAn=         5 IDoV= 1 UseB2=F ITyADJ=14
 ICtDFT=  3500011 ScaDFX=  1.000000  1.000000  1.000000  1.000000
 FoFCou: FMM=F IPFlag=           0 FMFlag=      100000 FMFlg1=           0
         NFxFlg=           0 DoJE=T BraDBF=F KetDBF=T FulRan=T
         wScrn=  0.000000 ICntrl=       500 IOpCl=  0 I1Cent=   200000004 NGrid=           0
         NMat0=    1 NMatS0=      1 NMatT0=    0 NMatD0=    1 NMtDS0=    0 NMtDT0=    0
 Petite list used in FoFCou.
 Requested convergence on RMS density matrix=1.00D-08 within 128 cycles.
 Requested convergence on MAX density matrix=1.00D-06.
 Requested convergence on             energy=1.00D-06.
 No special actions if energy rises.
 SCF Done:  E(RPBE-PBE) =  -189.530179114     A.U. after    7 cycles
            NFock=  7  Conv=0.42D-08     -V/T= 2.0063
   1 Symmetry operations used in ECPInt.
 ECPInt:  NShTT=   28920 NPrTT=   68284 LenC2=   27567 LenP2D=   53522.
 LDataN:  DoStor=T MaxTD1= 9 Len=  602
 Calling FoFJK, ICntrl=      2527 FMM=F ISym2X=0 I1Cent= 0 IOpClX= 0 NMat=1 NMatS=1 NMatT=0.
 ***** Axes restored to original set *****
 -------------------------------------------------------------------
 Center     Atomic                   Forces (Hartrees/Bohr)
 Number     Number              X              Y              Z
 -------------------------------------------------------------------
      1        3          -0.001468011    0.001423113   -0.001442820
      2        3           0.001457744   -0.001416429   -0.001415992
      3        3           0.001512062    0.001424331    0.001439740
      4        3          -0.001501692   -0.001444951    0.001408628
      5        6           0.001082570    0.001090294   -0.001073053
      6        6           0.001102609   -0.001089074    0.001084566
      7        6          -0.001093186    0.001103098    0.001093148
      8        6          -0.001090246   -0.001094194   -0.001084086
      9        1          -0.000736410   -0.000736447   -0.000747063
     10        1          -0.000740914   -0.000743015   -0.000739094
     11        1           0.000742265   -0.000739669    0.000746906
     12        1           0.000736369   -0.000743696    0.000738188
     13        1           0.000737407    0.000740498   -0.000737520
     14        1           0.000750000    0.000738640   -0.000739694
     15        1           0.000744874   -0.000732827    0.000734179
     16        1           0.000738295    0.000737211   -0.000745914
     17        1          -0.000747372   -0.000736077   -0.000740851
     18        1          -0.000734268    0.000743640    0.000736227
     19        1          -0.000750080    0.000735721    0.000736145
     20        1          -0.000742015    0.000739831    0.000748360
 -------------------------------------------------------------------
 Cartesian Forces:  Max     0.001512062 RMS     0.000992574

 GradGradGradGradGradGradGradGradGradGradGradGradGradGradGradGradGradGrad
 Berny optimization.
 Using GEDIIS/GDIIS optimizer.
 FormGI is forming the generalized inverse of G from B-inverse, IUseBI=4.
 Internal  Forces:  Max     0.001278382 RMS     0.000336576
 Search for a local minimum.
 Step number   3 out of a maximum of  120
 All quantities printed in internal units (Hartrees-Bohrs-Radians)
 Mixed Optimization -- En-DIIS/RFO-DIIS
 Swapping is turned off.
 Update second derivatives using D2CorX and points    1    2    3
 DE= -6.72D-04 DEPred=-5.45D-04 R= 1.23D+00
 TightC=F SS=  1.41D+00  RLast= 1.85D-01 DXNew= 8.3101D-01 5.5522D-01
 Trust test= 1.23D+00 RLast= 1.85D-01 DXMaxT set to 5.55D-01
 ITU=  1  1  0
     Eigenvalues ---    0.01669   0.01669   0.01744   0.01943   0.01943
     Eigenvalues ---    0.01943   0.01965   0.02837   0.02837   0.02837
     Eigenvalues ---    0.03286   0.03286   0.03286   0.03895   0.04189
     Eigenvalues ---    0.04189   0.04189   0.04436   0.04436   0.04596
     Eigenvalues ---    0.04597   0.05369   0.05370   0.05370   0.05439
     Eigenvalues ---    0.05439   0.05439   0.06568   0.06568   0.06568
     Eigenvalues ---    0.07338   0.07339   0.07339   0.08317   0.08317
     Eigenvalues ---    0.08317   0.08453   0.08453   0.08793   0.11224
     Eigenvalues ---    0.11225   0.11226   0.31249   0.31249   0.31249
     Eigenvalues ---    0.31250   0.31250   0.31250   0.31250   0.31250
     Eigenvalues ---    0.31250   0.31250   0.31252   0.46101
 En-DIIS/RFO-DIIS/Sim-DIIS IScMMF=       -3 using points:     3    2
 RFO step:  Lambda=-2.70185502D-04.
 DidBck=F Rises=F RFO-DIIS coefs:    1.60033   -0.60033
 Iteration  1 RMS(Cart)=  0.00650233 RMS(Int)=  0.00001034
 Iteration  2 RMS(Cart)=  0.00000837 RMS(Int)=  0.00000794
 Iteration  3 RMS(Cart)=  0.00000000 RMS(Int)=  0.00000794
 Variable       Old X    -DE/DX   Delta X   Delta X   Delta X     New X
                                 (Linear)    (Quad)   (Total)
    R1        4.57920  -0.00066  -0.02772  -0.00502  -0.03272   4.54649
    R2        4.57958  -0.00068  -0.02764  -0.00535  -0.03297   4.54661
    R3        4.57845  -0.00065  -0.02814  -0.00428  -0.03240   4.54605
    R4        4.15012  -0.00041  -0.02367   0.00205  -0.02164   4.12848
    R5        4.14958  -0.00040  -0.02406   0.00269  -0.02138   4.12820
    R6        4.14971  -0.00040  -0.02393   0.00256  -0.02138   4.12833
    R7        4.57874  -0.00065  -0.02797  -0.00436  -0.03231   4.54643
    R8        4.57925  -0.00066  -0.02770  -0.00507  -0.03276   4.54650
    R9        4.14937  -0.00040  -0.02403   0.00266  -0.02138   4.12799
   R10        4.14982  -0.00040  -0.02403   0.00282  -0.02122   4.12860
   R11        4.15000  -0.00042  -0.02380   0.00205  -0.02176   4.12824
   R12        4.57904  -0.00068  -0.02772  -0.00542  -0.03312   4.54592
   R13        4.14968  -0.00040  -0.02391   0.00268  -0.02123   4.12844
   R14        4.14936  -0.00039  -0.02416   0.00296  -0.02122   4.12815
   R15        4.15019  -0.00042  -0.02374   0.00187  -0.02189   4.12831
   R16        4.15003  -0.00042  -0.02380   0.00187  -0.02194   4.12809
   R17        4.14962  -0.00040  -0.02392   0.00247  -0.02146   4.12816
   R18        4.14969  -0.00039  -0.02409   0.00298  -0.02112   4.12856
   R19        2.09629   0.00127  -0.00374   0.00486   0.00112   2.09741
   R20        2.09630   0.00127  -0.00373   0.00483   0.00110   2.09740
   R21        2.09631   0.00127  -0.00373   0.00483   0.00111   2.09741
   R22        2.09630   0.00127  -0.00374   0.00487   0.00112   2.09742
   R23        2.09628   0.00128  -0.00375   0.00489   0.00114   2.09741
   R24        2.09627   0.00128  -0.00375   0.00489   0.00114   2.09741
   R25        2.09629   0.00128  -0.00375   0.00488   0.00114   2.09742
   R26        2.09630   0.00127  -0.00373   0.00485   0.00112   2.09742
   R27        2.09629   0.00127  -0.00374   0.00487   0.00113   2.09741
   R28        2.09630   0.00127  -0.00374   0.00486   0.00112   2.09742
   R29        2.09629   0.00127  -0.00374   0.00486   0.00112   2.09741
   R30        2.09629   0.00127  -0.00375   0.00487   0.00112   2.09740
    A1        1.83545   0.00004   0.00029   0.00136   0.00165   1.83711
    A2        1.83534   0.00004   0.00022   0.00142   0.00164   1.83699
    A3        1.83537   0.00004   0.00028   0.00130   0.00158   1.83695
    A4        1.89935   0.00004   0.00022   0.00152   0.00174   1.90109
    A5        1.89937   0.00004   0.00020   0.00143   0.00163   1.90100
    A6        1.89968   0.00004   0.00036   0.00126   0.00163   1.90130
    A7        1.83536   0.00004   0.00020   0.00137   0.00158   1.83694
    A8        1.83552   0.00003   0.00029   0.00126   0.00155   1.83707
    A9        1.83534   0.00004   0.00024   0.00136   0.00161   1.83695
   A10        1.89954   0.00004   0.00030   0.00132   0.00162   1.90116
   A11        1.89952   0.00004   0.00028   0.00139   0.00167   1.90120
   A12        1.89938   0.00004   0.00019   0.00147   0.00167   1.90104
   A13        1.83538   0.00004   0.00022   0.00144   0.00166   1.83704
   A14        1.83542   0.00004   0.00027   0.00140   0.00168   1.83709
   A15        1.83532   0.00004   0.00021   0.00146   0.00168   1.83700
   A16        1.89959   0.00004   0.00030   0.00126   0.00157   1.90116
   A17        1.89929   0.00004   0.00019   0.00158   0.00177   1.90106
   A18        1.89950   0.00004   0.00026   0.00144   0.00170   1.90120
   A19        1.83553   0.00004   0.00027   0.00142   0.00170   1.83723
   A20        1.83543   0.00004   0.00024   0.00144   0.00169   1.83712
   A21        1.83552   0.00004   0.00029   0.00132   0.00162   1.83713
   A22        1.89947   0.00005   0.00020   0.00160   0.00180   1.90127
   A23        1.89941   0.00004   0.00021   0.00148   0.00169   1.90111
   A24        1.89967   0.00004   0.00037   0.00119   0.00157   1.90124
   A25        2.24723  -0.00002  -0.00172   0.00009  -0.00165   2.24558
   A26        1.33709   0.00001  -0.00218   0.00175  -0.00043   1.33666
   A27        2.24719  -0.00002  -0.00174   0.00016  -0.00160   2.24559
   A28        2.24719  -0.00002  -0.00175   0.00014  -0.00162   2.24556
   A29        2.24722  -0.00002  -0.00173   0.00010  -0.00164   2.24558
   A30        1.33713   0.00002  -0.00217   0.00167  -0.00051   1.33663
   A31        1.33711   0.00002  -0.00216   0.00170  -0.00046   1.33665
   A32        2.24726  -0.00002  -0.00171   0.00005  -0.00167   2.24559
   A33        2.24716  -0.00002  -0.00175   0.00019  -0.00158   2.24558
   A34        1.78021   0.00003   0.00297  -0.00039   0.00257   1.78279
   A35        1.78021   0.00003   0.00295  -0.00041   0.00254   1.78275
   A36        1.78020   0.00003   0.00295  -0.00040   0.00254   1.78274
   A37        2.24717  -0.00002  -0.00176   0.00017  -0.00160   2.24557
   A38        2.24723  -0.00002  -0.00171   0.00007  -0.00165   2.24558
   A39        1.33718   0.00002  -0.00217   0.00167  -0.00050   1.33668
   A40        1.33711   0.00002  -0.00221   0.00181  -0.00040   1.33670
   A41        2.24722  -0.00002  -0.00173   0.00007  -0.00167   2.24555
   A42        2.24721  -0.00002  -0.00173   0.00016  -0.00158   2.24562
   A43        2.24717  -0.00002  -0.00173   0.00012  -0.00162   2.24555
   A44        1.33713   0.00001  -0.00219   0.00174  -0.00045   1.33668
   A45        2.24722  -0.00002  -0.00173   0.00015  -0.00160   2.24561
   A46        1.78021   0.00003   0.00295  -0.00039   0.00256   1.78276
   A47        1.78023   0.00003   0.00296  -0.00044   0.00252   1.78275
   A48        1.78020   0.00003   0.00295  -0.00040   0.00254   1.78274
   A49        1.33710   0.00002  -0.00218   0.00170  -0.00048   1.33662
   A50        2.24715  -0.00002  -0.00175   0.00018  -0.00158   2.24557
   A51        2.24722  -0.00002  -0.00173   0.00010  -0.00164   2.24558
   A52        2.24721  -0.00002  -0.00173   0.00014  -0.00161   2.24560
   A53        2.24717  -0.00002  -0.00175   0.00016  -0.00161   2.24556
   A54        1.33707   0.00001  -0.00222   0.00179  -0.00043   1.33664
   A55        2.24717  -0.00002  -0.00176   0.00020  -0.00158   2.24560
   A56        1.33725   0.00002  -0.00213   0.00169  -0.00045   1.33680
   A57        2.24724  -0.00002  -0.00171   0.00004  -0.00169   2.24555
   A58        1.78025   0.00003   0.00298  -0.00047   0.00251   1.78276
   A59        1.78018   0.00003   0.00295  -0.00038   0.00256   1.78274
   A60        1.78024   0.00003   0.00297  -0.00044   0.00252   1.78277
   A61        1.33721   0.00002  -0.00214   0.00166  -0.00048   1.33673
   A62        2.24714  -0.00002  -0.00177   0.00015  -0.00163   2.24551
   A63        2.24727  -0.00002  -0.00169   0.00007  -0.00164   2.24563
   A64        2.24718  -0.00002  -0.00174   0.00014  -0.00162   2.24557
   A65        2.24721  -0.00002  -0.00173   0.00013  -0.00162   2.24559
   A66        1.33709   0.00001  -0.00220   0.00172  -0.00049   1.33660
   A67        2.24717  -0.00002  -0.00175   0.00018  -0.00159   2.24559
   A68        1.33718   0.00001  -0.00217   0.00174  -0.00044   1.33674
   A69        2.24723  -0.00002  -0.00172   0.00008  -0.00166   2.24557
   A70        1.78023   0.00003   0.00297  -0.00043   0.00254   1.78277
   A71        1.78021   0.00003   0.00296  -0.00043   0.00253   1.78274
   A72        1.78019   0.00003   0.00294  -0.00037   0.00257   1.78276
    D1       -0.00032   0.00000  -0.00016   0.00027   0.00011  -0.00021
    D2        0.00027  -0.00000   0.00013  -0.00024  -0.00010   0.00016
    D3        0.00004   0.00000  -0.00002   0.00003   0.00001   0.00005
    D4        1.48770  -0.00005  -0.00240  -0.00085  -0.00325   1.48445
    D5        3.14152   0.00000   0.00002   0.00001   0.00003   3.14155
    D6       -1.48785   0.00005   0.00241   0.00084   0.00325  -1.48460
    D7        0.45383  -0.00010  -0.00277  -0.00238  -0.00516   0.44867
    D8        2.10765  -0.00004  -0.00035  -0.00152  -0.00188   2.10577
    D9       -2.52172   0.00001   0.00204  -0.00069   0.00134  -2.52038
   D10        2.52158  -0.00000  -0.00210   0.00082  -0.00126   2.52032
   D11       -2.10779   0.00005   0.00032   0.00168   0.00201  -2.10577
   D12       -0.45397   0.00010   0.00272   0.00251   0.00524  -0.44874
   D13       -3.14126  -0.00000   0.00017  -0.00034  -0.00017  -3.14142
   D14        1.48804  -0.00005  -0.00228  -0.00104  -0.00331   1.48473
   D15       -1.48747   0.00005   0.00257   0.00049   0.00305  -1.48442
   D16       -2.10761   0.00004   0.00040   0.00144   0.00186  -2.10575
   D17        2.52168  -0.00001  -0.00204   0.00074  -0.00129   2.52040
   D18       -0.45382   0.00010   0.00280   0.00226   0.00507  -0.44875
   D19        2.10802  -0.00005  -0.00017  -0.00186  -0.00204   2.10598
   D20        0.45413  -0.00010  -0.00262  -0.00256  -0.00518   0.44895
   D21       -2.52137   0.00001   0.00223  -0.00104   0.00118  -2.52020
   D22        3.14135   0.00000  -0.00012   0.00023   0.00011   3.14146
   D23       -1.48788   0.00005   0.00234   0.00096   0.00329  -1.48458
   D24        1.48745  -0.00005  -0.00257  -0.00051  -0.00308   1.48437
   D25        2.10770  -0.00005  -0.00037  -0.00161  -0.00198   2.10572
   D26       -2.52153   0.00000   0.00209  -0.00088   0.00120  -2.52032
   D27        0.45380  -0.00010  -0.00281  -0.00235  -0.00516   0.44863
   D28       -2.10795   0.00005   0.00022   0.00175   0.00199  -2.10596
   D29       -0.45399   0.00010   0.00268   0.00248   0.00517  -0.44882
   D30        2.52134  -0.00001  -0.00222   0.00101  -0.00120   2.52014
   D31        0.00023  -0.00000   0.00010  -0.00014  -0.00003   0.00020
   D32        0.00015  -0.00001   0.00012  -0.00033  -0.00021  -0.00006
   D33       -1.48789   0.00006   0.00229   0.00106   0.00335  -1.48454
   D34        1.48759  -0.00005  -0.00252  -0.00047  -0.00298   1.48461
   D35        3.14144   0.00001  -0.00012   0.00030   0.00019  -3.14156
   D36       -0.45404   0.00010   0.00263   0.00252   0.00515  -0.44889
   D37        2.52144  -0.00001  -0.00218   0.00099  -0.00118   2.52026
   D38       -2.10790   0.00004   0.00022   0.00176   0.00199  -2.10591
   D39       -2.52162   0.00001   0.00207  -0.00080   0.00125  -2.52037
   D40        0.45385  -0.00010  -0.00274  -0.00233  -0.00508   0.44878
   D41        2.10770  -0.00005  -0.00034  -0.00156  -0.00191   2.10579
   D42        1.48793  -0.00005  -0.00230  -0.00093  -0.00323   1.48470
   D43       -1.48746   0.00005   0.00252   0.00057   0.00309  -1.48437
   D44       -3.14133  -0.00000   0.00012  -0.00021  -0.00009  -3.14142
   D45        0.45399  -0.00010  -0.00266  -0.00245  -0.00512   0.44886
   D46       -2.52140   0.00001   0.00216  -0.00096   0.00119  -2.52021
   D47        2.10791  -0.00005  -0.00024  -0.00173  -0.00198   2.10593
   D48        2.52166  -0.00001  -0.00205   0.00082  -0.00122   2.52045
   D49       -0.45372   0.00010   0.00278   0.00232   0.00510  -0.44863
   D50       -2.10760   0.00004   0.00038   0.00154   0.00192  -2.10567
   D51       -1.48794   0.00005   0.00231   0.00089   0.00320  -1.48474
   D52        1.48761  -0.00005  -0.00245  -0.00073  -0.00318   1.48444
   D53        3.14142   0.00000  -0.00008   0.00012   0.00003   3.14145
   D54       -0.45402   0.00010   0.00267   0.00247   0.00514  -0.44888
   D55        2.52153  -0.00000  -0.00210   0.00085  -0.00124   2.52030
   D56       -2.10785   0.00005   0.00027   0.00169   0.00197  -2.10587
   D57       -2.52171   0.00001   0.00204  -0.00076   0.00127  -2.52044
   D58        0.45385  -0.00010  -0.00273  -0.00238  -0.00511   0.44874
   D59        2.10765  -0.00004  -0.00036  -0.00153  -0.00190   2.10575
   D60       -0.00037   0.00001  -0.00017   0.00040   0.00023  -0.00014
   D61       -3.14134  -0.00001   0.00011  -0.00033  -0.00023  -3.14157
   D62       -1.48750   0.00005   0.00254   0.00049   0.00302  -1.48448
   D63        1.48800  -0.00006  -0.00232  -0.00110  -0.00341   1.48458
   D64        2.10791  -0.00005  -0.00024  -0.00185  -0.00210   2.10581
   D65       -2.52144   0.00000   0.00220  -0.00103   0.00115  -2.52029
   D66        0.45406  -0.00010  -0.00266  -0.00262  -0.00529   0.44878
   D67       -2.10764   0.00005   0.00036   0.00150   0.00187  -2.10577
   D68       -0.45381   0.00010   0.00279   0.00232   0.00512  -0.44869
   D69        2.52169  -0.00001  -0.00206   0.00074  -0.00132   2.52038
   D70        3.14138   0.00000  -0.00011   0.00026   0.00015   3.14153
   D71        1.48754  -0.00005  -0.00249  -0.00064  -0.00312   1.48442
   D72       -1.48794   0.00006   0.00228   0.00109   0.00337  -1.48458
   D73       -2.10795   0.00005   0.00023   0.00184   0.00208  -2.10587
   D74        2.52140  -0.00000  -0.00215   0.00094  -0.00119   2.52021
   D75       -0.45409   0.00010   0.00262   0.00267   0.00530  -0.44879
   D76        2.10773  -0.00005  -0.00032  -0.00160  -0.00193   2.10580
   D77        0.45390  -0.00010  -0.00270  -0.00250  -0.00521   0.44870
   D78       -2.52159   0.00000   0.00207  -0.00077   0.00128  -2.52030
   D79        1.48760  -0.00005  -0.00245  -0.00080  -0.00324   1.48436
   D80       -1.48795   0.00005   0.00231   0.00090   0.00321  -1.48474
   D81        3.14137   0.00000  -0.00008   0.00009   0.00001   3.14138
   D82        0.45385  -0.00010  -0.00274  -0.00242  -0.00517   0.44869
   D83       -2.52170   0.00000   0.00202  -0.00072   0.00129  -2.52042
   D84        2.10762  -0.00004  -0.00037  -0.00153  -0.00191   2.10571
   D85        2.52154  -0.00000  -0.00212   0.00082  -0.00128   2.52026
   D86       -0.45402   0.00010   0.00264   0.00252   0.00517  -0.44885
   D87       -2.10788   0.00005   0.00025   0.00171   0.00197  -2.10591
   D88       -1.48776   0.00005   0.00242   0.00076   0.00317  -1.48459
   D89        3.14156  -0.00000   0.00002  -0.00008  -0.00006   3.14150
   D90        1.48772  -0.00005  -0.00237  -0.00090  -0.00326   1.48446
   D91       -0.45385   0.00010   0.00273   0.00241   0.00514  -0.44871
   D92       -2.10771   0.00005   0.00034   0.00157   0.00192  -2.10580
   D93        2.52163  -0.00001  -0.00205   0.00075  -0.00129   2.52034
   D94       -2.52170   0.00000   0.00205  -0.00079   0.00125  -2.52045
   D95        2.10763  -0.00005  -0.00035  -0.00163  -0.00198   2.10565
   D96        0.45379  -0.00010  -0.00273  -0.00245  -0.00519   0.44860
   D97       -1.48773   0.00006   0.00236   0.00101   0.00336  -1.48437
   D98        3.14145   0.00001  -0.00013   0.00032   0.00020  -3.14154
   D99        1.48746  -0.00005  -0.00258  -0.00043  -0.00301   1.48446
   D100      -2.52152   0.00000   0.00212  -0.00087   0.00124  -2.52028
   D101       2.10766  -0.00005  -0.00036  -0.00156  -0.00193   2.10574
   D102       0.45368  -0.00010  -0.00282  -0.00231  -0.00513   0.44855
   D103      -0.45384   0.00010   0.00270   0.00251   0.00522  -0.44862
   D104      -2.10784   0.00005   0.00022   0.00182   0.00205  -2.10579
   D105       2.52136  -0.00001  -0.00223   0.00107  -0.00115   2.52021
   D106       1.48800  -0.00006  -0.00226  -0.00113  -0.00339   1.48462
   D107      -3.14125  -0.00001   0.00017  -0.00035  -0.00018  -3.14143
   D108      -1.48738   0.00005   0.00256   0.00052   0.00307  -1.48430
   D109       2.52171  -0.00000  -0.00205   0.00080  -0.00124   2.52047
   D110      -2.10754   0.00005   0.00038   0.00157   0.00197  -2.10558
   D111      -0.45367   0.00010   0.00277   0.00244   0.00522  -0.44845
   D112       0.45399  -0.00010  -0.00262  -0.00266  -0.00528   0.44871
   D113       2.10793  -0.00005  -0.00019  -0.00188  -0.00208   2.10585
   D114      -2.52139   0.00000   0.00220  -0.00101   0.00118  -2.52021
         Item               Value     Threshold  Converged?
 Maximum Force            0.001278     0.000450     NO 
 RMS     Force            0.000337     0.000300     NO 
 Maximum Displacement     0.015422     0.001800     NO 
 RMS     Displacement     0.006509     0.001200     NO 
 Predicted change in Energy=-1.368430D-04
 GradGradGradGradGradGradGradGradGradGradGradGradGradGradGradGradGradGrad

                          Input orientation:                          
 ---------------------------------------------------------------------
 Center     Atomic      Atomic             Coordinates (Angstroms)
 Number     Number       Type             X           Y           Z
 ---------------------------------------------------------------------
      1          3           0        9.350763    7.649422    9.350505
      2          3           0        7.649383    9.350493    9.350735
      3          3           0        7.649399    7.649491    7.649325
      4          3           0        9.350491    9.350426    7.649384
      5          6           0        7.243050    7.242990    9.757038
      6          6           0        7.243014    9.757059    7.242950
      7          6           0        9.757007    7.242898    7.242910
      8          6           0        9.756962    9.757082    9.757111
      9          1           0        6.554411    6.554422    9.224559
     10          1           0        6.554390    9.224642    6.554312
     11          1           0       10.445584    6.554272    7.775409
     12          1           0       10.445593    9.224690   10.445759
     13          1           0       10.445622    7.775296    6.554248
     14          1           0        7.775555   10.445655    6.554386
     15          1           0        7.775550    6.554380   10.445607
     16          1           0       10.445505   10.445752    9.224639
     17          1           0        9.224460    6.554277    6.554377
     18          1           0        6.554476    7.775449   10.445689
     19          1           0        9.224386   10.445634   10.445685
     20          1           0        6.554439   10.445699    7.775421
 ---------------------------------------------------------------------
                    Distance matrix (angstroms):
                    1          2          3          4          5
     1  Li   0.000000
     2  Li   2.405896   0.000000
     3  Li   2.405962   2.405869   0.000000
     4  Li   2.405666   2.405902   2.405596   0.000000
     5  C    2.184699   2.184436   2.184679   3.650315   0.000000
     6  C    3.650552   2.184763   2.184521   2.184490   3.555444
     7  C    2.184549   3.650611   2.184605   2.184526   3.555393
     8  C    2.184618   2.184570   3.650551   2.184742   3.555336
     9  H    3.005740   3.005477   2.208967   4.256392   1.109903
    10  H    4.256726   3.005799   2.208891   3.005525   3.828662
    11  H    2.208827   4.256671   3.005670   3.005593   3.828500
    12  H    2.209005   3.005611   4.256759   3.005790   3.828544
    13  H    3.005597   4.256822   3.005641   2.208997   4.560447
    14  H    4.256581   3.005805   3.005551   2.208839   4.560440
    15  H    2.208995   3.005480   3.005724   4.256427   1.109894
    16  H    3.005623   3.005627   4.256630   2.209123   4.560357
    17  H    3.005600   4.256678   2.208895   3.005557   3.828492
    18  H    3.005750   2.208735   3.005724   4.256474   1.109904
    19  H    3.005693   2.208820   4.256599   3.005775   3.828427
    20  H    4.256698   2.209070   3.005597   3.005563   3.828621
                    6          7          8          9         10
     6  C    0.000000
     7  C    3.555442   0.000000
     8  C    3.555410   3.555605   0.000000
     9  H    3.828554   3.828518   4.560370   0.000000
    10  H    1.109906   3.828607   4.560469   3.776280   0.000000
    11  H    4.560462   1.109909   3.828751   4.152260   4.874766
    12  H    4.560473   3.828824   1.109906   4.874726   5.503164
    13  H    3.828628   1.109907   3.828845   4.874691   4.152383
    14  H    1.109903   3.828560   3.828518   4.874701   1.726880
    15  H    4.560456   3.828511   3.828488   1.726887   4.874803
    16  H    3.828490   3.828780   1.109903   5.503005   4.874682
    17  H    3.828586   1.109902   4.560595   3.776113   3.776258
    18  H    3.828629   4.560439   3.828437   1.726866   4.152466
    19  H    3.828509   4.560589   1.109899   4.874571   4.874677
    20  H    1.109903   4.560476   3.828503   4.152353   1.726871
                   11         12         13         14         15
    11  H    0.000000
    12  H    3.776494   0.000000
    13  H    1.726885   4.152662   0.000000
    14  H    4.874712   4.874695   3.776251   0.000000
    15  H    3.776115   3.776200   4.874689   5.503056   0.000000
    16  H    4.152576   1.726884   3.776549   3.776094   4.874649
    17  H    1.726865   4.874950   1.726883   4.152367   4.152230
    18  H    4.874669   4.152239   5.503120   4.874759   1.726855
    19  H    4.874874   1.726861   4.874977   4.152267   4.152226
    20  H    5.503109   4.874694   4.874793   1.726861   4.874768
                   16         17         18         19         20
    16  H    0.000000
    17  H    4.874919   0.000000
    18  H    4.874586   4.874668   0.000000
    19  H    1.726871   5.503175   3.776018   0.000000
    20  H    4.152183   4.874743   3.776317   3.776099   0.000000
 Stoichiometry    C4H12Li4
 Framework group  C1[X(C4H12Li4)]
 Deg. of freedom    54
 Full point group                 C1      NOp   1
 Largest Abelian subgroup         C1      NOp   1
 Largest concise Abelian subgroup C1      NOp   1
                         Standard orientation:                         
 ---------------------------------------------------------------------
 Center     Atomic      Atomic             Coordinates (Angstroms)
 Number     Number       Type             X           Y           Z
 ---------------------------------------------------------------------
      1          3           0        0.099336   -1.435916   -0.314488
      2          3           0        1.272067    0.464850    0.580012
      3          3           0       -1.089306    0.216667    0.967991
      4          3           0       -0.282229    0.754312   -1.233476
      5          6           0        0.416948   -1.114852    1.823022
      6          6           0       -0.146918    2.122051    0.464458
      7          6           0       -1.879890   -0.687176   -0.856987
      8          6           0        1.609891   -0.320003   -1.430517
      9          1           0       -0.339011   -1.028606    2.631088
     10          1           0       -0.937906    2.409340    1.188126
     11          1           0       -1.925264   -1.760540   -1.135786
     12          1           0        1.781302   -1.370525   -1.745020
     13          1           0       -2.199228   -0.188402   -1.795679
     14          1           0       -0.358527    2.795255   -0.392224
     15          1           0        0.514164   -2.214750    1.710603
     16          1           0        1.507405    0.201667   -2.404807
     17          1           0       -2.778449   -0.574437   -0.215297
     18          1           0        1.355887   -0.850376    2.352487
     19          1           0        2.622841   -0.006098   -1.102992
     20          1           0        0.756994    2.587610    0.909523
 ---------------------------------------------------------------------
 Rotational constants (GHZ):           1.9621401           1.9620519           1.9619596
 Standard basis: def2QZVPP (5D, 7F)
 There are   868 symmetry adapted cartesian basis functions of A   symmetry.
 There are   728 symmetry adapted basis functions of A   symmetry.
   728 basis functions,  1044 primitive gaussians,   868 cartesian basis functions
    24 alpha electrons       24 beta electrons
       nuclear repulsion energy       205.2176656536 Hartrees.
 NAtoms=   20 NActive=   20 NUniq=   20 SFac= 1.00D+00 NAtFMM=   60 NAOKFM=F Big=F
 Integral buffers will be    131072 words long.
 Raffenetti 2 integral format.
 Two-electron integral symmetry is turned on.
 One-electron integrals computed using PRISM.
   1 Symmetry operations used in ECPInt.
 ECPInt:  NShTT=   28920 NPrTT=   68284 LenC2=   27639 LenP2D=   53742.
 LDataN:  DoStor=T MaxTD1= 8 Len=  415
 NBasis=   728 RedAO= T EigKep=  6.62D-06  NBF=   728
 NBsUse=   728 1.00D-06 EigRej= -1.00D+00 NBFU=   728
 Initial guess from the checkpoint file:  "/data/hutter/SMG16/PBE/Gau-52442.chk"
 B after Tr=     0.000000    0.000000    0.000000
         Rot=    0.923278   -0.342420   -0.170553   -0.034899 Ang= -45.18 deg.
 Requested convergence on RMS density matrix=1.00D-08 within 128 cycles.
 Requested convergence on MAX density matrix=1.00D-06.
 Requested convergence on             energy=1.00D-06.
 No special actions if energy rises.
 SCF Done:  E(RPBE-PBE) =  -189.530359366     A.U. after    7 cycles
            NFock=  7  Conv=0.39D-08     -V/T= 2.0062
   1 Symmetry operations used in ECPInt.
 ECPInt:  NShTT=   28920 NPrTT=   68284 LenC2=   27639 LenP2D=   53742.
 LDataN:  DoStor=T MaxTD1= 9 Len=  602
 Calling FoFJK, ICntrl=      2527 FMM=F ISym2X=0 I1Cent= 0 IOpClX= 0 NMat=1 NMatS=1 NMatT=0.
 ***** Axes restored to original set *****
 -------------------------------------------------------------------
 Center     Atomic                   Forces (Hartrees/Bohr)
 Number     Number              X              Y              Z
 -------------------------------------------------------------------
      1        3          -0.000724277    0.000729738   -0.000685581
      2        3           0.000751483   -0.000718281   -0.000701683
      3        3           0.000725073    0.000673378    0.000708613
      4        3          -0.000741939   -0.000713218    0.000686934
      5        6           0.000606052    0.000600709   -0.000614859
      6        6           0.000588069   -0.000591313    0.000596936
      7        6          -0.000606392    0.000612620    0.000611091
      8        6          -0.000591133   -0.000603347   -0.000607624
      9        1          -0.000584495   -0.000589925   -0.000284757
     10        1          -0.000587924   -0.000286084   -0.000591151
     11        1           0.000583395   -0.000582248    0.000287451
     12        1           0.000587559   -0.000286825    0.000587782
     13        1           0.000584483    0.000285912   -0.000584554
     14        1           0.000286962    0.000590895   -0.000591175
     15        1           0.000289744   -0.000592376    0.000586804
     16        1           0.000586756    0.000587318   -0.000284796
     17        1          -0.000286474   -0.000586158   -0.000586142
     18        1          -0.000590562    0.000288971    0.000588607
     19        1          -0.000289809    0.000591575    0.000588788
     20        1          -0.000586572    0.000588661    0.000289319
 -------------------------------------------------------------------
 Cartesian Forces:  Max     0.000751483 RMS     0.000573741

 GradGradGradGradGradGradGradGradGradGradGradGradGradGradGradGradGradGrad
 Berny optimization.
 Using GEDIIS/GDIIS optimizer.
 FormGI is forming the generalized inverse of G from B-inverse, IUseBI=4.
 Internal  Forces:  Max     0.000872900 RMS     0.000220253
 Search for a local minimum.
 Step number   4 out of a maximum of  120
 All quantities printed in internal units (Hartrees-Bohrs-Radians)
 Mixed Optimization -- En-DIIS/RFO-DIIS
 Swapping is turned off.
 Update second derivatives using D2CorX and points    1    2    3    4
 DE= -1.80D-04 DEPred=-1.37D-04 R= 1.32D+00
 TightC=F SS=  1.41D+00  RLast= 1.15D-01 DXNew= 9.3376D-01 3.4462D-01
 Trust test= 1.32D+00 RLast= 1.15D-01 DXMaxT set to 5.55D-01
 ITU=  1  1  1  0
     Eigenvalues ---    0.01408   0.01673   0.01674   0.01929   0.01929
     Eigenvalues ---    0.01929   0.01951   0.02843   0.02844   0.02844
     Eigenvalues ---    0.03292   0.03293   0.03293   0.04125   0.04192
     Eigenvalues ---    0.04192   0.04193   0.04425   0.04425   0.04587
     Eigenvalues ---    0.04588   0.05383   0.05383   0.05383   0.05440
     Eigenvalues ---    0.05440   0.05440   0.06572   0.06572   0.06572
     Eigenvalues ---    0.07365   0.07365   0.07365   0.08342   0.08342
     Eigenvalues ---    0.08343   0.08491   0.08491   0.09471   0.11258
     Eigenvalues ---    0.11258   0.11259   0.31249   0.31249   0.31249
     Eigenvalues ---    0.31250   0.31250   0.31250   0.31250   0.31250
     Eigenvalues ---    0.31250   0.31250   0.31252   0.39481
 En-DIIS/RFO-DIIS/Sim-DIIS IScMMF=       -3 using points:     4    3    2
 RFO step:  Lambda=-6.03404283D-05.
 DidBck=F Rises=F RFO-DIIS coefs:    2.21247   -1.76441    0.55194
 Iteration  1 RMS(Cart)=  0.00170691 RMS(Int)=  0.00000630
 Iteration  2 RMS(Cart)=  0.00000493 RMS(Int)=  0.00000447
 Iteration  3 RMS(Cart)=  0.00000000 RMS(Int)=  0.00000447
 Variable       Old X    -DE/DX   Delta X   Delta X   Delta X     New X
                                 (Linear)    (Quad)   (Total)
    R1        4.54649  -0.00032  -0.01419  -0.00243  -0.01661   4.52987
    R2        4.54661  -0.00030  -0.01456  -0.00142  -0.01598   4.53063
    R3        4.54605  -0.00030  -0.01341  -0.00234  -0.01576   4.53029
    R4        4.12848   0.00005  -0.00447   0.00203  -0.00244   4.12604
    R5        4.12820   0.00005  -0.00380   0.00160  -0.00220   4.12599
    R6        4.12833   0.00005  -0.00392   0.00151  -0.00241   4.12592
    R7        4.54643  -0.00030  -0.01346  -0.00229  -0.01574   4.53069
    R8        4.54650  -0.00031  -0.01425  -0.00203  -0.01628   4.53022
    R9        4.12799   0.00006  -0.00383   0.00170  -0.00213   4.12586
   R10        4.12860   0.00007  -0.00363   0.00181  -0.00182   4.12678
   R11        4.12824   0.00005  -0.00450   0.00206  -0.00244   4.12580
   R12        4.54592  -0.00030  -0.01467  -0.00155  -0.01622   4.52970
   R13        4.12844   0.00005  -0.00377   0.00132  -0.00245   4.12600
   R14        4.12815   0.00007  -0.00351   0.00194  -0.00157   4.12658
   R15        4.12831   0.00004  -0.00471   0.00204  -0.00267   4.12564
   R16        4.12809   0.00005  -0.00472   0.00232  -0.00239   4.12570
   R17        4.12816   0.00005  -0.00403   0.00157  -0.00246   4.12570
   R18        4.12856   0.00006  -0.00346   0.00163  -0.00184   4.12673
   R19        2.09741   0.00087   0.00479  -0.00163   0.00316   2.10057
   R20        2.09740   0.00087   0.00476  -0.00159   0.00317   2.10057
   R21        2.09741   0.00087   0.00477  -0.00158   0.00319   2.10060
   R22        2.09742   0.00087   0.00480  -0.00164   0.00316   2.10058
   R23        2.09741   0.00087   0.00483  -0.00163   0.00320   2.10061
   R24        2.09741   0.00087   0.00483  -0.00167   0.00316   2.10058
   R25        2.09742   0.00086   0.00482  -0.00171   0.00312   2.10054
   R26        2.09742   0.00086   0.00479  -0.00165   0.00313   2.10055
   R27        2.09741   0.00086   0.00481  -0.00166   0.00314   2.10056
   R28        2.09742   0.00087   0.00479  -0.00162   0.00317   2.10059
   R29        2.09741   0.00086   0.00480  -0.00166   0.00314   2.10055
   R30        2.09740   0.00087   0.00480  -0.00161   0.00319   2.10059
    A1        1.83711   0.00006   0.00174   0.00069   0.00243   1.83953
    A2        1.83699   0.00007   0.00179   0.00080   0.00258   1.83957
    A3        1.83695   0.00006   0.00166   0.00073   0.00238   1.83933
    A4        1.90109   0.00006   0.00190   0.00045   0.00234   1.90342
    A5        1.90100   0.00007   0.00179   0.00096   0.00274   1.90374
    A6        1.90130   0.00007   0.00164   0.00080   0.00243   1.90373
    A7        1.83694   0.00007   0.00173   0.00092   0.00264   1.83959
    A8        1.83707   0.00007   0.00162   0.00091   0.00252   1.83959
    A9        1.83695   0.00007   0.00173   0.00073   0.00245   1.83941
   A10        1.90116   0.00007   0.00169   0.00075   0.00242   1.90358
   A11        1.90120   0.00007   0.00177   0.00089   0.00265   1.90384
   A12        1.90104   0.00007   0.00185   0.00074   0.00257   1.90362
   A13        1.83704   0.00006   0.00181   0.00057   0.00237   1.83941
   A14        1.83709   0.00006   0.00178   0.00052   0.00229   1.83938
   A15        1.83700   0.00007   0.00184   0.00069   0.00253   1.83953
   A16        1.90116   0.00007   0.00162   0.00084   0.00245   1.90360
   A17        1.90106   0.00007   0.00197   0.00054   0.00250   1.90356
   A18        1.90120   0.00006   0.00182   0.00068   0.00249   1.90369
   A19        1.83723   0.00007   0.00181   0.00074   0.00255   1.83978
   A20        1.83712   0.00006   0.00183   0.00058   0.00240   1.83951
   A21        1.83713   0.00007   0.00169   0.00081   0.00249   1.83962
   A22        1.90127   0.00007   0.00200   0.00071   0.00270   1.90397
   A23        1.90111   0.00007   0.00186   0.00071   0.00256   1.90367
   A24        1.90124   0.00006   0.00156   0.00077   0.00232   1.90355
   A25        2.24558   0.00004  -0.00042   0.00052   0.00010   2.24568
   A26        1.33666   0.00013   0.00149   0.00142   0.00291   1.33957
   A27        2.24559   0.00004  -0.00034   0.00037   0.00004   2.24563
   A28        2.24556   0.00004  -0.00036   0.00049   0.00013   2.24569
   A29        2.24558   0.00004  -0.00040   0.00044   0.00005   2.24562
   A30        1.33663   0.00013   0.00139   0.00151   0.00289   1.33952
   A31        1.33665   0.00013   0.00142   0.00130   0.00273   1.33937
   A32        2.24559   0.00004  -0.00045   0.00047   0.00002   2.24562
   A33        2.24558   0.00004  -0.00030   0.00034   0.00004   2.24562
   A34        1.78279  -0.00008   0.00039  -0.00094  -0.00054   1.78225
   A35        1.78275  -0.00008   0.00036  -0.00086  -0.00050   1.78225
   A36        1.78274  -0.00008   0.00037  -0.00075  -0.00038   1.78236
   A37        2.24557   0.00004  -0.00032   0.00044   0.00012   2.24569
   A38        2.24558   0.00004  -0.00043   0.00043  -0.00000   2.24558
   A39        1.33668   0.00013   0.00139   0.00148   0.00287   1.33954
   A40        1.33670   0.00013   0.00154   0.00141   0.00295   1.33966
   A41        2.24555   0.00004  -0.00043   0.00047   0.00004   2.24559
   A42        2.24562   0.00004  -0.00033   0.00040   0.00007   2.24569
   A43        2.24555   0.00004  -0.00038   0.00041   0.00004   2.24559
   A44        1.33668   0.00013   0.00146   0.00143   0.00290   1.33958
   A45        2.24561   0.00004  -0.00035   0.00035   0.00001   2.24562
   A46        1.78276  -0.00008   0.00039  -0.00087  -0.00048   1.78228
   A47        1.78275  -0.00008   0.00034  -0.00074  -0.00040   1.78235
   A48        1.78274  -0.00008   0.00037  -0.00087  -0.00049   1.78225
   A49        1.33662   0.00013   0.00142   0.00134   0.00275   1.33938
   A50        2.24557   0.00004  -0.00031   0.00036   0.00006   2.24563
   A51        2.24558   0.00004  -0.00040   0.00047   0.00008   2.24566
   A52        2.24560   0.00004  -0.00036   0.00040   0.00004   2.24564
   A53        2.24556   0.00004  -0.00034   0.00042   0.00008   2.24564
   A54        1.33664   0.00013   0.00152   0.00130   0.00282   1.33947
   A55        2.24560   0.00004  -0.00029   0.00036   0.00008   2.24568
   A56        1.33680   0.00013   0.00142   0.00138   0.00280   1.33960
   A57        2.24555   0.00004  -0.00047   0.00051   0.00004   2.24560
   A58        1.78276  -0.00008   0.00031  -0.00078  -0.00047   1.78229
   A59        1.78274  -0.00008   0.00040  -0.00086  -0.00046   1.78228
   A60        1.78277  -0.00008   0.00033  -0.00080  -0.00046   1.78230
   A61        1.33673   0.00013   0.00139   0.00142   0.00281   1.33955
   A62        2.24551   0.00004  -0.00035   0.00044   0.00010   2.24561
   A63        2.24563   0.00004  -0.00043   0.00043   0.00001   2.24564
   A64        2.24557   0.00004  -0.00036   0.00036   0.00000   2.24557
   A65        2.24559   0.00004  -0.00037   0.00048   0.00012   2.24571
   A66        1.33660   0.00013   0.00143   0.00149   0.00293   1.33953
   A67        2.24559   0.00004  -0.00031   0.00040   0.00010   2.24568
   A68        1.33674   0.00013   0.00146   0.00142   0.00289   1.33963
   A69        2.24557   0.00004  -0.00043   0.00043   0.00001   2.24558
   A70        1.78277  -0.00008   0.00035  -0.00084  -0.00048   1.78229
   A71        1.78274  -0.00008   0.00035  -0.00081  -0.00046   1.78228
   A72        1.78276  -0.00008   0.00041  -0.00086  -0.00045   1.78231
    D1       -0.00021  -0.00000   0.00028  -0.00024   0.00005  -0.00016
    D2        0.00016  -0.00000  -0.00025   0.00002  -0.00023  -0.00006
    D3        0.00005   0.00001   0.00003   0.00031   0.00034   0.00040
    D4        1.48445   0.00000  -0.00173  -0.00014  -0.00187   1.48258
    D5        3.14155  -0.00001   0.00002  -0.00032  -0.00031   3.14124
    D6       -1.48460  -0.00001   0.00172  -0.00025   0.00147  -1.48313
    D7        0.44867  -0.00007  -0.00370  -0.00099  -0.00469   0.44398
    D8        2.10577  -0.00008  -0.00195  -0.00117  -0.00313   2.10264
    D9       -2.52038  -0.00008  -0.00025  -0.00110  -0.00135  -2.52173
   D10        2.52032   0.00008   0.00040   0.00080   0.00120   2.52151
   D11       -2.10577   0.00008   0.00214   0.00061   0.00276  -2.10301
   D12       -0.44874   0.00007   0.00385   0.00069   0.00454  -0.44420
   D13       -3.14142  -0.00000  -0.00036   0.00024  -0.00012  -3.14154
   D14        1.48473   0.00000  -0.00192   0.00026  -0.00166   1.48307
   D15       -1.48442  -0.00001   0.00134   0.00009   0.00142  -1.48299
   D16       -2.10575   0.00008   0.00188   0.00108   0.00296  -2.10279
   D17        2.52040   0.00009   0.00032   0.00110   0.00142   2.52182
   D18       -0.44875   0.00007   0.00357   0.00093   0.00451  -0.44424
   D19        2.10598  -0.00008  -0.00232  -0.00080  -0.00312   2.10286
   D20        0.44895  -0.00008  -0.00388  -0.00078  -0.00466   0.44428
   D21       -2.52020  -0.00009  -0.00062  -0.00095  -0.00158  -2.52178
   D22        3.14146   0.00000   0.00024  -0.00006   0.00019  -3.14154
   D23       -1.48458  -0.00000   0.00184  -0.00010   0.00175  -1.48284
   D24        1.48437   0.00001  -0.00137  -0.00005  -0.00142   1.48295
   D25        2.10572  -0.00008  -0.00207  -0.00072  -0.00279   2.10293
   D26       -2.52032  -0.00008  -0.00047  -0.00076  -0.00123  -2.52156
   D27        0.44863  -0.00007  -0.00368  -0.00071  -0.00440   0.44423
   D28       -2.10596   0.00008   0.00220   0.00084   0.00304  -2.10292
   D29       -0.44882   0.00007   0.00380   0.00080   0.00460  -0.44421
   D30        2.52014   0.00008   0.00059   0.00085   0.00144   2.52158
   D31        0.00020  -0.00000  -0.00014   0.00016   0.00002   0.00022
   D32       -0.00006  -0.00001  -0.00037  -0.00002  -0.00039  -0.00046
   D33       -1.48454  -0.00000   0.00195   0.00005   0.00201  -1.48253
   D34        1.48461   0.00001  -0.00130  -0.00005  -0.00135   1.48325
   D35       -3.14156   0.00001   0.00033   0.00008   0.00041  -3.14115
   D36       -0.44889   0.00008   0.00383   0.00108   0.00491  -0.44398
   D37        2.52026   0.00009   0.00058   0.00097   0.00155   2.52181
   D38       -2.10591   0.00008   0.00221   0.00110   0.00332  -2.10259
   D39       -2.52037  -0.00008  -0.00038  -0.00076  -0.00115  -2.52152
   D40        0.44878  -0.00008  -0.00364  -0.00087  -0.00451   0.44426
   D41        2.10579  -0.00008  -0.00200  -0.00074  -0.00275   2.10304
   D42        1.48470   0.00000  -0.00180   0.00011  -0.00169   1.48301
   D43       -1.48437  -0.00000   0.00142   0.00021   0.00163  -1.48275
   D44       -3.14142   0.00000  -0.00022   0.00024   0.00002  -3.14141
   D45        0.44886  -0.00008  -0.00376  -0.00094  -0.00471   0.44416
   D46       -2.52021  -0.00008  -0.00054  -0.00085  -0.00140  -2.52160
   D47        2.10593  -0.00008  -0.00218  -0.00082  -0.00301   2.10292
   D48        2.52045   0.00008   0.00041   0.00099   0.00140   2.52184
   D49       -0.44863   0.00008   0.00363   0.00108   0.00471  -0.44392
   D50       -2.10567   0.00008   0.00199   0.00111   0.00310  -2.10257
   D51       -1.48474  -0.00000   0.00175  -0.00009   0.00167  -1.48308
   D52        1.48444   0.00001  -0.00160  -0.00012  -0.00172   1.48272
   D53        3.14145   0.00000   0.00012  -0.00014  -0.00003   3.14142
   D54       -0.44888   0.00007   0.00378   0.00076   0.00455  -0.44433
   D55        2.52030   0.00008   0.00043   0.00073   0.00117   2.52147
   D56       -2.10587   0.00008   0.00214   0.00071   0.00286  -2.10302
   D57       -2.52044  -0.00009  -0.00033  -0.00108  -0.00142  -2.52186
   D58        0.44874  -0.00007  -0.00369  -0.00111  -0.00480   0.44394
   D59        2.10575  -0.00008  -0.00197  -0.00114  -0.00311   2.10264
   D60       -0.00014   0.00000   0.00044  -0.00024   0.00020   0.00007
   D61       -3.14157  -0.00000  -0.00037   0.00027  -0.00010   3.14152
   D62       -1.48448  -0.00001   0.00133   0.00000   0.00133  -1.48315
   D63        1.48458   0.00000  -0.00201   0.00043  -0.00158   1.48300
   D64        2.10581  -0.00008  -0.00233  -0.00066  -0.00299   2.10282
   D65       -2.52029  -0.00008  -0.00062  -0.00093  -0.00156  -2.52184
   D66        0.44878  -0.00007  -0.00396  -0.00051  -0.00447   0.44431
   D67       -2.10577   0.00008   0.00194   0.00095   0.00290  -2.10288
   D68       -0.44869   0.00007   0.00364   0.00068   0.00433  -0.44436
   D69        2.52038   0.00008   0.00030   0.00111   0.00141   2.52179
   D70        3.14153   0.00000   0.00029  -0.00013   0.00016  -3.14150
   D71        1.48442   0.00001  -0.00150  -0.00003  -0.00152   1.48290
   D72       -1.48458  -0.00000   0.00199  -0.00005   0.00194  -1.48264
   D73       -2.10587   0.00008   0.00231   0.00074   0.00306  -2.10281
   D74        2.52021   0.00008   0.00053   0.00084   0.00137   2.52158
   D75       -0.44879   0.00007   0.00401   0.00082   0.00483  -0.44396
   D76        2.10580  -0.00008  -0.00205  -0.00078  -0.00284   2.10297
   D77        0.44870  -0.00007  -0.00383  -0.00068  -0.00452   0.44418
   D78       -2.52030  -0.00008  -0.00035  -0.00071  -0.00106  -2.52136
   D79        1.48436   0.00001  -0.00168   0.00001  -0.00168   1.48269
   D80       -1.48474  -0.00001   0.00177  -0.00024   0.00152  -1.48322
   D81        3.14138   0.00000   0.00009  -0.00016  -0.00007   3.14131
   D82        0.44869  -0.00007  -0.00375  -0.00086  -0.00461   0.44408
   D83       -2.52042  -0.00009  -0.00030  -0.00111  -0.00141  -2.52183
   D84        2.10571  -0.00008  -0.00198  -0.00103  -0.00301   2.10270
   D85        2.52026   0.00008   0.00039   0.00085   0.00125   2.52151
   D86       -0.44885   0.00007   0.00384   0.00060   0.00445  -0.44440
   D87       -2.10591   0.00008   0.00216   0.00069   0.00285  -2.10306
   D88       -1.48459  -0.00001   0.00162  -0.00020   0.00142  -1.48317
   D89        3.14150  -0.00000  -0.00009  -0.00013  -0.00022   3.14128
   D90        1.48446   0.00000  -0.00178  -0.00007  -0.00185   1.48260
   D91       -0.44871   0.00007   0.00373   0.00069   0.00442  -0.44429
   D92       -2.10580   0.00008   0.00201   0.00077   0.00278  -2.10302
   D93        2.52034   0.00008   0.00032   0.00082   0.00115   2.52149
   D94       -2.52045  -0.00008  -0.00037  -0.00106  -0.00144  -2.52189
   D95        2.10565  -0.00008  -0.00209  -0.00099  -0.00308   2.10257
   D96        0.44860  -0.00007  -0.00377  -0.00093  -0.00471   0.44389
   D97       -1.48437  -0.00000   0.00191  -0.00007   0.00184  -1.48253
   D98       -3.14154   0.00000   0.00035  -0.00009   0.00026  -3.14128
   D99        1.48446   0.00001  -0.00127  -0.00005  -0.00132   1.48314
   D100      -2.52028  -0.00009  -0.00045  -0.00086  -0.00131  -2.52159
   D101       2.10574  -0.00008  -0.00201  -0.00087  -0.00288   2.10285
   D102       0.44855  -0.00007  -0.00363  -0.00083  -0.00447   0.44408
   D103      -0.44862   0.00008   0.00384   0.00086   0.00470  -0.44392
   D104      -2.10579   0.00008   0.00228   0.00085   0.00313  -2.10266
   D105       2.52021   0.00009   0.00066   0.00089   0.00155   2.52175
   D106       1.48462  -0.00000  -0.00203   0.00017  -0.00186   1.48276
   D107      -3.14143  -0.00000  -0.00038   0.00014  -0.00024   3.14151
   D108      -1.48430  -0.00001   0.00137   0.00007   0.00144  -1.48287
   D109       2.52047   0.00008   0.00038   0.00097   0.00135   2.52182
   D110      -2.10558   0.00008   0.00203   0.00094   0.00297  -2.10260
   D111      -0.44845   0.00008   0.00378   0.00087   0.00465  -0.44380
   D112       0.44871  -0.00008  -0.00400  -0.00075  -0.00475   0.44396
   D113       2.10585  -0.00008  -0.00234  -0.00078  -0.00313   2.10272
   D114      -2.52021  -0.00008  -0.00059  -0.00085  -0.00145  -2.52166
         Item               Value     Threshold  Converged?
 Maximum Force            0.000873     0.000450     NO 
 RMS     Force            0.000220     0.000300     YES
 Maximum Displacement     0.006087     0.001800     NO 
 RMS     Displacement     0.001705     0.001200     NO 
 Predicted change in Energy=-1.979977D-05
 GradGradGradGradGradGradGradGradGradGradGradGradGradGradGradGradGradGrad

                          Input orientation:                          
 ---------------------------------------------------------------------
 Center     Atomic      Atomic             Coordinates (Angstroms)
 Number     Number       Type             X           Y           Z
 ---------------------------------------------------------------------
      1          3           0        9.347704    7.652532    9.347694
      2          3           0        7.652604    9.347449    9.347802
      3          3           0        7.652482    7.652288    7.652332
      4          3           0        9.347283    9.347376    7.652206
      5          6           0        7.242650    7.242449    9.757381
      6          6           0        7.242461    9.757611    7.242445
      7          6           0        9.757371    7.242483    7.242654
      8          6           0        9.757515    9.757546    9.757514
      9          1           0        6.552913    6.552698    9.224367
     10          1           0        6.552600    9.224829    6.552632
     11          1           0       10.447151    6.552806    7.775676
     12          1           0       10.447342    9.224701   10.447322
     13          1           0       10.447149    7.775283    6.552793
     14          1           0        7.775412   10.447423    6.552686
     15          1           0        7.775506    6.552576   10.447116
     16          1           0       10.447260   10.447319    9.224562
     17          1           0        9.224488    6.552566    6.552996
     18          1           0        6.552753    7.775293   10.447129
     19          1           0        9.224583   10.447342   10.447290
     20          1           0        6.552809   10.447456    7.775452
 ---------------------------------------------------------------------
                    Distance matrix (angstroms):
                    1          2          3          4          5
     1  Li   0.000000
     2  Li   2.397104   0.000000
     3  Li   2.397505   2.397538   0.000000
     4  Li   2.397327   2.397287   2.397013   0.000000
     5  C    2.183406   2.183310   2.183383   3.645814   0.000000
     6  C    3.646296   2.183799   2.183692   2.183225   3.556816
     7  C    2.183382   3.645898   2.183194   2.183226   3.556357
     8  C    2.183342   2.183277   3.646241   2.183771   3.556721
     9  H    3.005944   3.005859   2.211208   4.253283   1.111575
    10  H    4.254068   3.006330   2.211779   3.005717   3.830981
    11  H    2.211204   4.253364   3.005703   3.005757   3.830351
    12  H    2.211358   3.005757   4.253904   3.006303   3.830848
    13  H    3.005881   4.253618   3.005708   2.211310   4.563125
    14  H    4.253891   3.006277   3.006179   2.211295   4.563526
    15  H    2.211434   3.005814   3.005881   4.253577   1.111574
    16  H    3.005831   3.005828   4.253809   2.211816   4.563398
    17  H    3.005901   4.253602   2.211138   3.005711   3.830366
    18  H    3.005924   2.211304   3.005898   4.253520   1.111590
    19  H    3.005867   2.211280   4.253895   3.006240   3.830845
    20  H    4.253820   2.211752   3.006227   3.005736   3.830926
                    6          7          8          9         10
     6  C    0.000000
     7  C    3.556774   0.000000
     8  C    3.556835   3.556693   0.000000
     9  H    3.830791   3.830344   4.563417   0.000000
    10  H    1.111578   3.830977   4.563611   3.778684   0.000000
    11  H    4.563458   1.111558   3.830619   4.154972   4.878839
    12  H    4.563606   3.830815   1.111585   4.878708   5.507961
    13  H    3.830831   1.111566   3.830823   4.878226   4.155563
    14  H    1.111596   3.830908   3.830873   4.878654   1.729163
    15  H    4.563585   3.830449   3.830894   1.729119   4.878878
    16  H    3.830825   3.830780   1.111562   5.507631   4.878736
    17  H    3.830937   1.111566   4.563436   3.778032   3.778885
    18  H    3.830833   4.563126   3.830848   1.729129   4.155510
    19  H    3.830871   4.563406   1.111587   4.878690   4.878770
    20  H    1.111577   4.563436   3.830756   4.155538   1.729192
                   11         12         13         14         15
    11  H    0.000000
    12  H    3.778455   0.000000
    13  H    1.729131   4.155499   0.000000
    14  H    4.878722   4.878776   3.778692   0.000000
    15  H    3.778132   3.778751   4.878365   5.507852   0.000000
    16  H    4.155298   1.729143   3.778641   3.778583   4.878722
    17  H    1.729118   4.878673   1.729143   4.155686   4.154963
    18  H    4.878265   4.155551   5.507465   4.878715   1.729209
    19  H    4.878484   1.729159   4.878696   4.155483   4.155602
    20  H    5.507649   4.878669   4.878657   1.729137   4.878819
                   16         17         18         19         20
    16  H    0.000000
    17  H    4.878681   0.000000
    18  H    4.878685   4.878267   0.000000
    19  H    1.729162   5.507704   3.778693   0.000000
    20  H    4.155318   4.878773   3.778665   3.778505   0.000000
 Stoichiometry    C4H12Li4
 Framework group  C1[X(C4H12Li4)]
 Deg. of freedom    54
 Full point group                 C1      NOp   1
 Largest Abelian subgroup         C1      NOp   1
 Largest concise Abelian subgroup C1      NOp   1
                         Standard orientation:                         
 ---------------------------------------------------------------------
 Center     Atomic      Atomic             Coordinates (Angstroms)
 Number     Number       Type             X           Y           Z
 ---------------------------------------------------------------------
      1          3           0       -1.401240   -0.410073   -0.154068
      2          3           0        0.574027   -0.654930    1.181774
      3          3           0        0.068143    1.457120    0.166139
      4          3           0        0.758772   -0.391954   -1.193873
      5          6           0       -1.125681    0.582146    1.771245
      6          6           0        2.079053    0.608088    0.228536
      7          6           0       -0.852088    0.971435   -1.753137
      8          6           0       -0.101185   -2.161721   -0.246640
      9          1           0       -1.146628    1.669401    2.001544
     10          1           0        2.258077    1.696916    0.362740
     11          1           0       -1.915892    0.736261   -1.973538
     12          1           0       -1.118164   -2.592268   -0.373150
     13          1           0       -0.358036    0.749151   -2.723746
     14          1           0        2.755966    0.362966   -0.618429
     15          1           0       -2.206608    0.322931    1.770647
     16          1           0        0.439774   -2.579504   -1.123219
     17          1           0       -0.856205    2.082943   -1.742541
     18          1           0       -0.781650    0.146286    2.734210
     19          1           0        0.306758   -2.768834    0.590391
     20          1           0        2.622912    0.173571    1.095147
 ---------------------------------------------------------------------
 Rotational constants (GHZ):           1.9627401           1.9626954           1.9624775
 Standard basis: def2QZVPP (5D, 7F)
 There are   868 symmetry adapted cartesian basis functions of A   symmetry.
 There are   728 symmetry adapted basis functions of A   symmetry.
   728 basis functions,  1044 primitive gaussians,   868 cartesian basis functions
    24 alpha electrons       24 beta electrons
       nuclear repulsion energy       205.2037487852 Hartrees.
 NAtoms=   20 NActive=   20 NUniq=   20 SFac= 1.00D+00 NAtFMM=   60 NAOKFM=F Big=F
 Integral buffers will be    131072 words long.
 Raffenetti 2 integral format.
 Two-electron integral symmetry is turned on.
 One-electron integrals computed using PRISM.
   1 Symmetry operations used in ECPInt.
 ECPInt:  NShTT=   28920 NPrTT=   68284 LenC2=   27615 LenP2D=   53728.
 LDataN:  DoStor=T MaxTD1= 8 Len=  415
 NBasis=   728 RedAO= T EigKep=  6.51D-06  NBF=   728
 NBsUse=   728 1.00D-06 EigRej= -1.00D+00 NBFU=   728
 Initial guess from the checkpoint file:  "/data/hutter/SMG16/PBE/Gau-52442.chk"
 B after Tr=     0.000000    0.000000    0.000000
         Rot=    0.712623    0.211374    0.211691    0.634568 Ang=  89.10 deg.
 Requested convergence on RMS density matrix=1.00D-08 within 128 cycles.
 Requested convergence on MAX density matrix=1.00D-06.
 Requested convergence on             energy=1.00D-06.
 No special actions if energy rises.
 SCF Done:  E(RPBE-PBE) =  -189.530408349     A.U. after    7 cycles
            NFock=  7  Conv=0.22D-08     -V/T= 2.0063
   1 Symmetry operations used in ECPInt.
 ECPInt:  NShTT=   28920 NPrTT=   68284 LenC2=   27615 LenP2D=   53728.
 LDataN:  DoStor=T MaxTD1= 9 Len=  602
 Calling FoFJK, ICntrl=      2527 FMM=F ISym2X=0 I1Cent= 0 IOpClX= 0 NMat=1 NMatS=1 NMatT=0.
 ***** Axes restored to original set *****
 -------------------------------------------------------------------
 Center     Atomic                   Forces (Hartrees/Bohr)
 Number     Number              X              Y              Z
 -------------------------------------------------------------------
      1        3          -0.000261821    0.000301861   -0.000252872
      2        3           0.000223685   -0.000287830   -0.000246453
      3        3           0.000196167    0.000231500    0.000220208
      4        3          -0.000186529   -0.000219375    0.000243959
      5        6          -0.000043889   -0.000044199    0.000045185
      6        6          -0.000021498    0.000028518   -0.000023547
      7        6           0.000034879   -0.000035538   -0.000039140
      8        6           0.000041221    0.000046394    0.000046946
      9        1           0.000024548    0.000023325    0.000143908
     10        1           0.000025891    0.000150745    0.000030888
     11        1          -0.000019272    0.000017501   -0.000141644
     12        1          -0.000025355    0.000152233   -0.000025087
     13        1          -0.000022046   -0.000147488    0.000020241
     14        1          -0.000146558   -0.000032691    0.000031746
     15        1          -0.000148003    0.000026483   -0.000019787
     16        1          -0.000022667   -0.000021785    0.000144122
     17        1           0.000144079    0.000021936    0.000018441
     18        1           0.000030346   -0.000154572   -0.000025502
     19        1           0.000149741   -0.000026054   -0.000024800
     20        1           0.000027081   -0.000030963   -0.000146811
 -------------------------------------------------------------------
 Cartesian Forces:  Max     0.000301861 RMS     0.000128738

 GradGradGradGradGradGradGradGradGradGradGradGradGradGradGradGradGradGrad
 Berny optimization.
 Using GEDIIS/GDIIS optimizer.
 FormGI is forming the generalized inverse of G from B-inverse, IUseBI=4.
 Internal  Forces:  Max     0.000127408 RMS     0.000044415
 Search for a local minimum.
 Step number   5 out of a maximum of  120
 All quantities printed in internal units (Hartrees-Bohrs-Radians)
 Mixed Optimization -- En-DIIS/RFO-DIIS
 Swapping is turned off.
 Update second derivatives using D2CorX and points    1    2    3    4    5
 DE= -4.90D-05 DEPred=-1.98D-05 R= 2.47D+00
 TightC=F SS=  1.41D+00  RLast= 5.31D-02 DXNew= 9.3376D-01 1.5930D-01
 Trust test= 2.47D+00 RLast= 5.31D-02 DXMaxT set to 5.55D-01
 ITU=  1  1  1  1  0
     Eigenvalues ---    0.01206   0.01680   0.01681   0.01915   0.01915
     Eigenvalues ---    0.01915   0.01937   0.02850   0.02850   0.02850
     Eigenvalues ---    0.03293   0.03293   0.03294   0.03744   0.04189
     Eigenvalues ---    0.04189   0.04191   0.04405   0.04405   0.04581
     Eigenvalues ---    0.04582   0.05392   0.05392   0.05392   0.05435
     Eigenvalues ---    0.05435   0.05435   0.06561   0.06561   0.06561
     Eigenvalues ---    0.07169   0.07382   0.07383   0.07385   0.08358
     Eigenvalues ---    0.08359   0.08359   0.08523   0.08524   0.11273
     Eigenvalues ---    0.11274   0.11277   0.31249   0.31249   0.31249
     Eigenvalues ---    0.31250   0.31250   0.31250   0.31250   0.31250
     Eigenvalues ---    0.31250   0.31250   0.31252   0.39000
 En-DIIS/RFO-DIIS/Sim-DIIS IScMMF=       -3 using points:     5    4    3    2
 RFO step:  Lambda=-8.41888654D-06.
 DidBck=F Rises=F RFO-DIIS coefs:    2.03946   -1.86748    1.23437   -0.40634
 Iteration  1 RMS(Cart)=  0.00094112 RMS(Int)=  0.00000277
 Iteration  2 RMS(Cart)=  0.00000157 RMS(Int)=  0.00000241
 Iteration  3 RMS(Cart)=  0.00000000 RMS(Int)=  0.00000241
 Variable       Old X    -DE/DX   Delta X   Delta X   Delta X     New X
                                 (Linear)    (Quad)   (Total)
    R1        4.52987  -0.00013  -0.00894  -0.00026  -0.00919   4.52068
    R2        4.53063  -0.00010  -0.00802  -0.00020  -0.00822   4.52240
    R3        4.53029  -0.00012  -0.00860  -0.00037  -0.00897   4.52132
    R4        4.12604   0.00005  -0.00065   0.00010  -0.00055   4.12549
    R5        4.12599   0.00005  -0.00087   0.00032  -0.00055   4.12544
    R6        4.12592   0.00004  -0.00100   0.00010  -0.00090   4.12502
    R7        4.53069  -0.00011  -0.00854  -0.00023  -0.00877   4.52192
    R8        4.53022  -0.00009  -0.00855   0.00045  -0.00810   4.52212
    R9        4.12586   0.00004  -0.00077  -0.00019  -0.00096   4.12489
   R10        4.12678   0.00003  -0.00059  -0.00052  -0.00111   4.12567
   R11        4.12580   0.00006  -0.00063   0.00038  -0.00025   4.12554
   R12        4.52970  -0.00008  -0.00820   0.00024  -0.00795   4.52175
   R13        4.12600   0.00005  -0.00114   0.00057  -0.00058   4.12542
   R14        4.12658   0.00003  -0.00042  -0.00067  -0.00109   4.12549
   R15        4.12564   0.00005  -0.00072   0.00020  -0.00052   4.12512
   R16        4.12570   0.00004  -0.00043  -0.00030  -0.00073   4.12497
   R17        4.12570   0.00005  -0.00098   0.00034  -0.00064   4.12506
   R18        4.12673   0.00004  -0.00072  -0.00007  -0.00080   4.12593
   R19        2.10057  -0.00010  -0.00017  -0.00009  -0.00026   2.10031
   R20        2.10057  -0.00010  -0.00014  -0.00013  -0.00026   2.10031
   R21        2.10060  -0.00011  -0.00013  -0.00018  -0.00031   2.10029
   R22        2.10058  -0.00011  -0.00018  -0.00014  -0.00032   2.10026
   R23        2.10061  -0.00011  -0.00016  -0.00017  -0.00032   2.10029
   R24        2.10058  -0.00011  -0.00020  -0.00011  -0.00031   2.10027
   R25        2.10054  -0.00009  -0.00024   0.00002  -0.00021   2.10033
   R26        2.10055  -0.00010  -0.00020  -0.00006  -0.00026   2.10030
   R27        2.10056  -0.00009  -0.00020  -0.00002  -0.00022   2.10033
   R28        2.10059  -0.00010  -0.00016  -0.00013  -0.00029   2.10030
   R29        2.10055  -0.00010  -0.00020  -0.00004  -0.00024   2.10031
   R30        2.10059  -0.00010  -0.00015  -0.00014  -0.00029   2.10031
    A1        1.83953   0.00003   0.00135   0.00016   0.00151   1.84104
    A2        1.83957   0.00003   0.00147   0.00009   0.00157   1.84114
    A3        1.83933   0.00004   0.00136   0.00029   0.00165   1.84098
    A4        1.90342   0.00003   0.00114   0.00015   0.00129   1.90472
    A5        1.90374   0.00004   0.00164   0.00003   0.00167   1.90540
    A6        1.90373   0.00003   0.00142   0.00016   0.00158   1.90531
    A7        1.83959   0.00002   0.00158  -0.00019   0.00138   1.84097
    A8        1.83959   0.00003   0.00153   0.00002   0.00155   1.84113
    A9        1.83941   0.00003   0.00138   0.00012   0.00150   1.84091
   A10        1.90358   0.00003   0.00138   0.00018   0.00156   1.90514
   A11        1.90384   0.00004   0.00155   0.00004   0.00159   1.90543
   A12        1.90362   0.00002   0.00142  -0.00022   0.00120   1.90482
   A13        1.83941   0.00002   0.00124  -0.00017   0.00108   1.84049
   A14        1.83938   0.00003   0.00118   0.00019   0.00137   1.84075
   A15        1.83953   0.00003   0.00138  -0.00004   0.00135   1.84087
   A16        1.90360   0.00003   0.00145  -0.00003   0.00142   1.90503
   A17        1.90356   0.00003   0.00126   0.00003   0.00129   1.90485
   A18        1.90369   0.00002   0.00136  -0.00003   0.00133   1.90502
   A19        1.83978   0.00002   0.00143  -0.00022   0.00120   1.84098
   A20        1.83951   0.00002   0.00126  -0.00007   0.00119   1.84071
   A21        1.83962   0.00003   0.00145   0.00000   0.00145   1.84107
   A22        1.90397   0.00002   0.00145  -0.00020   0.00125   1.90522
   A23        1.90367   0.00003   0.00140  -0.00014   0.00126   1.90492
   A24        1.90355   0.00003   0.00136   0.00022   0.00158   1.90513
   A25        2.24568   0.00003   0.00031   0.00001   0.00032   2.24600
   A26        1.33957   0.00007   0.00190   0.00012   0.00202   1.34158
   A27        2.24563   0.00002   0.00018   0.00002   0.00020   2.24583
   A28        2.24569   0.00003   0.00030   0.00000   0.00029   2.24599
   A29        2.24562   0.00002   0.00024  -0.00002   0.00021   2.24584
   A30        1.33952   0.00007   0.00195   0.00012   0.00206   1.34158
   A31        1.33937   0.00007   0.00176   0.00016   0.00191   1.34128
   A32        2.24562   0.00003   0.00025   0.00009   0.00033   2.24595
   A33        2.24562   0.00003   0.00016   0.00011   0.00026   2.24589
   A34        1.78225  -0.00005  -0.00068   0.00003  -0.00065   1.78160
   A35        1.78225  -0.00005  -0.00062  -0.00003  -0.00065   1.78159
   A36        1.78236  -0.00005  -0.00050  -0.00022  -0.00072   1.78164
   A37        2.24569   0.00002   0.00026  -0.00001   0.00025   2.24594
   A38        2.24558   0.00003   0.00021   0.00011   0.00031   2.24590
   A39        1.33954   0.00006   0.00193  -0.00003   0.00189   1.34144
   A40        1.33966   0.00006   0.00191   0.00002   0.00192   1.34158
   A41        2.24559   0.00003   0.00026   0.00004   0.00030   2.24589
   A42        2.24569   0.00002   0.00022   0.00003   0.00024   2.24594
   A43        2.24559   0.00003   0.00021   0.00014   0.00035   2.24594
   A44        1.33958   0.00006   0.00190  -0.00013   0.00177   1.34135
   A45        2.24562   0.00002   0.00016   0.00009   0.00025   2.24587
   A46        1.78228  -0.00004  -0.00062  -0.00006  -0.00068   1.78161
   A47        1.78235  -0.00005  -0.00050  -0.00019  -0.00070   1.78165
   A48        1.78225  -0.00004  -0.00062  -0.00004  -0.00066   1.78159
   A49        1.33938   0.00007   0.00179   0.00025   0.00203   1.34141
   A50        2.24563   0.00002   0.00018   0.00008   0.00026   2.24589
   A51        2.24566   0.00003   0.00027   0.00006   0.00032   2.24598
   A52        2.24564   0.00002   0.00020   0.00001   0.00020   2.24585
   A53        2.24564   0.00003   0.00023   0.00009   0.00031   2.24596
   A54        1.33947   0.00007   0.00179   0.00005   0.00184   1.34130
   A55        2.24568   0.00002   0.00019   0.00004   0.00023   2.24591
   A56        1.33960   0.00007   0.00184   0.00018   0.00202   1.34162
   A57        2.24560   0.00003   0.00028   0.00004   0.00032   2.24591
   A58        1.78229  -0.00005  -0.00055  -0.00007  -0.00062   1.78167
   A59        1.78228  -0.00005  -0.00061  -0.00008  -0.00069   1.78159
   A60        1.78230  -0.00005  -0.00056  -0.00016  -0.00073   1.78157
   A61        1.33955   0.00007   0.00187   0.00025   0.00212   1.34166
   A62        2.24561   0.00003   0.00025   0.00002   0.00027   2.24589
   A63        2.24564   0.00002   0.00022   0.00004   0.00025   2.24589
   A64        2.24557   0.00002   0.00016   0.00005   0.00021   2.24578
   A65        2.24571   0.00003   0.00029   0.00005   0.00033   2.24604
   A66        1.33953   0.00007   0.00196   0.00008   0.00203   1.34156
   A67        2.24568   0.00002   0.00023   0.00000   0.00023   2.24591
   A68        1.33963   0.00007   0.00190  -0.00001   0.00188   1.34151
   A69        2.24558   0.00003   0.00022   0.00010   0.00031   2.24589
   A70        1.78229  -0.00005  -0.00059  -0.00009  -0.00069   1.78160
   A71        1.78228  -0.00005  -0.00057  -0.00008  -0.00065   1.78163
   A72        1.78231  -0.00005  -0.00060  -0.00008  -0.00069   1.78162
    D1       -0.00016  -0.00001  -0.00016  -0.00026  -0.00042  -0.00058
    D2       -0.00006  -0.00000  -0.00006   0.00007   0.00001  -0.00006
    D3        0.00040   0.00000   0.00034  -0.00011   0.00023   0.00062
    D4        1.48258   0.00001  -0.00088   0.00007  -0.00081   1.48177
    D5        3.14124   0.00000  -0.00033   0.00020  -0.00013   3.14111
    D6       -1.48313  -0.00001   0.00047   0.00002   0.00049  -1.48264
    D7        0.44398  -0.00003  -0.00249  -0.00013  -0.00262   0.44136
    D8        2.10264  -0.00004  -0.00194   0.00000  -0.00194   2.10070
    D9       -2.52173  -0.00005  -0.00113  -0.00019  -0.00132  -2.52305
   D10        2.52151   0.00005   0.00087   0.00017   0.00104   2.52256
   D11       -2.10301   0.00004   0.00142   0.00030   0.00173  -2.10129
   D12       -0.44420   0.00002   0.00222   0.00012   0.00234  -0.44186
   D13       -3.14154   0.00001   0.00013   0.00028   0.00041  -3.14114
   D14        1.48307   0.00002  -0.00053   0.00018  -0.00034   1.48273
   D15       -1.48299  -0.00001   0.00069   0.00036   0.00105  -1.48194
   D16       -2.10279   0.00004   0.00182   0.00031   0.00213  -2.10066
   D17        2.52182   0.00005   0.00116   0.00021   0.00138   2.52320
   D18       -0.44424   0.00003   0.00238   0.00039   0.00277  -0.44147
   D19        2.10286  -0.00004  -0.00167   0.00008  -0.00159   2.10127
   D20        0.44428  -0.00002  -0.00233  -0.00001  -0.00234   0.44195
   D21       -2.52178  -0.00005  -0.00111   0.00017  -0.00094  -2.52272
   D22       -3.14154   0.00000   0.00002   0.00000   0.00002  -3.14152
   D23       -1.48284  -0.00001   0.00067   0.00008   0.00075  -1.48209
   D24        1.48295   0.00001  -0.00066  -0.00009  -0.00075   1.48220
   D25        2.10293  -0.00004  -0.00151  -0.00020  -0.00171   2.10121
   D26       -2.52156  -0.00005  -0.00086  -0.00012  -0.00099  -2.52254
   D27        0.44423  -0.00002  -0.00219  -0.00029  -0.00249   0.44175
   D28       -2.10292   0.00004   0.00167   0.00009   0.00177  -2.10115
   D29       -0.44421   0.00002   0.00232   0.00017   0.00250  -0.44172
   D30        2.52158   0.00005   0.00099   0.00000   0.00100   2.52257
   D31        0.00022   0.00000   0.00012   0.00014   0.00027   0.00049
   D32       -0.00046   0.00001  -0.00015   0.00035   0.00020  -0.00025
   D33       -1.48253  -0.00002   0.00087  -0.00026   0.00061  -1.48193
   D34        1.48325   0.00001  -0.00064  -0.00013  -0.00077   1.48248
   D35       -3.14115  -0.00000   0.00019  -0.00031  -0.00012  -3.14127
   D36       -0.44398   0.00002   0.00262  -0.00030   0.00232  -0.44166
   D37        2.52181   0.00005   0.00111  -0.00017   0.00094   2.52275
   D38       -2.10259   0.00003   0.00195  -0.00036   0.00159  -2.10100
   D39       -2.52152  -0.00005  -0.00083  -0.00016  -0.00099  -2.52252
   D40        0.44426  -0.00002  -0.00234  -0.00003  -0.00237   0.44189
   D41        2.10304  -0.00003  -0.00150  -0.00021  -0.00172   2.10132
   D42        1.48301   0.00002  -0.00064   0.00041  -0.00023   1.48279
   D43       -1.48275  -0.00001   0.00084   0.00004   0.00089  -1.48186
   D44       -3.14141   0.00000   0.00017   0.00014   0.00032  -3.14109
   D45        0.44416  -0.00002  -0.00246   0.00034  -0.00211   0.44204
   D46       -2.52160  -0.00005  -0.00098  -0.00002  -0.00100  -2.52260
   D47        2.10292  -0.00004  -0.00165   0.00008  -0.00157   2.10135
   D48        2.52184   0.00005   0.00108   0.00036   0.00144   2.52328
   D49       -0.44392   0.00002   0.00255  -0.00000   0.00255  -0.44136
   D50       -2.10257   0.00004   0.00188   0.00009   0.00198  -2.10059
   D51       -1.48308  -0.00002   0.00065  -0.00019   0.00046  -1.48262
   D52        1.48272   0.00001  -0.00081  -0.00010  -0.00091   1.48181
   D53        3.14142  -0.00000  -0.00011  -0.00014  -0.00025   3.14117
   D54       -0.44433   0.00002   0.00228   0.00003   0.00231  -0.44202
   D55        2.52147   0.00005   0.00082   0.00013   0.00095   2.52241
   D56       -2.10302   0.00003   0.00152   0.00008   0.00160  -2.10142
   D57       -2.52186  -0.00005  -0.00115  -0.00007  -0.00122  -2.52308
   D58        0.44394  -0.00002  -0.00261   0.00002  -0.00259   0.44135
   D59        2.10264  -0.00003  -0.00191  -0.00003  -0.00194   2.10071
   D60        0.00007  -0.00000  -0.00010  -0.00019  -0.00028  -0.00022
   D61        3.14152   0.00000   0.00015   0.00011   0.00027  -3.14140
   D62       -1.48315  -0.00001   0.00060   0.00027   0.00087  -1.48228
   D63        1.48300   0.00002  -0.00039   0.00004  -0.00034   1.48266
   D64        2.10282  -0.00003  -0.00153   0.00017  -0.00136   2.10146
   D65       -2.52184  -0.00004  -0.00109   0.00032  -0.00077  -2.52261
   D66        0.44431  -0.00001  -0.00207   0.00010  -0.00197   0.44233
   D67       -2.10288   0.00003   0.00170   0.00014   0.00185  -2.10103
   D68       -0.44436   0.00002   0.00215   0.00030   0.00245  -0.44191
   D69        2.52179   0.00004   0.00116   0.00007   0.00124   2.52303
   D70       -3.14150  -0.00000  -0.00004  -0.00003  -0.00006  -3.14156
   D71        1.48290   0.00001  -0.00068   0.00004  -0.00064   1.48225
   D72       -1.48264  -0.00002   0.00077  -0.00026   0.00051  -1.48214
   D73       -2.10281   0.00003   0.00161  -0.00007   0.00154  -2.10127
   D74        2.52158   0.00005   0.00096  -0.00001   0.00096   2.52254
   D75       -0.44396   0.00002   0.00241  -0.00030   0.00211  -0.44185
   D76        2.10297  -0.00003  -0.00156  -0.00008  -0.00165   2.10132
   D77        0.44418  -0.00002  -0.00221  -0.00002  -0.00223   0.44195
   D78       -2.52136  -0.00005  -0.00076  -0.00031  -0.00108  -2.52244
   D79        1.48269   0.00001  -0.00071   0.00007  -0.00065   1.48204
   D80       -1.48322  -0.00002   0.00049  -0.00018   0.00031  -1.48291
   D81        3.14131  -0.00000  -0.00014   0.00001  -0.00013   3.14118
   D82        0.44408  -0.00002  -0.00237   0.00010  -0.00227   0.44181
   D83       -2.52183  -0.00005  -0.00117  -0.00014  -0.00131  -2.52314
   D84        2.10270  -0.00003  -0.00179   0.00004  -0.00175   2.10094
   D85        2.52151   0.00004   0.00092   0.00007   0.00100   2.52251
   D86       -0.44440   0.00002   0.00213  -0.00017   0.00196  -0.44244
   D87       -2.10306   0.00003   0.00150   0.00001   0.00152  -2.10154
   D88       -1.48317  -0.00002   0.00049  -0.00020   0.00029  -1.48288
   D89        3.14128  -0.00000  -0.00017  -0.00000  -0.00017   3.14112
   D90        1.48260   0.00001  -0.00083   0.00017  -0.00066   1.48195
   D91       -0.44429   0.00002   0.00219  -0.00016   0.00202  -0.44226
   D92       -2.10302   0.00003   0.00153   0.00003   0.00157  -2.10145
   D93        2.52149   0.00005   0.00087   0.00020   0.00108   2.52257
   D94       -2.52189  -0.00005  -0.00114  -0.00022  -0.00137  -2.52325
   D95        2.10257  -0.00003  -0.00179  -0.00002  -0.00182   2.10075
   D96        0.44389  -0.00002  -0.00245   0.00014  -0.00231   0.44158
   D97       -1.48253  -0.00002   0.00072  -0.00019   0.00053  -1.48200
   D98       -3.14128  -0.00001   0.00003  -0.00024  -0.00021  -3.14149
   D99        1.48314   0.00001  -0.00063  -0.00017  -0.00080   1.48234
   D100      -2.52159  -0.00004  -0.00095   0.00004  -0.00092  -2.52251
   D101       2.10285  -0.00003  -0.00164  -0.00002  -0.00166   2.10119
   D102       0.44408  -0.00002  -0.00230   0.00005  -0.00225   0.44183
   D103      -0.44392   0.00002   0.00240  -0.00013   0.00227  -0.44165
   D104      -2.10266   0.00003   0.00171  -0.00018   0.00153  -2.10114
   D105       2.52175   0.00005   0.00105  -0.00011   0.00094   2.52269
   D106       1.48276   0.00002  -0.00066   0.00033  -0.00032   1.48243
   D107       3.14151   0.00000   0.00002   0.00021   0.00023  -3.14145
   D108      -1.48287  -0.00001   0.00068   0.00008   0.00076  -1.48211
   D109       2.52182   0.00004   0.00105   0.00013   0.00118   2.52300
   D110      -2.10260   0.00003   0.00172   0.00000   0.00173  -2.10088
   D111      -0.44380   0.00001   0.00239  -0.00013   0.00226  -0.44154
   D112       0.44396  -0.00001  -0.00233   0.00033  -0.00201   0.44196
   D113       2.10272  -0.00003  -0.00166   0.00020  -0.00146   2.10126
   D114      -2.52166  -0.00004  -0.00099   0.00007  -0.00093  -2.52258
         Item               Value     Threshold  Converged?
 Maximum Force            0.000127     0.000450     YES
 RMS     Force            0.000044     0.000300     YES
 Maximum Displacement     0.003647     0.001800     NO 
 RMS     Displacement     0.000940     0.001200     YES
 Predicted change in Energy=-3.037968D-06
 GradGradGradGradGradGradGradGradGradGradGradGradGradGradGradGradGradGrad

                          Input orientation:                          
 ---------------------------------------------------------------------
 Center     Atomic      Atomic             Coordinates (Angstroms)
 Number     Number       Type             X           Y           Z
 ---------------------------------------------------------------------
      1          3           0        9.346044    7.654462    9.346083
      2          3           0        7.654050    9.345605    9.346177
      3          3           0        7.653887    7.653901    7.653811
      4          3           0        9.345906    9.345819    7.653819
      5          6           0        7.242161    7.241901    9.757750
      6          6           0        7.242224    9.757967    7.242187
      7          6           0        9.757707    7.242014    7.242206
      8          6           0        9.757944    9.758183    9.757909
      9          1           0        6.552400    6.551963    9.225299
     10          1           0        6.552226    9.225963    6.552179
     11          1           0       10.447510    6.552110    7.774669
     12          1           0       10.447946    9.226076   10.447866
     13          1           0       10.447647    7.774056    6.552140
     14          1           0        7.774654   10.447902    6.552424
     15          1           0        7.774481    6.551961   10.447610
     16          1           0       10.447757   10.448091    9.225489
     17          1           0        9.225322    6.552002    6.552446
     18          1           0        6.552096    7.774003   10.447639
     19          1           0        9.225579   10.448127   10.447726
     20          1           0        6.552498   10.447923    7.774617
 ---------------------------------------------------------------------
                    Distance matrix (angstroms):
                    1          2          3          4          5
     1  Li   0.000000
     2  Li   2.392240   0.000000
     3  Li   2.393153   2.392899   0.000000
     4  Li   2.392582   2.393001   2.392805   0.000000
     5  C    2.183117   2.182800   2.183076   3.644000   0.000000
     6  C    3.643785   2.183212   2.183116   2.182839   3.557899
     7  C    2.183090   3.643785   2.182918   2.182888   3.557518
     8  C    2.182866   2.183143   3.644487   2.183349   3.558207
     9  H    3.005751   3.005441   2.212942   4.251923   1.111436
    10  H    4.252169   3.005787   2.213285   3.005432   3.832519
    11  H    2.213086   4.251667   3.005475   3.005486   3.831799
    12  H    2.213162   3.005639   4.252675   3.005916   3.832789
    13  H    3.005653   4.252128   3.005530   2.213135   4.564456
    14  H    4.251718   3.005771   3.005675   2.212802   4.564658
    15  H    2.213297   3.005346   3.005683   4.252092   1.111435
    16  H    3.005442   3.005802   4.252457   2.213421   4.564954
    17  H    3.005728   4.251829   2.212825   3.005491   3.831823
    18  H    3.005639   2.213019   3.005635   4.252224   1.111426
    19  H    3.005444   2.213294   4.252514   3.005908   3.832740
    20  H    4.251686   2.213216   3.005697   3.005388   3.832366
                    6          7          8          9         10
     6  C    0.000000
     7  C    3.557763   0.000000
     8  C    3.557767   3.558071   0.000000
     9  H    3.832368   3.831817   4.564978   0.000000
    10  H    1.111411   3.832402   4.564711   3.780985   0.000000
    11  H    4.564528   1.111446   3.832446   4.156466   4.880288
    12  H    4.564640   3.832648   1.111432   4.880659   5.509357
    13  H    3.832336   1.111430   3.832675   4.879778   4.157203
    14  H    1.111425   3.832234   3.832008   4.880215   1.728428
    15  H    4.564702   3.831968   3.832711   1.728446   4.880428
    16  H    3.832128   3.832560   1.111434   5.509412   4.880097
    17  H    3.832314   1.111449   4.564896   3.780034   3.780941
    18  H    3.832402   4.564401   3.832774   1.728437   4.157258
    19  H    3.832166   4.564832   1.111434   4.880605   4.880142
    20  H    1.111415   4.564503   3.831981   4.157280   1.728450
                   11         12         13         14         15
    11  H    0.000000
    12  H    3.781016   0.000000
    13  H    1.728505   4.157528   0.000000
    14  H    4.880086   4.879941   3.780786   0.000000
    15  H    3.780172   3.781311   4.879961   5.509159   0.000000
    16  H    4.157349   1.728446   3.781172   3.780312   4.880555
    17  H    1.728459   4.880551   1.728437   4.157220   4.156591
    18  H    4.879758   4.157664   5.509104   4.880275   1.728471
    19  H    4.880297   1.728465   4.880542   4.156749   4.157619
    20  H    5.508946   4.879927   4.880184   1.728416   4.880231
                   16         17         18         19         20
    16  H    0.000000
    17  H    4.880473   0.000000
    18  H    4.880633   4.879749   0.000000
    19  H    1.728463   5.509356   3.781329   0.000000
    20  H    4.156691   4.880153   3.780859   3.780327   0.000000
 Stoichiometry    C4H12Li4
 Framework group  C1[X(C4H12Li4)]
 Deg. of freedom    54
 Full point group                 C1      NOp   1
 Largest Abelian subgroup         C1      NOp   1
 Largest concise Abelian subgroup C1      NOp   1
                         Standard orientation:                         
 ---------------------------------------------------------------------
 Center     Atomic      Atomic             Coordinates (Angstroms)
 Number     Number       Type             X           Y           Z
 ---------------------------------------------------------------------
      1          3           0       -0.268602   -1.300886   -0.618163
      2          3           0        0.646932   -0.201431    1.299077
      3          3           0       -1.261653    0.721294    0.189190
      4          3           0        0.883069    0.781090   -0.870105
      5          6           0       -1.313560   -1.161146    1.293521
      6          6           0        0.400179    1.934279    0.919241
      7          6           0       -0.962477    0.298986   -1.931489
      8          6           0        1.875946   -1.072146   -0.281270
      9          1           0       -2.307072   -0.712912    1.511032
     10          1           0       -0.485770    2.576580    1.113609
     11          1           0       -1.217115   -0.622132   -2.498951
     12          1           0        1.799320   -2.079066   -0.745514
     13          1           0       -0.384970    0.881886   -2.681149
     14          1           0        1.063398    2.619426    0.348294
     15          1           0       -1.590223   -2.173607    0.927915
     16          1           0        2.631443   -0.575059   -0.927347
     17          1           0       -1.934082    0.838480   -1.915733
     18          1           0       -0.928556   -1.379175    2.313082
     19          1           0        2.460964   -1.284486    0.639572
     20          1           0        0.892904    1.910026    1.915172
 ---------------------------------------------------------------------
 Rotational constants (GHZ):           1.9629038           1.9626296           1.9625200
 Standard basis: def2QZVPP (5D, 7F)
 There are   868 symmetry adapted cartesian basis functions of A   symmetry.
 There are   728 symmetry adapted basis functions of A   symmetry.
   728 basis functions,  1044 primitive gaussians,   868 cartesian basis functions
    24 alpha electrons       24 beta electrons
       nuclear repulsion energy       205.2199630326 Hartrees.
 NAtoms=   20 NActive=   20 NUniq=   20 SFac= 1.00D+00 NAtFMM=   60 NAOKFM=F Big=F
 Integral buffers will be    131072 words long.
 Raffenetti 2 integral format.
 Two-electron integral symmetry is turned on.
 One-electron integrals computed using PRISM.
   1 Symmetry operations used in ECPInt.
 ECPInt:  NShTT=   28920 NPrTT=   68284 LenC2=   27615 LenP2D=   53734.
 LDataN:  DoStor=T MaxTD1= 8 Len=  415
 NBasis=   728 RedAO= T EigKep=  6.45D-06  NBF=   728
 NBsUse=   728 1.00D-06 EigRej= -1.00D+00 NBFU=   728
 Initial guess from the checkpoint file:  "/data/hutter/SMG16/PBE/Gau-52442.chk"
 B after Tr=    -0.000000   -0.000000   -0.000000
         Rot=    0.851125   -0.089057    0.145755   -0.496398 Ang= -63.33 deg.
 Requested convergence on RMS density matrix=1.00D-08 within 128 cycles.
 Requested convergence on MAX density matrix=1.00D-06.
 Requested convergence on             energy=1.00D-06.
 No special actions if energy rises.
 SCF Done:  E(RPBE-PBE) =  -189.530413735     A.U. after    6 cycles
            NFock=  6  Conv=0.32D-08     -V/T= 2.0063
   1 Symmetry operations used in ECPInt.
 ECPInt:  NShTT=   28920 NPrTT=   68284 LenC2=   27615 LenP2D=   53734.
 LDataN:  DoStor=T MaxTD1= 9 Len=  602
 Calling FoFJK, ICntrl=      2527 FMM=F ISym2X=0 I1Cent= 0 IOpClX= 0 NMat=1 NMatS=1 NMatT=0.
 ***** Axes restored to original set *****
 -------------------------------------------------------------------
 Center     Atomic                   Forces (Hartrees/Bohr)
 Number     Number              X              Y              Z
 -------------------------------------------------------------------
      1        3           0.000022362    0.000000168    0.000053516
      2        3          -0.000005393    0.000054844   -0.000019612
      3        3           0.000008678   -0.000048489   -0.000004835
      4        3           0.000007151    0.000032242   -0.000049583
      5        6          -0.000026613   -0.000044362    0.000035995
      6        6          -0.000011338    0.000012620   -0.000002059
      7        6           0.000018105   -0.000026771   -0.000018061
      8        6           0.000011187    0.000014961    0.000009861
      9        1           0.000006070    0.000003642    0.000020825
     10        1          -0.000003456    0.000017724   -0.000003262
     11        1          -0.000007217    0.000011986   -0.000027560
     12        1          -0.000006253    0.000020871   -0.000003996
     13        1           0.000000553   -0.000022848    0.000007472
     14        1          -0.000018006   -0.000000860    0.000000737
     15        1          -0.000025065    0.000005053   -0.000005230
     16        1          -0.000013768   -0.000007530    0.000020422
     17        1           0.000024436    0.000007962    0.000011381
     18        1          -0.000002974   -0.000022869    0.000000390
     19        1           0.000023434   -0.000007162   -0.000008670
     20        1          -0.000001891   -0.000001181   -0.000017731
 -------------------------------------------------------------------
 Cartesian Forces:  Max     0.000054844 RMS     0.000020695

 GradGradGradGradGradGradGradGradGradGradGradGradGradGradGradGradGradGrad
 Berny optimization.
 Using GEDIIS/GDIIS optimizer.
 FormGI is forming the generalized inverse of G from B-inverse, IUseBI=4.
 Internal  Forces:  Max     0.000043501 RMS     0.000008341
 Search for a local minimum.
 Step number   6 out of a maximum of  120
 All quantities printed in internal units (Hartrees-Bohrs-Radians)
 Mixed Optimization -- En-DIIS/RFO-DIIS
 Swapping is turned off.
 Update second derivatives using D2CorX and points    1    2    3    4    5
                                                      6
 DE= -5.39D-06 DEPred=-3.04D-06 R= 1.77D+00
 TightC=F SS=  1.41D+00  RLast= 2.80D-02 DXNew= 9.3376D-01 8.4141D-02
 Trust test= 1.77D+00 RLast= 2.80D-02 DXMaxT set to 5.55D-01
 ITU=  1  1  1  1  1  0
     Eigenvalues ---    0.01243   0.01682   0.01685   0.01908   0.01908
     Eigenvalues ---    0.01908   0.01930   0.02851   0.02852   0.02853
     Eigenvalues ---    0.03035   0.03292   0.03293   0.03299   0.04184
     Eigenvalues ---    0.04187   0.04190   0.04393   0.04393   0.04577
     Eigenvalues ---    0.04581   0.05395   0.05396   0.05396   0.05428
     Eigenvalues ---    0.05432   0.05433   0.05866   0.06555   0.06555
     Eigenvalues ---    0.06565   0.07391   0.07392   0.07402   0.08366
     Eigenvalues ---    0.08366   0.08370   0.08539   0.08540   0.11275
     Eigenvalues ---    0.11282   0.11288   0.31248   0.31249   0.31249
     Eigenvalues ---    0.31250   0.31250   0.31250   0.31250   0.31250
     Eigenvalues ---    0.31250   0.31252   0.31257   0.38243
 En-DIIS/RFO-DIIS/Sim-DIIS IScMMF=       -3 using points:     6    5    4    3    2
 RFO step:  Lambda=-3.47444304D-07.
 DidBck=F Rises=F RFO-DIIS coefs:    0.80181    0.45846   -0.50290    0.34448   -0.10186
 Iteration  1 RMS(Cart)=  0.00024352 RMS(Int)=  0.00000054
 Iteration  2 RMS(Cart)=  0.00000001 RMS(Int)=  0.00000054
 Variable       Old X    -DE/DX   Delta X   Delta X   Delta X     New X
                                 (Linear)    (Quad)   (Total)
    R1        4.52068   0.00001   0.00073  -0.00004   0.00069   4.52137
    R2        4.52240   0.00001   0.00078  -0.00011   0.00067   4.52307
    R3        4.52132   0.00002   0.00076   0.00009   0.00085   4.52217
    R4        4.12549   0.00003   0.00071   0.00011   0.00082   4.12631
    R5        4.12544   0.00003   0.00064   0.00019   0.00083   4.12627
    R6        4.12502   0.00001   0.00068  -0.00017   0.00050   4.12552
    R7        4.52192   0.00001   0.00073   0.00002   0.00075   4.52267
    R8        4.52212   0.00001   0.00062   0.00002   0.00063   4.52275
    R9        4.12489   0.00004   0.00075   0.00029   0.00103   4.12593
   R10        4.12567   0.00001   0.00082  -0.00036   0.00046   4.12613
   R11        4.12554   0.00001   0.00066  -0.00006   0.00060   4.12614
   R12        4.52175   0.00001   0.00069   0.00004   0.00072   4.52247
   R13        4.12542   0.00002   0.00057   0.00017   0.00074   4.12616
   R14        4.12549   0.00004   0.00086   0.00003   0.00089   4.12638
   R15        4.12512   0.00001   0.00069  -0.00010   0.00059   4.12570
   R16        4.12497   0.00001   0.00081  -0.00022   0.00059   4.12556
   R17        4.12506   0.00002   0.00064   0.00008   0.00071   4.12578
   R18        4.12593   0.00002   0.00072  -0.00003   0.00069   4.12663
   R19        2.10031  -0.00001  -0.00003  -0.00000  -0.00004   2.10027
   R20        2.10031  -0.00002  -0.00002  -0.00003  -0.00005   2.10026
   R21        2.10029  -0.00001  -0.00001  -0.00002  -0.00003   2.10026
   R22        2.10026  -0.00001  -0.00002  -0.00000  -0.00002   2.10024
   R23        2.10029  -0.00001  -0.00002  -0.00001  -0.00002   2.10026
   R24        2.10027  -0.00001  -0.00003   0.00001  -0.00001   2.10026
   R25        2.10033  -0.00003  -0.00006  -0.00001  -0.00007   2.10026
   R26        2.10030  -0.00001  -0.00004   0.00000  -0.00004   2.10026
   R27        2.10033  -0.00002  -0.00005  -0.00001  -0.00005   2.10028
   R28        2.10030  -0.00001  -0.00002  -0.00001  -0.00003   2.10027
   R29        2.10031  -0.00003  -0.00004  -0.00002  -0.00006   2.10024
   R30        2.10031  -0.00002  -0.00002  -0.00004  -0.00006   2.10024
    A1        1.84104  -0.00000  -0.00002  -0.00002  -0.00004   1.84100
    A2        1.84114   0.00000   0.00000   0.00003   0.00003   1.84116
    A3        1.84098   0.00000  -0.00004   0.00007   0.00003   1.84101
    A4        1.90472   0.00000  -0.00003   0.00000  -0.00003   1.90469
    A5        1.90540   0.00001   0.00002   0.00006   0.00009   1.90549
    A6        1.90531  -0.00000  -0.00002  -0.00001  -0.00002   1.90529
    A7        1.84097   0.00001   0.00006   0.00001   0.00008   1.84105
    A8        1.84113  -0.00000   0.00002  -0.00005  -0.00003   1.84111
    A9        1.84091   0.00000  -0.00001   0.00004   0.00003   1.84094
   A10        1.90514   0.00001  -0.00002   0.00005   0.00003   1.90517
   A11        1.90543  -0.00000   0.00002  -0.00004  -0.00002   1.90541
   A12        1.90482   0.00000   0.00006  -0.00001   0.00005   1.90486
   A13        1.84049  -0.00000   0.00004  -0.00008  -0.00004   1.84044
   A14        1.84075   0.00000  -0.00003   0.00005   0.00002   1.84077
   A15        1.84087   0.00001   0.00002   0.00007   0.00009   1.84096
   A16        1.90503   0.00000   0.00003  -0.00004  -0.00002   1.90501
   A17        1.90485   0.00001  -0.00000   0.00008   0.00008   1.90493
   A18        1.90502  -0.00000   0.00002  -0.00002  -0.00001   1.90501
   A19        1.84098   0.00000   0.00006  -0.00007  -0.00001   1.84097
   A20        1.84071   0.00000   0.00002  -0.00000   0.00001   1.84072
   A21        1.84107  -0.00000   0.00002  -0.00006  -0.00004   1.84103
   A22        1.90522   0.00001   0.00005  -0.00000   0.00005   1.90527
   A23        1.90492  -0.00000   0.00004  -0.00007  -0.00003   1.90489
   A24        1.90513  -0.00000  -0.00003  -0.00002  -0.00005   1.90508
   A25        2.24600   0.00001   0.00007  -0.00002   0.00005   2.24605
   A26        1.34158   0.00001   0.00009   0.00006   0.00015   1.34173
   A27        2.24583   0.00000   0.00006   0.00001   0.00007   2.24590
   A28        2.24599   0.00000   0.00007  -0.00003   0.00005   2.24603
   A29        2.24584   0.00001   0.00007   0.00001   0.00008   2.24592
   A30        1.34158   0.00001   0.00010   0.00007   0.00017   1.34176
   A31        1.34128   0.00001   0.00008   0.00002   0.00009   1.34138
   A32        2.24595   0.00000   0.00006  -0.00000   0.00005   2.24600
   A33        2.24589   0.00000   0.00004   0.00003   0.00007   2.24596
   A34        1.78160  -0.00001  -0.00013   0.00001  -0.00012   1.78147
   A35        1.78159  -0.00001  -0.00012  -0.00000  -0.00012   1.78147
   A36        1.78164  -0.00001  -0.00007  -0.00003  -0.00010   1.78154
   A37        2.24594   0.00000   0.00007   0.00002   0.00009   2.24603
   A38        2.24590   0.00000   0.00005  -0.00001   0.00004   2.24594
   A39        1.34144   0.00001   0.00012  -0.00006   0.00006   1.34150
   A40        1.34158   0.00001   0.00011   0.00003   0.00014   1.34172
   A41        2.24589   0.00000   0.00006   0.00001   0.00008   2.24597
   A42        2.24594   0.00000   0.00006   0.00001   0.00007   2.24601
   A43        2.24594   0.00000   0.00004   0.00004   0.00008   2.24603
   A44        1.34135   0.00000   0.00014  -0.00005   0.00009   1.34144
   A45        2.24587   0.00001   0.00005   0.00001   0.00006   2.24593
   A46        1.78161  -0.00000  -0.00011   0.00001  -0.00010   1.78151
   A47        1.78165  -0.00001  -0.00008  -0.00004  -0.00012   1.78153
   A48        1.78159  -0.00001  -0.00011  -0.00002  -0.00013   1.78145
   A49        1.34141   0.00001   0.00006   0.00007   0.00013   1.34154
   A50        2.24589   0.00000   0.00005   0.00002   0.00007   2.24595
   A51        2.24598   0.00000   0.00006   0.00001   0.00007   2.24605
   A52        2.24585   0.00000   0.00007   0.00000   0.00007   2.24591
   A53        2.24596   0.00001   0.00005   0.00004   0.00009   2.24604
   A54        1.34130   0.00001   0.00010  -0.00000   0.00009   1.34140
   A55        2.24591   0.00000   0.00006   0.00003   0.00009   2.24600
   A56        1.34162   0.00001   0.00008   0.00001   0.00009   1.34171
   A57        2.24591   0.00000   0.00007  -0.00002   0.00004   2.24596
   A58        1.78167  -0.00001  -0.00010  -0.00003  -0.00014   1.78154
   A59        1.78159  -0.00001  -0.00011  -0.00000  -0.00011   1.78148
   A60        1.78157  -0.00001  -0.00009  -0.00003  -0.00011   1.78146
   A61        1.34166   0.00000   0.00007  -0.00002   0.00004   1.34170
   A62        2.24589   0.00000   0.00007   0.00001   0.00008   2.24597
   A63        2.24589   0.00000   0.00006  -0.00001   0.00005   2.24595
   A64        2.24578   0.00000   0.00006   0.00002   0.00007   2.24586
   A65        2.24604  -0.00000   0.00006  -0.00001   0.00005   2.24609
   A66        1.34156   0.00000   0.00010   0.00002   0.00012   1.34168
   A67        2.24591   0.00001   0.00007   0.00000   0.00007   2.24598
   A68        1.34151   0.00000   0.00012  -0.00003   0.00008   1.34159
   A69        2.24589   0.00000   0.00005   0.00003   0.00008   2.24597
   A70        1.78160  -0.00000  -0.00010  -0.00001  -0.00011   1.78149
   A71        1.78163  -0.00001  -0.00010  -0.00003  -0.00013   1.78150
   A72        1.78162  -0.00000  -0.00010   0.00001  -0.00010   1.78152
    D1       -0.00058   0.00000   0.00004  -0.00003   0.00001  -0.00057
    D2       -0.00006  -0.00000  -0.00001  -0.00006  -0.00008  -0.00013
    D3        0.00062   0.00001   0.00004   0.00008   0.00012   0.00075
    D4        1.48177  -0.00000   0.00005  -0.00007  -0.00002   1.48175
    D5        3.14111  -0.00000  -0.00006  -0.00001  -0.00007   3.14105
    D6       -1.48264  -0.00001  -0.00009   0.00000  -0.00009  -1.48273
    D7        0.44136  -0.00000   0.00008  -0.00008   0.00000   0.44136
    D8        2.10070  -0.00000  -0.00003  -0.00001  -0.00005   2.10065
    D9       -2.52305  -0.00000  -0.00007  -0.00000  -0.00007  -2.52312
   D10        2.52256   0.00000   0.00006  -0.00005   0.00001   2.52256
   D11       -2.10129  -0.00000  -0.00006   0.00001  -0.00004  -2.10133
   D12       -0.44186  -0.00000  -0.00009   0.00002  -0.00007  -0.44192
   D13       -3.14114  -0.00000  -0.00004  -0.00000  -0.00004  -3.14118
   D14        1.48273   0.00000   0.00005  -0.00001   0.00004   1.48277
   D15       -1.48194  -0.00000  -0.00014   0.00005  -0.00009  -1.48203
   D16       -2.10066   0.00000  -0.00003   0.00007   0.00004  -2.10063
   D17        2.52320   0.00001   0.00006   0.00006   0.00012   2.52332
   D18       -0.44147   0.00000  -0.00013   0.00012  -0.00001  -0.44148
   D19        2.10127  -0.00000  -0.00003  -0.00000  -0.00004   2.10123
   D20        0.44195   0.00000   0.00006  -0.00001   0.00005   0.44200
   D21       -2.52272  -0.00000  -0.00013   0.00005  -0.00008  -2.52280
   D22       -3.14152   0.00000  -0.00000   0.00004   0.00004  -3.14148
   D23       -1.48209  -0.00000  -0.00010   0.00001  -0.00009  -1.48217
   D24        1.48220   0.00001   0.00009   0.00009   0.00018   1.48239
   D25        2.10121  -0.00000   0.00003  -0.00002   0.00001   2.10122
   D26       -2.52254  -0.00000  -0.00006  -0.00006  -0.00012  -2.52266
   D27        0.44175   0.00000   0.00013   0.00003   0.00015   0.44190
   D28       -2.10115   0.00000  -0.00000   0.00001   0.00001  -2.10114
   D29       -0.44172  -0.00000  -0.00010  -0.00002  -0.00011  -0.44183
   D30        2.52257   0.00001   0.00009   0.00007   0.00016   2.52273
   D31        0.00049  -0.00001  -0.00002  -0.00009  -0.00011   0.00038
   D32       -0.00025  -0.00000  -0.00007   0.00004  -0.00003  -0.00028
   D33       -1.48193   0.00000  -0.00002   0.00006   0.00004  -1.48188
   D34        1.48248   0.00000   0.00010  -0.00001   0.00008   1.48257
   D35       -3.14127   0.00000   0.00007   0.00001   0.00007  -3.14120
   D36       -0.44166   0.00000   0.00001   0.00005   0.00007  -0.44159
   D37        2.52275   0.00001   0.00013  -0.00002   0.00011   2.52286
   D38       -2.10100   0.00001   0.00010  -0.00000   0.00010  -2.10090
   D39       -2.52252  -0.00000  -0.00006   0.00006   0.00001  -2.52251
   D40        0.44189  -0.00000   0.00006  -0.00002   0.00005   0.44194
   D41        2.10132  -0.00000   0.00003   0.00001   0.00004   2.10136
   D42        1.48279   0.00000  -0.00000   0.00012   0.00012   1.48291
   D43       -1.48186  -0.00000  -0.00007  -0.00006  -0.00013  -1.48199
   D44       -3.14109   0.00000  -0.00002   0.00001  -0.00000  -3.14109
   D45        0.44204   0.00000  -0.00002   0.00011   0.00009   0.44214
   D46       -2.52260  -0.00001  -0.00009  -0.00007  -0.00016  -2.52276
   D47        2.10135  -0.00000  -0.00003   0.00000  -0.00003   2.10132
   D48        2.52328   0.00001   0.00003   0.00009   0.00011   2.52340
   D49       -0.44136  -0.00000  -0.00005  -0.00009  -0.00014  -0.44150
   D50       -2.10059   0.00000   0.00001  -0.00002  -0.00001  -2.10060
   D51       -1.48262   0.00000  -0.00004   0.00005   0.00001  -1.48260
   D52        1.48181   0.00001   0.00009   0.00005   0.00014   1.48196
   D53        3.14117   0.00001   0.00002   0.00008   0.00010   3.14127
   D54       -0.44202   0.00000  -0.00007   0.00005  -0.00002  -0.44203
   D55        2.52241   0.00001   0.00006   0.00005   0.00011   2.52252
   D56       -2.10142   0.00001  -0.00001   0.00007   0.00007  -2.10135
   D57       -2.52308  -0.00001  -0.00009   0.00002  -0.00007  -2.52315
   D58        0.44135  -0.00000   0.00004   0.00002   0.00006   0.44141
   D59        2.10071  -0.00000  -0.00003   0.00004   0.00002   2.10072
   D60       -0.00022   0.00000   0.00002   0.00006   0.00008  -0.00014
   D61       -3.14140  -0.00000  -0.00001  -0.00002  -0.00003  -3.14143
   D62       -1.48228  -0.00000  -0.00013   0.00001  -0.00012  -1.48240
   D63        1.48266   0.00000   0.00009  -0.00003   0.00007   1.48273
   D64        2.10146  -0.00000  -0.00004   0.00004  -0.00000   2.10146
   D65       -2.52261  -0.00000  -0.00016   0.00007  -0.00010  -2.52270
   D66        0.44233   0.00000   0.00006   0.00003   0.00009   0.44243
   D67       -2.10103   0.00000  -0.00001   0.00003   0.00003  -2.10100
   D68       -0.44191   0.00000  -0.00013   0.00006  -0.00007  -0.44198
   D69        2.52303   0.00001   0.00009   0.00003   0.00012   2.52315
   D70       -3.14156   0.00000  -0.00000   0.00008   0.00008  -3.14148
   D71        1.48225   0.00000   0.00007   0.00004   0.00010   1.48236
   D72       -1.48214   0.00000  -0.00003   0.00005   0.00002  -1.48212
   D73       -2.10127   0.00001   0.00002   0.00008   0.00011  -2.10116
   D74        2.52254   0.00001   0.00009   0.00004   0.00013   2.52267
   D75       -0.44185   0.00000  -0.00000   0.00005   0.00005  -0.44180
   D76        2.10132  -0.00000   0.00000   0.00002   0.00002   2.10134
   D77        0.44195  -0.00000   0.00007  -0.00002   0.00005   0.44200
   D78       -2.52244  -0.00000  -0.00002  -0.00001  -0.00003  -2.52248
   D79        1.48204   0.00001   0.00006   0.00009   0.00015   1.48219
   D80       -1.48291   0.00000  -0.00005   0.00004  -0.00001  -1.48292
   D81        3.14118   0.00001  -0.00001   0.00009   0.00008   3.14126
   D82        0.44181  -0.00000   0.00004   0.00001   0.00005   0.44185
   D83       -2.52314  -0.00001  -0.00008  -0.00004  -0.00012  -2.52326
   D84        2.10094  -0.00000  -0.00003   0.00001  -0.00003   2.10092
   D85        2.52251   0.00001   0.00008  -0.00001   0.00007   2.52258
   D86       -0.44244  -0.00000  -0.00004  -0.00006  -0.00009  -0.44253
   D87       -2.10154   0.00000   0.00001  -0.00001  -0.00001  -2.10155
   D88       -1.48288  -0.00001  -0.00005  -0.00013  -0.00017  -1.48306
   D89        3.14112  -0.00001  -0.00001  -0.00009  -0.00010   3.14102
   D90        1.48195  -0.00000   0.00004  -0.00003   0.00001   1.48196
   D91       -0.44226  -0.00000  -0.00003  -0.00011  -0.00015  -0.44241
   D92       -2.10145  -0.00000   0.00001  -0.00008  -0.00007  -2.10152
   D93        2.52257   0.00000   0.00005  -0.00001   0.00004   2.52261
   D94       -2.52325  -0.00000  -0.00006  -0.00004  -0.00010  -2.52335
   D95        2.10075  -0.00000  -0.00002  -0.00001  -0.00003   2.10072
   D96        0.44158   0.00000   0.00003   0.00006   0.00009   0.44166
   D97       -1.48200  -0.00000  -0.00004  -0.00006  -0.00011  -1.48211
   D98       -3.14149   0.00000   0.00004  -0.00003   0.00001  -3.14148
   D99        1.48234   0.00000   0.00011  -0.00001   0.00010   1.48244
   D100      -2.52251  -0.00001  -0.00010   0.00002  -0.00008  -2.52259
   D101       2.10119  -0.00000  -0.00001   0.00005   0.00004   2.10123
   D102       0.44183   0.00000   0.00005   0.00007   0.00012   0.44195
   D103      -0.44165  -0.00000  -0.00003  -0.00008  -0.00012  -0.44177
   D104      -2.10114   0.00000   0.00005  -0.00005   0.00000  -2.10113
   D105       2.52269   0.00000   0.00012  -0.00003   0.00009   2.52278
   D106       1.48243  -0.00000   0.00002  -0.00003  -0.00001   1.48242
   D107      -3.14145  -0.00000  -0.00003  -0.00007  -0.00010  -3.14155
   D108      -1.48211  -0.00001  -0.00009  -0.00009  -0.00018  -1.48228
   D109       2.52300   0.00000   0.00007  -0.00002   0.00005   2.52305
   D110      -2.10088   0.00000   0.00002  -0.00006  -0.00004  -2.10092
   D111      -0.44154  -0.00000  -0.00003  -0.00008  -0.00012  -0.44166
   D112       0.44196  -0.00000  -0.00000   0.00003   0.00003   0.44199
   D113       2.10126  -0.00000  -0.00005  -0.00000  -0.00006   2.10121
   D114      -2.52258  -0.00001  -0.00011  -0.00003  -0.00013  -2.52272
         Item               Value     Threshold  Converged?
 Maximum Force            0.000044     0.000450     YES
 RMS     Force            0.000008     0.000300     YES
 Maximum Displacement     0.000752     0.001800     YES
 RMS     Displacement     0.000244     0.001200     YES
 Predicted change in Energy=-1.670128D-07
 Optimization completed.
    -- Stationary point found.
                           ----------------------------
                           !   Optimized Parameters   !
                           ! (Angstroms and Degrees)  !
 --------------------------                            --------------------------
 ! Name  Definition              Value          Derivative Info.                !
 --------------------------------------------------------------------------------
 ! R1    R(1,2)                  2.3922         -DE/DX =    0.0                 !
 ! R2    R(1,3)                  2.3932         -DE/DX =    0.0                 !
 ! R3    R(1,4)                  2.3926         -DE/DX =    0.0                 !
 ! R4    R(1,5)                  2.1831         -DE/DX =    0.0                 !
 ! R5    R(1,7)                  2.1831         -DE/DX =    0.0                 !
 ! R6    R(1,8)                  2.1829         -DE/DX =    0.0                 !
 ! R7    R(2,3)                  2.3929         -DE/DX =    0.0                 !
 ! R8    R(2,4)                  2.393          -DE/DX =    0.0                 !
 ! R9    R(2,5)                  2.1828         -DE/DX =    0.0                 !
 ! R10   R(2,6)                  2.1832         -DE/DX =    0.0                 !
 ! R11   R(2,8)                  2.1831         -DE/DX =    0.0                 !
 ! R12   R(3,4)                  2.3928         -DE/DX =    0.0                 !
 ! R13   R(3,5)                  2.1831         -DE/DX =    0.0                 !
 ! R14   R(3,6)                  2.1831         -DE/DX =    0.0                 !
 ! R15   R(3,7)                  2.1829         -DE/DX =    0.0                 !
 ! R16   R(4,6)                  2.1828         -DE/DX =    0.0                 !
 ! R17   R(4,7)                  2.1829         -DE/DX =    0.0                 !
 ! R18   R(4,8)                  2.1833         -DE/DX =    0.0                 !
 ! R19   R(5,9)                  1.1114         -DE/DX =    0.0                 !
 ! R20   R(5,15)                 1.1114         -DE/DX =    0.0                 !
 ! R21   R(5,18)                 1.1114         -DE/DX =    0.0                 !
 ! R22   R(6,10)                 1.1114         -DE/DX =    0.0                 !
 ! R23   R(6,14)                 1.1114         -DE/DX =    0.0                 !
 ! R24   R(6,20)                 1.1114         -DE/DX =    0.0                 !
 ! R25   R(7,11)                 1.1114         -DE/DX =    0.0                 !
 ! R26   R(7,13)                 1.1114         -DE/DX =    0.0                 !
 ! R27   R(7,17)                 1.1114         -DE/DX =    0.0                 !
 ! R28   R(8,12)                 1.1114         -DE/DX =    0.0                 !
 ! R29   R(8,16)                 1.1114         -DE/DX =    0.0                 !
 ! R30   R(8,19)                 1.1114         -DE/DX =    0.0                 !
 ! A1    A(2,1,7)              105.484          -DE/DX =    0.0                 !
 ! A2    A(3,1,8)              105.4894         -DE/DX =    0.0                 !
 ! A3    A(4,1,5)              105.4805         -DE/DX =    0.0                 !
 ! A4    A(5,1,7)              109.1321         -DE/DX =    0.0                 !
 ! A5    A(5,1,8)              109.1716         -DE/DX =    0.0                 !
 ! A6    A(7,1,8)              109.1664         -DE/DX =    0.0                 !
 ! A7    A(1,2,6)              105.4801         -DE/DX =    0.0                 !
 ! A8    A(3,2,8)              105.4891         -DE/DX =    0.0                 !
 ! A9    A(4,2,5)              105.4764         -DE/DX =    0.0                 !
 ! A10   A(5,2,6)              109.1566         -DE/DX =    0.0                 !
 ! A11   A(5,2,8)              109.1731         -DE/DX =    0.0                 !
 ! A12   A(6,2,8)              109.1379         -DE/DX =    0.0                 !
 ! A13   A(1,3,6)              105.4522         -DE/DX =    0.0                 !
 ! A14   A(2,3,7)              105.4672         -DE/DX =    0.0                 !
 ! A15   A(4,3,5)              105.4742         -DE/DX =    0.0                 !
 ! A16   A(5,3,6)              109.1499         -DE/DX =    0.0                 !
 ! A17   A(5,3,7)              109.14           -DE/DX =    0.0                 !
 ! A18   A(6,3,7)              109.1496         -DE/DX =    0.0                 !
 ! A19   A(1,4,6)              105.4805         -DE/DX =    0.0                 !
 ! A20   A(2,4,7)              105.4647         -DE/DX =    0.0                 !
 ! A21   A(3,4,8)              105.4856         -DE/DX =    0.0                 !
 ! A22   A(6,4,7)              109.1609         -DE/DX =    0.0                 !
 ! A23   A(6,4,8)              109.1441         -DE/DX =    0.0                 !
 ! A24   A(7,4,8)              109.156          -DE/DX =    0.0                 !
 ! A25   A(1,5,9)              128.6861         -DE/DX =    0.0                 !
 ! A26   A(1,5,15)              76.8671         -DE/DX =    0.0                 !
 ! A27   A(1,5,18)             128.6765         -DE/DX =    0.0                 !
 ! A28   A(2,5,9)              128.6855         -DE/DX =    0.0                 !
 ! A29   A(2,5,15)             128.6769         -DE/DX =    0.0                 !
 ! A30   A(2,5,18)              76.8672         -DE/DX =    0.0                 !
 ! A31   A(3,5,9)               76.85           -DE/DX =    0.0                 !
 ! A32   A(3,5,15)             128.6834         -DE/DX =    0.0                 !
 ! A33   A(3,5,18)             128.6798         -DE/DX =    0.0                 !
 ! A34   A(9,5,15)             102.0779         -DE/DX =    0.0                 !
 ! A35   A(9,5,18)             102.0778         -DE/DX =    0.0                 !
 ! A36   A(15,5,18)            102.0806         -DE/DX =    0.0                 !
 ! A37   A(2,6,10)             128.6828         -DE/DX =    0.0                 !
 ! A38   A(2,6,14)             128.6804         -DE/DX =    0.0                 !
 ! A39   A(2,6,20)              76.8586         -DE/DX =    0.0                 !
 ! A40   A(3,6,10)              76.8669         -DE/DX =    0.0                 !
 ! A41   A(3,6,14)             128.6801         -DE/DX =    0.0                 !
 ! A42   A(3,6,20)             128.6828         -DE/DX =    0.0                 !
 ! A43   A(4,6,10)             128.6831         -DE/DX =    0.0                 !
 ! A44   A(4,6,14)              76.8537         -DE/DX =    0.0                 !
 ! A45   A(4,6,20)             128.6788         -DE/DX =    0.0                 !
 ! A46   A(10,6,14)            102.0786         -DE/DX =    0.0                 !
 ! A47   A(10,6,20)            102.0811         -DE/DX =    0.0                 !
 ! A48   A(14,6,20)            102.0774         -DE/DX =    0.0                 !
 ! A49   A(1,7,11)              76.8569         -DE/DX =    0.0                 !
 ! A50   A(1,7,13)             128.6799         -DE/DX =    0.0                 !
 ! A51   A(1,7,17)             128.6854         -DE/DX =    0.0                 !
 ! A52   A(3,7,11)             128.6775         -DE/DX =    0.0                 !
 ! A53   A(3,7,13)             128.6838         -DE/DX =    0.0                 !
 ! A54   A(3,7,17)              76.8509         -DE/DX =    0.0                 !
 ! A55   A(4,7,11)             128.6811         -DE/DX =    0.0                 !
 ! A56   A(4,7,13)              76.8692         -DE/DX =    0.0                 !
 ! A57   A(4,7,17)             128.6813         -DE/DX =    0.0                 !
 ! A58   A(11,7,13)            102.0824         -DE/DX =    0.0                 !
 ! A59   A(11,7,17)            102.0775         -DE/DX =    0.0                 !
 ! A60   A(13,7,17)            102.0767         -DE/DX =    0.0                 !
 ! A61   A(1,8,12)              76.8716         -DE/DX =    0.0                 !
 ! A62   A(1,8,16)             128.6799         -DE/DX =    0.0                 !
 ! A63   A(1,8,19)             128.6802         -DE/DX =    0.0                 !
 ! A64   A(2,8,12)             128.6738         -DE/DX =    0.0                 !
 ! A65   A(2,8,16)             128.6885         -DE/DX =    0.0                 !
 ! A66   A(2,8,19)              76.8657         -DE/DX =    0.0                 !
 ! A67   A(4,8,12)             128.6811         -DE/DX =    0.0                 !
 ! A68   A(4,8,16)              76.8629         -DE/DX =    0.0                 !
 ! A69   A(4,8,19)             128.6803         -DE/DX =    0.0                 !
 ! A70   A(12,8,16)            102.0782         -DE/DX =    0.0                 !
 ! A71   A(12,8,19)            102.0798         -DE/DX =    0.0                 !
 ! A72   A(16,8,19)            102.0795         -DE/DX =    0.0                 !
 ! D1    D(7,1,2,6)             -0.0334         -DE/DX =    0.0                 !
 ! D2    D(8,1,3,6)             -0.0033         -DE/DX =    0.0                 !
 ! D3    D(5,1,4,6)              0.0357         -DE/DX =    0.0                 !
 ! D4    D(4,1,5,9)             84.8992         -DE/DX =    0.0                 !
 ! D5    D(4,1,5,15)           179.9726         -DE/DX =    0.0                 !
 ! D6    D(4,1,5,18)           -84.9491         -DE/DX =    0.0                 !
 ! D7    D(7,1,5,9)             25.288          -DE/DX =    0.0                 !
 ! D8    D(7,1,5,15)           120.3614         -DE/DX =    0.0                 !
 ! D9    D(7,1,5,18)          -144.5602         -DE/DX =    0.0                 !
 ! D10   D(8,1,5,9)            144.5318         -DE/DX =    0.0                 !
 ! D11   D(8,1,5,15)          -120.3948         -DE/DX =    0.0                 !
 ! D12   D(8,1,5,18)           -25.3165         -DE/DX =    0.0                 !
 ! D13   D(2,1,7,11)          -179.9738         -DE/DX =    0.0                 !
 ! D14   D(2,1,7,13)            84.954          -DE/DX =    0.0                 !
 ! D15   D(2,1,7,17)           -84.9088         -DE/DX =    0.0                 !
 ! D16   D(5,1,7,11)          -120.3591         -DE/DX =    0.0                 !
 ! D17   D(5,1,7,13)           144.5686         -DE/DX =    0.0                 !
 ! D18   D(5,1,7,17)           -25.2941         -DE/DX =    0.0                 !
 ! D19   D(8,1,7,11)           120.3939         -DE/DX =    0.0                 !
 ! D20   D(8,1,7,13)            25.3217         -DE/DX =    0.0                 !
 ! D21   D(8,1,7,17)          -144.5411         -DE/DX =    0.0                 !
 ! D22   D(3,1,8,12)          -179.9956         -DE/DX =    0.0                 !
 ! D23   D(3,1,8,16)           -84.9173         -DE/DX =    0.0                 !
 ! D24   D(3,1,8,19)            84.924          -DE/DX =    0.0                 !
 ! D25   D(5,1,8,12)           120.3906         -DE/DX =    0.0                 !
 ! D26   D(5,1,8,16)          -144.5311         -DE/DX =    0.0                 !
 ! D27   D(5,1,8,19)            25.3102         -DE/DX =    0.0                 !
 ! D28   D(7,1,8,12)          -120.3869         -DE/DX =    0.0                 !
 ! D29   D(7,1,8,16)           -25.3086         -DE/DX =    0.0                 !
 ! D30   D(7,1,8,19)           144.5327         -DE/DX =    0.0                 !
 ! D31   D(8,2,3,7)              0.0279         -DE/DX =    0.0                 !
 ! D32   D(5,2,4,7)             -0.0144         -DE/DX =    0.0                 !
 ! D33   D(4,2,5,9)            -84.9082         -DE/DX =    0.0                 !
 ! D34   D(4,2,5,15)            84.9401         -DE/DX =    0.0                 !
 ! D35   D(4,2,5,18)          -179.9816         -DE/DX =    0.0                 !
 ! D36   D(6,2,5,9)            -25.3051         -DE/DX =    0.0                 !
 ! D37   D(6,2,5,15)           144.5432         -DE/DX =    0.0                 !
 ! D38   D(6,2,5,18)          -120.3785         -DE/DX =    0.0                 !
 ! D39   D(8,2,5,9)           -144.5296         -DE/DX =    0.0                 !
 ! D40   D(8,2,5,15)            25.3187         -DE/DX =    0.0                 !
 ! D41   D(8,2,5,18)           120.397          -DE/DX =    0.0                 !
 ! D42   D(1,2,6,10)            84.9573         -DE/DX =    0.0                 !
 ! D43   D(1,2,6,14)           -84.9043         -DE/DX =    0.0                 !
 ! D44   D(1,2,6,20)          -179.9713         -DE/DX =    0.0                 !
 ! D45   D(5,2,6,10)            25.3271         -DE/DX =    0.0                 !
 ! D46   D(5,2,6,14)          -144.5345         -DE/DX =    0.0                 !
 ! D47   D(5,2,6,20)           120.3985         -DE/DX =    0.0                 !
 ! D48   D(8,2,6,10)           144.5735         -DE/DX =    0.0                 !
 ! D49   D(8,2,6,14)           -25.2882         -DE/DX =    0.0                 !
 ! D50   D(8,2,6,20)          -120.3552         -DE/DX =    0.0                 !
 ! D51   D(3,2,8,12)           -84.9476         -DE/DX =    0.0                 !
 ! D52   D(3,2,8,16)            84.9017         -DE/DX =    0.0                 !
 ! D53   D(3,2,8,19)           179.9756         -DE/DX =    0.0                 !
 ! D54   D(5,2,8,12)           -25.3256         -DE/DX =    0.0                 !
 ! D55   D(5,2,8,16)           144.5237         -DE/DX =    0.0                 !
 ! D56   D(5,2,8,19)          -120.4024         -DE/DX =    0.0                 !
 ! D57   D(6,2,8,12)          -144.5617         -DE/DX =    0.0                 !
 ! D58   D(6,2,8,16)            25.2876         -DE/DX =    0.0                 !
 ! D59   D(6,2,8,19)           120.3615         -DE/DX =    0.0                 !
 ! D60   D(5,3,4,8)             -0.0125         -DE/DX =    0.0                 !
 ! D61   D(4,3,5,9)           -179.989          -DE/DX =    0.0                 !
 ! D62   D(4,3,5,15)           -84.9286         -DE/DX =    0.0                 !
 ! D63   D(4,3,5,18)            84.9501         -DE/DX =    0.0                 !
 ! D64   D(6,3,5,9)            120.4048         -DE/DX =    0.0                 !
 ! D65   D(6,3,5,15)          -144.5348         -DE/DX =    0.0                 !
 ! D66   D(6,3,5,18)            25.3439         -DE/DX =    0.0                 !
 ! D67   D(7,3,5,9)           -120.3801         -DE/DX =    0.0                 !
 ! D68   D(7,3,5,15)           -25.3196         -DE/DX =    0.0                 !
 ! D69   D(7,3,5,18)           144.5591         -DE/DX =    0.0                 !
 ! D70   D(1,3,6,10)          -179.998          -DE/DX =    0.0                 !
 ! D71   D(1,3,6,14)            84.9269         -DE/DX =    0.0                 !
 ! D72   D(1,3,6,20)           -84.9202         -DE/DX =    0.0                 !
 ! D73   D(5,3,6,10)          -120.3939         -DE/DX =    0.0                 !
 ! D74   D(5,3,6,14)           144.5309         -DE/DX =    0.0                 !
 ! D75   D(5,3,6,20)           -25.3161         -DE/DX =    0.0                 !
 ! D76   D(7,3,6,10)           120.3969         -DE/DX =    0.0                 !
 ! D77   D(7,3,6,14)            25.3217         -DE/DX =    0.0                 !
 ! D78   D(7,3,6,20)          -144.5253         -DE/DX =    0.0                 !
 ! D79   D(2,3,7,11)            84.9147         -DE/DX =    0.0                 !
 ! D80   D(2,3,7,13)           -84.9642         -DE/DX =    0.0                 !
 ! D81   D(2,3,7,17)           179.9763         -DE/DX =    0.0                 !
 ! D82   D(5,3,7,11)            25.3136         -DE/DX =    0.0                 !
 ! D83   D(5,3,7,13)          -144.5653         -DE/DX =    0.0                 !
 ! D84   D(5,3,7,17)           120.3752         -DE/DX =    0.0                 !
 ! D85   D(6,3,7,11)           144.529          -DE/DX =    0.0                 !
 ! D86   D(6,3,7,13)           -25.3499         -DE/DX =    0.0                 !
 ! D87   D(6,3,7,17)          -120.4094         -DE/DX =    0.0                 !
 ! D88   D(1,4,6,10)           -84.963          -DE/DX =    0.0                 !
 ! D89   D(1,4,6,14)           179.9727         -DE/DX =    0.0                 !
 ! D90   D(1,4,6,20)            84.9093         -DE/DX =    0.0                 !
 ! D91   D(7,4,6,10)           -25.3398         -DE/DX =    0.0                 !
 ! D92   D(7,4,6,14)          -120.4041         -DE/DX =    0.0                 !
 ! D93   D(7,4,6,20)           144.5325         -DE/DX =    0.0                 !
 ! D94   D(8,4,6,10)          -144.5717         -DE/DX =    0.0                 !
 ! D95   D(8,4,6,14)           120.364          -DE/DX =    0.0                 !
 ! D96   D(8,4,6,20)            25.3006         -DE/DX =    0.0                 !
 ! D97   D(2,4,7,11)           -84.9124         -DE/DX =    0.0                 !
 ! D98   D(2,4,7,13)          -179.9941         -DE/DX =    0.0                 !
 ! D99   D(2,4,7,17)            84.9317         -DE/DX =    0.0                 !
 ! D100  D(6,4,7,11)          -144.5291         -DE/DX =    0.0                 !
 ! D101  D(6,4,7,13)           120.3892         -DE/DX =    0.0                 !
 ! D102  D(6,4,7,17)            25.315          -DE/DX =    0.0                 !
 ! D103  D(8,4,7,11)           -25.3046         -DE/DX =    0.0                 !
 ! D104  D(8,4,7,13)          -120.3863         -DE/DX =    0.0                 !
 ! D105  D(8,4,7,17)           144.5395         -DE/DX =    0.0                 !
 ! D106  D(3,4,8,12)            84.9372         -DE/DX =    0.0                 !
 ! D107  D(3,4,8,16)          -179.9916         -DE/DX =    0.0                 !
 ! D108  D(3,4,8,19)           -84.9185         -DE/DX =    0.0                 !
 ! D109  D(6,4,8,12)           144.5573         -DE/DX =    0.0                 !
 ! D110  D(6,4,8,16)          -120.3715         -DE/DX =    0.0                 !
 ! D111  D(6,4,8,19)           -25.2984         -DE/DX =    0.0                 !
 ! D112  D(7,4,8,12)            25.3223         -DE/DX =    0.0                 !
 ! D113  D(7,4,8,16)           120.3936         -DE/DX =    0.0                 !
 ! D114  D(7,4,8,19)          -144.5334         -DE/DX =    0.0                 !
 --------------------------------------------------------------------------------
 GradGradGradGradGradGradGradGradGradGradGradGradGradGradGradGradGradGrad

                          Input orientation:                          
 ---------------------------------------------------------------------
 Center     Atomic      Atomic             Coordinates (Angstroms)
 Number     Number       Type             X           Y           Z
 ---------------------------------------------------------------------
      1          3           0        9.346044    7.654462    9.346083
      2          3           0        7.654050    9.345605    9.346177
      3          3           0        7.653887    7.653901    7.653811
      4          3           0        9.345906    9.345819    7.653819
      5          6           0        7.242161    7.241901    9.757750
      6          6           0        7.242224    9.757967    7.242187
      7          6           0        9.757707    7.242014    7.242206
      8          6           0        9.757944    9.758183    9.757909
      9          1           0        6.552400    6.551963    9.225299
     10          1           0        6.552226    9.225963    6.552179
     11          1           0       10.447510    6.552110    7.774669
     12          1           0       10.447946    9.226076   10.447866
     13          1           0       10.447647    7.774056    6.552140
     14          1           0        7.774654   10.447902    6.552424
     15          1           0        7.774481    6.551961   10.447610
     16          1           0       10.447757   10.448091    9.225489
     17          1           0        9.225322    6.552002    6.552446
     18          1           0        6.552096    7.774003   10.447639
     19          1           0        9.225579   10.448127   10.447726
     20          1           0        6.552498   10.447923    7.774617
 ---------------------------------------------------------------------
                    Distance matrix (angstroms):
                    1          2          3          4          5
     1  Li   0.000000
     2  Li   2.392240   0.000000
     3  Li   2.393153   2.392899   0.000000
     4  Li   2.392582   2.393001   2.392805   0.000000
     5  C    2.183117   2.182800   2.183076   3.644000   0.000000
     6  C    3.643785   2.183212   2.183116   2.182839   3.557899
     7  C    2.183090   3.643785   2.182918   2.182888   3.557518
     8  C    2.182866   2.183143   3.644487   2.183349   3.558207
     9  H    3.005751   3.005441   2.212942   4.251923   1.111436
    10  H    4.252169   3.005787   2.213285   3.005432   3.832519
    11  H    2.213086   4.251667   3.005475   3.005486   3.831799
    12  H    2.213162   3.005639   4.252675   3.005916   3.832789
    13  H    3.005653   4.252128   3.005530   2.213135   4.564456
    14  H    4.251718   3.005771   3.005675   2.212802   4.564658
    15  H    2.213297   3.005346   3.005683   4.252092   1.111435
    16  H    3.005442   3.005802   4.252457   2.213421   4.564954
    17  H    3.005728   4.251829   2.212825   3.005491   3.831823
    18  H    3.005639   2.213019   3.005635   4.252224   1.111426
    19  H    3.005444   2.213294   4.252514   3.005908   3.832740
    20  H    4.251686   2.213216   3.005697   3.005388   3.832366
                    6          7          8          9         10
     6  C    0.000000
     7  C    3.557763   0.000000
     8  C    3.557767   3.558071   0.000000
     9  H    3.832368   3.831817   4.564978   0.000000
    10  H    1.111411   3.832402   4.564711   3.780985   0.000000
    11  H    4.564528   1.111446   3.832446   4.156466   4.880288
    12  H    4.564640   3.832648   1.111432   4.880659   5.509357
    13  H    3.832336   1.111430   3.832675   4.879778   4.157203
    14  H    1.111425   3.832234   3.832008   4.880215   1.728428
    15  H    4.564702   3.831968   3.832711   1.728446   4.880428
    16  H    3.832128   3.832560   1.111434   5.509412   4.880097
    17  H    3.832314   1.111449   4.564896   3.780034   3.780941
    18  H    3.832402   4.564401   3.832774   1.728437   4.157258
    19  H    3.832166   4.564832   1.111434   4.880605   4.880142
    20  H    1.111415   4.564503   3.831981   4.157280   1.728450
                   11         12         13         14         15
    11  H    0.000000
    12  H    3.781016   0.000000
    13  H    1.728505   4.157528   0.000000
    14  H    4.880086   4.879941   3.780786   0.000000
    15  H    3.780172   3.781311   4.879961   5.509159   0.000000
    16  H    4.157349   1.728446   3.781172   3.780312   4.880555
    17  H    1.728459   4.880551   1.728437   4.157220   4.156591
    18  H    4.879758   4.157664   5.509104   4.880275   1.728471
    19  H    4.880297   1.728465   4.880542   4.156749   4.157619
    20  H    5.508946   4.879927   4.880184   1.728416   4.880231
                   16         17         18         19         20
    16  H    0.000000
    17  H    4.880473   0.000000
    18  H    4.880633   4.879749   0.000000
    19  H    1.728463   5.509356   3.781329   0.000000
    20  H    4.156691   4.880153   3.780859   3.780327   0.000000
 Stoichiometry    C4H12Li4
 Framework group  C1[X(C4H12Li4)]
 Deg. of freedom    54
 Full point group                 C1      NOp   1
 Largest Abelian subgroup         C1      NOp   1
 Largest concise Abelian subgroup C1      NOp   1
                         Standard orientation:                         
 ---------------------------------------------------------------------
 Center     Atomic      Atomic             Coordinates (Angstroms)
 Number     Number       Type             X           Y           Z
 ---------------------------------------------------------------------
      1          3           0       -0.268602   -1.300886   -0.618163
      2          3           0        0.646932   -0.201431    1.299077
      3          3           0       -1.261653    0.721294    0.189190
      4          3           0        0.883069    0.781090   -0.870105
      5          6           0       -1.313560   -1.161146    1.293521
      6          6           0        0.400179    1.934279    0.919241
      7          6           0       -0.962477    0.298986   -1.931489
      8          6           0        1.875946   -1.072146   -0.281270
      9          1           0       -2.307072   -0.712912    1.511032
     10          1           0       -0.485770    2.576580    1.113609
     11          1           0       -1.217115   -0.622132   -2.498951
     12          1           0        1.799320   -2.079066   -0.745514
     13          1           0       -0.384970    0.881886   -2.681149
     14          1           0        1.063398    2.619426    0.348294
     15          1           0       -1.590223   -2.173607    0.927915
     16          1           0        2.631443   -0.575059   -0.927347
     17          1           0       -1.934082    0.838480   -1.915733
     18          1           0       -0.928556   -1.379175    2.313082
     19          1           0        2.460964   -1.284486    0.639572
     20          1           0        0.892904    1.910026    1.915172
 ---------------------------------------------------------------------
 Rotational constants (GHZ):           1.9629038           1.9626296           1.9625200

 **********************************************************************

            Population analysis using the SCF Density.

 **********************************************************************

 Orbital symmetries:
       Occupied  (A) (A) (A) (A) (A) (A) (A) (A) (A) (A) (A) (A)
                 (A) (A) (A) (A) (A) (A) (A) (A) (A) (A) (A) (A)
       Virtual   (A) (A) (A) (A) (A) (A) (A) (A) (A) (A) (A) (A)
                 (A) (A) (A) (A) (A) (A) (A) (A) (A) (A) (A) (A)
                 (A) (A) (A) (A) (A) (A) (A) (A) (A) (A) (A) (A)
                 (A) (A) (A) (A) (A) (A) (A) (A) (A) (A) (A) (A)
                 (A) (A) (A) (A) (A) (A) (A) (A) (A) (A) (A) (A)
                 (A) (A) (A) (A) (A) (A) (A) (A) (A) (A) (A) (A)
                 (A) (A) (A) (A) (A) (A) (A) (A) (A) (A) (A) (A)
                 (A) (A) (A) (A) (A) (A) (A) (A) (A) (A) (A) (A)
                 (A) (A) (A) (A) (A) (A) (A) (A) (A) (A) (A) (A)
                 (A) (A) (A) (A) (A) (A) (A) (A) (A) (A) (A) (A)
                 (A) (A) (A) (A) (A) (A) (A) (A) (A) (A) (A) (A)
                 (A) (A) (A) (A) (A) (A) (A) (A) (A) (A) (A) (A)
                 (A) (A) (A) (A) (A) (A) (A) (A) (A) (A) (A) (A)
                 (A) (A) (A) (A) (A) (A) (A) (A) (A) (A) (A) (A)
                 (A) (A) (A) (A) (A) (A) (A) (A) (A) (A) (A) (A)
                 (A) (A) (A) (A) (A) (A) (A) (A) (A) (A) (A) (A)
                 (A) (A) (A) (A) (A) (A) (A) (A) (A) (A) (A) (A)
                 (A) (A) (A) (A) (A) (A) (A) (A) (A) (A) (A) (A)
                 (A) (A) (A) (A) (A) (A) (A) (A) (A) (A) (A) (A)
                 (A) (A) (A) (A) (A) (A) (A) (A) (A) (A) (A) (A)
                 (A) (A) (A) (A) (A) (A) (A) (A) (A) (A) (A) (A)
                 (A) (A) (A) (A) (A) (A) (A) (A) (A) (A) (A) (A)
                 (A) (A) (A) (A) (A) (A) (A) (A) (A) (A) (A) (A)
                 (A) (A) (A) (A) (A) (A) (A) (A) (A) (A) (A) (A)
                 (A) (A) (A) (A) (A) (A) (A) (A) (A) (A) (A) (A)
                 (A) (A) (A) (A) (A) (A) (A) (A) (A) (A) (A) (A)
                 (A) (A) (A) (A) (A) (A) (A) (A) (A) (A) (A) (A)
                 (A) (A) (A) (A) (A) (A) (A) (A) (A) (A) (A) (A)
                 (A) (A) (A) (A) (A) (A) (A) (A) (A) (A) (A) (A)
                 (A) (A) (A) (A) (A) (A) (A) (A) (A) (A) (A) (A)
                 (A) (A) (A) (A) (A) (A) (A) (A) (A) (A) (A) (A)
                 (A) (A) (A) (A) (A) (A) (A) (A) (A) (A) (A) (A)
                 (A) (A) (A) (A) (A) (A) (A) (A) (A) (A) (A) (A)
                 (A) (A) (A) (A) (A) (A) (A) (A) (A) (A) (A) (A)
                 (A) (A) (A) (A) (A) (A) (A) (A) (A) (A) (A) (A)
                 (A) (A) (A) (A) (A) (A) (A) (A) (A) (A) (A) (A)
                 (A) (A) (A) (A) (A) (A) (A) (A) (A) (A) (A) (A)
                 (A) (A) (A) (A) (A) (A) (A) (A) (A) (A) (A) (A)
                 (A) (A) (A) (A) (A) (A) (A) (A) (A) (A) (A) (A)
                 (A) (A) (A) (A) (A) (A) (A) (A) (A) (A) (A) (A)
                 (A) (A) (A) (A) (A) (A) (A) (A) (A) (A) (A) (A)
                 (A) (A) (A) (A) (A) (A) (A) (A) (A) (A) (A) (A)
                 (A) (A) (A) (A) (A) (A) (A) (A) (A) (A) (A) (A)
                 (A) (A) (A) (A) (A) (A) (A) (A) (A) (A) (A) (A)
                 (A) (A) (A) (A) (A) (A) (A) (A) (A) (A) (A) (A)
                 (A) (A) (A) (A) (A) (A) (A) (A) (A) (A) (A) (A)
                 (A) (A) (A) (A) (A) (A) (A) (A) (A) (A) (A) (A)
                 (A) (A) (A) (A) (A) (A) (A) (A) (A) (A) (A) (A)
                 (A) (A) (A) (A) (A) (A) (A) (A) (A) (A) (A) (A)
                 (A) (A) (A) (A) (A) (A) (A) (A) (A) (A) (A) (A)
                 (A) (A) (A) (A) (A) (A) (A) (A) (A) (A) (A) (A)
                 (A) (A) (A) (A) (A) (A) (A) (A) (A) (A) (A) (A)
                 (A) (A) (A) (A) (A) (A) (A) (A) (A) (A) (A) (A)
                 (A) (A) (A) (A) (A) (A) (A) (A) (A) (A) (A) (A)
                 (A) (A) (A) (A) (A) (A) (A) (A) (A) (A) (A) (A)
                 (A) (A) (A) (A) (A) (A) (A) (A) (A) (A) (A) (A)
                 (A) (A) (A) (A) (A) (A) (A) (A) (A) (A) (A) (A)
                 (A) (A) (A) (A) (A) (A) (A) (A) (A) (A) (A) (A)
                 (A) (A) (A) (A) (A) (A) (A) (A)
 The electronic state is 1-A.
 Alpha  occ. eigenvalues --   -9.83157  -9.83157  -9.83157  -9.83156  -1.79825
 Alpha  occ. eigenvalues --   -1.79550  -1.79550  -1.79549  -0.58310  -0.57959
 Alpha  occ. eigenvalues --   -0.57959  -0.57958  -0.32434  -0.32434  -0.32189
 Alpha  occ. eigenvalues --   -0.32189  -0.32189  -0.31481  -0.31481  -0.31481
 Alpha  occ. eigenvalues --   -0.23319  -0.18281  -0.18279  -0.18279
 Alpha virt. eigenvalues --   -0.04299  -0.01357  -0.01357  -0.01356   0.01040
 Alpha virt. eigenvalues --    0.01040   0.01040   0.02322   0.02323   0.03185
 Alpha virt. eigenvalues --    0.04611   0.04611   0.04612   0.04711   0.04711
 Alpha virt. eigenvalues --    0.04712   0.05491   0.06461   0.06465   0.07168
 Alpha virt. eigenvalues --    0.07168   0.07168   0.09316   0.09317   0.09318
 Alpha virt. eigenvalues --    0.12129   0.12129   0.12130   0.12764   0.12766
 Alpha virt. eigenvalues --    0.12769   0.12866   0.12867   0.14353   0.16286
 Alpha virt. eigenvalues --    0.16286   0.16287   0.17491   0.17492   0.17492
 Alpha virt. eigenvalues --    0.18111   0.18112   0.18112   0.18799   0.20289
 Alpha virt. eigenvalues --    0.22128   0.22130   0.22250   0.22255   0.22255
 Alpha virt. eigenvalues --    0.23949   0.23950   0.23953   0.24533   0.24535
 Alpha virt. eigenvalues --    0.26067   0.26068   0.26070   0.27910   0.27910
 Alpha virt. eigenvalues --    0.27910   0.28016   0.28017   0.28018   0.28163
 Alpha virt. eigenvalues --    0.30061   0.31117   0.31118   0.31120   0.31719
 Alpha virt. eigenvalues --    0.31719   0.31723   0.31874   0.31876   0.35104
 Alpha virt. eigenvalues --    0.35105   0.35105   0.36989   0.36990   0.36991
 Alpha virt. eigenvalues --    0.37996   0.37998   0.39248   0.39250   0.39251
 Alpha virt. eigenvalues --    0.40744   0.40746   0.40750   0.43734   0.43736
 Alpha virt. eigenvalues --    0.43739   0.46667   0.47320   0.47321   0.47322
 Alpha virt. eigenvalues --    0.47609   0.47615   0.49019   0.50164   0.50164
 Alpha virt. eigenvalues --    0.50166   0.52929   0.52935   0.52936   0.57818
 Alpha virt. eigenvalues --    0.57821   0.60034   0.60660   0.60663   0.60666
 Alpha virt. eigenvalues --    0.61883   0.61885   0.61887   0.62571   0.62571
 Alpha virt. eigenvalues --    0.62573   0.62603   0.63775   0.63778   0.63780
 Alpha virt. eigenvalues --    0.70718   0.70722   0.72325   0.72332   0.72335
 Alpha virt. eigenvalues --    0.73036   0.73037   0.73038   0.73319   0.73320
 Alpha virt. eigenvalues --    0.73321   0.77947   0.77952   0.79646   0.79918
 Alpha virt. eigenvalues --    0.79919   0.79926   0.80148   0.80150   0.80151
 Alpha virt. eigenvalues --    0.83125   0.83132   0.83161   0.83162   0.83163
 Alpha virt. eigenvalues --    0.83192   0.86902   0.86902   0.86907   0.87844
 Alpha virt. eigenvalues --    0.87845   0.87848   0.88353   0.88357   0.89104
 Alpha virt. eigenvalues --    0.89109   0.89110   0.92140   0.92142   0.92143
 Alpha virt. eigenvalues --    0.93316   0.93752   0.93756   0.93756   0.98586
 Alpha virt. eigenvalues --    0.98594   0.98595   0.98665   0.98672   1.01250
 Alpha virt. eigenvalues --    1.01260   1.01915   1.01916   1.01917   1.05349
 Alpha virt. eigenvalues --    1.05351   1.05352   1.05570   1.09506   1.09514
 Alpha virt. eigenvalues --    1.09516   1.12987   1.12992   1.12996   1.13234
 Alpha virt. eigenvalues --    1.13240   1.13242   1.15075   1.15078   1.15079
 Alpha virt. eigenvalues --    1.19397   1.19608   1.19768   1.19771   1.19774
 Alpha virt. eigenvalues --    1.21412   1.21420   1.21420   1.26833   1.26858
 Alpha virt. eigenvalues --    1.28676   1.30169   1.30192   1.30197   1.35632
 Alpha virt. eigenvalues --    1.35638   1.35644   1.35842   1.35845   1.37509
 Alpha virt. eigenvalues --    1.37512   1.37519   1.40014   1.40022   1.44830
 Alpha virt. eigenvalues --    1.44833   1.44847   1.48929   1.48935   1.48940
 Alpha virt. eigenvalues --    1.52774   1.52777   1.52780   1.54563   1.58194
 Alpha virt. eigenvalues --    1.58201   1.58204   1.58835   1.59276   1.59277
 Alpha virt. eigenvalues --    1.59292   1.59312   1.59320   1.66732   1.66735
 Alpha virt. eigenvalues --    1.66737   1.77731   1.85525   1.85527   1.85529
 Alpha virt. eigenvalues --    1.87601   1.88823   1.88824   1.88824   1.89641
 Alpha virt. eigenvalues --    1.89645   1.89649   1.94430   1.94435   1.94437
 Alpha virt. eigenvalues --    1.95714   1.95715   1.97459   1.97462   1.97469
 Alpha virt. eigenvalues --    2.01993   2.05005   2.05005   2.05007   2.05698
 Alpha virt. eigenvalues --    2.05698   2.05700   2.07442   2.07447   2.07454
 Alpha virt. eigenvalues --    2.09560   2.10922   2.10927   2.14202   2.14208
 Alpha virt. eigenvalues --    2.16291   2.16296   2.16300   2.19733   2.19736
 Alpha virt. eigenvalues --    2.19740   2.23270   2.23272   2.23274   2.25874
 Alpha virt. eigenvalues --    2.29962   2.29968   2.29971   2.33519   2.33521
 Alpha virt. eigenvalues --    2.33823   2.33830   2.35560   2.35563   2.35564
 Alpha virt. eigenvalues --    2.39938   2.39950   2.39952   2.40801   2.40803
 Alpha virt. eigenvalues --    2.40806   2.42150   2.42161   2.42164   2.44191
 Alpha virt. eigenvalues --    2.44198   2.44202   2.45563   2.45564   2.52072
 Alpha virt. eigenvalues --    2.52082   2.52085   2.56735   2.65094   2.65097
 Alpha virt. eigenvalues --    2.65099   2.69380   2.69387   2.69391   2.69987
 Alpha virt. eigenvalues --    2.76399   2.76443   2.76450   2.76456   2.80284
 Alpha virt. eigenvalues --    2.80287   2.84350   2.85529   2.86045   2.86058
 Alpha virt. eigenvalues --    2.86059   2.89793   2.89801   2.89803   2.92137
 Alpha virt. eigenvalues --    2.92151   2.93479   2.93481   2.93483   2.94130
 Alpha virt. eigenvalues --    2.94133   2.94137   2.96358   2.96361   2.96364
 Alpha virt. eigenvalues --    2.99732   3.03821   3.03823   3.03825   3.04180
 Alpha virt. eigenvalues --    3.04184   3.05258   3.06352   3.06360   3.06362
 Alpha virt. eigenvalues --    3.07129   3.07130   3.07131   3.16957   3.16965
 Alpha virt. eigenvalues --    3.16969   3.20875   3.20880   3.29558   3.29561
 Alpha virt. eigenvalues --    3.29570   3.30999   3.31007   3.31009   3.39011
 Alpha virt. eigenvalues --    3.39139   3.39141   3.39144   3.46066   3.46069
 Alpha virt. eigenvalues --    3.46072   3.48187   3.48200   3.50396   3.50397
 Alpha virt. eigenvalues --    3.50405   3.65069   3.65073   3.65076   3.66729
 Alpha virt. eigenvalues --    3.80959   3.80962   3.80963   3.82082   3.82085
 Alpha virt. eigenvalues --    3.82086   3.82768   3.82771   3.86555   3.86560
 Alpha virt. eigenvalues --    3.86563   3.94800   4.07768   4.07771   4.07775
 Alpha virt. eigenvalues --    4.09349   4.09360   4.15556   4.15559   4.15563
 Alpha virt. eigenvalues --    4.93354   4.93355   4.93356   4.97233   4.97234
 Alpha virt. eigenvalues --    4.97856   4.97857   4.97859   5.13603   5.13607
 Alpha virt. eigenvalues --    5.13608   5.19183   5.29938   5.29941   5.29946
 Alpha virt. eigenvalues --    5.32828   5.32829   5.32832   5.33166   5.33167
 Alpha virt. eigenvalues --    5.34547   5.45508   5.45517   5.45519   5.58863
 Alpha virt. eigenvalues --    5.58865   5.58867   5.63147   5.63148   5.63148
 Alpha virt. eigenvalues --    5.64760   5.64764   5.67155   5.70613   5.70617
 Alpha virt. eigenvalues --    5.70620   5.77675   5.77676   5.77677   5.78153
 Alpha virt. eigenvalues --    5.78154   5.81780   5.81784   5.81787   5.82470
 Alpha virt. eigenvalues --    5.82471   5.82968   5.82970   5.82971   5.83649
 Alpha virt. eigenvalues --    5.83650   5.83652   5.87253   5.87256   5.87257
 Alpha virt. eigenvalues --    5.91100   5.95596   5.95597   5.95599   5.97172
 Alpha virt. eigenvalues --    5.99638   5.99640   5.99640   6.01111   6.01114
 Alpha virt. eigenvalues --    6.01614   6.01616   6.01617   6.13885   6.13888
 Alpha virt. eigenvalues --    6.13888   6.16470   6.18016   6.18019   6.18024
 Alpha virt. eigenvalues --    6.19918   6.19924   6.22854   6.24890   6.24898
 Alpha virt. eigenvalues --    6.24900   6.28341   6.28343   6.28346   6.36563
 Alpha virt. eigenvalues --    6.36567   6.36570   6.37066   6.37067   6.37069
 Alpha virt. eigenvalues --    6.37132   6.42056   6.42065   6.46023   6.46025
 Alpha virt. eigenvalues --    6.46032   6.49845   6.49856   6.49877   6.64085
 Alpha virt. eigenvalues --    6.64097   6.64588   6.66716   6.66725   6.66731
 Alpha virt. eigenvalues --    6.70467   6.70471   6.70475   6.74929   6.74932
 Alpha virt. eigenvalues --    6.74936   6.75733   6.78523   6.78530   6.78532
 Alpha virt. eigenvalues --    6.84037   6.92414   6.92415   6.92423   6.96815
 Alpha virt. eigenvalues --    6.98617   6.98629   6.98647   7.01972   7.01991
 Alpha virt. eigenvalues --    7.10284   7.10286   7.10287   7.29632   7.29635
 Alpha virt. eigenvalues --    7.29637   7.30811   7.30819   7.31019   7.31024
 Alpha virt. eigenvalues --    7.31026   7.39856   7.39858   7.39859   7.42418
 Alpha virt. eigenvalues --    7.42419   7.42421   7.42966   7.43366   7.43372
 Alpha virt. eigenvalues --    7.49677   7.49679   7.49684   7.55412   7.55414
 Alpha virt. eigenvalues --    7.55420   7.58336   7.59883   7.59896   7.59899
 Alpha virt. eigenvalues --    7.61534   7.61538   7.66004   7.66007   7.68736
 Alpha virt. eigenvalues --    7.68739   7.68740   7.68858   7.68864   7.68866
 Alpha virt. eigenvalues --    7.69375   7.73442   7.73452   7.73452   7.73576
 Alpha virt. eigenvalues --    7.73577   7.73578   7.79167   7.79635   7.79638
 Alpha virt. eigenvalues --    7.79644   7.89204   7.89206   7.89215   7.92587
 Alpha virt. eigenvalues --    7.92590   7.95153   7.95155   7.95160   8.03087
 Alpha virt. eigenvalues --    8.06666   8.06667   8.06668   8.15089   8.15395
 Alpha virt. eigenvalues --    8.15399   8.15400   8.15538   8.15538   8.15544
 Alpha virt. eigenvalues --    8.15659   8.15661   8.20958   8.20965   8.20968
 Alpha virt. eigenvalues --    8.23520   8.23524   8.23526   8.26413   8.26416
 Alpha virt. eigenvalues --    8.29055   8.29062   8.29064   8.29283   8.29290
 Alpha virt. eigenvalues --    8.29290   8.29728   8.29733   8.29734   8.32590
 Alpha virt. eigenvalues --    8.32671   8.32672   8.32675   8.34948   8.34949
 Alpha virt. eigenvalues --    8.52472   8.52475   8.52475   8.53739   8.53743
 Alpha virt. eigenvalues --    8.57266   8.57268   8.57271   8.59980   8.59983
 Alpha virt. eigenvalues --    8.59984   8.62241   8.80985   8.80988   8.83466
 Alpha virt. eigenvalues --    8.83468   8.83470   8.83742   8.83742   8.83746
 Alpha virt. eigenvalues --    8.91772   8.94429   8.94431   8.94435   9.46915
 Alpha virt. eigenvalues --    9.46916   9.46919   9.48541   9.48543   9.50198
 Alpha virt. eigenvalues --    9.50203   9.50204   9.58227   9.58230   9.58238
 Alpha virt. eigenvalues --    9.58334   9.88455   9.88462   9.88462   9.89263
 Alpha virt. eigenvalues --    9.89265   9.89269   9.89395   9.89397   9.93527
 Alpha virt. eigenvalues --    9.93534   9.93540   9.97123   9.99338   9.99345
 Alpha virt. eigenvalues --    9.99347  10.07402  10.07405  10.07732  10.07735
 Alpha virt. eigenvalues --   10.07739  10.14097  10.25107  10.25115  10.25124
 Alpha virt. eigenvalues --   10.34751  10.34767  10.34775  10.44572  11.99757
 Alpha virt. eigenvalues --   11.99773  12.09462  12.09462  12.09466  12.16692
 Alpha virt. eigenvalues --   12.16692  12.16705  12.54742  12.54749  12.54755
 Alpha virt. eigenvalues --   12.69739  28.53644  28.53648  28.53651  28.55044
 Alpha virt. eigenvalues --  147.26359 147.26616 147.26620 147.26624
          Condensed to atoms (all electrons):
               1          2          3          4          5          6
     1  Li   2.316991   0.046218   0.046588   0.046343   0.224367  -0.058409
     2  Li   0.046218   2.316917   0.046520   0.046474   0.224257   0.224370
     3  Li   0.046588   0.046520   2.316865   0.046367   0.224393   0.224241
     4  Li   0.046343   0.046474   0.046367   2.317105  -0.058377   0.224331
     5  C    0.224367   0.224257   0.224393  -0.058377   5.032164   0.034606
     6  C   -0.058409   0.224370   0.224241   0.224331   0.034606   5.031395
     7  C    0.224380  -0.058333   0.224268   0.224270   0.034622   0.034610
     8  C    0.224014   0.224131  -0.058121   0.224279   0.034597   0.034607
     9  H   -0.056969  -0.056885  -0.018519   0.013460   0.204863  -0.005007
    10  H    0.013411  -0.056932  -0.018492  -0.056887  -0.005012   0.205199
    11  H   -0.018527   0.013444  -0.056953  -0.056915  -0.005009   0.001042
    12  H   -0.018461  -0.056833   0.013402  -0.056903  -0.005013   0.001041
    13  H   -0.056901   0.013423  -0.056894  -0.018529   0.001045  -0.005012
    14  H    0.013464  -0.056952  -0.056899  -0.018528   0.001044   0.205072
    15  H   -0.018518  -0.056862  -0.056961   0.013437   0.205000   0.001042
    16  H   -0.056841  -0.056908   0.013408  -0.018480   0.001041  -0.005010
    17  H   -0.056969   0.013428  -0.018492  -0.056913  -0.005009  -0.005013
    18  H   -0.056897  -0.018533  -0.056905   0.013440   0.204948  -0.005007
    19  H   -0.056802  -0.018469   0.013397  -0.056926  -0.005012  -0.005011
    20  H    0.013448  -0.018500  -0.056936  -0.056923  -0.005012   0.205187
               7          8          9         10         11         12
     1  Li   0.224380   0.224014  -0.056969   0.013411  -0.018527  -0.018461
     2  Li  -0.058333   0.224131  -0.056885  -0.056932   0.013444  -0.056833
     3  Li   0.224268  -0.058121  -0.018519  -0.018492  -0.056953   0.013402
     4  Li   0.224270   0.224279   0.013460  -0.056887  -0.056915  -0.056903
     5  C    0.034622   0.034597   0.204863  -0.005012  -0.005009  -0.005013
     6  C    0.034610   0.034607  -0.005007   0.205199   0.001042   0.001041
     7  C    5.031261   0.034608  -0.005009  -0.005010   0.205163  -0.005010
     8  C    0.034608   5.031469   0.001043   0.001045  -0.005006   0.205203
     9  H   -0.005009   0.001043   0.859482   0.002042  -0.000188  -0.000470
    10  H   -0.005010   0.001045   0.002042   0.859319  -0.000470  -0.000442
    11  H    0.205163  -0.005006  -0.000188  -0.000470   0.859363   0.002043
    12  H   -0.005010   0.205203  -0.000470  -0.000442   0.002043   0.859254
    13  H    0.205204  -0.005012  -0.000471  -0.000185   0.022274  -0.000185
    14  H   -0.005010  -0.005008  -0.000471   0.022291  -0.000470  -0.000471
    15  H   -0.005010  -0.005013   0.022319  -0.000470   0.002041   0.002044
    16  H   -0.005011   0.205229  -0.000442  -0.000471  -0.000184   0.022232
    17  H    0.205094   0.001042   0.002041   0.002043   0.022291  -0.000470
    18  H    0.001043  -0.005011   0.022334  -0.000186  -0.000471  -0.000183
    19  H    0.001039   0.205242  -0.000469  -0.000470  -0.000470   0.022232
    20  H    0.001042  -0.005006  -0.000184   0.022247  -0.000443  -0.000471
              13         14         15         16         17         18
     1  Li  -0.056901   0.013464  -0.018518  -0.056841  -0.056969  -0.056897
     2  Li   0.013423  -0.056952  -0.056862  -0.056908   0.013428  -0.018533
     3  Li  -0.056894  -0.056899  -0.056961   0.013408  -0.018492  -0.056905
     4  Li  -0.018529  -0.018528   0.013437  -0.018480  -0.056913   0.013440
     5  C    0.001045   0.001044   0.205000   0.001041  -0.005009   0.204948
     6  C   -0.005012   0.205072   0.001042  -0.005010  -0.005013  -0.005007
     7  C    0.205204  -0.005010  -0.005010  -0.005011   0.205094   0.001043
     8  C   -0.005012  -0.005008  -0.005013   0.205229   0.001042  -0.005011
     9  H   -0.000471  -0.000471   0.022319  -0.000442   0.002041   0.022334
    10  H   -0.000185   0.022291  -0.000470  -0.000471   0.002043  -0.000186
    11  H    0.022274  -0.000470   0.002041  -0.000184   0.022291  -0.000471
    12  H   -0.000185  -0.000471   0.002044   0.022232  -0.000470  -0.000183
    13  H    0.859286   0.002045  -0.000471   0.002041   0.022285  -0.000443
    14  H    0.002045   0.859366  -0.000443   0.002041  -0.000183  -0.000471
    15  H   -0.000471  -0.000443   0.859400  -0.000469  -0.000188   0.022299
    16  H    0.002041   0.002041  -0.000469   0.859304  -0.000470  -0.000470
    17  H    0.022285  -0.000183  -0.000188  -0.000470   0.859354  -0.000472
    18  H   -0.000443  -0.000471   0.022299  -0.000470  -0.000472   0.859347
    19  H   -0.000470  -0.000188  -0.000182   0.022227  -0.000442   0.002044
    20  H   -0.000471   0.022277  -0.000470  -0.000188  -0.000470   0.002043
              19         20
     1  Li  -0.056802   0.013448
     2  Li  -0.018469  -0.018500
     3  Li   0.013397  -0.056936
     4  Li  -0.056926  -0.056923
     5  C   -0.005012  -0.005012
     6  C   -0.005011   0.205187
     7  C    0.001039   0.001042
     8  C    0.205242  -0.005006
     9  H   -0.000469  -0.000184
    10  H   -0.000470   0.022247
    11  H   -0.000470  -0.000443
    12  H    0.022232  -0.000471
    13  H   -0.000470  -0.000471
    14  H   -0.000188   0.022277
    15  H   -0.000182  -0.000470
    16  H    0.022227  -0.000188
    17  H   -0.000442  -0.000470
    18  H    0.002044   0.002043
    19  H    0.859260   0.002041
    20  H    0.002041   0.859324
 Mulliken charges:
               1
     1  Li   0.286071
     2  Li   0.286027
     3  Li   0.285722
     4  Li   0.285876
     5  C   -0.338502
     6  C   -0.338275
     7  C   -0.338211
     8  C   -0.338333
     9  H    0.017500
    10  H    0.017429
    11  H    0.017445
    12  H    0.017461
    13  H    0.017442
    14  H    0.017495
    15  H    0.017475
    16  H    0.017420
    17  H    0.017514
    18  H    0.017550
    19  H    0.017429
    20  H    0.017465
 Sum of Mulliken charges =  -0.00000
 Mulliken charges with hydrogens summed into heavy atoms:
               1
     1  Li   0.286071
     2  Li   0.286027
     3  Li   0.285722
     4  Li   0.285876
     5  C   -0.285977
     6  C   -0.285885
     7  C   -0.285810
     8  C   -0.286024
 Electronic spatial extent (au):  <R**2>=            949.9261
 Charge=             -0.0000 electrons
 Dipole moment (field-independent basis, Debye):
    X=             -0.0009    Y=              0.0004    Z=             -0.0000  Tot=              0.0010
 Quadrupole moment (field-independent basis, Debye-Ang):
   XX=            -46.3437   YY=            -46.3389   ZZ=            -46.3390
   XY=             -0.0035   XZ=             -0.0018   YZ=             -0.0020
 Traceless Quadrupole moment (field-independent basis, Debye-Ang):
   XX=             -0.0031   YY=              0.0016   ZZ=              0.0015
   XY=             -0.0035   XZ=             -0.0018   YZ=             -0.0020
 Octapole moment (field-independent basis, Debye-Ang**2):
  XXX=            -11.4748  YYY=            -14.6035  ZZZ=             14.0215  XYY=             -5.8746
  XXY=             16.9732  XXZ=              1.3082  XZZ=             17.3392  YZZ=             -2.3621
  YYZ=            -15.3306  XYZ=            -12.4470
 Hexadecapole moment (field-independent basis, Debye-Ang**3):
 XXXX=           -525.5920 YYYY=           -526.2361 ZZZZ=           -526.4456 XXXY=              4.0225
 XXXZ=              2.6390 YYYX=             -2.3115 YYYZ=             -4.3299 ZZZX=             -3.8403
 ZZZY=              2.7503 XXYY=           -176.6126 XXZZ=           -176.3507 YYZZ=           -175.5133
 XXYZ=              1.5652 YYXZ=              1.1856 ZZXY=             -1.7382
 N-N= 2.052199630326D+02 E-N=-8.495331893538D+02  KE= 1.883487308337D+02
 Unable to Open any file for archive entry.
 1\1\GINC-TCOPT10\FOpt\RPBEPBE\def2QZVPP\C4H12Li4\HUTTER\30-Jul-2021\0\
 \#N RPBEPBE/Def2QZVPP scf=tight Int(Grid=ultrafine) OPT FREQ\\Mol job 
 1\\0,1\Li,9.3460443628,7.6544618026,9.3460833974\Li,7.6540496031,9.345
 6047961,9.3461773168\Li,7.6538867798,7.6539005166,7.6538111695\Li,9.34
 59057165,9.3458185475,7.6538186377\C,7.2421610976,7.2419010778,9.75775
 04413\C,7.2422237225,9.75796653,7.2421873656\C,9.757707073,7.242013541
 1,7.2422056747\C,9.7579440561,9.7581826113,9.7579087103\H,6.5523998602
 ,6.5519633793,9.225298995\H,6.5522258832,9.2259633524,6.5521793562\H,1
 0.4475096954,6.5521096419,7.7746690482\H,10.4479462955,9.2260761625,10
 .4478660682\H,10.4476467032,7.7740560305,6.5521404917\H,7.7746536288,1
 0.4479018437,6.5524241212\H,7.7744806252,6.5519609281,10.4476103369\H,
 10.4477570645,10.4480914564,9.2254892924\H,9.2253222166,6.5520019737,6
 .5524459797\H,6.5520957881,7.7740030581,10.4476387496\H,9.2255786411,1
 0.4481271376,10.4477261834\H,6.5524976466,10.4479231328,7.7746168743\\
 Version=ES64L-G16RevC.01\State=1-A\HF=-189.5304137\RMSD=3.202e-09\RMSF
 =2.070e-05\Dipole=-0.0001574,-0.0002753,-0.0002095\Quadrupole=0.001283
 1,-0.0041652,0.0028821,0.0007821,-0.0001654,0.0007174\PG=C01 [X(C4H12L
 i4)]\\@
 The archive entry for this job was punched.


 MEMORIES ARE LIKE AN ENGLISH GRAMMER LESSON -
 PRESENT TENSE, AND PAST PERFECT.
 Job cpu time:       0 days  9 hours 37 minutes 26.0 seconds.
 Elapsed time:       0 days  0 hours 36 minutes  8.3 seconds.
 File lengths (MBytes):  RWF=    316 Int=      0 D2E=      0 Chk=     39 Scr=      1
 Normal termination of Gaussian 16 at Fri Jul 30 16:40:22 2021.
 Link1:  Proceeding to internal job step number  2.
 ----------------------------------------------------------------------
 #N Geom=AllCheck Guess=TCheck SCRF=Check GenChk RPBEPBE/def2QZVPP Freq
 ----------------------------------------------------------------------
 1/10=4,29=7,30=1,38=1,40=1/1,3;
 2/12=2,40=1/2;
 3/5=45,7=202,11=2,14=-4,25=1,30=1,70=2,71=2,74=1009,75=-5,116=1,140=1/1,2,3;
 4/5=101/1;
 5/5=2,32=2,38=6,98=1/2;
 8/6=4,10=90,11=11/1;
 11/6=1,8=1,9=11,15=111,16=1/1,2,10;
 10/6=1/2;
 6/7=2,8=2,9=2,10=2,28=1/1;
 7/8=1,10=1,25=1/1,2,3,16;
 1/10=4,30=1/3;
 99//99;
 Structure from the checkpoint file:  "/data/hutter/SMG16/PBE/Gau-52442.chk"
 ---------
 Mol job 1
 ---------
 Charge =  0 Multiplicity = 1
 Redundant internal coordinates found in file.  (old form).
 Li,0,9.3460443628,7.6544618026,9.3460833974
 Li,0,7.6540496031,9.3456047961,9.3461773168
 Li,0,7.6538867798,7.6539005166,7.6538111695
 Li,0,9.3459057165,9.3458185475,7.6538186377
 C,0,7.2421610976,7.2419010778,9.7577504413
 C,0,7.2422237225,9.75796653,7.2421873656
 C,0,9.757707073,7.2420135411,7.2422056747
 C,0,9.7579440561,9.7581826113,9.7579087103
 H,0,6.5523998602,6.5519633793,9.225298995
 H,0,6.5522258832,9.2259633524,6.5521793562
 H,0,10.4475096954,6.5521096419,7.7746690482
 H,0,10.4479462955,9.2260761625,10.4478660682
 H,0,10.4476467032,7.7740560305,6.5521404917
 H,0,7.7746536288,10.4479018437,6.5524241212
 H,0,7.7744806252,6.5519609281,10.4476103369
 H,0,10.4477570645,10.4480914564,9.2254892924
 H,0,9.2253222166,6.5520019737,6.5524459797
 H,0,6.5520957881,7.7740030581,10.4476387496
 H,0,9.2255786411,10.4481271376,10.4477261834
 H,0,6.5524976466,10.4479231328,7.7746168743
 Recover connectivity data from disk.

 GradGradGradGradGradGradGradGradGradGradGradGradGradGradGradGradGradGrad
 Berny optimization.
 Initialization pass.
                           ----------------------------
                           !    Initial Parameters    !
                           ! (Angstroms and Degrees)  !
 --------------------------                            --------------------------
 ! Name  Definition              Value          Derivative Info.                !
 --------------------------------------------------------------------------------
 ! R1    R(1,2)                  2.3922         calculate D2E/DX2 analytically  !
 ! R2    R(1,3)                  2.3932         calculate D2E/DX2 analytically  !
 ! R3    R(1,4)                  2.3926         calculate D2E/DX2 analytically  !
 ! R4    R(1,5)                  2.1831         calculate D2E/DX2 analytically  !
 ! R5    R(1,7)                  2.1831         calculate D2E/DX2 analytically  !
 ! R6    R(1,8)                  2.1829         calculate D2E/DX2 analytically  !
 ! R7    R(2,3)                  2.3929         calculate D2E/DX2 analytically  !
 ! R8    R(2,4)                  2.393          calculate D2E/DX2 analytically  !
 ! R9    R(2,5)                  2.1828         calculate D2E/DX2 analytically  !
 ! R10   R(2,6)                  2.1832         calculate D2E/DX2 analytically  !
 ! R11   R(2,8)                  2.1831         calculate D2E/DX2 analytically  !
 ! R12   R(3,4)                  2.3928         calculate D2E/DX2 analytically  !
 ! R13   R(3,5)                  2.1831         calculate D2E/DX2 analytically  !
 ! R14   R(3,6)                  2.1831         calculate D2E/DX2 analytically  !
 ! R15   R(3,7)                  2.1829         calculate D2E/DX2 analytically  !
 ! R16   R(4,6)                  2.1828         calculate D2E/DX2 analytically  !
 ! R17   R(4,7)                  2.1829         calculate D2E/DX2 analytically  !
 ! R18   R(4,8)                  2.1833         calculate D2E/DX2 analytically  !
 ! R19   R(5,9)                  1.1114         calculate D2E/DX2 analytically  !
 ! R20   R(5,15)                 1.1114         calculate D2E/DX2 analytically  !
 ! R21   R(5,18)                 1.1114         calculate D2E/DX2 analytically  !
 ! R22   R(6,10)                 1.1114         calculate D2E/DX2 analytically  !
 ! R23   R(6,14)                 1.1114         calculate D2E/DX2 analytically  !
 ! R24   R(6,20)                 1.1114         calculate D2E/DX2 analytically  !
 ! R25   R(7,11)                 1.1114         calculate D2E/DX2 analytically  !
 ! R26   R(7,13)                 1.1114         calculate D2E/DX2 analytically  !
 ! R27   R(7,17)                 1.1114         calculate D2E/DX2 analytically  !
 ! R28   R(8,12)                 1.1114         calculate D2E/DX2 analytically  !
 ! R29   R(8,16)                 1.1114         calculate D2E/DX2 analytically  !
 ! R30   R(8,19)                 1.1114         calculate D2E/DX2 analytically  !
 ! A1    A(2,1,7)              105.484          calculate D2E/DX2 analytically  !
 ! A2    A(3,1,8)              105.4894         calculate D2E/DX2 analytically  !
 ! A3    A(4,1,5)              105.4805         calculate D2E/DX2 analytically  !
 ! A4    A(5,1,7)              109.1321         calculate D2E/DX2 analytically  !
 ! A5    A(5,1,8)              109.1716         calculate D2E/DX2 analytically  !
 ! A6    A(7,1,8)              109.1664         calculate D2E/DX2 analytically  !
 ! A7    A(1,2,6)              105.4801         calculate D2E/DX2 analytically  !
 ! A8    A(3,2,8)              105.4891         calculate D2E/DX2 analytically  !
 ! A9    A(4,2,5)              105.4764         calculate D2E/DX2 analytically  !
 ! A10   A(5,2,6)              109.1566         calculate D2E/DX2 analytically  !
 ! A11   A(5,2,8)              109.1731         calculate D2E/DX2 analytically  !
 ! A12   A(6,2,8)              109.1379         calculate D2E/DX2 analytically  !
 ! A13   A(1,3,6)              105.4522         calculate D2E/DX2 analytically  !
 ! A14   A(2,3,7)              105.4672         calculate D2E/DX2 analytically  !
 ! A15   A(4,3,5)              105.4742         calculate D2E/DX2 analytically  !
 ! A16   A(5,3,6)              109.1499         calculate D2E/DX2 analytically  !
 ! A17   A(5,3,7)              109.14           calculate D2E/DX2 analytically  !
 ! A18   A(6,3,7)              109.1496         calculate D2E/DX2 analytically  !
 ! A19   A(1,4,6)              105.4805         calculate D2E/DX2 analytically  !
 ! A20   A(2,4,7)              105.4647         calculate D2E/DX2 analytically  !
 ! A21   A(3,4,8)              105.4856         calculate D2E/DX2 analytically  !
 ! A22   A(6,4,7)              109.1609         calculate D2E/DX2 analytically  !
 ! A23   A(6,4,8)              109.1441         calculate D2E/DX2 analytically  !
 ! A24   A(7,4,8)              109.156          calculate D2E/DX2 analytically  !
 ! A25   A(1,5,9)              128.6861         calculate D2E/DX2 analytically  !
 ! A26   A(1,5,15)              76.8671         calculate D2E/DX2 analytically  !
 ! A27   A(1,5,18)             128.6765         calculate D2E/DX2 analytically  !
 ! A28   A(2,5,9)              128.6855         calculate D2E/DX2 analytically  !
 ! A29   A(2,5,15)             128.6769         calculate D2E/DX2 analytically  !
 ! A30   A(2,5,18)              76.8672         calculate D2E/DX2 analytically  !
 ! A31   A(3,5,9)               76.85           calculate D2E/DX2 analytically  !
 ! A32   A(3,5,15)             128.6834         calculate D2E/DX2 analytically  !
 ! A33   A(3,5,18)             128.6798         calculate D2E/DX2 analytically  !
 ! A34   A(9,5,15)             102.0779         calculate D2E/DX2 analytically  !
 ! A35   A(9,5,18)             102.0778         calculate D2E/DX2 analytically  !
 ! A36   A(15,5,18)            102.0806         calculate D2E/DX2 analytically  !
 ! A37   A(2,6,10)             128.6828         calculate D2E/DX2 analytically  !
 ! A38   A(2,6,14)             128.6804         calculate D2E/DX2 analytically  !
 ! A39   A(2,6,20)              76.8586         calculate D2E/DX2 analytically  !
 ! A40   A(3,6,10)              76.8669         calculate D2E/DX2 analytically  !
 ! A41   A(3,6,14)             128.6801         calculate D2E/DX2 analytically  !
 ! A42   A(3,6,20)             128.6828         calculate D2E/DX2 analytically  !
 ! A43   A(4,6,10)             128.6831         calculate D2E/DX2 analytically  !
 ! A44   A(4,6,14)              76.8537         calculate D2E/DX2 analytically  !
 ! A45   A(4,6,20)             128.6788         calculate D2E/DX2 analytically  !
 ! A46   A(10,6,14)            102.0786         calculate D2E/DX2 analytically  !
 ! A47   A(10,6,20)            102.0811         calculate D2E/DX2 analytically  !
 ! A48   A(14,6,20)            102.0774         calculate D2E/DX2 analytically  !
 ! A49   A(1,7,11)              76.8569         calculate D2E/DX2 analytically  !
 ! A50   A(1,7,13)             128.6799         calculate D2E/DX2 analytically  !
 ! A51   A(1,7,17)             128.6854         calculate D2E/DX2 analytically  !
 ! A52   A(3,7,11)             128.6775         calculate D2E/DX2 analytically  !
 ! A53   A(3,7,13)             128.6838         calculate D2E/DX2 analytically  !
 ! A54   A(3,7,17)              76.8509         calculate D2E/DX2 analytically  !
 ! A55   A(4,7,11)             128.6811         calculate D2E/DX2 analytically  !
 ! A56   A(4,7,13)              76.8692         calculate D2E/DX2 analytically  !
 ! A57   A(4,7,17)             128.6813         calculate D2E/DX2 analytically  !
 ! A58   A(11,7,13)            102.0824         calculate D2E/DX2 analytically  !
 ! A59   A(11,7,17)            102.0775         calculate D2E/DX2 analytically  !
 ! A60   A(13,7,17)            102.0767         calculate D2E/DX2 analytically  !
 ! A61   A(1,8,12)              76.8716         calculate D2E/DX2 analytically  !
 ! A62   A(1,8,16)             128.6799         calculate D2E/DX2 analytically  !
 ! A63   A(1,8,19)             128.6802         calculate D2E/DX2 analytically  !
 ! A64   A(2,8,12)             128.6738         calculate D2E/DX2 analytically  !
 ! A65   A(2,8,16)             128.6885         calculate D2E/DX2 analytically  !
 ! A66   A(2,8,19)              76.8657         calculate D2E/DX2 analytically  !
 ! A67   A(4,8,12)             128.6811         calculate D2E/DX2 analytically  !
 ! A68   A(4,8,16)              76.8629         calculate D2E/DX2 analytically  !
 ! A69   A(4,8,19)             128.6803         calculate D2E/DX2 analytically  !
 ! A70   A(12,8,16)            102.0782         calculate D2E/DX2 analytically  !
 ! A71   A(12,8,19)            102.0798         calculate D2E/DX2 analytically  !
 ! A72   A(16,8,19)            102.0795         calculate D2E/DX2 analytically  !
 ! D1    D(7,1,2,6)             -0.0334         calculate D2E/DX2 analytically  !
 ! D2    D(8,1,3,6)             -0.0033         calculate D2E/DX2 analytically  !
 ! D3    D(5,1,4,6)              0.0357         calculate D2E/DX2 analytically  !
 ! D4    D(4,1,5,9)             84.8992         calculate D2E/DX2 analytically  !
 ! D5    D(4,1,5,15)           179.9726         calculate D2E/DX2 analytically  !
 ! D6    D(4,1,5,18)           -84.9491         calculate D2E/DX2 analytically  !
 ! D7    D(7,1,5,9)             25.288          calculate D2E/DX2 analytically  !
 ! D8    D(7,1,5,15)           120.3614         calculate D2E/DX2 analytically  !
 ! D9    D(7,1,5,18)          -144.5602         calculate D2E/DX2 analytically  !
 ! D10   D(8,1,5,9)            144.5318         calculate D2E/DX2 analytically  !
 ! D11   D(8,1,5,15)          -120.3948         calculate D2E/DX2 analytically  !
 ! D12   D(8,1,5,18)           -25.3165         calculate D2E/DX2 analytically  !
 ! D13   D(2,1,7,11)          -179.9738         calculate D2E/DX2 analytically  !
 ! D14   D(2,1,7,13)            84.954          calculate D2E/DX2 analytically  !
 ! D15   D(2,1,7,17)           -84.9088         calculate D2E/DX2 analytically  !
 ! D16   D(5,1,7,11)          -120.3591         calculate D2E/DX2 analytically  !
 ! D17   D(5,1,7,13)           144.5686         calculate D2E/DX2 analytically  !
 ! D18   D(5,1,7,17)           -25.2941         calculate D2E/DX2 analytically  !
 ! D19   D(8,1,7,11)           120.3939         calculate D2E/DX2 analytically  !
 ! D20   D(8,1,7,13)            25.3217         calculate D2E/DX2 analytically  !
 ! D21   D(8,1,7,17)          -144.5411         calculate D2E/DX2 analytically  !
 ! D22   D(3,1,8,12)          -179.9956         calculate D2E/DX2 analytically  !
 ! D23   D(3,1,8,16)           -84.9173         calculate D2E/DX2 analytically  !
 ! D24   D(3,1,8,19)            84.924          calculate D2E/DX2 analytically  !
 ! D25   D(5,1,8,12)           120.3906         calculate D2E/DX2 analytically  !
 ! D26   D(5,1,8,16)          -144.5311         calculate D2E/DX2 analytically  !
 ! D27   D(5,1,8,19)            25.3102         calculate D2E/DX2 analytically  !
 ! D28   D(7,1,8,12)          -120.3869         calculate D2E/DX2 analytically  !
 ! D29   D(7,1,8,16)           -25.3086         calculate D2E/DX2 analytically  !
 ! D30   D(7,1,8,19)           144.5327         calculate D2E/DX2 analytically  !
 ! D31   D(8,2,3,7)              0.0279         calculate D2E/DX2 analytically  !
 ! D32   D(5,2,4,7)             -0.0144         calculate D2E/DX2 analytically  !
 ! D33   D(4,2,5,9)            -84.9082         calculate D2E/DX2 analytically  !
 ! D34   D(4,2,5,15)            84.9401         calculate D2E/DX2 analytically  !
 ! D35   D(4,2,5,18)          -179.9816         calculate D2E/DX2 analytically  !
 ! D36   D(6,2,5,9)            -25.3051         calculate D2E/DX2 analytically  !
 ! D37   D(6,2,5,15)           144.5432         calculate D2E/DX2 analytically  !
 ! D38   D(6,2,5,18)          -120.3785         calculate D2E/DX2 analytically  !
 ! D39   D(8,2,5,9)           -144.5296         calculate D2E/DX2 analytically  !
 ! D40   D(8,2,5,15)            25.3187         calculate D2E/DX2 analytically  !
 ! D41   D(8,2,5,18)           120.397          calculate D2E/DX2 analytically  !
 ! D42   D(1,2,6,10)            84.9573         calculate D2E/DX2 analytically  !
 ! D43   D(1,2,6,14)           -84.9043         calculate D2E/DX2 analytically  !
 ! D44   D(1,2,6,20)          -179.9713         calculate D2E/DX2 analytically  !
 ! D45   D(5,2,6,10)            25.3271         calculate D2E/DX2 analytically  !
 ! D46   D(5,2,6,14)          -144.5345         calculate D2E/DX2 analytically  !
 ! D47   D(5,2,6,20)           120.3985         calculate D2E/DX2 analytically  !
 ! D48   D(8,2,6,10)           144.5735         calculate D2E/DX2 analytically  !
 ! D49   D(8,2,6,14)           -25.2882         calculate D2E/DX2 analytically  !
 ! D50   D(8,2,6,20)          -120.3552         calculate D2E/DX2 analytically  !
 ! D51   D(3,2,8,12)           -84.9476         calculate D2E/DX2 analytically  !
 ! D52   D(3,2,8,16)            84.9017         calculate D2E/DX2 analytically  !
 ! D53   D(3,2,8,19)           179.9756         calculate D2E/DX2 analytically  !
 ! D54   D(5,2,8,12)           -25.3256         calculate D2E/DX2 analytically  !
 ! D55   D(5,2,8,16)           144.5237         calculate D2E/DX2 analytically  !
 ! D56   D(5,2,8,19)          -120.4024         calculate D2E/DX2 analytically  !
 ! D57   D(6,2,8,12)          -144.5617         calculate D2E/DX2 analytically  !
 ! D58   D(6,2,8,16)            25.2876         calculate D2E/DX2 analytically  !
 ! D59   D(6,2,8,19)           120.3615         calculate D2E/DX2 analytically  !
 ! D60   D(5,3,4,8)             -0.0125         calculate D2E/DX2 analytically  !
 ! D61   D(4,3,5,9)           -179.989          calculate D2E/DX2 analytically  !
 ! D62   D(4,3,5,15)           -84.9286         calculate D2E/DX2 analytically  !
 ! D63   D(4,3,5,18)            84.9501         calculate D2E/DX2 analytically  !
 ! D64   D(6,3,5,9)            120.4048         calculate D2E/DX2 analytically  !
 ! D65   D(6,3,5,15)          -144.5348         calculate D2E/DX2 analytically  !
 ! D66   D(6,3,5,18)            25.3439         calculate D2E/DX2 analytically  !
 ! D67   D(7,3,5,9)           -120.3801         calculate D2E/DX2 analytically  !
 ! D68   D(7,3,5,15)           -25.3196         calculate D2E/DX2 analytically  !
 ! D69   D(7,3,5,18)           144.5591         calculate D2E/DX2 analytically  !
 ! D70   D(1,3,6,10)          -179.998          calculate D2E/DX2 analytically  !
 ! D71   D(1,3,6,14)            84.9269         calculate D2E/DX2 analytically  !
 ! D72   D(1,3,6,20)           -84.9202         calculate D2E/DX2 analytically  !
 ! D73   D(5,3,6,10)          -120.3939         calculate D2E/DX2 analytically  !
 ! D74   D(5,3,6,14)           144.5309         calculate D2E/DX2 analytically  !
 ! D75   D(5,3,6,20)           -25.3161         calculate D2E/DX2 analytically  !
 ! D76   D(7,3,6,10)           120.3969         calculate D2E/DX2 analytically  !
 ! D77   D(7,3,6,14)            25.3217         calculate D2E/DX2 analytically  !
 ! D78   D(7,3,6,20)          -144.5253         calculate D2E/DX2 analytically  !
 ! D79   D(2,3,7,11)            84.9147         calculate D2E/DX2 analytically  !
 ! D80   D(2,3,7,13)           -84.9642         calculate D2E/DX2 analytically  !
 ! D81   D(2,3,7,17)           179.9763         calculate D2E/DX2 analytically  !
 ! D82   D(5,3,7,11)            25.3136         calculate D2E/DX2 analytically  !
 ! D83   D(5,3,7,13)          -144.5653         calculate D2E/DX2 analytically  !
 ! D84   D(5,3,7,17)           120.3752         calculate D2E/DX2 analytically  !
 ! D85   D(6,3,7,11)           144.529          calculate D2E/DX2 analytically  !
 ! D86   D(6,3,7,13)           -25.3499         calculate D2E/DX2 analytically  !
 ! D87   D(6,3,7,17)          -120.4094         calculate D2E/DX2 analytically  !
 ! D88   D(1,4,6,10)           -84.963          calculate D2E/DX2 analytically  !
 ! D89   D(1,4,6,14)           179.9727         calculate D2E/DX2 analytically  !
 ! D90   D(1,4,6,20)            84.9093         calculate D2E/DX2 analytically  !
 ! D91   D(7,4,6,10)           -25.3398         calculate D2E/DX2 analytically  !
 ! D92   D(7,4,6,14)          -120.4041         calculate D2E/DX2 analytically  !
 ! D93   D(7,4,6,20)           144.5325         calculate D2E/DX2 analytically  !
 ! D94   D(8,4,6,10)          -144.5717         calculate D2E/DX2 analytically  !
 ! D95   D(8,4,6,14)           120.364          calculate D2E/DX2 analytically  !
 ! D96   D(8,4,6,20)            25.3006         calculate D2E/DX2 analytically  !
 ! D97   D(2,4,7,11)           -84.9124         calculate D2E/DX2 analytically  !
 ! D98   D(2,4,7,13)          -179.9941         calculate D2E/DX2 analytically  !
 ! D99   D(2,4,7,17)            84.9317         calculate D2E/DX2 analytically  !
 ! D100  D(6,4,7,11)          -144.5291         calculate D2E/DX2 analytically  !
 ! D101  D(6,4,7,13)           120.3892         calculate D2E/DX2 analytically  !
 ! D102  D(6,4,7,17)            25.315          calculate D2E/DX2 analytically  !
 ! D103  D(8,4,7,11)           -25.3046         calculate D2E/DX2 analytically  !
 ! D104  D(8,4,7,13)          -120.3863         calculate D2E/DX2 analytically  !
 ! D105  D(8,4,7,17)           144.5395         calculate D2E/DX2 analytically  !
 ! D106  D(3,4,8,12)            84.9372         calculate D2E/DX2 analytically  !
 ! D107  D(3,4,8,16)          -179.9916         calculate D2E/DX2 analytically  !
 ! D108  D(3,4,8,19)           -84.9185         calculate D2E/DX2 analytically  !
 ! D109  D(6,4,8,12)           144.5573         calculate D2E/DX2 analytically  !
 ! D110  D(6,4,8,16)          -120.3715         calculate D2E/DX2 analytically  !
 ! D111  D(6,4,8,19)           -25.2984         calculate D2E/DX2 analytically  !
 ! D112  D(7,4,8,12)            25.3223         calculate D2E/DX2 analytically  !
 ! D113  D(7,4,8,16)           120.3936         calculate D2E/DX2 analytically  !
 ! D114  D(7,4,8,19)          -144.5334         calculate D2E/DX2 analytically  !
 --------------------------------------------------------------------------------
 Trust Radius=3.00D-01 FncErr=1.00D-07 GrdErr=1.00D-07 EigMax=2.50D+02 EigMin=1.00D-04
 Number of steps in this run=      2 maximum allowed number of steps=      2.
 GradGradGradGradGradGradGradGradGradGradGradGradGradGradGradGradGradGrad

                          Input orientation:                          
 ---------------------------------------------------------------------
 Center     Atomic      Atomic             Coordinates (Angstroms)
 Number     Number       Type             X           Y           Z
 ---------------------------------------------------------------------
      1          3           0        9.346044    7.654462    9.346083
      2          3           0        7.654050    9.345605    9.346177
      3          3           0        7.653887    7.653901    7.653811
      4          3           0        9.345906    9.345819    7.653819
      5          6           0        7.242161    7.241901    9.757750
      6          6           0        7.242224    9.757967    7.242187
      7          6           0        9.757707    7.242014    7.242206
      8          6           0        9.757944    9.758183    9.757909
      9          1           0        6.552400    6.551963    9.225299
     10          1           0        6.552226    9.225963    6.552179
     11          1           0       10.447510    6.552110    7.774669
     12          1           0       10.447946    9.226076   10.447866
     13          1           0       10.447647    7.774056    6.552140
     14          1           0        7.774654   10.447902    6.552424
     15          1           0        7.774481    6.551961   10.447610
     16          1           0       10.447757   10.448091    9.225489
     17          1           0        9.225322    6.552002    6.552446
     18          1           0        6.552096    7.774003   10.447639
     19          1           0        9.225579   10.448127   10.447726
     20          1           0        6.552498   10.447923    7.774617
 ---------------------------------------------------------------------
                    Distance matrix (angstroms):
                    1          2          3          4          5
     1  Li   0.000000
     2  Li   2.392240   0.000000
     3  Li   2.393153   2.392899   0.000000
     4  Li   2.392582   2.393001   2.392805   0.000000
     5  C    2.183117   2.182800   2.183076   3.644000   0.000000
     6  C    3.643785   2.183212   2.183116   2.182839   3.557899
     7  C    2.183090   3.643785   2.182918   2.182888   3.557518
     8  C    2.182866   2.183143   3.644487   2.183349   3.558207
     9  H    3.005751   3.005441   2.212942   4.251923   1.111436
    10  H    4.252169   3.005787   2.213285   3.005432   3.832519
    11  H    2.213086   4.251667   3.005475   3.005486   3.831799
    12  H    2.213162   3.005639   4.252675   3.005916   3.832789
    13  H    3.005653   4.252128   3.005530   2.213135   4.564456
    14  H    4.251718   3.005771   3.005675   2.212802   4.564658
    15  H    2.213297   3.005346   3.005683   4.252092   1.111435
    16  H    3.005442   3.005802   4.252457   2.213421   4.564954
    17  H    3.005728   4.251829   2.212825   3.005491   3.831823
    18  H    3.005639   2.213019   3.005635   4.252224   1.111426
    19  H    3.005444   2.213294   4.252514   3.005908   3.832740
    20  H    4.251686   2.213216   3.005697   3.005388   3.832366
                    6          7          8          9         10
     6  C    0.000000
     7  C    3.557763   0.000000
     8  C    3.557767   3.558071   0.000000
     9  H    3.832368   3.831817   4.564978   0.000000
    10  H    1.111411   3.832402   4.564711   3.780985   0.000000
    11  H    4.564528   1.111446   3.832446   4.156466   4.880288
    12  H    4.564640   3.832648   1.111432   4.880659   5.509357
    13  H    3.832336   1.111430   3.832675   4.879778   4.157203
    14  H    1.111425   3.832234   3.832008   4.880215   1.728428
    15  H    4.564702   3.831968   3.832711   1.728446   4.880428
    16  H    3.832128   3.832560   1.111434   5.509412   4.880097
    17  H    3.832314   1.111449   4.564896   3.780034   3.780941
    18  H    3.832402   4.564401   3.832774   1.728437   4.157258
    19  H    3.832166   4.564832   1.111434   4.880605   4.880142
    20  H    1.111415   4.564503   3.831981   4.157280   1.728450
                   11         12         13         14         15
    11  H    0.000000
    12  H    3.781016   0.000000
    13  H    1.728505   4.157528   0.000000
    14  H    4.880086   4.879941   3.780786   0.000000
    15  H    3.780172   3.781311   4.879961   5.509159   0.000000
    16  H    4.157349   1.728446   3.781172   3.780312   4.880555
    17  H    1.728459   4.880551   1.728437   4.157220   4.156591
    18  H    4.879758   4.157664   5.509104   4.880275   1.728471
    19  H    4.880297   1.728465   4.880542   4.156749   4.157619
    20  H    5.508946   4.879927   4.880184   1.728416   4.880231
                   16         17         18         19         20
    16  H    0.000000
    17  H    4.880473   0.000000
    18  H    4.880633   4.879749   0.000000
    19  H    1.728463   5.509356   3.781329   0.000000
    20  H    4.156691   4.880153   3.780859   3.780327   0.000000
 Stoichiometry    C4H12Li4
 Framework group  C1[X(C4H12Li4)]
 Deg. of freedom    54
 Full point group                 C1      NOp   1
 Largest Abelian subgroup         C1      NOp   1
 Largest concise Abelian subgroup C1      NOp   1
                         Standard orientation:                         
 ---------------------------------------------------------------------
 Center     Atomic      Atomic             Coordinates (Angstroms)
 Number     Number       Type             X           Y           Z
 ---------------------------------------------------------------------
      1          3           0       -0.268602   -1.300886   -0.618163
      2          3           0        0.646932   -0.201431    1.299077
      3          3           0       -1.261653    0.721294    0.189190
      4          3           0        0.883069    0.781090   -0.870105
      5          6           0       -1.313560   -1.161146    1.293521
      6          6           0        0.400179    1.934279    0.919241
      7          6           0       -0.962477    0.298986   -1.931489
      8          6           0        1.875946   -1.072146   -0.281270
      9          1           0       -2.307072   -0.712912    1.511032
     10          1           0       -0.485770    2.576580    1.113609
     11          1           0       -1.217115   -0.622132   -2.498951
     12          1           0        1.799320   -2.079066   -0.745514
     13          1           0       -0.384970    0.881886   -2.681149
     14          1           0        1.063398    2.619426    0.348294
     15          1           0       -1.590223   -2.173607    0.927915
     16          1           0        2.631443   -0.575059   -0.927347
     17          1           0       -1.934082    0.838480   -1.915733
     18          1           0       -0.928556   -1.379175    2.313082
     19          1           0        2.460964   -1.284486    0.639572
     20          1           0        0.892904    1.910026    1.915172
 ---------------------------------------------------------------------
 Rotational constants (GHZ):           1.9629038           1.9626296           1.9625200
 Standard basis: def2QZVPP (5D, 7F)
 There are   868 symmetry adapted cartesian basis functions of A   symmetry.
 There are   728 symmetry adapted basis functions of A   symmetry.
   728 basis functions,  1044 primitive gaussians,   868 cartesian basis functions
    24 alpha electrons       24 beta electrons
       nuclear repulsion energy       205.2199630326 Hartrees.
 NAtoms=   20 NActive=   20 NUniq=   20 SFac= 1.00D+00 NAtFMM=   60 NAOKFM=F Big=F
 Integral buffers will be    131072 words long.
 Raffenetti 2 integral format.
 Two-electron integral symmetry is turned on.
 One-electron integrals computed using PRISM.
   1 Symmetry operations used in ECPInt.
 ECPInt:  NShTT=   28920 NPrTT=   68284 LenC2=   27615 LenP2D=   53734.
 LDataN:  DoStor=T MaxTD1= 8 Len=  415
 NBasis=   728 RedAO= T EigKep=  6.45D-06  NBF=   728
 NBsUse=   728 1.00D-06 EigRej= -1.00D+00 NBFU=   728
 Initial guess from the checkpoint file:  "/data/hutter/SMG16/PBE/Gau-52442.chk"
 B after Tr=    -0.000000   -0.000000    0.000000
         Rot=    1.000000    0.000000   -0.000000    0.000000 Ang=   0.00 deg.
 Requested convergence on RMS density matrix=1.00D-08 within 128 cycles.
 Requested convergence on MAX density matrix=1.00D-06.
 Requested convergence on             energy=1.00D-06.
 No special actions if energy rises.
 SCF Done:  E(RPBE-PBE) =  -189.530413735     A.U. after    1 cycles
            NFock=  1  Conv=0.17D-08     -V/T= 2.0063
 DoSCS=F DFT=T ScalE2(SS,OS)=  1.000000  1.000000
 Range of M.O.s used for correlation:     1   728
 NBasis=   728 NAE=    24 NBE=    24 NFC=     0 NFV=     0
 NROrb=    728 NOA=    24 NOB=    24 NVA=   704 NVB=   704

 **** Warning!!: The largest alpha MO coefficient is  0.81788317D+02

   1 Symmetry operations used in ECPInt.
 ECPInt:  NShTT=   28920 NPrTT=   68284 LenC2=   27615 LenP2D=   53734.
 LDataN:  DoStor=T MaxTD1= 9 Len=  602
 Number of processors reduced to  13 by ecpmxn.
 Symmetrizing basis deriv contribution to polar:
 IMax=3 JMax=2 DiffMx= 0.00D+00
 G2DrvN: will do    21 centers at a time, making    1 passes.
 Calling FoFCou, ICntrl=  3507 FMM=F I1Cent=   0 AccDes= 0.00D+00.
 End of G2Drv F.D. properties file   721 does not exist.
 End of G2Drv F.D. properties file   722 does not exist.
 End of G2Drv F.D. properties file   788 does not exist.
          IDoAtm=11111111111111111111
          Differentiating once with respect to electric field.
                with respect to dipole field.
          Differentiating once with respect to nuclear coordinates.
 CalDSu exits because no D1Ps are significant.
          There are    63 degrees of freedom in the 1st order CPHF.  IDoFFX=6 NUNeed=     3.
     60 vectors produced by pass  0 Test12= 2.68D-14 1.59D-09 XBig12= 1.16D+02 3.01D+00.
 AX will form    60 AO Fock derivatives at one time.
     60 vectors produced by pass  1 Test12= 2.68D-14 1.59D-09 XBig12= 9.56D+00 7.66D-01.
     60 vectors produced by pass  2 Test12= 2.68D-14 1.59D-09 XBig12= 6.26D-02 4.55D-02.
     60 vectors produced by pass  3 Test12= 2.68D-14 1.59D-09 XBig12= 2.93D-04 2.45D-03.
     57 vectors produced by pass  4 Test12= 2.68D-14 1.59D-09 XBig12= 1.65D-07 4.33D-05.
     20 vectors produced by pass  5 Test12= 2.68D-14 1.59D-09 XBig12= 1.56D-10 1.16D-06.
      3 vectors produced by pass  6 Test12= 2.68D-14 1.59D-09 XBig12= 7.14D-14 2.34D-08.
 InvSVY:  IOpt=1 It=  1 EMax= 3.55D-15
 Solved reduced A of dimension   320 with    63 vectors.
 Isotropic polarizability for W=    0.000000      104.55 Bohr**3.
 End of Minotr F.D. properties file   721 does not exist.
 End of Minotr F.D. properties file   722 does not exist.
 End of Minotr F.D. properties file   788 does not exist.

 **********************************************************************

            Population analysis using the SCF Density.

 **********************************************************************

 Orbital symmetries:
       Occupied  (A) (A) (A) (A) (A) (A) (A) (A) (A) (A) (A) (A)
                 (A) (A) (A) (A) (A) (A) (A) (A) (A) (A) (A) (A)
       Virtual   (A) (A) (A) (A) (A) (A) (A) (A) (A) (A) (A) (A)
                 (A) (A) (A) (A) (A) (A) (A) (A) (A) (A) (A) (A)
                 (A) (A) (A) (A) (A) (A) (A) (A) (A) (A) (A) (A)
                 (A) (A) (A) (A) (A) (A) (A) (A) (A) (A) (A) (A)
                 (A) (A) (A) (A) (A) (A) (A) (A) (A) (A) (A) (A)
                 (A) (A) (A) (A) (A) (A) (A) (A) (A) (A) (A) (A)
                 (A) (A) (A) (A) (A) (A) (A) (A) (A) (A) (A) (A)
                 (A) (A) (A) (A) (A) (A) (A) (A) (A) (A) (A) (A)
                 (A) (A) (A) (A) (A) (A) (A) (A) (A) (A) (A) (A)
                 (A) (A) (A) (A) (A) (A) (A) (A) (A) (A) (A) (A)
                 (A) (A) (A) (A) (A) (A) (A) (A) (A) (A) (A) (A)
                 (A) (A) (A) (A) (A) (A) (A) (A) (A) (A) (A) (A)
                 (A) (A) (A) (A) (A) (A) (A) (A) (A) (A) (A) (A)
                 (A) (A) (A) (A) (A) (A) (A) (A) (A) (A) (A) (A)
                 (A) (A) (A) (A) (A) (A) (A) (A) (A) (A) (A) (A)
                 (A) (A) (A) (A) (A) (A) (A) (A) (A) (A) (A) (A)
                 (A) (A) (A) (A) (A) (A) (A) (A) (A) (A) (A) (A)
                 (A) (A) (A) (A) (A) (A) (A) (A) (A) (A) (A) (A)
                 (A) (A) (A) (A) (A) (A) (A) (A) (A) (A) (A) (A)
                 (A) (A) (A) (A) (A) (A) (A) (A) (A) (A) (A) (A)
                 (A) (A) (A) (A) (A) (A) (A) (A) (A) (A) (A) (A)
                 (A) (A) (A) (A) (A) (A) (A) (A) (A) (A) (A) (A)
                 (A) (A) (A) (A) (A) (A) (A) (A) (A) (A) (A) (A)
                 (A) (A) (A) (A) (A) (A) (A) (A) (A) (A) (A) (A)
                 (A) (A) (A) (A) (A) (A) (A) (A) (A) (A) (A) (A)
                 (A) (A) (A) (A) (A) (A) (A) (A) (A) (A) (A) (A)
                 (A) (A) (A) (A) (A) (A) (A) (A) (A) (A) (A) (A)
                 (A) (A) (A) (A) (A) (A) (A) (A) (A) (A) (A) (A)
                 (A) (A) (A) (A) (A) (A) (A) (A) (A) (A) (A) (A)
                 (A) (A) (A) (A) (A) (A) (A) (A) (A) (A) (A) (A)
                 (A) (A) (A) (A) (A) (A) (A) (A) (A) (A) (A) (A)
                 (A) (A) (A) (A) (A) (A) (A) (A) (A) (A) (A) (A)
                 (A) (A) (A) (A) (A) (A) (A) (A) (A) (A) (A) (A)
                 (A) (A) (A) (A) (A) (A) (A) (A) (A) (A) (A) (A)
                 (A) (A) (A) (A) (A) (A) (A) (A) (A) (A) (A) (A)
                 (A) (A) (A) (A) (A) (A) (A) (A) (A) (A) (A) (A)
                 (A) (A) (A) (A) (A) (A) (A) (A) (A) (A) (A) (A)
                 (A) (A) (A) (A) (A) (A) (A) (A) (A) (A) (A) (A)
                 (A) (A) (A) (A) (A) (A) (A) (A) (A) (A) (A) (A)
                 (A) (A) (A) (A) (A) (A) (A) (A) (A) (A) (A) (A)
                 (A) (A) (A) (A) (A) (A) (A) (A) (A) (A) (A) (A)
                 (A) (A) (A) (A) (A) (A) (A) (A) (A) (A) (A) (A)
                 (A) (A) (A) (A) (A) (A) (A) (A) (A) (A) (A) (A)
                 (A) (A) (A) (A) (A) (A) (A) (A) (A) (A) (A) (A)
                 (A) (A) (A) (A) (A) (A) (A) (A) (A) (A) (A) (A)
                 (A) (A) (A) (A) (A) (A) (A) (A) (A) (A) (A) (A)
                 (A) (A) (A) (A) (A) (A) (A) (A) (A) (A) (A) (A)
                 (A) (A) (A) (A) (A) (A) (A) (A) (A) (A) (A) (A)
                 (A) (A) (A) (A) (A) (A) (A) (A) (A) (A) (A) (A)
                 (A) (A) (A) (A) (A) (A) (A) (A) (A) (A) (A) (A)
                 (A) (A) (A) (A) (A) (A) (A) (A) (A) (A) (A) (A)
                 (A) (A) (A) (A) (A) (A) (A) (A) (A) (A) (A) (A)
                 (A) (A) (A) (A) (A) (A) (A) (A) (A) (A) (A) (A)
                 (A) (A) (A) (A) (A) (A) (A) (A) (A) (A) (A) (A)
                 (A) (A) (A) (A) (A) (A) (A) (A) (A) (A) (A) (A)
                 (A) (A) (A) (A) (A) (A) (A) (A) (A) (A) (A) (A)
                 (A) (A) (A) (A) (A) (A) (A) (A) (A) (A) (A) (A)
                 (A) (A) (A) (A) (A) (A) (A) (A) (A) (A) (A) (A)
                 (A) (A) (A) (A) (A) (A) (A) (A)
 The electronic state is 1-A.
 Alpha  occ. eigenvalues --   -9.83157  -9.83157  -9.83157  -9.83156  -1.79825
 Alpha  occ. eigenvalues --   -1.79550  -1.79550  -1.79549  -0.58310  -0.57959
 Alpha  occ. eigenvalues --   -0.57959  -0.57958  -0.32434  -0.32434  -0.32189
 Alpha  occ. eigenvalues --   -0.32189  -0.32189  -0.31481  -0.31481  -0.31481
 Alpha  occ. eigenvalues --   -0.23319  -0.18281  -0.18279  -0.18279
 Alpha virt. eigenvalues --   -0.04299  -0.01357  -0.01357  -0.01356   0.01040
 Alpha virt. eigenvalues --    0.01040   0.01040   0.02322   0.02323   0.03185
 Alpha virt. eigenvalues --    0.04611   0.04611   0.04612   0.04711   0.04711
 Alpha virt. eigenvalues --    0.04712   0.05491   0.06461   0.06465   0.07168
 Alpha virt. eigenvalues --    0.07168   0.07168   0.09316   0.09317   0.09318
 Alpha virt. eigenvalues --    0.12129   0.12129   0.12130   0.12764   0.12766
 Alpha virt. eigenvalues --    0.12769   0.12866   0.12867   0.14353   0.16286
 Alpha virt. eigenvalues --    0.16286   0.16287   0.17491   0.17492   0.17492
 Alpha virt. eigenvalues --    0.18111   0.18112   0.18112   0.18799   0.20289
 Alpha virt. eigenvalues --    0.22128   0.22130   0.22250   0.22255   0.22255
 Alpha virt. eigenvalues --    0.23949   0.23950   0.23953   0.24533   0.24535
 Alpha virt. eigenvalues --    0.26067   0.26068   0.26070   0.27910   0.27910
 Alpha virt. eigenvalues --    0.27910   0.28016   0.28017   0.28018   0.28163
 Alpha virt. eigenvalues --    0.30061   0.31117   0.31118   0.31120   0.31719
 Alpha virt. eigenvalues --    0.31719   0.31723   0.31874   0.31876   0.35104
 Alpha virt. eigenvalues --    0.35105   0.35105   0.36989   0.36990   0.36991
 Alpha virt. eigenvalues --    0.37996   0.37998   0.39248   0.39250   0.39251
 Alpha virt. eigenvalues --    0.40744   0.40746   0.40750   0.43734   0.43736
 Alpha virt. eigenvalues --    0.43739   0.46667   0.47320   0.47321   0.47322
 Alpha virt. eigenvalues --    0.47609   0.47615   0.49019   0.50164   0.50164
 Alpha virt. eigenvalues --    0.50166   0.52929   0.52935   0.52936   0.57818
 Alpha virt. eigenvalues --    0.57821   0.60034   0.60660   0.60663   0.60666
 Alpha virt. eigenvalues --    0.61883   0.61885   0.61887   0.62571   0.62571
 Alpha virt. eigenvalues --    0.62573   0.62603   0.63775   0.63778   0.63780
 Alpha virt. eigenvalues --    0.70718   0.70722   0.72325   0.72332   0.72335
 Alpha virt. eigenvalues --    0.73036   0.73037   0.73038   0.73319   0.73320
 Alpha virt. eigenvalues --    0.73321   0.77947   0.77952   0.79646   0.79918
 Alpha virt. eigenvalues --    0.79919   0.79926   0.80148   0.80150   0.80151
 Alpha virt. eigenvalues --    0.83125   0.83132   0.83161   0.83162   0.83163
 Alpha virt. eigenvalues --    0.83192   0.86902   0.86902   0.86907   0.87844
 Alpha virt. eigenvalues --    0.87845   0.87848   0.88353   0.88357   0.89104
 Alpha virt. eigenvalues --    0.89109   0.89110   0.92140   0.92142   0.92143
 Alpha virt. eigenvalues --    0.93316   0.93752   0.93756   0.93756   0.98586
 Alpha virt. eigenvalues --    0.98594   0.98595   0.98665   0.98672   1.01250
 Alpha virt. eigenvalues --    1.01260   1.01915   1.01916   1.01917   1.05349
 Alpha virt. eigenvalues --    1.05351   1.05352   1.05570   1.09506   1.09514
 Alpha virt. eigenvalues --    1.09516   1.12987   1.12992   1.12996   1.13234
 Alpha virt. eigenvalues --    1.13240   1.13242   1.15075   1.15078   1.15079
 Alpha virt. eigenvalues --    1.19397   1.19608   1.19768   1.19771   1.19774
 Alpha virt. eigenvalues --    1.21412   1.21420   1.21420   1.26833   1.26858
 Alpha virt. eigenvalues --    1.28676   1.30169   1.30192   1.30197   1.35632
 Alpha virt. eigenvalues --    1.35638   1.35644   1.35842   1.35845   1.37509
 Alpha virt. eigenvalues --    1.37512   1.37519   1.40014   1.40022   1.44830
 Alpha virt. eigenvalues --    1.44833   1.44847   1.48930   1.48935   1.48940
 Alpha virt. eigenvalues --    1.52774   1.52777   1.52780   1.54563   1.58194
 Alpha virt. eigenvalues --    1.58201   1.58204   1.58835   1.59276   1.59277
 Alpha virt. eigenvalues --    1.59292   1.59312   1.59320   1.66732   1.66735
 Alpha virt. eigenvalues --    1.66737   1.77731   1.85525   1.85527   1.85529
 Alpha virt. eigenvalues --    1.87601   1.88823   1.88824   1.88824   1.89641
 Alpha virt. eigenvalues --    1.89645   1.89649   1.94430   1.94435   1.94437
 Alpha virt. eigenvalues --    1.95714   1.95715   1.97459   1.97462   1.97469
 Alpha virt. eigenvalues --    2.01993   2.05005   2.05006   2.05007   2.05698
 Alpha virt. eigenvalues --    2.05698   2.05700   2.07442   2.07447   2.07454
 Alpha virt. eigenvalues --    2.09560   2.10922   2.10927   2.14202   2.14208
 Alpha virt. eigenvalues --    2.16291   2.16296   2.16300   2.19733   2.19736
 Alpha virt. eigenvalues --    2.19740   2.23270   2.23272   2.23274   2.25874
 Alpha virt. eigenvalues --    2.29962   2.29968   2.29971   2.33519   2.33521
 Alpha virt. eigenvalues --    2.33823   2.33830   2.35560   2.35563   2.35564
 Alpha virt. eigenvalues --    2.39938   2.39950   2.39952   2.40801   2.40803
 Alpha virt. eigenvalues --    2.40806   2.42150   2.42161   2.42164   2.44191
 Alpha virt. eigenvalues --    2.44198   2.44202   2.45563   2.45564   2.52072
 Alpha virt. eigenvalues --    2.52082   2.52085   2.56735   2.65094   2.65097
 Alpha virt. eigenvalues --    2.65099   2.69380   2.69387   2.69391   2.69987
 Alpha virt. eigenvalues --    2.76399   2.76443   2.76450   2.76456   2.80284
 Alpha virt. eigenvalues --    2.80287   2.84350   2.85529   2.86045   2.86058
 Alpha virt. eigenvalues --    2.86059   2.89793   2.89801   2.89803   2.92137
 Alpha virt. eigenvalues --    2.92151   2.93479   2.93481   2.93483   2.94130
 Alpha virt. eigenvalues --    2.94133   2.94137   2.96358   2.96361   2.96364
 Alpha virt. eigenvalues --    2.99732   3.03821   3.03823   3.03825   3.04180
 Alpha virt. eigenvalues --    3.04184   3.05258   3.06352   3.06360   3.06362
 Alpha virt. eigenvalues --    3.07129   3.07130   3.07131   3.16957   3.16965
 Alpha virt. eigenvalues --    3.16969   3.20875   3.20880   3.29558   3.29561
 Alpha virt. eigenvalues --    3.29570   3.30999   3.31007   3.31009   3.39011
 Alpha virt. eigenvalues --    3.39139   3.39141   3.39144   3.46066   3.46069
 Alpha virt. eigenvalues --    3.46072   3.48187   3.48200   3.50396   3.50397
 Alpha virt. eigenvalues --    3.50405   3.65069   3.65073   3.65076   3.66729
 Alpha virt. eigenvalues --    3.80959   3.80962   3.80963   3.82082   3.82085
 Alpha virt. eigenvalues --    3.82086   3.82768   3.82771   3.86555   3.86560
 Alpha virt. eigenvalues --    3.86563   3.94800   4.07768   4.07771   4.07775
 Alpha virt. eigenvalues --    4.09349   4.09360   4.15556   4.15559   4.15563
 Alpha virt. eigenvalues --    4.93354   4.93355   4.93356   4.97233   4.97234
 Alpha virt. eigenvalues --    4.97856   4.97857   4.97859   5.13603   5.13607
 Alpha virt. eigenvalues --    5.13608   5.19183   5.29938   5.29941   5.29946
 Alpha virt. eigenvalues --    5.32828   5.32829   5.32832   5.33166   5.33167
 Alpha virt. eigenvalues --    5.34547   5.45508   5.45517   5.45519   5.58863
 Alpha virt. eigenvalues --    5.58865   5.58867   5.63147   5.63148   5.63148
 Alpha virt. eigenvalues --    5.64760   5.64764   5.67155   5.70613   5.70617
 Alpha virt. eigenvalues --    5.70620   5.77675   5.77676   5.77677   5.78153
 Alpha virt. eigenvalues --    5.78154   5.81780   5.81784   5.81787   5.82470
 Alpha virt. eigenvalues --    5.82471   5.82968   5.82970   5.82971   5.83649
 Alpha virt. eigenvalues --    5.83650   5.83652   5.87253   5.87256   5.87257
 Alpha virt. eigenvalues --    5.91100   5.95596   5.95597   5.95599   5.97172
 Alpha virt. eigenvalues --    5.99638   5.99640   5.99640   6.01111   6.01114
 Alpha virt. eigenvalues --    6.01614   6.01616   6.01617   6.13885   6.13888
 Alpha virt. eigenvalues --    6.13888   6.16470   6.18016   6.18019   6.18024
 Alpha virt. eigenvalues --    6.19918   6.19924   6.22854   6.24890   6.24898
 Alpha virt. eigenvalues --    6.24900   6.28341   6.28343   6.28346   6.36563
 Alpha virt. eigenvalues --    6.36567   6.36570   6.37066   6.37067   6.37069
 Alpha virt. eigenvalues --    6.37132   6.42056   6.42065   6.46023   6.46025
 Alpha virt. eigenvalues --    6.46032   6.49845   6.49856   6.49877   6.64085
 Alpha virt. eigenvalues --    6.64097   6.64588   6.66716   6.66725   6.66731
 Alpha virt. eigenvalues --    6.70467   6.70471   6.70475   6.74929   6.74932
 Alpha virt. eigenvalues --    6.74936   6.75733   6.78523   6.78530   6.78532
 Alpha virt. eigenvalues --    6.84037   6.92414   6.92415   6.92423   6.96815
 Alpha virt. eigenvalues --    6.98617   6.98629   6.98647   7.01972   7.01991
 Alpha virt. eigenvalues --    7.10284   7.10286   7.10287   7.29632   7.29635
 Alpha virt. eigenvalues --    7.29637   7.30811   7.30819   7.31019   7.31024
 Alpha virt. eigenvalues --    7.31026   7.39856   7.39858   7.39859   7.42418
 Alpha virt. eigenvalues --    7.42419   7.42421   7.42966   7.43366   7.43372
 Alpha virt. eigenvalues --    7.49677   7.49679   7.49684   7.55412   7.55414
 Alpha virt. eigenvalues --    7.55420   7.58337   7.59883   7.59896   7.59899
 Alpha virt. eigenvalues --    7.61534   7.61538   7.66004   7.66007   7.68736
 Alpha virt. eigenvalues --    7.68739   7.68740   7.68858   7.68864   7.68866
 Alpha virt. eigenvalues --    7.69375   7.73442   7.73452   7.73452   7.73576
 Alpha virt. eigenvalues --    7.73577   7.73578   7.79167   7.79635   7.79638
 Alpha virt. eigenvalues --    7.79644   7.89204   7.89206   7.89215   7.92587
 Alpha virt. eigenvalues --    7.92590   7.95153   7.95155   7.95160   8.03087
 Alpha virt. eigenvalues --    8.06666   8.06667   8.06668   8.15089   8.15395
 Alpha virt. eigenvalues --    8.15399   8.15400   8.15538   8.15538   8.15544
 Alpha virt. eigenvalues --    8.15659   8.15661   8.20958   8.20965   8.20968
 Alpha virt. eigenvalues --    8.23520   8.23524   8.23526   8.26413   8.26416
 Alpha virt. eigenvalues --    8.29055   8.29062   8.29064   8.29283   8.29290
 Alpha virt. eigenvalues --    8.29290   8.29728   8.29733   8.29734   8.32590
 Alpha virt. eigenvalues --    8.32671   8.32672   8.32675   8.34948   8.34949
 Alpha virt. eigenvalues --    8.52472   8.52475   8.52475   8.53739   8.53743
 Alpha virt. eigenvalues --    8.57266   8.57268   8.57271   8.59980   8.59983
 Alpha virt. eigenvalues --    8.59984   8.62241   8.80985   8.80988   8.83466
 Alpha virt. eigenvalues --    8.83468   8.83470   8.83742   8.83742   8.83746
 Alpha virt. eigenvalues --    8.91772   8.94429   8.94431   8.94435   9.46915
 Alpha virt. eigenvalues --    9.46916   9.46919   9.48541   9.48543   9.50198
 Alpha virt. eigenvalues --    9.50203   9.50204   9.58227   9.58230   9.58238
 Alpha virt. eigenvalues --    9.58334   9.88455   9.88462   9.88462   9.89263
 Alpha virt. eigenvalues --    9.89265   9.89269   9.89395   9.89397   9.93527
 Alpha virt. eigenvalues --    9.93534   9.93540   9.97123   9.99338   9.99345
 Alpha virt. eigenvalues --    9.99347  10.07402  10.07405  10.07732  10.07735
 Alpha virt. eigenvalues --   10.07739  10.14097  10.25107  10.25115  10.25124
 Alpha virt. eigenvalues --   10.34751  10.34767  10.34775  10.44572  11.99757
 Alpha virt. eigenvalues --   11.99773  12.09462  12.09462  12.09466  12.16692
 Alpha virt. eigenvalues --   12.16692  12.16705  12.54742  12.54749  12.54755
 Alpha virt. eigenvalues --   12.69739  28.53645  28.53648  28.53651  28.55044
 Alpha virt. eigenvalues --  147.26359 147.26616 147.26620 147.26624
          Condensed to atoms (all electrons):
               1          2          3          4          5          6
     1  Li   2.316991   0.046218   0.046588   0.046343   0.224366  -0.058409
     2  Li   0.046218   2.316917   0.046520   0.046474   0.224257   0.224370
     3  Li   0.046588   0.046520   2.316865   0.046367   0.224393   0.224241
     4  Li   0.046343   0.046474   0.046367   2.317105  -0.058377   0.224331
     5  C    0.224366   0.224257   0.224393  -0.058377   5.032165   0.034606
     6  C   -0.058409   0.224370   0.224241   0.224331   0.034606   5.031393
     7  C    0.224380  -0.058333   0.224268   0.224270   0.034622   0.034610
     8  C    0.224014   0.224131  -0.058121   0.224279   0.034597   0.034607
     9  H   -0.056969  -0.056885  -0.018518   0.013460   0.204863  -0.005007
    10  H    0.013411  -0.056932  -0.018492  -0.056887  -0.005012   0.205199
    11  H   -0.018527   0.013444  -0.056953  -0.056915  -0.005009   0.001042
    12  H   -0.018461  -0.056833   0.013402  -0.056903  -0.005013   0.001041
    13  H   -0.056902   0.013423  -0.056895  -0.018529   0.001045  -0.005012
    14  H    0.013464  -0.056952  -0.056899  -0.018528   0.001044   0.205072
    15  H   -0.018518  -0.056862  -0.056961   0.013437   0.205000   0.001042
    16  H   -0.056841  -0.056908   0.013408  -0.018480   0.001041  -0.005010
    17  H   -0.056969   0.013428  -0.018492  -0.056913  -0.005009  -0.005013
    18  H   -0.056897  -0.018533  -0.056905   0.013440   0.204948  -0.005007
    19  H   -0.056802  -0.018469   0.013397  -0.056926  -0.005012  -0.005011
    20  H    0.013448  -0.018501  -0.056936  -0.056924  -0.005012   0.205187
               7          8          9         10         11         12
     1  Li   0.224380   0.224014  -0.056969   0.013411  -0.018527  -0.018461
     2  Li  -0.058333   0.224131  -0.056885  -0.056932   0.013444  -0.056833
     3  Li   0.224268  -0.058121  -0.018518  -0.018492  -0.056953   0.013402
     4  Li   0.224270   0.224279   0.013460  -0.056887  -0.056915  -0.056903
     5  C    0.034622   0.034597   0.204863  -0.005012  -0.005009  -0.005013
     6  C    0.034610   0.034607  -0.005007   0.205199   0.001042   0.001041
     7  C    5.031260   0.034608  -0.005009  -0.005010   0.205163  -0.005010
     8  C    0.034608   5.031470   0.001043   0.001045  -0.005006   0.205203
     9  H   -0.005009   0.001043   0.859482   0.002042  -0.000188  -0.000470
    10  H   -0.005010   0.001045   0.002042   0.859320  -0.000470  -0.000442
    11  H    0.205163  -0.005006  -0.000188  -0.000470   0.859364   0.002043
    12  H   -0.005010   0.205203  -0.000470  -0.000442   0.002043   0.859254
    13  H    0.205204  -0.005012  -0.000471  -0.000185   0.022274  -0.000185
    14  H   -0.005010  -0.005008  -0.000471   0.022291  -0.000470  -0.000471
    15  H   -0.005010  -0.005013   0.022319  -0.000470   0.002041   0.002044
    16  H   -0.005011   0.205229  -0.000442  -0.000471  -0.000184   0.022232
    17  H    0.205094   0.001042   0.002041   0.002043   0.022291  -0.000470
    18  H    0.001043  -0.005011   0.022334  -0.000186  -0.000471  -0.000183
    19  H    0.001039   0.205242  -0.000469  -0.000470  -0.000470   0.022232
    20  H    0.001042  -0.005006  -0.000184   0.022247  -0.000443  -0.000471
              13         14         15         16         17         18
     1  Li  -0.056902   0.013464  -0.018518  -0.056841  -0.056969  -0.056897
     2  Li   0.013423  -0.056952  -0.056862  -0.056908   0.013428  -0.018533
     3  Li  -0.056895  -0.056899  -0.056961   0.013408  -0.018492  -0.056905
     4  Li  -0.018529  -0.018528   0.013437  -0.018480  -0.056913   0.013440
     5  C    0.001045   0.001044   0.205000   0.001041  -0.005009   0.204948
     6  C   -0.005012   0.205072   0.001042  -0.005010  -0.005013  -0.005007
     7  C    0.205204  -0.005010  -0.005010  -0.005011   0.205094   0.001043
     8  C   -0.005012  -0.005008  -0.005013   0.205229   0.001042  -0.005011
     9  H   -0.000471  -0.000471   0.022319  -0.000442   0.002041   0.022334
    10  H   -0.000185   0.022291  -0.000470  -0.000471   0.002043  -0.000186
    11  H    0.022274  -0.000470   0.002041  -0.000184   0.022291  -0.000471
    12  H   -0.000185  -0.000471   0.002044   0.022232  -0.000470  -0.000183
    13  H    0.859286   0.002045  -0.000471   0.002041   0.022285  -0.000443
    14  H    0.002045   0.859366  -0.000443   0.002041  -0.000183  -0.000471
    15  H   -0.000471  -0.000443   0.859399  -0.000469  -0.000188   0.022299
    16  H    0.002041   0.002041  -0.000469   0.859303  -0.000470  -0.000470
    17  H    0.022285  -0.000183  -0.000188  -0.000470   0.859354  -0.000472
    18  H   -0.000443  -0.000471   0.022299  -0.000470  -0.000472   0.859347
    19  H   -0.000470  -0.000188  -0.000182   0.022227  -0.000442   0.002044
    20  H   -0.000471   0.022277  -0.000470  -0.000188  -0.000470   0.002043
              19         20
     1  Li  -0.056802   0.013448
     2  Li  -0.018469  -0.018501
     3  Li   0.013397  -0.056936
     4  Li  -0.056926  -0.056924
     5  C   -0.005012  -0.005012
     6  C   -0.005011   0.205187
     7  C    0.001039   0.001042
     8  C    0.205242  -0.005006
     9  H   -0.000469  -0.000184
    10  H   -0.000470   0.022247
    11  H   -0.000470  -0.000443
    12  H    0.022232  -0.000471
    13  H   -0.000470  -0.000471
    14  H   -0.000188   0.022277
    15  H   -0.000182  -0.000470
    16  H    0.022227  -0.000188
    17  H   -0.000442  -0.000470
    18  H    0.002044   0.002043
    19  H    0.859259   0.002041
    20  H    0.002041   0.859325
 Mulliken charges:
               1
     1  Li   0.286071
     2  Li   0.286027
     3  Li   0.285722
     4  Li   0.285876
     5  C   -0.338503
     6  C   -0.338273
     7  C   -0.338210
     8  C   -0.338334
     9  H    0.017500
    10  H    0.017429
    11  H    0.017444
    12  H    0.017461
    13  H    0.017441
    14  H    0.017495
    15  H    0.017475
    16  H    0.017420
    17  H    0.017514
    18  H    0.017550
    19  H    0.017429
    20  H    0.017464
 Sum of Mulliken charges =  -0.00000
 Mulliken charges with hydrogens summed into heavy atoms:
               1
     1  Li   0.286071
     2  Li   0.286027
     3  Li   0.285722
     4  Li   0.285876
     5  C   -0.285978
     6  C   -0.285885
     7  C   -0.285809
     8  C   -0.286024
 APT charges:
               1
     1  Li   0.598274
     2  Li   0.598367
     3  Li   0.598284
     4  Li   0.598452
     5  C   -0.441449
     6  C   -0.441533
     7  C   -0.441500
     8  C   -0.441525
     9  H   -0.052267
    10  H   -0.052313
    11  H   -0.052278
    12  H   -0.052321
    13  H   -0.052270
    14  H   -0.052337
    15  H   -0.052247
    16  H   -0.052238
    17  H   -0.052289
    18  H   -0.052268
    19  H   -0.052268
    20  H   -0.052273
 Sum of APT charges =   0.00000
 APT charges with hydrogens summed into heavy atoms:
               1
     1  Li   0.598274
     2  Li   0.598367
     3  Li   0.598284
     4  Li   0.598452
     5  C   -0.598231
     6  C   -0.598455
     7  C   -0.598336
     8  C   -0.598353
 Electronic spatial extent (au):  <R**2>=            949.9261
 Charge=              0.0000 electrons
 Dipole moment (field-independent basis, Debye):
    X=             -0.0009    Y=              0.0004    Z=             -0.0000  Tot=              0.0010
 Quadrupole moment (field-independent basis, Debye-Ang):
   XX=            -46.3436   YY=            -46.3389   ZZ=            -46.3391
   XY=             -0.0035   XZ=             -0.0018   YZ=             -0.0020
 Traceless Quadrupole moment (field-independent basis, Debye-Ang):
   XX=             -0.0031   YY=              0.0016   ZZ=              0.0015
   XY=             -0.0035   XZ=             -0.0018   YZ=             -0.0020
 Octapole moment (field-independent basis, Debye-Ang**2):
  XXX=            -11.4748  YYY=            -14.6035  ZZZ=             14.0215  XYY=             -5.8746
  XXY=             16.9731  XXZ=              1.3082  XZZ=             17.3392  YZZ=             -2.3622
  YYZ=            -15.3306  XYZ=            -12.4470
 Hexadecapole moment (field-independent basis, Debye-Ang**3):
 XXXX=           -525.5918 YYYY=           -526.2363 ZZZZ=           -526.4458 XXXY=              4.0225
 XXXZ=              2.6389 YYYX=             -2.3115 YYYZ=             -4.3300 ZZZX=             -3.8403
 ZZZY=              2.7503 XXYY=           -176.6126 XXZZ=           -176.3507 YYZZ=           -175.5134
 XXYZ=              1.5651 YYXZ=              1.1856 ZZXY=             -1.7382
 N-N= 2.052199630326D+02 E-N=-8.495331861082D+02  KE= 1.883487299412D+02
  Exact polarizability:     104.553      -0.001     104.555       0.006       0.007     104.545
 Approx polarizability:     159.358      -0.003     159.367       0.000      -0.003     159.361
   1 Symmetry operations used in ECPInt.
 ECPInt:  NShTT=   28920 NPrTT=   68284 LenC2=   27615 LenP2D=   53734.
 LDataN:  DoStor=T MaxTD1=10 Len=  848
 Calling FoFJK, ICntrl=    100527 FMM=F ISym2X=0 I1Cent= 0 IOpClX= 0 NMat=1 NMatS=1 NMatT=0.
 Full mass-weighted force constant matrix:
 Low frequencies ---   -6.5358   -0.0002    0.0003    0.0004    7.8791   10.7296
 Low frequencies ---  134.4754  134.4856  159.2803
 Diagonal vibrational polarizability:
       46.5804332      46.5794660      46.5500291
 Harmonic frequencies (cm**-1), IR intensities (KM/Mole), Raman scattering
 activities (A**4/AMU), depolarization ratios for plane and unpolarized
 incident light, reduced masses (AMU), force constants (mDyne/A),
 and normal coordinates:
                      1                      2                      3
                      A                      A                      A
 Frequencies --    134.4749               134.4839               159.2798
 Red. masses --      1.9701                 1.9708                 1.0090
 Frc consts  --      0.0210                 0.0210                 0.0151
 IR Inten    --      0.0003                 0.0002                 0.0002
  Atom  AN      X      Y      Z        X      Y      Z        X      Y      Z
     1   3     0.05  -0.02   0.02     0.03   0.02  -0.05    -0.00   0.00  -0.00
     2   3    -0.03  -0.05   0.01    -0.04   0.03   0.03     0.00  -0.00  -0.00
     3   3     0.03   0.05   0.00     0.01  -0.01   0.06    -0.00  -0.00   0.00
     4   3    -0.05   0.02  -0.03     0.01  -0.05  -0.03    -0.00   0.00  -0.00
     5   6    -0.11   0.04  -0.08     0.02  -0.11  -0.08    -0.00   0.00  -0.00
     6   6     0.12  -0.05   0.05     0.07   0.04  -0.12     0.00   0.00  -0.00
     7   6    -0.08  -0.11   0.02    -0.10   0.08   0.06     0.00  -0.00  -0.00
     8   6     0.07   0.12   0.00     0.01  -0.01   0.14    -0.00  -0.00   0.01
     9   1    -0.10   0.15  -0.22    -0.04  -0.25  -0.07    -0.08  -0.09  -0.17
    10   1     0.24   0.07   0.16     0.12   0.14  -0.18    -0.04  -0.17   0.37
    11   1    -0.07  -0.21   0.17    -0.21   0.15   0.00    -0.18  -0.01   0.09
    12   1     0.27   0.12  -0.02     0.08  -0.06   0.23     0.03   0.11  -0.24
    13   1    -0.21  -0.17  -0.12    -0.20   0.16   0.04     0.09  -0.18  -0.07
    14   1     0.20  -0.11   0.07     0.08  -0.10  -0.28    -0.33   0.16  -0.19
    15   1    -0.18   0.08  -0.15     0.14  -0.09  -0.25     0.16  -0.08   0.10
    16   1    -0.01   0.28   0.03     0.12  -0.08   0.22     0.11   0.12   0.23
    17   1    -0.13  -0.20   0.06    -0.08   0.11   0.27     0.11   0.18  -0.03
    18   1    -0.29  -0.03  -0.03    -0.01  -0.23  -0.10    -0.09   0.18   0.07
    19   1     0.10   0.22   0.01    -0.14   0.07   0.26    -0.14  -0.24   0.04
    20   1     0.19  -0.21   0.02     0.13   0.18  -0.15     0.37   0.01  -0.18
                      4                      5                      6
                      A                      A                      A
 Frequencies --    161.6529               162.3798               163.2568
 Red. masses --      1.0207                 1.0208                 1.0211
 Frc consts  --      0.0157                 0.0159                 0.0160
 IR Inten    --      0.0000                 0.0001                 0.0002
  Atom  AN      X      Y      Z        X      Y      Z        X      Y      Z
     1   3    -0.00  -0.00   0.00     0.00   0.00  -0.00     0.01  -0.00   0.00
     2   3     0.01   0.00  -0.00     0.00  -0.00  -0.00    -0.00   0.00   0.00
     3   3    -0.00  -0.00   0.00    -0.00  -0.00   0.00    -0.00  -0.00  -0.00
     4   3    -0.00   0.00  -0.00    -0.00   0.00   0.00    -0.00   0.00  -0.00
     5   6    -0.01   0.00  -0.01    -0.00   0.02   0.01    -0.00   0.00   0.00
     6   6    -0.00  -0.00   0.01     0.01   0.01  -0.02     0.02  -0.01   0.01
     7   6     0.02   0.01  -0.01     0.00  -0.01  -0.00    -0.01   0.01   0.00
     8   6    -0.00  -0.01   0.01    -0.00  -0.01   0.01    -0.01  -0.01  -0.01
     9   1     0.03   0.06   0.07     0.06   0.11   0.14    -0.19  -0.22  -0.40
    10   1    -0.04  -0.16   0.36    -0.00  -0.04   0.08     0.03   0.02  -0.01
    11   1     0.12   0.01  -0.06     0.41  -0.01  -0.19     0.22   0.03  -0.12
    12   1    -0.04  -0.17   0.38     0.02   0.11  -0.25    -0.04  -0.06   0.09
    13   1    -0.01   0.10   0.04    -0.19   0.37   0.15    -0.12   0.24   0.10
    14   1    -0.31   0.15  -0.17    -0.08   0.04  -0.08     0.05  -0.03   0.02
    15   1    -0.11   0.05  -0.08    -0.15   0.08  -0.05     0.39  -0.19   0.23
    16   1    -0.14  -0.20  -0.30     0.11   0.11   0.24    -0.05  -0.07  -0.11
    17   1    -0.03  -0.08  -0.01    -0.22  -0.41   0.04    -0.13  -0.21   0.04
    18   1     0.02  -0.11  -0.05     0.06  -0.11  -0.04    -0.21   0.43   0.17
    19   1     0.18   0.34  -0.02    -0.15  -0.27   0.04     0.05   0.08  -0.03
    20   1     0.34   0.00  -0.16     0.12   0.02  -0.07    -0.00  -0.02   0.02
                      7                      8                      9
                      A                      A                      A
 Frequencies --    199.9793               200.0890               200.2147
 Red. masses --      2.0113                 2.0109                 2.0121
 Frc consts  --      0.0474                 0.0474                 0.0475
 IR Inten    --      5.1825                 5.2594                 5.2286
  Atom  AN      X      Y      Z        X      Y      Z        X      Y      Z
     1   3     0.01   0.05  -0.08     0.10  -0.01   0.00    -0.00   0.03   0.04
     2   3     0.03   0.06  -0.04     0.09  -0.01  -0.02    -0.01   0.08   0.04
     3   3     0.01   0.06  -0.08     0.06   0.01   0.01     0.03   0.07   0.06
     4   3    -0.02   0.04  -0.05     0.08  -0.03   0.02     0.00   0.08   0.07
     5   6     0.14   0.06  -0.05    -0.02   0.09  -0.09     0.01  -0.08  -0.09
     6   6     0.00  -0.01   0.12    -0.11   0.04   0.01     0.04   0.16   0.05
     7   6    -0.10  -0.04  -0.10    -0.05  -0.01   0.12     0.05  -0.11   0.05
     8   6    -0.04  -0.05   0.10     0.11  -0.12  -0.04    -0.11  -0.03  -0.06
     9   1     0.13  -0.03   0.06     0.00   0.24  -0.26    -0.07  -0.24  -0.11
    10   1    -0.00  -0.06   0.25    -0.29  -0.16  -0.10     0.06   0.18   0.03
    11   1    -0.10  -0.13   0.04    -0.17  -0.00   0.16     0.17  -0.25   0.22
    12   1    -0.11  -0.10   0.22    -0.02  -0.11  -0.04    -0.36   0.01  -0.11
    13   1    -0.23  -0.09  -0.22    -0.25   0.02   0.00     0.05  -0.22  -0.04
    14   1     0.04   0.12   0.33    -0.22   0.19   0.07     0.05   0.11  -0.02
    15   1     0.18   0.03  -0.01    -0.13   0.13  -0.13     0.16  -0.04  -0.33
    16   1     0.14  -0.25   0.17     0.13  -0.19  -0.07    -0.11  -0.14  -0.14
    17   1    -0.15  -0.12  -0.05    -0.07  -0.03   0.35     0.00  -0.20  -0.12
    18   1     0.27   0.10  -0.09    -0.23   0.05  -0.03    -0.08  -0.25  -0.09
    19   1    -0.23  -0.04   0.23     0.12  -0.19  -0.06    -0.02  -0.20  -0.16
    20   1    -0.05  -0.27   0.14    -0.22   0.17   0.07     0.07   0.20   0.03
                     10                     11                     12
                      A                      A                      A
 Frequencies --    332.3508               332.6873               332.8235
 Red. masses --      4.1413                 4.1403                 4.1402
 Frc consts  --      0.2695                 0.2700                 0.2702
 IR Inten    --     76.3407                76.3314                76.5371
  Atom  AN      X      Y      Z        X      Y      Z        X      Y      Z
     1   3     0.09   0.26   0.10    -0.03  -0.25  -0.09     0.06   0.32   0.15
     2   3     0.05   0.01   0.03     0.15  -0.06   0.25     0.18  -0.07   0.40
     3   3     0.21  -0.11  -0.02     0.39  -0.24  -0.04    -0.09   0.07   0.05
     4   3     0.29   0.28  -0.28    -0.05  -0.07   0.05    -0.11  -0.09   0.15
     5   6    -0.14  -0.12   0.14     0.03   0.02  -0.03     0.05   0.05  -0.05
     6   6    -0.02  -0.11  -0.05     0.02   0.10   0.05    -0.03  -0.14  -0.07
     7   6    -0.01   0.00  -0.03    -0.06   0.02  -0.12    -0.09   0.02  -0.18
     8   6    -0.08   0.05   0.01    -0.18   0.10   0.03     0.05  -0.03  -0.00
     9   1    -0.13  -0.07   0.05     0.08   0.24  -0.19     0.00  -0.04  -0.11
    10   1    -0.12  -0.24  -0.07    -0.11  -0.03  -0.09    -0.02  -0.09  -0.15
    11   1    -0.04  -0.09   0.13    -0.16   0.12  -0.23     0.01  -0.06  -0.08
    12   1    -0.29   0.03   0.06    -0.08   0.11  -0.02    -0.12   0.03  -0.09
    13   1    -0.21  -0.04  -0.21    -0.07   0.10  -0.06    -0.02  -0.04  -0.17
    14   1    -0.07   0.06   0.09    -0.06   0.13  -0.01    -0.05  -0.23  -0.21
    15   1    -0.12  -0.08   0.04    -0.13   0.05   0.03     0.14   0.09  -0.25
    16   1     0.06  -0.17   0.01    -0.24   0.19   0.01    -0.05  -0.00  -0.11
    17   1    -0.05  -0.08   0.10    -0.02   0.08   0.08    -0.11  -0.01  -0.30
    18   1    -0.22  -0.16   0.15    -0.15   0.03   0.04    -0.10  -0.11  -0.02
    19   1    -0.15  -0.05   0.04    -0.08   0.10  -0.03     0.22  -0.15  -0.14
    20   1    -0.11  -0.11  -0.01    -0.03   0.30   0.08     0.01   0.07  -0.08
                     13                     14                     15
                      A                      A                      A
 Frequencies --    336.6997               342.3418               342.6800
 Red. masses --      4.1114                 3.0564                 3.0609
 Frc consts  --      0.2746                 0.2110                 0.2118
 IR Inten    --      0.1605                 0.2058                 0.1325
  Atom  AN      X      Y      Z        X      Y      Z        X      Y      Z
     1   3    -0.02  -0.06  -0.04     0.19   0.07  -0.26    -0.12   0.00   0.06
     2   3     0.03  -0.02   0.04    -0.01  -0.15  -0.03     0.31   0.01  -0.17
     3   3    -0.05   0.03   0.03    -0.11  -0.21   0.11     0.01  -0.03   0.30
     4   3     0.02   0.02  -0.02    -0.10   0.28   0.18    -0.23   0.03  -0.19
     5   6    -0.15  -0.13   0.15    -0.01   0.05   0.02    -0.03   0.01  -0.04
     6   6     0.05   0.24   0.11     0.03   0.02  -0.04    -0.02  -0.01   0.00
     7   6    -0.11   0.03  -0.23     0.00  -0.03   0.01     0.05  -0.00  -0.01
     8   6     0.23  -0.13  -0.03    -0.02  -0.03   0.02     0.01  -0.00   0.05
     9   1    -0.15  -0.11   0.14     0.08   0.28  -0.02    -0.05   0.07  -0.24
    10   1     0.04   0.23   0.10     0.15   0.19  -0.12    -0.07  -0.05  -0.06
    11   1    -0.10   0.02  -0.22     0.00  -0.11   0.12     0.20   0.00  -0.09
    12   1     0.23  -0.13  -0.02    -0.17  -0.08   0.13     0.09  -0.05   0.15
    13   1    -0.09   0.03  -0.21     0.01  -0.14  -0.07     0.30  -0.04   0.13
    14   1     0.05   0.22   0.09     0.09  -0.19  -0.25     0.00   0.04   0.09
    15   1    -0.15  -0.13   0.15    -0.20   0.03   0.25    -0.05   0.06  -0.16
    16   1     0.22  -0.11  -0.03     0.09  -0.24  -0.00     0.16  -0.07   0.19
    17   1    -0.11   0.03  -0.23     0.01  -0.03  -0.07     0.08   0.04  -0.30
    18   1    -0.14  -0.11   0.15    -0.01   0.23   0.06    -0.27  -0.07   0.02
    19   1     0.20  -0.11  -0.01    -0.11  -0.05   0.07    -0.20   0.07   0.21
    20   1     0.05   0.23   0.11     0.13   0.16  -0.09    -0.13  -0.01   0.06
                     16                     17                     18
                      A                      A                      A
 Frequencies --    342.8256               376.3554               376.5015
 Red. masses --      3.0166                 1.4120                 1.4197
 Frc consts  --      0.2089                 0.1178                 0.1186
 IR Inten    --      0.1693                 0.0014                 0.0016
  Atom  AN      X      Y      Z        X      Y      Z        X      Y      Z
     1   3     0.26  -0.13   0.19    -0.04  -0.01   0.05     0.02  -0.03   0.06
     2   3     0.02   0.30   0.05    -0.02   0.03   0.01     0.05   0.07  -0.02
     3   3    -0.15  -0.20  -0.12     0.03   0.06  -0.04    -0.02  -0.03   0.01
     4   3    -0.14   0.04  -0.09     0.04  -0.07  -0.02    -0.05   0.00  -0.05
     5   6    -0.02   0.01  -0.01     0.04  -0.08  -0.03    -0.06  -0.01  -0.07
     6   6     0.04  -0.02   0.03    -0.05  -0.02   0.06     0.03  -0.04   0.06
     7   6    -0.00   0.05  -0.00    -0.02   0.04   0.02     0.06   0.08  -0.02
     8   6    -0.01  -0.04  -0.02     0.03   0.07  -0.05    -0.02  -0.04   0.02
     9   1     0.01   0.10  -0.07     0.18   0.32  -0.19    -0.04  -0.10   0.22
    10   1     0.19   0.12   0.19     0.11   0.21   0.01    -0.06  -0.08  -0.16
    11   1    -0.13   0.21  -0.19     0.11  -0.07   0.12     0.08  -0.15   0.34
    12   1    -0.26  -0.00  -0.09    -0.22   0.02   0.09     0.15  -0.02  -0.05
    13   1     0.08   0.14   0.12     0.04  -0.05  -0.00    -0.25  -0.05  -0.34
    14   1     0.17  -0.07   0.12    -0.00  -0.31  -0.24    -0.07  -0.13  -0.17
    15   1    -0.12   0.07  -0.11    -0.29  -0.09   0.26    -0.04  -0.11   0.21
    16   1     0.03  -0.16  -0.06     0.30  -0.28   0.02    -0.15   0.16   0.01
    17   1     0.08   0.20   0.10    -0.06  -0.03  -0.19    -0.05  -0.12   0.07
    18   1    -0.14  -0.10   0.00    -0.08   0.10   0.06     0.33   0.22  -0.16
    19   1     0.01  -0.24  -0.09    -0.20  -0.00   0.09     0.08   0.02  -0.03
    20   1     0.10  -0.29   0.00     0.11   0.17  -0.02     0.03   0.36   0.06
                     19                     20                     21
                      A                      A                      A
 Frequencies --    376.6333               382.1926               382.2957
 Red. masses --      1.4144                 4.0697                 4.0668
 Frc consts  --      0.1182                 0.3502                 0.3502
 IR Inten    --      0.0007                 0.0072                 0.0043
  Atom  AN      X      Y      Z        X      Y      Z        X      Y      Z
     1   3    -0.07   0.02  -0.01     0.23   0.04  -0.19    -0.19   0.13  -0.19
     2   3     0.06  -0.04  -0.03    -0.26   0.08   0.14     0.08   0.30   0.00
     3   3     0.03   0.03   0.07     0.09   0.08   0.29    -0.13  -0.26   0.10
     4   3    -0.02  -0.01  -0.03    -0.07  -0.20  -0.24     0.24  -0.18   0.09
     5   6    -0.02  -0.01  -0.03     0.02   0.08   0.09    -0.10   0.08  -0.04
     6   6    -0.08   0.02  -0.01    -0.10  -0.02   0.09     0.08  -0.06   0.09
     7   6     0.06  -0.05  -0.04     0.12  -0.03  -0.06    -0.04  -0.13   0.00
     8   6     0.04   0.04   0.09    -0.04  -0.03  -0.12     0.06   0.11  -0.05
     9   1     0.01  -0.00   0.06    -0.05  -0.06   0.04    -0.16  -0.16   0.18
    10   1     0.17   0.30   0.17     0.05   0.20   0.07    -0.05  -0.18  -0.10
    11   1    -0.19   0.09  -0.15    -0.05   0.01  -0.05    -0.12   0.06  -0.26
    12   1    -0.36   0.13  -0.07     0.19  -0.10  -0.01    -0.19   0.09   0.03
    13   1    -0.17   0.09  -0.10    -0.12   0.04  -0.19     0.10  -0.01   0.19
    14   1     0.08  -0.16  -0.04    -0.04  -0.27  -0.14    -0.03  -0.06  -0.04
    15   1    -0.05  -0.06   0.13     0.17   0.14  -0.18     0.06   0.03  -0.04
    16   1    -0.08  -0.04  -0.11     0.07  -0.03   0.01     0.24  -0.15  -0.03
    17   1     0.09   0.01   0.41     0.12  -0.04   0.27     0.04   0.01   0.07
    18   1     0.13   0.12  -0.06    -0.11  -0.11   0.10     0.15   0.10  -0.13
    19   1     0.30  -0.26  -0.16    -0.24   0.15   0.05    -0.07   0.02   0.01
    20   1     0.06  -0.23  -0.08     0.03   0.08   0.02     0.04   0.26   0.11
                     22                     23                     24
                      A                      A                      A
 Frequencies --    457.1534               457.8704               458.1076
 Red. masses --      2.6472                 2.6443                 2.6387
 Frc consts  --      0.3260                 0.3266                 0.3263
 IR Inten    --      2.1438                 2.5239                 2.5459
  Atom  AN      X      Y      Z        X      Y      Z        X      Y      Z
     1   3    -0.18   0.00   0.03     0.03  -0.06   0.16     0.03   0.24   0.10
     2   3    -0.12   0.01   0.13    -0.15  -0.04  -0.19     0.04  -0.17   0.08
     3   3     0.18  -0.17  -0.01    -0.07  -0.04   0.16    -0.14  -0.09  -0.07
     4   3    -0.01   0.17  -0.12     0.21   0.07  -0.04     0.04  -0.07  -0.17
     5   6     0.00   0.10  -0.07     0.12   0.04  -0.02     0.02  -0.04  -0.09
     6   6    -0.09   0.00   0.01     0.01  -0.03   0.09     0.02   0.14   0.06
     7   6    -0.06   0.01   0.08    -0.08  -0.02  -0.11     0.02  -0.09   0.05
     8   6     0.11  -0.10  -0.01    -0.04  -0.02   0.09    -0.08  -0.05  -0.04
     9   1    -0.06  -0.16   0.14     0.12   0.16  -0.23     0.13   0.18  -0.02
    10   1     0.17   0.31   0.13    -0.02  -0.01  -0.15     0.03   0.14   0.08
    11   1     0.16  -0.03   0.03    -0.09   0.08  -0.25    -0.12   0.14  -0.24
    12   1     0.21  -0.08  -0.05    -0.01   0.07  -0.11     0.34  -0.09   0.01
    13   1     0.24  -0.07   0.23     0.05   0.04   0.04     0.10   0.08   0.23
    14   1     0.07  -0.26  -0.12    -0.08  -0.18  -0.22     0.04   0.12   0.06
    15   1     0.19   0.05  -0.09     0.03   0.11  -0.15    -0.18  -0.10   0.26
    16   1     0.02   0.04  -0.01    -0.30   0.21  -0.06    -0.11   0.18   0.09
    17   1    -0.04   0.04  -0.33    -0.03   0.08  -0.13     0.12   0.08   0.20
    18   1     0.23   0.08  -0.15    -0.16  -0.07   0.05     0.15   0.23  -0.08
    19   1     0.16  -0.04  -0.03     0.26  -0.09  -0.13    -0.15   0.21   0.08
    20   1     0.10  -0.12  -0.08     0.06   0.38   0.06     0.03   0.07   0.05
                     25                     26                     27
                      A                      A                      A
 Frequencies --    528.0592               528.1300               551.1057
 Red. masses --      1.6951                 1.6945                 7.0524
 Frc consts  --      0.2785                 0.2785                 1.2620
 IR Inten    --      0.0050                 0.0098                 0.1172
  Atom  AN      X      Y      Z        X      Y      Z        X      Y      Z
     1   3    -0.00  -0.06   0.12    -0.13   0.02   0.01    -0.10  -0.43  -0.21
     2   3     0.05  -0.12  -0.04     0.11   0.06  -0.05     0.21  -0.06   0.44
     3   3     0.02   0.06  -0.12    -0.07  -0.10  -0.06    -0.43   0.24   0.07
     4   3    -0.06   0.11   0.04     0.09   0.01   0.10     0.30   0.27  -0.30
     5   6    -0.04   0.06   0.02     0.05   0.01   0.06     0.04   0.03  -0.04
     6   6    -0.00  -0.03   0.07    -0.08   0.01   0.00    -0.01  -0.05  -0.03
     7   6     0.03  -0.07  -0.02     0.06   0.04  -0.03     0.03  -0.01   0.05
     8   6     0.01   0.04  -0.07    -0.04  -0.06  -0.04    -0.05   0.03   0.01
     9   1    -0.14  -0.26   0.15     0.02   0.06  -0.18     0.02   0.01  -0.01
    10   1     0.00   0.03  -0.12     0.17   0.29   0.14     0.01  -0.02  -0.01
    11   1    -0.18   0.14  -0.24    -0.03  -0.07   0.18     0.00   0.02   0.01
    12   1    -0.04  -0.04   0.11     0.36  -0.09   0.01     0.01   0.02   0.01
    13   1    -0.03   0.10   0.06    -0.25  -0.00  -0.28    -0.02  -0.01   0.00
    14   1    -0.05  -0.21  -0.23     0.08  -0.20  -0.08    -0.01   0.00   0.02
    15   1     0.23   0.06  -0.20     0.04   0.10  -0.21    -0.01   0.01   0.02
    16   1     0.26  -0.21   0.06    -0.07   0.16   0.08    -0.01  -0.01   0.01
    17   1     0.09   0.06   0.29    -0.01  -0.09   0.21     0.02  -0.01   0.01
    18   1     0.07  -0.09  -0.05    -0.28  -0.20   0.12    -0.02   0.00  -0.01
    19   1    -0.27   0.09   0.14    -0.11   0.19   0.08    -0.00   0.00  -0.02
    20   1     0.07   0.33   0.03     0.09  -0.16  -0.08    -0.01   0.00  -0.01
                     28                     29                     30
                      A                      A                      A
 Frequencies --    565.1945               565.6072               565.8350
 Red. masses --      2.5963                 2.6090                 2.6107
 Frc consts  --      0.4886                 0.4918                 0.4925
 IR Inten    --    272.3118               271.9551               271.7479
  Atom  AN      X      Y      Z        X      Y      Z        X      Y      Z
     1   3     0.24  -0.02  -0.07    -0.04   0.10  -0.19     0.05  -0.07   0.11
     2   3     0.22  -0.03  -0.11     0.06   0.20   0.00    -0.00   0.15   0.02
     3   3     0.03   0.08  -0.05     0.08   0.17  -0.14     0.10   0.12   0.20
     4   3     0.14  -0.13   0.02    -0.13   0.12  -0.01     0.09   0.12   0.21
     5   6    -0.10   0.03   0.02     0.02  -0.09   0.05    -0.04  -0.06  -0.10
     6   6    -0.11   0.01   0.04     0.01  -0.09   0.07    -0.04  -0.04  -0.09
     7   6    -0.11   0.02   0.04    -0.00  -0.10   0.04    -0.03  -0.06  -0.08
     8   6    -0.09   0.00   0.03    -0.01  -0.10   0.06    -0.04  -0.06  -0.10
     9   1    -0.16  -0.23   0.21     0.09   0.17  -0.15     0.05   0.06   0.07
    10   1     0.16   0.34   0.14    -0.03  -0.07  -0.13     0.04   0.01   0.07
    11   1     0.12  -0.02  -0.01    -0.10   0.12  -0.25    -0.13   0.09  -0.26
    12   1     0.05   0.02  -0.02     0.21  -0.04  -0.09     0.35  -0.14   0.03
    13   1     0.22  -0.06   0.23     0.13   0.04   0.25     0.03   0.06   0.06
    14   1     0.04  -0.28  -0.15    -0.07  -0.21  -0.19     0.03   0.03   0.08
    15   1     0.11  -0.01  -0.05    -0.16  -0.05   0.09    -0.18  -0.15   0.29
    16   1    -0.18   0.13   0.02    -0.27   0.24  -0.01     0.04   0.05   0.09
    17   1    -0.09   0.05  -0.39     0.09   0.06   0.11     0.03   0.05   0.09
    18   1     0.13   0.01  -0.06    -0.16  -0.05   0.12     0.24   0.24  -0.13
    19   1     0.02   0.03  -0.03     0.22  -0.04  -0.08    -0.26   0.22   0.12
    20   1     0.09  -0.07  -0.06     0.04   0.30   0.05    -0.04  -0.27  -0.08
                     31                     32                     33
                      A                      A                      A
 Frequencies --   1194.8959              1195.0168              1195.0262
 Red. masses --      1.1608                 1.1608                 1.1608
 Frc consts  --      0.9765                 0.9767                 0.9767
 IR Inten    --     28.3777                28.4377                28.4341
  Atom  AN      X      Y      Z        X      Y      Z        X      Y      Z
     1   3    -0.00  -0.00  -0.00    -0.01   0.00   0.00    -0.00   0.00  -0.01
     2   3    -0.00  -0.01  -0.00    -0.01   0.00   0.00    -0.00   0.00  -0.00
     3   3    -0.00  -0.01  -0.00    -0.00  -0.00   0.00    -0.00   0.00  -0.01
     4   3    -0.00  -0.01  -0.00    -0.01   0.00   0.00    -0.00   0.00  -0.00
     5   6    -0.02  -0.02   0.02    -0.05  -0.04   0.05     0.03   0.03  -0.03
     6   6    -0.02  -0.09  -0.04     0.00   0.01   0.00     0.00   0.00   0.00
     7   6    -0.02   0.01  -0.03     0.00  -0.00   0.00    -0.04   0.01  -0.08
     8   6     0.02  -0.01  -0.00    -0.07   0.04   0.01    -0.04   0.02   0.01
     9   1     0.05   0.16  -0.11     0.09   0.31  -0.22    -0.05  -0.19   0.14
    10   1     0.30   0.35   0.19    -0.03  -0.04  -0.02    -0.00  -0.00   0.00
    11   1     0.06  -0.10   0.12    -0.00   0.01  -0.01     0.18  -0.27   0.34
    12   1    -0.12   0.01  -0.01     0.42  -0.04   0.03     0.23  -0.02   0.02
    13   1     0.12   0.02   0.11    -0.01  -0.00  -0.01     0.35   0.05   0.30
    14   1    -0.05   0.34   0.36     0.01  -0.03  -0.03     0.00  -0.00  -0.00
    15   1     0.11   0.03  -0.17     0.21   0.05  -0.32    -0.13  -0.03   0.20
    16   1    -0.07   0.09  -0.02     0.26  -0.33   0.06     0.14  -0.18   0.04
    17   1     0.01   0.02   0.16     0.00   0.00  -0.01     0.02   0.04   0.46
    18   1     0.17   0.10  -0.04     0.33   0.19  -0.08    -0.21  -0.12   0.05
    19   1    -0.08   0.06   0.07     0.29  -0.19  -0.24     0.16  -0.11  -0.13
    20   1    -0.01   0.50   0.01     0.00  -0.05  -0.00    -0.00   0.00   0.00
                     34                     35                     36
                      A                      A                      A
 Frequencies --   1202.4179              1397.1669              1397.1927
 Red. masses --      1.1561                 1.0611                 1.0611
 Frc consts  --      0.9849                 1.2204                 1.2204
 IR Inten    --      0.0020                 0.0000                 0.0000
  Atom  AN      X      Y      Z        X      Y      Z        X      Y      Z
     1   3    -0.00  -0.01  -0.01     0.00   0.00  -0.00     0.00  -0.00   0.00
     2   3     0.01  -0.00   0.01     0.00  -0.00  -0.00     0.00   0.00  -0.00
     3   3    -0.01   0.01   0.00    -0.00  -0.00   0.00    -0.00  -0.00   0.00
     4   3     0.01   0.01  -0.01    -0.00   0.00   0.00    -0.00   0.00  -0.00
     5   6    -0.03  -0.03   0.03    -0.02   0.03   0.01    -0.03   0.00  -0.03
     6   6     0.01   0.05   0.02     0.02   0.01  -0.03     0.01  -0.01   0.02
     7   6    -0.03   0.01  -0.05     0.01  -0.02  -0.01     0.03   0.03  -0.01
     8   6     0.05  -0.03  -0.01    -0.01  -0.02   0.03    -0.01  -0.02   0.01
     9   1     0.06   0.23  -0.16    -0.05   0.05  -0.26     0.15   0.27   0.20
    10   1    -0.17  -0.20  -0.11     0.01  -0.11   0.37     0.07   0.16  -0.23
    11   1     0.11  -0.16   0.21    -0.04  -0.08   0.12    -0.33   0.08   0.05
    12   1    -0.29   0.03  -0.02    -0.02   0.15  -0.33    -0.03   0.09  -0.21
    13   1     0.22   0.03   0.19    -0.12   0.21   0.08     0.19  -0.04   0.09
    14   1     0.03  -0.19  -0.21     0.08  -0.14  -0.12    -0.22   0.15  -0.06
    15   1     0.16   0.04  -0.24     0.08  -0.09   0.24     0.37  -0.16   0.13
    16   1    -0.18   0.22  -0.04     0.07  -0.18  -0.03     0.06  -0.10   0.02
    17   1     0.01   0.03   0.29     0.08   0.13  -0.11    -0.19  -0.36  -0.02
    18   1     0.24   0.14  -0.06     0.17  -0.35  -0.14    -0.16  -0.16   0.00
    19   1    -0.20   0.13   0.16     0.06   0.29   0.05     0.06   0.21   0.02
    20   1     0.01  -0.28  -0.01    -0.29   0.11   0.13     0.02  -0.15   0.00
                     37                     38                     39
                      A                      A                      A
 Frequencies --   1397.2553              1398.0591              1398.1468
 Red. masses --      1.0611                 1.0594                 1.0593
 Frc consts  --      1.2205                 1.2199                 1.2201
 IR Inten    --      0.0000                 0.0000                 0.0000
  Atom  AN      X      Y      Z        X      Y      Z        X      Y      Z
     1   3     0.00  -0.00   0.00    -0.00   0.00  -0.00    -0.00   0.00   0.00
     2   3    -0.00   0.00   0.00    -0.00   0.00   0.00     0.00   0.00  -0.00
     3   3    -0.00  -0.00  -0.00    -0.00  -0.00   0.00    -0.00  -0.00  -0.00
     4   3     0.00   0.00   0.00     0.00  -0.00  -0.00     0.00   0.00   0.00
     5   6     0.00   0.01   0.01    -0.02   0.03   0.01    -0.02  -0.01  -0.03
     6   6     0.04  -0.01   0.00     0.00  -0.01   0.03     0.03  -0.00  -0.00
     7   6    -0.02   0.02   0.01     0.01  -0.04  -0.01    -0.03  -0.01   0.01
     8   6    -0.02  -0.02  -0.03     0.01   0.02  -0.03     0.02   0.02   0.02
     9   1    -0.07  -0.06  -0.17    -0.02   0.08  -0.19     0.14   0.19   0.26
    10   1     0.14   0.15   0.03     0.05   0.15  -0.29     0.11   0.09   0.12
    11   1     0.21   0.07  -0.19    -0.04  -0.12   0.18     0.35  -0.02  -0.13
    12   1    -0.22  -0.08   0.16     0.01  -0.14   0.32     0.18   0.02  -0.02
    13   1     0.08  -0.28  -0.14    -0.20   0.32   0.11    -0.10  -0.11  -0.14
    14   1    -0.29   0.10  -0.24    -0.19   0.16  -0.00    -0.20   0.04  -0.21
    15   1    -0.08   0.01   0.06     0.12  -0.10   0.23     0.26  -0.09   0.01
    16   1     0.18   0.20   0.37    -0.06   0.18   0.04    -0.17  -0.10  -0.28
    17   1    -0.03  -0.02   0.17     0.13   0.22  -0.17     0.13   0.25   0.10
    18   1     0.12  -0.09  -0.06     0.12  -0.32  -0.12    -0.19   0.01   0.05
    19   1     0.24   0.14  -0.14    -0.05  -0.28  -0.05    -0.21  -0.21   0.10
    20   1    -0.29  -0.13   0.15     0.12  -0.15  -0.04    -0.30  -0.07   0.15
                     40                     41                     42
                      A                      A                      A
 Frequencies --   1407.3243              1407.3891              1407.4124
 Red. masses --      1.0554                 1.0554                 1.0554
 Frc consts  --      1.2316                 1.2317                 1.2317
 IR Inten    --      0.5208                 0.5205                 0.5207
  Atom  AN      X      Y      Z        X      Y      Z        X      Y      Z
     1   3     0.00  -0.00   0.00    -0.00  -0.01  -0.00     0.00   0.00   0.00
     2   3    -0.00   0.00  -0.01    -0.00   0.00  -0.00     0.00  -0.00   0.00
     3   3    -0.00   0.00   0.00     0.00   0.00   0.00    -0.00   0.00  -0.00
     4   3     0.00   0.00  -0.00    -0.00  -0.00   0.00    -0.00  -0.00   0.00
     5   6    -0.03   0.01  -0.02    -0.01  -0.02  -0.02    -0.01   0.03   0.01
     6   6    -0.02   0.02  -0.03    -0.02   0.00   0.00    -0.03  -0.00   0.02
     7   6     0.00   0.02   0.00    -0.02  -0.03   0.00    -0.03   0.02   0.02
     8   6     0.00   0.01  -0.03    -0.02  -0.03  -0.01     0.00  -0.00   0.02
     9   1     0.11   0.23   0.09     0.13   0.14   0.30    -0.04   0.05  -0.22
    10   1    -0.11  -0.23   0.31    -0.06  -0.04  -0.09    -0.09  -0.02  -0.25
    11   1    -0.04   0.06  -0.07     0.24  -0.11   0.03     0.33   0.07  -0.24
    12   1    -0.06  -0.16   0.35    -0.21   0.03  -0.08     0.05   0.09  -0.19
    13   1     0.10  -0.13  -0.03    -0.23   0.15  -0.03     0.05  -0.32  -0.20
    14   1     0.32  -0.22   0.09     0.10  -0.01   0.12     0.12   0.04   0.22
    15   1     0.32  -0.15   0.16     0.19  -0.04  -0.07     0.07  -0.08   0.22
    16   1    -0.00   0.23   0.15     0.21   0.05   0.31    -0.02  -0.13  -0.12
    17   1    -0.08  -0.14   0.06     0.20   0.36  -0.05     0.02   0.07   0.21
    18   1    -0.08  -0.22  -0.03    -0.21   0.12   0.09     0.14  -0.30  -0.12
    19   1     0.03  -0.22  -0.09     0.25   0.32  -0.09    -0.05   0.09   0.07
    20   1    -0.01   0.22  -0.01     0.18   0.02  -0.09     0.36   0.00  -0.18
                     43                     44                     45
                      A                      A                      A
 Frequencies --   2857.8089              2857.8565              2857.9322
 Red. masses --      1.0413                 1.0413                 1.0413
 Frc consts  --      5.0106                 5.0107                 5.0110
 IR Inten    --     45.6953                45.6255                45.7347
  Atom  AN      X      Y      Z        X      Y      Z        X      Y      Z
     1   3     0.00  -0.00   0.00    -0.00  -0.00   0.00    -0.00  -0.00  -0.00
     2   3    -0.00   0.00  -0.00    -0.00   0.00   0.00    -0.00   0.00  -0.00
     3   3    -0.00   0.00   0.00     0.00  -0.00   0.00     0.00   0.00   0.00
     4   3     0.00   0.00   0.00     0.00   0.00  -0.00    -0.00   0.00   0.00
     5   6     0.01   0.01  -0.01     0.02   0.02  -0.02    -0.01  -0.01   0.01
     6   6    -0.00  -0.00  -0.00    -0.00  -0.00  -0.00    -0.01  -0.04  -0.02
     7   6    -0.02   0.01  -0.04    -0.00   0.00  -0.01    -0.00   0.00  -0.01
     8   6    -0.02   0.01   0.00     0.03  -0.02  -0.00     0.01  -0.01  -0.00
     9   1    -0.11   0.06   0.02    -0.37   0.19   0.07     0.20  -0.10  -0.04
    10   1    -0.05   0.03   0.01    -0.04   0.03   0.01    -0.41   0.26   0.07
    11   1     0.10   0.41   0.22     0.02   0.09   0.05     0.02   0.09   0.05
    12   1    -0.04  -0.26  -0.12     0.05   0.34   0.16     0.02   0.15   0.07
    13   1    -0.27  -0.25   0.30    -0.06  -0.06   0.07    -0.06  -0.05   0.06
    14   1     0.03   0.03  -0.03     0.03   0.03  -0.03     0.29   0.28  -0.27
    15   1    -0.03  -0.11  -0.05    -0.09  -0.38  -0.16     0.05   0.21   0.09
    16   1     0.18   0.14  -0.17    -0.24  -0.19   0.22    -0.11  -0.08   0.10
    17   1     0.42  -0.24  -0.04     0.09  -0.05  -0.01     0.09  -0.05  -0.01
    18   1     0.05  -0.02   0.12     0.17  -0.07   0.38    -0.09   0.04  -0.21
    19   1     0.14  -0.05   0.25    -0.18   0.06  -0.32    -0.08   0.03  -0.15
    20   1     0.03  -0.01   0.05     0.02  -0.00   0.04     0.22  -0.04   0.44
                     46                     47                     48
                      A                      A                      A
 Frequencies --   2861.2678              2907.6692              2907.7295
 Red. masses --      1.0409                 1.0936                 1.0936
 Frc consts  --      5.0209                 5.4474                 5.4477
 IR Inten    --      0.0174                 0.0414                 0.0155
  Atom  AN      X      Y      Z        X      Y      Z        X      Y      Z
     1   3     0.00   0.00   0.00     0.00  -0.00   0.00     0.00  -0.00   0.00
     2   3    -0.00   0.00  -0.00    -0.00   0.00   0.00     0.00   0.00  -0.00
     3   3     0.00  -0.00  -0.00     0.00   0.00  -0.00    -0.00  -0.00   0.00
     4   3    -0.00  -0.00   0.00     0.00  -0.00   0.00    -0.00   0.00  -0.00
     5   6     0.02   0.01  -0.02     0.03  -0.03   0.00    -0.03  -0.01  -0.04
     6   6    -0.01  -0.03  -0.01     0.00  -0.01   0.02     0.01  -0.02   0.03
     7   6     0.01  -0.00   0.02    -0.04   0.03   0.02     0.03   0.05  -0.01
     8   6    -0.02   0.01   0.00     0.00   0.01  -0.05    -0.01  -0.02   0.01
     9   1    -0.25   0.13   0.05    -0.37   0.16   0.08     0.13  -0.07  -0.04
    10   1    -0.25   0.16   0.04    -0.05   0.04   0.02    -0.09   0.06   0.03
    11   1    -0.06  -0.24  -0.13    -0.08  -0.26  -0.15    -0.10  -0.37  -0.24
    12   1    -0.04  -0.26  -0.12     0.01   0.07   0.01     0.01   0.15   0.08
    13   1     0.16   0.15  -0.18     0.09   0.11  -0.12    -0.25  -0.24   0.32
    14   1     0.18   0.17  -0.17     0.10   0.09  -0.08     0.15   0.14  -0.11
    15   1    -0.06  -0.26  -0.11     0.07   0.21   0.08     0.06   0.26   0.08
    16   1     0.18   0.14  -0.17    -0.24  -0.16   0.19     0.16   0.11  -0.14
    17   1    -0.24   0.14   0.02     0.43  -0.24  -0.01    -0.01   0.03  -0.00
    18   1     0.11  -0.05   0.26    -0.05   0.02  -0.16     0.15  -0.09   0.39
    19   1     0.14  -0.05   0.25     0.22  -0.07   0.34    -0.04   0.01  -0.06
    20   1     0.13  -0.02   0.27    -0.10   0.00  -0.20    -0.16   0.01  -0.31
                     49                     50                     51
                      A                      A                      A
 Frequencies --   2907.7431              2908.0926              2908.1594
 Red. masses --      1.0936                 1.0925                 1.0925
 Frc consts  --      5.4478                 5.4434                 5.4437
 IR Inten    --      0.0693                 0.0338                 0.0581
  Atom  AN      X      Y      Z        X      Y      Z        X      Y      Z
     1   3     0.00  -0.00  -0.00     0.00   0.00  -0.00    -0.00   0.00  -0.00
     2   3    -0.00   0.00   0.00    -0.00   0.00   0.00     0.00   0.00  -0.00
     3   3    -0.00  -0.00  -0.00    -0.00  -0.00   0.00    -0.00  -0.00  -0.00
     4   3    -0.00   0.00   0.00     0.00  -0.00  -0.00     0.00  -0.00   0.00
     5   6    -0.00   0.03   0.03    -0.01   0.03   0.02    -0.04   0.01  -0.03
     6   6     0.05  -0.00  -0.02    -0.01  -0.02   0.04     0.05  -0.01   0.01
     7   6    -0.02   0.01   0.01     0.02  -0.03  -0.01    -0.03  -0.02   0.01
     8   6    -0.03  -0.04  -0.02     0.00   0.01  -0.05     0.02   0.03   0.01
     9   1     0.21  -0.09  -0.04     0.27  -0.12  -0.05     0.25  -0.12  -0.07
    10   1    -0.33   0.24   0.07     0.01  -0.02   0.01    -0.36   0.26   0.08
    11   1    -0.03  -0.10  -0.06     0.07   0.21   0.12     0.03   0.16   0.11
    12   1     0.03   0.46   0.21     0.01   0.08   0.02    -0.02  -0.31  -0.14
    13   1     0.04   0.05  -0.05    -0.03  -0.05   0.05     0.20   0.20  -0.26
    14   1    -0.21  -0.23   0.19     0.25   0.25  -0.20    -0.09  -0.11   0.10
    15   1    -0.10  -0.36  -0.13    -0.09  -0.30  -0.11     0.02   0.13   0.04
    16   1     0.19   0.12  -0.18    -0.24  -0.16   0.19    -0.13  -0.09   0.13
    17   1     0.18  -0.10  -0.00    -0.29   0.15   0.00     0.16  -0.10  -0.00
    18   1    -0.06   0.04  -0.14    -0.02   0.02  -0.02     0.14  -0.08   0.39
    19   1     0.11  -0.06   0.18     0.23  -0.08   0.35    -0.07   0.04  -0.11
    20   1    -0.01   0.00  -0.05    -0.18   0.01  -0.34    -0.11   0.00  -0.25
                     52                     53                     54
                      A                      A                      A
 Frequencies --   2911.1666              2911.2236              2911.2742
 Red. masses --      1.0917                 1.0917                 1.0917
 Frc consts  --      5.4510                 5.4512                 5.4514
 IR Inten    --    166.8244               166.8110               166.5979
  Atom  AN      X      Y      Z        X      Y      Z        X      Y      Z
     1   3    -0.00  -0.00  -0.00    -0.00  -0.00   0.00    -0.00  -0.00  -0.00
     2   3    -0.00  -0.00  -0.00     0.00  -0.00   0.00    -0.00   0.00  -0.00
     3   3     0.00  -0.00  -0.00    -0.00   0.00   0.00    -0.00   0.00  -0.00
     4   3    -0.00  -0.00   0.00    -0.00  -0.00   0.00    -0.00  -0.00  -0.00
     5   6     0.01  -0.04  -0.03     0.00   0.01   0.01    -0.04   0.01  -0.03
     6   6     0.02  -0.00   0.00    -0.03  -0.02   0.04    -0.04   0.02  -0.02
     7   6     0.01  -0.05  -0.01    -0.04  -0.02   0.02    -0.02  -0.00   0.01
     8   6    -0.02  -0.03  -0.02    -0.01  -0.03   0.04    -0.01  -0.01  -0.03
     9   1    -0.32   0.14   0.06     0.01  -0.00   0.00     0.30  -0.14  -0.08
    10   1    -0.13   0.09   0.03     0.17  -0.13  -0.02     0.35  -0.25  -0.09
    11   1     0.11   0.39   0.24     0.02   0.12   0.08    -0.01   0.00   0.01
    12   1     0.02   0.36   0.17     0.01   0.10   0.06     0.02   0.25   0.11
    13   1     0.07   0.06  -0.10     0.21   0.22  -0.28     0.11   0.12  -0.15
    14   1    -0.04  -0.05   0.04     0.30   0.31  -0.25     0.00   0.03  -0.02
    15   1     0.12   0.43   0.15    -0.03  -0.10  -0.04     0.02   0.12   0.03
    16   1     0.14   0.09  -0.13     0.30   0.20  -0.25    -0.04  -0.03   0.02
    17   1    -0.30   0.15   0.00     0.23  -0.14  -0.00     0.19  -0.11  -0.00
    18   1     0.05  -0.04   0.10    -0.03   0.02  -0.09     0.16  -0.09   0.43
    19   1     0.10  -0.05   0.16    -0.18   0.05  -0.27     0.17  -0.07   0.26
    20   1    -0.04   0.00  -0.09    -0.14   0.00  -0.25     0.17  -0.01   0.37

 -------------------
 - Thermochemistry -
 -------------------
 Temperature   298.150 Kelvin.  Pressure   1.00000 Atm.
 Atom     1 has atomic number  3 and mass   7.01600
 Atom     2 has atomic number  3 and mass   7.01600
 Atom     3 has atomic number  3 and mass   7.01600
 Atom     4 has atomic number  3 and mass   7.01600
 Atom     5 has atomic number  6 and mass  12.00000
 Atom     6 has atomic number  6 and mass  12.00000
 Atom     7 has atomic number  6 and mass  12.00000
 Atom     8 has atomic number  6 and mass  12.00000
 Atom     9 has atomic number  1 and mass   1.00783
 Atom    10 has atomic number  1 and mass   1.00783
 Atom    11 has atomic number  1 and mass   1.00783
 Atom    12 has atomic number  1 and mass   1.00783
 Atom    13 has atomic number  1 and mass   1.00783
 Atom    14 has atomic number  1 and mass   1.00783
 Atom    15 has atomic number  1 and mass   1.00783
 Atom    16 has atomic number  1 and mass   1.00783
 Atom    17 has atomic number  1 and mass   1.00783
 Atom    18 has atomic number  1 and mass   1.00783
 Atom    19 has atomic number  1 and mass   1.00783
 Atom    20 has atomic number  1 and mass   1.00783
 Molecular mass:    88.15792 amu.
 Principal axes and moments of inertia in atomic units:
                           1         2         3
     Eigenvalues --   919.42419 919.55262 919.60397
           X            0.99568   0.08251   0.04266
           Y           -0.08726   0.98830   0.12510
           Z           -0.03184  -0.12828   0.99123
 This molecule is an asymmetric top.
 Rotational symmetry number  1.
 Warning -- assumption of classical behavior for rotation
           may cause significant error
 Rotational temperatures (Kelvin)      0.09420     0.09419     0.09419
 Rotational constants (GHZ):           1.96290     1.96263     1.96252
 Zero-point vibrational energy     365785.1 (Joules/Mol)
                                   87.42473 (Kcal/Mol)
 Warning -- explicit consideration of  30 degrees of freedom as
           vibrations may cause significant error
 Vibrational temperatures:    193.48   193.49   229.17   232.58   233.63
          (Kelvin)            234.89   287.73   287.88   288.06   478.18
                              478.66   478.86   484.44   492.55   493.04
                              493.25   541.49   541.70   541.89   549.89
                              550.04   657.74   658.77   659.11   759.76
                              759.86   792.92   813.19   813.78   814.11
                             1719.19  1719.36  1719.38  1730.01  2010.21
                             2010.25  2010.34  2011.50  2011.62  2024.83
                             2024.92  2024.95  4111.75  4111.82  4111.93
                             4116.73  4183.49  4183.57  4183.59  4184.10
                             4184.19  4188.52  4188.60  4188.67
 
 Zero-point correction=                           0.139320 (Hartree/Particle)
 Thermal correction to Energy=                    0.153986
 Thermal correction to Enthalpy=                  0.154930
 Thermal correction to Gibbs Free Energy=         0.102927
 Sum of electronic and zero-point Energies=           -189.391094
 Sum of electronic and thermal Energies=              -189.376428
 Sum of electronic and thermal Enthalpies=            -189.375483
 Sum of electronic and thermal Free Energies=         -189.427486
 
                     E (Thermal)             CV                S
                      KCal/Mol        Cal/Mol-Kelvin    Cal/Mol-Kelvin
 Total                   96.628             54.194            109.449
 Electronic               0.000              0.000              0.000
 Translational            0.889              2.981             39.342
 Rotational               0.889              2.981             28.143
 Vibrational             94.850             48.232             41.963
 Vibration     1          0.613              1.919              2.881
 Vibration     2          0.613              1.919              2.881
 Vibration     3          0.621              1.892              2.558
 Vibration     4          0.622              1.889              2.530
 Vibration     5          0.622              1.889              2.522
 Vibration     6          0.623              1.888              2.512
 Vibration     7          0.638              1.840              2.133
 Vibration     8          0.638              1.840              2.132
 Vibration     9          0.638              1.840              2.131
 Vibration    10          0.714              1.611              1.249
 Vibration    11          0.715              1.610              1.247
 Vibration    12          0.715              1.610              1.246
 Vibration    13          0.717              1.602              1.228
 Vibration    14          0.721              1.591              1.201
 Vibration    15          0.722              1.590              1.200
 Vibration    16          0.722              1.590              1.199
 Vibration    17          0.747              1.520              1.054
 Vibration    18          0.747              1.520              1.053
 Vibration    19          0.747              1.520              1.053
 Vibration    20          0.752              1.508              1.030
 Vibration    21          0.752              1.508              1.030
 Vibration    22          0.815              1.345              0.774
 Vibration    23          0.816              1.343              0.772
 Vibration    24          0.816              1.343              0.772
 Vibration    25          0.883              1.188              0.592
 Vibration    26          0.883              1.188              0.591
 Vibration    27          0.906              1.137              0.542
 Vibration    28          0.921              1.107              0.514
 Vibration    29          0.921              1.106              0.513
 Vibration    30          0.922              1.105              0.512
                       Q            Log10(Q)             Ln(Q)
 Total Bot       0.453639D-47        -47.343289       -109.011952
 Total V=0       0.548892D+17         16.739487         38.544092
 Vib (Bot)       0.441746D-60        -60.354827       -138.972126
 Vib (Bot)    1  0.151428D+01          0.180206          0.414940
 Vib (Bot)    2  0.151418D+01          0.180176          0.414871
 Vib (Bot)    3  0.126953D+01          0.103642          0.238644
 Vib (Bot)    4  0.124997D+01          0.096901          0.223123
 Vib (Bot)    5  0.124410D+01          0.094855          0.218411
 Vib (Bot)    6  0.123708D+01          0.092396          0.212750
 Vib (Bot)    7  0.997086D+00         -0.001267         -0.002918
 Vib (Bot)    8  0.996498D+00         -0.001524         -0.003508
 Vib (Bot)    9  0.995825D+00         -0.001817         -0.004184
 Vib (Bot)   10  0.561380D+00         -0.250743         -0.577356
 Vib (Bot)   11  0.560696D+00         -0.251273         -0.578577
 Vib (Bot)   12  0.560419D+00         -0.251487         -0.579070
 Vib (Bot)   13  0.552631D+00         -0.257565         -0.593065
 Vib (Bot)   14  0.541591D+00         -0.266328         -0.613244
 Vib (Bot)   15  0.540940D+00         -0.266851         -0.614446
 Vib (Bot)   16  0.540660D+00         -0.267075         -0.614964
 Vib (Bot)   17  0.481632D+00         -0.317285         -0.730576
 Vib (Bot)   18  0.481396D+00         -0.317498         -0.731065
 Vib (Bot)   19  0.481183D+00         -0.317689         -0.731507
 Vib (Bot)   20  0.472347D+00         -0.325739         -0.750041
 Vib (Bot)   21  0.472186D+00         -0.325887         -0.750383
 Vib (Bot)   22  0.372933D+00         -0.428369         -0.986356
 Vib (Bot)   23  0.372129D+00         -0.429306         -0.988514
 Vib (Bot)   24  0.371864D+00         -0.429616         -0.989227
 Vib (Bot)   25  0.303408D+00         -0.517972         -1.192675
 Vib (Bot)   26  0.303348D+00         -0.518059         -1.192875
 Vib (Bot)   27  0.284457D+00         -0.545984         -1.257175
 Vib (Bot)   28  0.273596D+00         -0.562890         -1.296103
 Vib (Bot)   29  0.273286D+00         -0.563383         -1.297238
 Vib (Bot)   30  0.273114D+00         -0.563655         -1.297864
 Vib (V=0)       0.534501D+04          3.727948          8.583918
 Vib (V=0)    1  0.209469D+01          0.321120          0.739407
 Vib (V=0)    2  0.209459D+01          0.321100          0.739359
 Vib (V=0)    3  0.186444D+01          0.270549          0.622961
 Vib (V=0)    4  0.184627D+01          0.266295          0.613166
 Vib (V=0)    5  0.184081D+01          0.265010          0.610207
 Vib (V=0)    6  0.183430D+01          0.263470          0.606663
 Vib (V=0)    7  0.161543D+01          0.208288          0.479600
 Vib (V=0)    8  0.161490D+01          0.208146          0.479275
 Vib (V=0)    9  0.161430D+01          0.207985          0.478902
 Vib (V=0)   10  0.125176D+01          0.097522          0.224553
 Vib (V=0)   11  0.125125D+01          0.097345          0.224145
 Vib (V=0)   12  0.125105D+01          0.097273          0.223980
 Vib (V=0)   13  0.124525D+01          0.095257          0.219338
 Vib (V=0)   14  0.123710D+01          0.092406          0.212772
 Vib (V=0)   15  0.123663D+01          0.092238          0.212386
 Vib (V=0)   16  0.123642D+01          0.092166          0.212220
 Vib (V=0)   17  0.119424D+01          0.077092          0.177510
 Vib (V=0)   18  0.119408D+01          0.077032          0.177373
 Vib (V=0)   19  0.119393D+01          0.076979          0.177250
 Vib (V=0)   20  0.118783D+01          0.074755          0.172129
 Vib (V=0)   21  0.118772D+01          0.074714          0.172036
 Vib (V=0)   22  0.112376D+01          0.050674          0.116682
 Vib (V=0)   23  0.112328D+01          0.050489          0.116255
 Vib (V=0)   24  0.112312D+01          0.050427          0.116114
 Vib (V=0)   25  0.108486D+01          0.035372          0.081447
 Vib (V=0)   26  0.108482D+01          0.035360          0.081418
 Vib (V=0)   27  0.107525D+01          0.031510          0.072556
 Vib (V=0)   28  0.106996D+01          0.029368          0.067622
 Vib (V=0)   29  0.106981D+01          0.029307          0.067482
 Vib (V=0)   30  0.106973D+01          0.029274          0.067406
 Electronic      0.100000D+01          0.000000          0.000000
 Translational   0.325346D+08          7.512346         17.297816
 Rotational      0.315640D+06          5.499192         12.662358
 ***** Axes restored to original set *****
 -------------------------------------------------------------------
 Center     Atomic                   Forces (Hartrees/Bohr)
 Number     Number              X              Y              Z
 -------------------------------------------------------------------
      1        3           0.000022375    0.000000128    0.000053515
      2        3          -0.000005390    0.000054868   -0.000019637
      3        3           0.000008739   -0.000048442   -0.000004810
      4        3           0.000007077    0.000032203   -0.000049555
      5        6          -0.000026623   -0.000044426    0.000036002
      6        6          -0.000011226    0.000012564   -0.000001992
      7        6           0.000018022   -0.000026749   -0.000018035
      8        6           0.000011170    0.000015035    0.000009863
      9        1           0.000006095    0.000003663    0.000020816
     10        1          -0.000003498    0.000017742   -0.000003304
     11        1          -0.000007193    0.000011958   -0.000027566
     12        1          -0.000006230    0.000020849   -0.000003969
     13        1           0.000000587   -0.000022844    0.000007439
     14        1          -0.000018047   -0.000000855    0.000000736
     15        1          -0.000025063    0.000005079   -0.000005257
     16        1          -0.000013792   -0.000007550    0.000020422
     17        1           0.000024456    0.000007968    0.000011392
     18        1          -0.000002986   -0.000022842    0.000000406
     19        1           0.000023447   -0.000007202   -0.000008710
     20        1          -0.000001920   -0.000001148   -0.000017758
 -------------------------------------------------------------------
 Cartesian Forces:  Max     0.000054868 RMS     0.000020694
 FormGI is forming the generalized inverse of G from B-inverse, IUseBI=4.

 GradGradGradGradGradGradGradGradGradGradGradGradGradGradGradGradGradGrad
 Berny optimization.
 Internal  Forces:  Max     0.000043498 RMS     0.000008341
 Search for a local minimum.
 Step number   1 out of a maximum of    2
 All quantities printed in internal units (Hartrees-Bohrs-Radians)
 Second derivative matrix not updated -- analytic derivatives used.
 ITU=  0
     Eigenvalues ---    0.00046   0.00048   0.00048   0.00049   0.00130
     Eigenvalues ---    0.00130   0.00259   0.00260   0.00260   0.00264
     Eigenvalues ---    0.00264   0.00265   0.00707   0.00709   0.00709
     Eigenvalues ---    0.01046   0.01051   0.01053   0.01062   0.01064
     Eigenvalues ---    0.01065   0.01560   0.01562   0.01562   0.01564
     Eigenvalues ---    0.01565   0.01757   0.02019   0.02022   0.02027
     Eigenvalues ---    0.02860   0.02860   0.02861   0.03101   0.03101
     Eigenvalues ---    0.03101   0.03140   0.03140   0.03651   0.03653
     Eigenvalues ---    0.03655   0.03805   0.29501   0.29502   0.29502
     Eigenvalues ---    0.29559   0.29561   0.29646   0.29647   0.29648
     Eigenvalues ---    0.30024   0.30025   0.30027   0.30113
 Angle between quadratic step and forces=  58.29 degrees.
 Linear search not attempted -- first point.
 Iteration  1 RMS(Cart)=  0.00050052 RMS(Int)=  0.00000025
 Iteration  2 RMS(Cart)=  0.00000015 RMS(Int)=  0.00000013
 Variable       Old X    -DE/DX   Delta X   Delta X   Delta X     New X
                                 (Linear)    (Quad)   (Total)
    R1        4.52068   0.00001   0.00000   0.00061   0.00061   4.52129
    R2        4.52240   0.00001   0.00000   0.00057   0.00057   4.52297
    R3        4.52132   0.00002   0.00000   0.00229   0.00229   4.52362
    R4        4.12549   0.00003   0.00000   0.00122   0.00122   4.12671
    R5        4.12544   0.00003   0.00000   0.00182   0.00182   4.12726
    R6        4.12502   0.00001   0.00000  -0.00026  -0.00026   4.12476
    R7        4.52192   0.00001   0.00000   0.00099   0.00099   4.52291
    R8        4.52212   0.00001   0.00000   0.00066   0.00066   4.52277
    R9        4.12489   0.00004   0.00000   0.00229   0.00230   4.12719
   R10        4.12567   0.00001   0.00000  -0.00046  -0.00046   4.12521
   R11        4.12554   0.00001   0.00000   0.00058   0.00058   4.12612
   R12        4.52175   0.00001   0.00000   0.00078   0.00078   4.52253
   R13        4.12542   0.00002   0.00000   0.00052   0.00052   4.12593
   R14        4.12549   0.00004   0.00000   0.00212   0.00212   4.12761
   R15        4.12512   0.00001   0.00000   0.00015   0.00015   4.12527
   R16        4.12497   0.00001   0.00000   0.00046   0.00046   4.12543
   R17        4.12506   0.00002   0.00000   0.00065   0.00065   4.12571
   R18        4.12593   0.00002   0.00000   0.00133   0.00133   4.12726
   R19        2.10031  -0.00001   0.00000  -0.00001  -0.00001   2.10030
   R20        2.10031  -0.00002   0.00000  -0.00008  -0.00008   2.10023
   R21        2.10029  -0.00001   0.00000  -0.00006  -0.00006   2.10023
   R22        2.10026  -0.00001   0.00000  -0.00007  -0.00007   2.10020
   R23        2.10029  -0.00001   0.00000  -0.00001  -0.00001   2.10028
   R24        2.10027  -0.00001   0.00000   0.00003   0.00003   2.10030
   R25        2.10033  -0.00003   0.00000  -0.00010  -0.00010   2.10023
   R26        2.10030  -0.00001   0.00000  -0.00002  -0.00002   2.10028
   R27        2.10033  -0.00002   0.00000  -0.00006  -0.00006   2.10027
   R28        2.10030  -0.00001   0.00000   0.00000   0.00000   2.10031
   R29        2.10031  -0.00003   0.00000  -0.00008  -0.00008   2.10023
   R30        2.10031  -0.00002   0.00000  -0.00009  -0.00009   2.10022
    A1        1.84104  -0.00000   0.00000  -0.00035  -0.00035   1.84069
    A2        1.84114   0.00000   0.00000   0.00014   0.00014   1.84127
    A3        1.84098   0.00000   0.00000  -0.00007  -0.00007   1.84091
    A4        1.90472   0.00000   0.00000  -0.00027  -0.00027   1.90444
    A5        1.90540   0.00001   0.00000   0.00055   0.00055   1.90595
    A6        1.90531  -0.00000   0.00000  -0.00041  -0.00041   1.90491
    A7        1.84097   0.00001   0.00000   0.00057   0.00057   1.84154
    A8        1.84113  -0.00000   0.00000  -0.00024  -0.00024   1.84089
    A9        1.84091   0.00000   0.00000   0.00012   0.00012   1.84103
   A10        1.90514   0.00001   0.00000   0.00001   0.00001   1.90515
   A11        1.90543  -0.00000   0.00000  -0.00010  -0.00010   1.90533
   A12        1.90482   0.00000   0.00000   0.00032   0.00032   1.90514
   A13        1.84049  -0.00000   0.00000  -0.00019  -0.00019   1.84030
   A14        1.84075   0.00000   0.00000   0.00002   0.00002   1.84077
   A15        1.84087   0.00001   0.00000   0.00061   0.00061   1.84148
   A16        1.90503   0.00000   0.00000  -0.00026  -0.00026   1.90476
   A17        1.90485   0.00001   0.00000   0.00053   0.00053   1.90539
   A18        1.90502  -0.00000   0.00000  -0.00002  -0.00002   1.90500
   A19        1.84098   0.00000   0.00000  -0.00023  -0.00023   1.84075
   A20        1.84071   0.00000   0.00000  -0.00002  -0.00002   1.84068
   A21        1.84107  -0.00000   0.00000  -0.00040  -0.00040   1.84067
   A22        1.90522   0.00001   0.00000   0.00038   0.00038   1.90560
   A23        1.90492  -0.00000   0.00000  -0.00025  -0.00025   1.90468
   A24        1.90513  -0.00000   0.00000  -0.00055  -0.00055   1.90458
   A25        2.24600   0.00001   0.00000  -0.00007  -0.00008   2.24592
   A26        1.34158   0.00001   0.00000   0.00057   0.00057   1.34215
   A27        2.24583   0.00000   0.00000   0.00013   0.00013   2.24596
   A28        2.24599   0.00000   0.00000  -0.00053  -0.00053   2.24546
   A29        2.24584   0.00001   0.00000   0.00060   0.00060   2.24643
   A30        1.34158   0.00001   0.00000   0.00054   0.00054   1.34213
   A31        1.34128   0.00001   0.00000  -0.00046  -0.00046   1.34082
   A32        2.24595   0.00000   0.00000  -0.00010  -0.00010   2.24585
   A33        2.24589   0.00000   0.00000   0.00025   0.00025   2.24614
   A34        1.78160  -0.00001   0.00000  -0.00014  -0.00014   1.78146
   A35        1.78159  -0.00001   0.00000  -0.00013  -0.00013   1.78147
   A36        1.78164  -0.00001   0.00000  -0.00003  -0.00003   1.78162
   A37        2.24594   0.00000   0.00000   0.00062   0.00062   2.24656
   A38        2.24590   0.00000   0.00000  -0.00040  -0.00040   2.24549
   A39        1.34144   0.00001   0.00000  -0.00046  -0.00046   1.34098
   A40        1.34158   0.00001   0.00000   0.00074   0.00074   1.34232
   A41        2.24589   0.00000   0.00000   0.00049   0.00049   2.24638
   A42        2.24594   0.00000   0.00000  -0.00036  -0.00036   2.24558
   A43        2.24594   0.00000   0.00000   0.00014   0.00014   2.24609
   A44        1.34135   0.00000   0.00000   0.00007   0.00007   1.34142
   A45        2.24587   0.00001   0.00000   0.00004   0.00004   2.24591
   A46        1.78161  -0.00000   0.00000  -0.00008  -0.00008   1.78153
   A47        1.78165  -0.00001   0.00000  -0.00015  -0.00014   1.78151
   A48        1.78159  -0.00001   0.00000  -0.00022  -0.00022   1.78137
   A49        1.34141   0.00001   0.00000   0.00017   0.00017   1.34158
   A50        2.24589   0.00000   0.00000  -0.00041  -0.00041   2.24548
   A51        2.24598   0.00000   0.00000   0.00056   0.00056   2.24655
   A52        2.24585   0.00000   0.00000  -0.00035  -0.00035   2.24550
   A53        2.24596   0.00001   0.00000   0.00053   0.00053   2.24649
   A54        1.34130   0.00001   0.00000   0.00027   0.00027   1.34157
   A55        2.24591   0.00000   0.00000   0.00063   0.00063   2.24654
   A56        1.34162   0.00001   0.00000  -0.00023  -0.00023   1.34139
   A57        2.24591   0.00000   0.00000  -0.00044  -0.00044   2.24547
   A58        1.78167  -0.00001   0.00000  -0.00019  -0.00019   1.78149
   A59        1.78159  -0.00001   0.00000  -0.00010  -0.00010   1.78149
   A60        1.78157  -0.00001   0.00000  -0.00014  -0.00014   1.78143
   A61        1.34166   0.00000   0.00000  -0.00053  -0.00053   1.34113
   A62        2.24589   0.00000   0.00000   0.00035   0.00035   2.24624
   A63        2.24589   0.00000   0.00000  -0.00013  -0.00013   2.24577
   A64        2.24578   0.00000   0.00000   0.00036   0.00036   2.24614
   A65        2.24604  -0.00000   0.00000  -0.00028  -0.00028   2.24576
   A66        1.34156   0.00000   0.00000   0.00067   0.00067   1.34223
   A67        2.24591   0.00001   0.00000  -0.00048  -0.00048   2.24543
   A68        1.34151   0.00000   0.00000  -0.00012  -0.00012   1.34139
   A69        2.24589   0.00000   0.00000   0.00071   0.00071   2.24660
   A70        1.78160  -0.00000   0.00000  -0.00016  -0.00016   1.78144
   A71        1.78163  -0.00001   0.00000  -0.00017  -0.00017   1.78146
   A72        1.78162  -0.00000   0.00000  -0.00008  -0.00008   1.78154
    D1       -0.00058   0.00000   0.00000   0.00027   0.00027  -0.00031
    D2       -0.00006  -0.00000   0.00000  -0.00075  -0.00075  -0.00080
    D3        0.00062   0.00001   0.00000   0.00094   0.00094   0.00156
    D4        1.48177  -0.00000   0.00000  -0.00120  -0.00120   1.48057
    D5        3.14111  -0.00000   0.00000  -0.00092  -0.00092   3.14019
    D6       -1.48264  -0.00001   0.00000  -0.00053  -0.00053  -1.48317
    D7        0.44136  -0.00000   0.00000  -0.00078  -0.00078   0.44058
    D8        2.10070  -0.00000   0.00000  -0.00050  -0.00050   2.10020
    D9       -2.52305  -0.00000   0.00000  -0.00011  -0.00011  -2.52316
   D10        2.52256   0.00000   0.00000  -0.00111  -0.00111   2.52145
   D11       -2.10129  -0.00000   0.00000  -0.00083  -0.00083  -2.10211
   D12       -0.44186  -0.00000   0.00000  -0.00044  -0.00044  -0.44230
   D13       -3.14114  -0.00000   0.00000   0.00015   0.00015  -3.14098
   D14        1.48273   0.00000   0.00000   0.00020   0.00020   1.48292
   D15       -1.48194  -0.00000   0.00000   0.00007   0.00007  -1.48186
   D16       -2.10066   0.00000   0.00000   0.00045   0.00045  -2.10021
   D17        2.52320   0.00001   0.00000   0.00050   0.00050   2.52370
   D18       -0.44147   0.00000   0.00000   0.00037   0.00037  -0.44109
   D19        2.10127  -0.00000   0.00000   0.00019   0.00019   2.10146
   D20        0.44195   0.00000   0.00000   0.00023   0.00023   0.44218
   D21       -2.52272  -0.00000   0.00000   0.00011   0.00011  -2.52261
   D22       -3.14152   0.00000   0.00000   0.00107   0.00107  -3.14045
   D23       -1.48209  -0.00000   0.00000   0.00038   0.00038  -1.48170
   D24        1.48220   0.00001   0.00000   0.00168   0.00168   1.48388
   D25        2.10121  -0.00000   0.00000   0.00105   0.00105   2.10226
   D26       -2.52254  -0.00000   0.00000   0.00037   0.00037  -2.52218
   D27        0.44175   0.00000   0.00000   0.00166   0.00166   0.44341
   D28       -2.10115   0.00000   0.00000   0.00080   0.00080  -2.10035
   D29       -0.44172  -0.00000   0.00000   0.00012   0.00012  -0.44160
   D30        2.52257   0.00001   0.00000   0.00142   0.00142   2.52399
   D31        0.00049  -0.00001   0.00000  -0.00069  -0.00069  -0.00020
   D32       -0.00025  -0.00000   0.00000  -0.00049  -0.00049  -0.00074
   D33       -1.48193   0.00000   0.00000   0.00092   0.00092  -1.48101
   D34        1.48248   0.00000   0.00000   0.00028   0.00028   1.48276
   D35       -3.14127   0.00000   0.00000   0.00057   0.00057  -3.14070
   D36       -0.44166   0.00000   0.00000   0.00103   0.00103  -0.44063
   D37        2.52275   0.00001   0.00000   0.00039   0.00039   2.52314
   D38       -2.10100   0.00001   0.00000   0.00068   0.00068  -2.10032
   D39       -2.52252  -0.00000   0.00000   0.00070   0.00070  -2.52182
   D40        0.44189  -0.00000   0.00000   0.00005   0.00005   0.44195
   D41        2.10132  -0.00000   0.00000   0.00035   0.00035   2.10167
   D42        1.48279   0.00000   0.00000   0.00027   0.00027   1.48305
   D43       -1.48186  -0.00000   0.00000  -0.00096  -0.00096  -1.48282
   D44       -3.14109   0.00000   0.00000  -0.00038  -0.00038  -3.14148
   D45        0.44204   0.00000   0.00000   0.00014   0.00014   0.44218
   D46       -2.52260  -0.00001   0.00000  -0.00108  -0.00108  -2.52369
   D47        2.10135  -0.00000   0.00000  -0.00051  -0.00051   2.10084
   D48        2.52328   0.00001   0.00000   0.00021   0.00021   2.52349
   D49       -0.44136  -0.00000   0.00000  -0.00101  -0.00101  -0.44238
   D50       -2.10059   0.00000   0.00000  -0.00044  -0.00044  -2.10103
   D51       -1.48262   0.00000   0.00000   0.00130   0.00130  -1.48132
   D52        1.48181   0.00001   0.00000   0.00058   0.00058   1.48239
   D53        3.14117   0.00001   0.00000   0.00105   0.00105  -3.14097
   D54       -0.44202   0.00000   0.00000   0.00096   0.00096  -0.44106
   D55        2.52241   0.00001   0.00000   0.00024   0.00024   2.52265
   D56       -2.10142   0.00001   0.00000   0.00071   0.00071  -2.10071
   D57       -2.52308  -0.00001   0.00000   0.00082   0.00082  -2.52226
   D58        0.44135  -0.00000   0.00000   0.00010   0.00010   0.44145
   D59        2.10071  -0.00000   0.00000   0.00057   0.00057   2.10127
   D60       -0.00022   0.00000   0.00000   0.00071   0.00071   0.00050
   D61       -3.14140  -0.00000   0.00000  -0.00058  -0.00058   3.14120
   D62       -1.48228  -0.00000   0.00000  -0.00111  -0.00111  -1.48339
   D63        1.48266   0.00000   0.00000  -0.00001  -0.00001   1.48264
   D64        2.10146  -0.00000   0.00000  -0.00047  -0.00047   2.10099
   D65       -2.52261  -0.00000   0.00000  -0.00099  -0.00099  -2.52360
   D66        0.44233   0.00000   0.00000   0.00010   0.00010   0.44243
   D67       -2.10103   0.00000   0.00000  -0.00033  -0.00033  -2.10136
   D68       -0.44191   0.00000   0.00000  -0.00085  -0.00085  -0.44276
   D69        2.52303   0.00001   0.00000   0.00024   0.00024   2.52327
   D70       -3.14156   0.00000   0.00000   0.00034   0.00034  -3.14121
   D71        1.48225   0.00000   0.00000  -0.00005  -0.00005   1.48220
   D72       -1.48214   0.00000   0.00000   0.00080   0.00079  -1.48134
   D73       -2.10127   0.00001   0.00000   0.00047   0.00047  -2.10080
   D74        2.52254   0.00001   0.00000   0.00007   0.00007   2.52261
   D75       -0.44185   0.00000   0.00000   0.00092   0.00092  -0.44093
   D76        2.10132  -0.00000   0.00000  -0.00002  -0.00002   2.10131
   D77        0.44195  -0.00000   0.00000  -0.00041  -0.00041   0.44154
   D78       -2.52244  -0.00000   0.00000   0.00044   0.00044  -2.52201
   D79        1.48204   0.00001   0.00000   0.00095   0.00095   1.48299
   D80       -1.48291   0.00000   0.00000   0.00104   0.00104  -1.48187
   D81        3.14118   0.00001   0.00000   0.00109   0.00109  -3.14091
   D82        0.44181  -0.00000   0.00000   0.00045   0.00045   0.44226
   D83       -2.52314  -0.00001   0.00000   0.00053   0.00053  -2.52261
   D84        2.10094  -0.00000   0.00000   0.00059   0.00059   2.10153
   D85        2.52251   0.00001   0.00000   0.00044   0.00044   2.52294
   D86       -0.44244  -0.00000   0.00000   0.00052   0.00052  -0.44192
   D87       -2.10154   0.00000   0.00000   0.00058   0.00058  -2.10096
   D88       -1.48288  -0.00001   0.00000  -0.00133  -0.00133  -1.48421
   D89        3.14112  -0.00001   0.00000  -0.00126  -0.00125   3.13986
   D90        1.48195  -0.00000   0.00000  -0.00102  -0.00102   1.48092
   D91       -0.44226  -0.00000   0.00000  -0.00126  -0.00126  -0.44352
   D92       -2.10145  -0.00000   0.00000  -0.00118  -0.00118  -2.10263
   D93        2.52257   0.00000   0.00000  -0.00095  -0.00095   2.52162
   D94       -2.52325  -0.00000   0.00000  -0.00067  -0.00067  -2.52392
   D95        2.10075  -0.00000   0.00000  -0.00060  -0.00060   2.10015
   D96        0.44158   0.00000   0.00000  -0.00036  -0.00036   0.44122
   D97       -1.48200  -0.00000   0.00000   0.00036   0.00036  -1.48164
   D98       -3.14149   0.00000   0.00000   0.00088   0.00088  -3.14061
   D99        1.48234   0.00000   0.00000   0.00117   0.00117   1.48351
   D100      -2.52251  -0.00001   0.00000   0.00060   0.00060  -2.52190
   D101       2.10119  -0.00000   0.00000   0.00113   0.00113   2.10232
   D102       0.44183   0.00000   0.00000   0.00141   0.00141   0.44324
   D103      -0.44165  -0.00000   0.00000   0.00020   0.00020  -0.44145
   D104      -2.10114   0.00000   0.00000   0.00073   0.00073  -2.10041
   D105       2.52269   0.00000   0.00000   0.00101   0.00101   2.52370
   D106       1.48243  -0.00000   0.00000  -0.00021  -0.00021   1.48222
   D107      -3.14145  -0.00000   0.00000  -0.00043  -0.00043   3.14131
   D108      -1.48211  -0.00001   0.00000  -0.00074  -0.00074  -1.48285
   D109       2.52300   0.00000   0.00000   0.00009   0.00009   2.52309
   D110      -2.10088   0.00000   0.00000  -0.00013  -0.00013  -2.10101
   D111      -0.44154  -0.00000   0.00000  -0.00044  -0.00044  -0.44198
   D112       0.44196  -0.00000   0.00000   0.00010   0.00010   0.44206
   D113       2.10126  -0.00000   0.00000  -0.00012  -0.00012   2.10114
   D114      -2.52258  -0.00001   0.00000  -0.00043  -0.00043  -2.52301
         Item               Value     Threshold  Converged?
 Maximum Force            0.000043     0.000450     YES
 RMS     Force            0.000008     0.000300     YES
 Maximum Displacement     0.002182     0.001800     NO 
 RMS     Displacement     0.000501     0.001200     YES
 Predicted change in Energy=-3.169908D-07
                           ----------------------------
                           ! Non-Optimized Parameters !
                           ! (Angstroms and Degrees)  !
 --------------------------                            --------------------------
 ! Name  Definition              Value          Derivative Info.                !
 --------------------------------------------------------------------------------
 ! R1    R(1,2)                  2.3926         -DE/DX =    0.0                 !
 ! R2    R(1,3)                  2.3935         -DE/DX =    0.0                 !
 ! R3    R(1,4)                  2.3938         -DE/DX =    0.0                 !
 ! R4    R(1,5)                  2.1838         -DE/DX =    0.0                 !
 ! R5    R(1,7)                  2.1841         -DE/DX =    0.0                 !
 ! R6    R(1,8)                  2.1827         -DE/DX =    0.0                 !
 ! R7    R(2,3)                  2.3934         -DE/DX =    0.0                 !
 ! R8    R(2,4)                  2.3933         -DE/DX =    0.0                 !
 ! R9    R(2,5)                  2.184          -DE/DX =    0.0                 !
 ! R10   R(2,6)                  2.183          -DE/DX =    0.0                 !
 ! R11   R(2,8)                  2.1835         -DE/DX =    0.0                 !
 ! R12   R(3,4)                  2.3932         -DE/DX =    0.0                 !
 ! R13   R(3,5)                  2.1833         -DE/DX =    0.0                 !
 ! R14   R(3,6)                  2.1842         -DE/DX =    0.0                 !
 ! R15   R(3,7)                  2.183          -DE/DX =    0.0                 !
 ! R16   R(4,6)                  2.1831         -DE/DX =    0.0                 !
 ! R17   R(4,7)                  2.1832         -DE/DX =    0.0                 !
 ! R18   R(4,8)                  2.1841         -DE/DX =    0.0                 !
 ! R19   R(5,9)                  1.1114         -DE/DX =    0.0                 !
 ! R20   R(5,15)                 1.1114         -DE/DX =    0.0                 !
 ! R21   R(5,18)                 1.1114         -DE/DX =    0.0                 !
 ! R22   R(6,10)                 1.1114         -DE/DX =    0.0                 !
 ! R23   R(6,14)                 1.1114         -DE/DX =    0.0                 !
 ! R24   R(6,20)                 1.1114         -DE/DX =    0.0                 !
 ! R25   R(7,11)                 1.1114         -DE/DX =    0.0                 !
 ! R26   R(7,13)                 1.1114         -DE/DX =    0.0                 !
 ! R27   R(7,17)                 1.1114         -DE/DX =    0.0                 !
 ! R28   R(8,12)                 1.1114         -DE/DX =    0.0                 !
 ! R29   R(8,16)                 1.1114         -DE/DX =    0.0                 !
 ! R30   R(8,19)                 1.1114         -DE/DX =    0.0                 !
 ! A1    A(2,1,7)              105.4637         -DE/DX =    0.0                 !
 ! A2    A(3,1,8)              105.4971         -DE/DX =    0.0                 !
 ! A3    A(4,1,5)              105.4762         -DE/DX =    0.0                 !
 ! A4    A(5,1,7)              109.1165         -DE/DX =    0.0                 !
 ! A5    A(5,1,8)              109.2031         -DE/DX =    0.0                 !
 ! A6    A(7,1,8)              109.1431         -DE/DX =    0.0                 !
 ! A7    A(1,2,6)              105.5126         -DE/DX =    0.0                 !
 ! A8    A(3,2,8)              105.4751         -DE/DX =    0.0                 !
 ! A9    A(4,2,5)              105.4832         -DE/DX =    0.0                 !
 ! A10   A(5,2,6)              109.1571         -DE/DX =    0.0                 !
 ! A11   A(5,2,8)              109.1671         -DE/DX =    0.0                 !
 ! A12   A(6,2,8)              109.1563         -DE/DX =    0.0                 !
 ! A13   A(1,3,6)              105.4415         -DE/DX =    0.0                 !
 ! A14   A(2,3,7)              105.4684         -DE/DX =    0.0                 !
 ! A15   A(4,3,5)              105.509          -DE/DX =    0.0                 !
 ! A16   A(5,3,6)              109.1348         -DE/DX =    0.0                 !
 ! A17   A(5,3,7)              109.1705         -DE/DX =    0.0                 !
 ! A18   A(6,3,7)              109.1487         -DE/DX =    0.0                 !
 ! A19   A(1,4,6)              105.4671         -DE/DX =    0.0                 !
 ! A20   A(2,4,7)              105.4633         -DE/DX =    0.0                 !
 ! A21   A(3,4,8)              105.4627         -DE/DX =    0.0                 !
 ! A22   A(6,4,7)              109.1827         -DE/DX =    0.0                 !
 ! A23   A(6,4,8)              109.1299         -DE/DX =    0.0                 !
 ! A24   A(7,4,8)              109.1245         -DE/DX =    0.0                 !
 ! A25   A(1,5,9)              128.6818         -DE/DX =    0.0                 !
 ! A26   A(1,5,15)              76.8995         -DE/DX =    0.0                 !
 ! A27   A(1,5,18)             128.6839         -DE/DX =    0.0                 !
 ! A28   A(2,5,9)              128.6551         -DE/DX =    0.0                 !
 ! A29   A(2,5,15)             128.7111         -DE/DX =    0.0                 !
 ! A30   A(2,5,18)              76.8983         -DE/DX =    0.0                 !
 ! A31   A(3,5,9)               76.8233         -DE/DX =    0.0                 !
 ! A32   A(3,5,15)             128.6775         -DE/DX =    0.0                 !
 ! A33   A(3,5,18)             128.6941         -DE/DX =    0.0                 !
 ! A34   A(9,5,15)             102.0701         -DE/DX =    0.0                 !
 ! A35   A(9,5,18)             102.0706         -DE/DX =    0.0                 !
 ! A36   A(15,5,18)            102.079          -DE/DX =    0.0                 !
 ! A37   A(2,6,10)             128.7183         -DE/DX =    0.0                 !
 ! A38   A(2,6,14)             128.6573         -DE/DX =    0.0                 !
 ! A39   A(2,6,20)              76.8323         -DE/DX =    0.0                 !
 ! A40   A(3,6,10)              76.9092         -DE/DX =    0.0                 !
 ! A41   A(3,6,14)             128.7079         -DE/DX =    0.0                 !
 ! A42   A(3,6,20)             128.6621         -DE/DX =    0.0                 !
 ! A43   A(4,6,10)             128.6912         -DE/DX =    0.0                 !
 ! A44   A(4,6,14)              76.8576         -DE/DX =    0.0                 !
 ! A45   A(4,6,20)             128.6811         -DE/DX =    0.0                 !
 ! A46   A(10,6,14)            102.074          -DE/DX =    0.0                 !
 ! A47   A(10,6,20)            102.0728         -DE/DX =    0.0                 !
 ! A48   A(14,6,20)            102.065          -DE/DX =    0.0                 !
 ! A49   A(1,7,11)              76.8667         -DE/DX =    0.0                 !
 ! A50   A(1,7,13)             128.6566         -DE/DX =    0.0                 !
 ! A51   A(1,7,17)             128.7176         -DE/DX =    0.0                 !
 ! A52   A(3,7,11)             128.6576         -DE/DX =    0.0                 !
 ! A53   A(3,7,13)             128.7142         -DE/DX =    0.0                 !
 ! A54   A(3,7,17)              76.8661         -DE/DX =    0.0                 !
 ! A55   A(4,7,11)             128.7171         -DE/DX =    0.0                 !
 ! A56   A(4,7,13)              76.8562         -DE/DX =    0.0                 !
 ! A57   A(4,7,17)             128.6561         -DE/DX =    0.0                 !
 ! A58   A(11,7,13)            102.0716         -DE/DX =    0.0                 !
 ! A59   A(11,7,17)            102.072          -DE/DX =    0.0                 !
 ! A60   A(13,7,17)            102.0687         -DE/DX =    0.0                 !
 ! A61   A(1,8,12)              76.8411         -DE/DX =    0.0                 !
 ! A62   A(1,8,16)             128.6999         -DE/DX =    0.0                 !
 ! A63   A(1,8,19)             128.673          -DE/DX =    0.0                 !
 ! A64   A(2,8,12)             128.6943         -DE/DX =    0.0                 !
 ! A65   A(2,8,16)             128.6727         -DE/DX =    0.0                 !
 ! A66   A(2,8,19)              76.9042         -DE/DX =    0.0                 !
 ! A67   A(4,8,12)             128.6537         -DE/DX =    0.0                 !
 ! A68   A(4,8,16)              76.856          -DE/DX =    0.0                 !
 ! A69   A(4,8,19)             128.7209         -DE/DX =    0.0                 !
 ! A70   A(12,8,16)            102.069          -DE/DX =    0.0                 !
 ! A71   A(12,8,19)            102.0701         -DE/DX =    0.0                 !
 ! A72   A(16,8,19)            102.075          -DE/DX =    0.0                 !
 ! D1    D(7,1,2,6)             -0.0178         -DE/DX =    0.0                 !
 ! D2    D(8,1,3,6)             -0.0461         -DE/DX =    0.0                 !
 ! D3    D(5,1,4,6)              0.0895         -DE/DX =    0.0                 !
 ! D4    D(4,1,5,9)             84.8303         -DE/DX =    0.0                 !
 ! D5    D(4,1,5,15)           179.9198         -DE/DX =    0.0                 !
 ! D6    D(4,1,5,18)           -84.9797         -DE/DX =    0.0                 !
 ! D7    D(7,1,5,9)             25.2435         -DE/DX =    0.0                 !
 ! D8    D(7,1,5,15)           120.3329         -DE/DX =    0.0                 !
 ! D9    D(7,1,5,18)          -144.5666         -DE/DX =    0.0                 !
 ! D10   D(8,1,5,9)            144.4684         -DE/DX =    0.0                 !
 ! D11   D(8,1,5,15)          -120.4422         -DE/DX =    0.0                 !
 ! D12   D(8,1,5,18)           -25.3416         -DE/DX =    0.0                 !
 ! D13   D(2,1,7,11)          -179.9649         -DE/DX =    0.0                 !
 ! D14   D(2,1,7,13)            84.9653         -DE/DX =    0.0                 !
 ! D15   D(2,1,7,17)           -84.9046         -DE/DX =    0.0                 !
 ! D16   D(5,1,7,11)          -120.3331         -DE/DX =    0.0                 !
 ! D17   D(5,1,7,13)           144.5971         -DE/DX =    0.0                 !
 ! D18   D(5,1,7,17)           -25.2728         -DE/DX =    0.0                 !
 ! D19   D(8,1,7,11)           120.4048         -DE/DX =    0.0                 !
 ! D20   D(8,1,7,13)            25.335          -DE/DX =    0.0                 !
 ! D21   D(8,1,7,17)          -144.5349         -DE/DX =    0.0                 !
 ! D22   D(3,1,8,12)          -179.9346         -DE/DX =    0.0                 !
 ! D23   D(3,1,8,16)           -84.8953         -DE/DX =    0.0                 !
 ! D24   D(3,1,8,19)            85.0203         -DE/DX =    0.0                 !
 ! D25   D(5,1,8,12)           120.4506         -DE/DX =    0.0                 !
 ! D26   D(5,1,8,16)          -144.5101         -DE/DX =    0.0                 !
 ! D27   D(5,1,8,19)            25.4055         -DE/DX =    0.0                 !
 ! D28   D(7,1,8,12)          -120.341          -DE/DX =    0.0                 !
 ! D29   D(7,1,8,16)           -25.3017         -DE/DX =    0.0                 !
 ! D30   D(7,1,8,19)           144.6139         -DE/DX =    0.0                 !
 ! D31   D(8,2,3,7)             -0.0117         -DE/DX =    0.0                 !
 ! D32   D(5,2,4,7)             -0.0423         -DE/DX =    0.0                 !
 ! D33   D(4,2,5,9)            -84.8556         -DE/DX =    0.0                 !
 ! D34   D(4,2,5,15)            84.9559         -DE/DX =    0.0                 !
 ! D35   D(4,2,5,18)          -179.9489         -DE/DX =    0.0                 !
 ! D36   D(6,2,5,9)            -25.2462         -DE/DX =    0.0                 !
 ! D37   D(6,2,5,15)           144.5653         -DE/DX =    0.0                 !
 ! D38   D(6,2,5,18)          -120.3395         -DE/DX =    0.0                 !
 ! D39   D(8,2,5,9)           -144.4898         -DE/DX =    0.0                 !
 ! D40   D(8,2,5,15)            25.3217         -DE/DX =    0.0                 !
 ! D41   D(8,2,5,18)           120.4169         -DE/DX =    0.0                 !
 ! D42   D(1,2,6,10)            84.9725         -DE/DX =    0.0                 !
 ! D43   D(1,2,6,14)           -84.9591         -DE/DX =    0.0                 !
 ! D44   D(1,2,6,20)          -179.9933         -DE/DX =    0.0                 !
 ! D45   D(5,2,6,10)            25.335          -DE/DX =    0.0                 !
 ! D46   D(5,2,6,14)          -144.5966         -DE/DX =    0.0                 !
 ! D47   D(5,2,6,20)           120.3692         -DE/DX =    0.0                 !
 ! D48   D(8,2,6,10)           144.5854         -DE/DX =    0.0                 !
 ! D49   D(8,2,6,14)           -25.3463         -DE/DX =    0.0                 !
 ! D50   D(8,2,6,20)          -120.3804         -DE/DX =    0.0                 !
 ! D51   D(3,2,8,12)           -84.8734         -DE/DX =    0.0                 !
 ! D52   D(3,2,8,16)            84.9346         -DE/DX =    0.0                 !
 ! D53   D(3,2,8,19)          -179.9645         -DE/DX =    0.0                 !
 ! D54   D(5,2,8,12)           -25.2706         -DE/DX =    0.0                 !
 ! D55   D(5,2,8,16)           144.5374         -DE/DX =    0.0                 !
 ! D56   D(5,2,8,19)          -120.3617         -DE/DX =    0.0                 !
 ! D57   D(6,2,8,12)          -144.5148         -DE/DX =    0.0                 !
 ! D58   D(6,2,8,16)            25.2932         -DE/DX =    0.0                 !
 ! D59   D(6,2,8,19)           120.3941         -DE/DX =    0.0                 !
 ! D60   D(5,3,4,8)              0.0284         -DE/DX =    0.0                 !
 ! D61   D(4,3,5,9)            179.9776         -DE/DX =    0.0                 !
 ! D62   D(4,3,5,15)           -84.9919         -DE/DX =    0.0                 !
 ! D63   D(4,3,5,18)            84.9493         -DE/DX =    0.0                 !
 ! D64   D(6,3,5,9)            120.378          -DE/DX =    0.0                 !
 ! D65   D(6,3,5,15)          -144.5915         -DE/DX =    0.0                 !
 ! D66   D(6,3,5,18)            25.3496         -DE/DX =    0.0                 !
 ! D67   D(7,3,5,9)           -120.3988         -DE/DX =    0.0                 !
 ! D68   D(7,3,5,15)           -25.3683         -DE/DX =    0.0                 !
 ! D69   D(7,3,5,18)           144.5729         -DE/DX =    0.0                 !
 ! D70   D(1,3,6,10)          -179.9783         -DE/DX =    0.0                 !
 ! D71   D(1,3,6,14)            84.9239         -DE/DX =    0.0                 !
 ! D72   D(1,3,6,20)           -84.8746         -DE/DX =    0.0                 !
 ! D73   D(5,3,6,10)          -120.3672         -DE/DX =    0.0                 !
 ! D74   D(5,3,6,14)           144.5349         -DE/DX =    0.0                 !
 ! D75   D(5,3,6,20)           -25.2636         -DE/DX =    0.0                 !
 ! D76   D(7,3,6,10)           120.396          -DE/DX =    0.0                 !
 ! D77   D(7,3,6,14)            25.2982         -DE/DX =    0.0                 !
 ! D78   D(7,3,6,20)          -144.5003         -DE/DX =    0.0                 !
 ! D79   D(2,3,7,11)            84.9693         -DE/DX =    0.0                 !
 ! D80   D(2,3,7,13)           -84.9049         -DE/DX =    0.0                 !
 ! D81   D(2,3,7,17)          -179.961          -DE/DX =    0.0                 !
 ! D82   D(5,3,7,11)            25.3394         -DE/DX =    0.0                 !
 ! D83   D(5,3,7,13)          -144.5348         -DE/DX =    0.0                 !
 ! D84   D(5,3,7,17)           120.4091         -DE/DX =    0.0                 !
 ! D85   D(6,3,7,11)           144.554          -DE/DX =    0.0                 !
 ! D86   D(6,3,7,13)           -25.3202         -DE/DX =    0.0                 !
 ! D87   D(6,3,7,17)          -120.3764         -DE/DX =    0.0                 !
 ! D88   D(1,4,6,10)           -85.0391         -DE/DX =    0.0                 !
 ! D89   D(1,4,6,14)           179.9008         -DE/DX =    0.0                 !
 ! D90   D(1,4,6,20)            84.8508         -DE/DX =    0.0                 !
 ! D91   D(7,4,6,10)           -25.4118         -DE/DX =    0.0                 !
 ! D92   D(7,4,6,14)          -120.4719         -DE/DX =    0.0                 !
 ! D93   D(7,4,6,20)           144.478          -DE/DX =    0.0                 !
 ! D94   D(8,4,6,10)          -144.6101         -DE/DX =    0.0                 !
 ! D95   D(8,4,6,14)           120.3299         -DE/DX =    0.0                 !
 ! D96   D(8,4,6,20)            25.2798         -DE/DX =    0.0                 !
 ! D97   D(2,4,7,11)           -84.8918         -DE/DX =    0.0                 !
 ! D98   D(2,4,7,13)          -179.9435         -DE/DX =    0.0                 !
 ! D99   D(2,4,7,17)            84.9987         -DE/DX =    0.0                 !
 ! D100  D(6,4,7,11)          -144.4945         -DE/DX =    0.0                 !
 ! D101  D(6,4,7,13)           120.4538         -DE/DX =    0.0                 !
 ! D102  D(6,4,7,17)            25.3959         -DE/DX =    0.0                 !
 ! D103  D(8,4,7,11)           -25.293          -DE/DX =    0.0                 !
 ! D104  D(8,4,7,13)          -120.3446         -DE/DX =    0.0                 !
 ! D105  D(8,4,7,17)           144.5975         -DE/DX =    0.0                 !
 ! D106  D(3,4,8,12)            84.9252         -DE/DX =    0.0                 !
 ! D107  D(3,4,8,16)           179.9837         -DE/DX =    0.0                 !
 ! D108  D(3,4,8,19)           -84.961          -DE/DX =    0.0                 !
 ! D109  D(6,4,8,12)           144.5625         -DE/DX =    0.0                 !
 ! D110  D(6,4,8,16)          -120.379          -DE/DX =    0.0                 !
 ! D111  D(6,4,8,19)           -25.3236         -DE/DX =    0.0                 !
 ! D112  D(7,4,8,12)            25.3281         -DE/DX =    0.0                 !
 ! D113  D(7,4,8,16)           120.3867         -DE/DX =    0.0                 !
 ! D114  D(7,4,8,19)          -144.558          -DE/DX =    0.0                 !
 --------------------------------------------------------------------------------
 GradGradGradGradGradGradGradGradGradGradGradGradGradGradGradGradGradGrad


 ----------------------------------------------------------------------

 Electric dipole moment (input orientation):
 (Debye = 10**-18 statcoulomb cm , SI units = C m)
                  (au)            (Debye)         (10**-30 SI)
   Tot        0.380144D-03      0.966231D-03      0.322300D-02
   x         -0.157817D-03     -0.401130D-03     -0.133803D-02
   y         -0.274717D-03     -0.698261D-03     -0.232915D-02
   z         -0.210081D-03     -0.533974D-03     -0.178114D-02

 Dipole polarizability, Alpha (input orientation).
 (esu units = cm**3 , SI units = C**2 m**2 J**-1)
 Alpha(0;0):
               (au)            (10**-24 esu)      (10**-40 SI)
   iso        0.104551D+03      0.154929D+02      0.172381D+02
   aniso      0.190977D-01      0.282999D-02      0.314879D-02
   xx         0.104547D+03      0.154923D+02      0.172375D+02
   yx        -0.564080D-02     -0.835881D-03     -0.930043D-03
   yy         0.104556D+03      0.154936D+02      0.172389D+02
   zx         0.822182D-02      0.121835D-02      0.135560D-02
   zy         0.123681D-02      0.183276D-03      0.203922D-03
   zz         0.104550D+03      0.154927D+02      0.172380D+02

 ----------------------------------------------------------------------

 Dipole orientation:
     3          5.57375906          6.57663023        -27.54577787
     3          2.11368435          3.83806799        -28.52796349
     3          4.05882986          3.64841128        -24.45018994
     3          6.28354209          2.14443042        -28.08816757
     6          1.86700845          6.88797798        -25.76174853
     6          2.92188089          0.29725816        -26.57075469
     6          8.06647318          4.37106288        -25.10833663
     6          5.17447559          4.65116751        -31.17192491
     1          1.37788721          6.77422526        -23.72235687
     1          2.49829858         -0.22981165        -24.58231778
     1          9.05950327          6.21530372        -25.26340839
     1          5.98666429          6.51266761        -31.70712329
     1          9.57263732          3.01338104        -25.65552926
     1          4.10554387         -1.31553906        -27.21031775
     1          2.47200614          8.88970613        -25.95759622
     1          6.49910604          3.31074666        -32.09924083
     1          7.96517602          4.10004253        -23.02802713
     1         -0.02780004          6.91083083        -26.66750925
     1          3.48701577          4.53355765        -32.41688613
     1          1.09353119         -0.09276210        -27.52791490

 Electric dipole moment (dipole orientation):
 (Debye = 10**-18 statcoulomb cm , SI units = C m)
                  (au)            (Debye)         (10**-30 SI)
   Tot        0.380144D-03      0.966231D-03      0.322300D-02
   x          0.000000D+00      0.000000D+00      0.000000D+00
   y          0.000000D+00      0.000000D+00      0.000000D+00
   z          0.380144D-03      0.966231D-03      0.322300D-02

 Dipole polarizability, Alpha (dipole orientation).
 (esu units = cm**3 , SI units = C**2 m**2 J**-1)
 Alpha(0;0):
               (au)            (10**-24 esu)      (10**-40 SI)
   iso        0.104551D+03      0.154929D+02      0.172381D+02
   aniso      0.190977D-01      0.282999D-02      0.314879D-02
   xx         0.104544D+03      0.154918D+02      0.172370D+02
   yx         0.855123D-02      0.126716D-02      0.140991D-02
   yy         0.104555D+03      0.154935D+02      0.172388D+02
   zx         0.300765D-02      0.445688D-03      0.495895D-03
   zy        -0.124598D-02     -0.184636D-03     -0.205435D-03
   zz         0.104554D+03      0.154933D+02      0.172386D+02

 ----------------------------------------------------------------------
 Unable to Open any file for archive entry.
 1\1\GINC-TCOPT10\Freq\RPBEPBE\def2QZVPP\C4H12Li4\HUTTER\30-Jul-2021\0\
 \#N Geom=AllCheck Guess=TCheck SCRF=Check GenChk RPBEPBE/def2QZVPP Fre
 q\\Mol job 1\\0,1\Li,9.3460443628,7.6544618026,9.3460833974\Li,7.65404
 96031,9.3456047961,9.3461773168\Li,7.6538867798,7.6539005166,7.6538111
 695\Li,9.3459057165,9.3458185475,7.6538186377\C,7.2421610976,7.2419010
 778,9.7577504413\C,7.2422237225,9.75796653,7.2421873656\C,9.757707073,
 7.2420135411,7.2422056747\C,9.7579440561,9.7581826113,9.7579087103\H,6
 .5523998602,6.5519633793,9.225298995\H,6.5522258832,9.2259633524,6.552
 1793562\H,10.4475096954,6.5521096419,7.7746690482\H,10.4479462955,9.22
 60761625,10.4478660682\H,10.4476467032,7.7740560305,6.5521404917\H,7.7
 746536288,10.4479018437,6.5524241212\H,7.7744806252,6.5519609281,10.44
 76103369\H,10.4477570645,10.4480914564,9.2254892924\H,9.2253222166,6.5
 520019737,6.5524459797\H,6.5520957881,7.7740030581,10.4476387496\H,9.2
 255786411,10.4481271376,10.4477261834\H,6.5524976466,10.4479231328,7.7
 746168743\\Version=ES64L-G16RevC.01\State=1-A\HF=-189.5304137\RMSD=1.6
 73e-09\RMSF=2.069e-05\ZeroPoint=0.1393202\Thermal=0.1539861\ETot=-189.
 3764277\HTot=-189.3754835\GTot=-189.4274863\Dipole=-0.0001578,-0.00027
 47,-0.0002101\DipoleDeriv=0.5984294,0.0089697,-0.0088943,0.0087766,0.5
 979543,0.0088771,-0.008872,0.0088464,0.5984371,0.5984874,0.008999,0.00
 91176,0.009075,0.5984106,-0.0089803,0.0090612,-0.008706,0.598202,0.598
 1043,-0.0089836,-0.0087618,-0.0089831,0.5983712,-0.0089242,-0.0088719,
 -0.0090227,0.5983766,0.5982829,-0.0093377,0.0088936,-0.0091472,0.59853
 41,0.0090949,0.0090941,0.0089795,0.5985387,-0.4414116,-0.1065138,0.106
 4784,-0.1066465,-0.4414377,0.106644,0.1064578,0.1065339,-0.4414971,-0.
 4415208,0.1065368,-0.106483,0.1065343,-0.4416057,0.1064809,-0.1065125,
 0.1065464,-0.4414718,-0.4414509,0.1065799,0.1064604,0.1067201,-0.44153
 39,-0.1066936,0.1065078,-0.1064834,-0.4415139,-0.4415261,-0.106469,-0.
 1064147,-0.1065909,-0.4414891,-0.1064854,-0.1064768,-0.1065269,-0.4415
 607,-0.0942556,-0.1212492,-0.1101521,-0.1212446,-0.094322,-0.1101922,-
 0.0783825,-0.0784442,0.0317765,-0.0943763,-0.1100043,-0.1214154,-0.078
 2562,0.0319067,-0.0782534,-0.121446,-0.1100009,-0.094468,-0.0942878,0.
 1213266,-0.1101271,0.1213072,-0.0943318,0.1101452,-0.0783447,0.0783713
 ,0.0317866,-0.0944027,0.1100278,-0.1213594,0.0783185,0.031866,0.078292
 8,-0.1213533,0.109989,-0.0944267,-0.0943571,-0.1099574,0.1213167,-0.07
 83841,0.0318736,0.0783692,0.1213254,0.1099974,-0.0943276,0.0317073,-0.
 0783566,0.0783541,-0.1100913,-0.0943631,0.1213348,0.1100146,0.1213185,
 -0.0943558,0.0318721,0.0783565,-0.0783594,0.110177,-0.0943369,0.121295
 1,-0.1101422,0.1213178,-0.0942764,-0.094253,-0.1212627,0.1100761,-0.12
 12813,-0.0943076,0.1100815,0.0783415,0.0783878,0.0318454,0.0317479,-0.
 0784145,-0.0783693,-0.1101264,-0.0943713,-0.1212913,-0.1101102,-0.1213
 316,-0.0942421,-0.0943736,0.1101348,0.1213229,0.0783949,0.0318635,-0.0
 783494,0.1212593,-0.1100997,-0.0942949,0.0318402,0.0783241,0.0782648,0
 .1101289,-0.0943282,-0.1213218,0.1100858,-0.1213208,-0.0943174,-0.0942
 561,0.1212935,0.1100517,0.121319,-0.0943526,-0.1101241,0.0783647,-0.07
 83516,0.0317897\Polar=104.5469982,-0.0056408,104.555939,0.0082218,0.00
 12368,104.5500794\Quadrupole=0.0012693,-0.0041504,0.002881,0.0007883,-
 0.0001657,0.000719\PG=C01 [X(C4H12Li4)]\NImag=0\\0.04301237,-0.0008684
 9,0.04298856,0.00087461,-0.00071725,0.04287512,-0.00569182,0.01034629,
 0.00008832,0.04286857,0.01047309,-0.00563815,-0.00012826,-0.00091716,0
 .04311951,-0.00012735,0.00016111,0.00443032,-0.00071765,0.00077706,0.0
 4314691,-0.00575290,-0.00009007,-0.01047111,0.00444570,0.00011528,0.00
 015034,0.04323167,0.00009332,0.00442696,0.00015914,-0.00004582,-0.0057
 5198,-0.01039282,0.00082274,0.04306782,-0.01035437,-0.00014965,-0.0055
 4391,-0.00009467,-0.01043208,-0.00566578,0.00070272,0.00071169,0.04282
 338,0.00443889,0.00016229,-0.00014612,-0.00567099,-0.00006936,0.010486
 67,-0.00576962,-0.01048848,0.00012858,0.04321221,-0.00006851,-0.005764
 51,0.01042003,0.00011192,0.00443458,-0.00012242,-0.01042332,-0.0057238
 6,0.00013312,0.00075301,0.04315136,0.00008830,0.01041397,-0.00567595,0
 .01030630,0.00009596,-0.00575919,-0.00007974,-0.00001370,0.00447382,-0
 .00083124,-0.00080948,0.04302544,-0.01609999,-0.00527659,0.00534237,-0
 .00542086,-0.00105024,-0.00407871,-0.00565990,0.00401682,0.00111966,-0
 .00103988,0.00104879,-0.00104635,0.35496554,-0.00102654,-0.00543771,-0
 .00408389,-0.00525007,-0.01617368,0.00528962,0.00397331,-0.00552330,0.
 00111565,0.00104944,-0.00103891,-0.00104705,-0.04779409,0.35487457,0.0
 0096588,-0.00410025,-0.00552641,-0.00402280,0.00107884,-0.00547782,0.0
 0543371,0.00532926,-0.01620517,-0.00104915,-0.00104944,-0.00104104,0.0
 4768340,0.04776961,0.35500209,-0.00103815,-0.00105591,0.00105000,-0.00
 556369,-0.00399060,-0.00107348,-0.00551229,0.00104940,0.00401113,-0.01
 614012,0.00534952,-0.00530367,0.00322169,-0.00188658,0.00188852,0.3550
 1830,-0.00104852,-0.00103577,-0.00104725,-0.00400057,-0.00558174,0.001
 07288,0.00535560,-0.01610406,0.00534144,0.00105165,-0.00552620,-0.0040
 4898,0.00188609,-0.00148591,0.00248966,0.04769639,0.35496096,0.0010502
 2,-0.00105522,-0.00103954,-0.00536049,0.00540794,-0.01614841,0.0040505
 3,0.00099953,-0.00554859,-0.00105293,-0.00403634,-0.00553171,-0.001886
 55,0.00248823,-0.00148605,-0.04769574,0.04775857,0.35502569,-0.0055130
 8,-0.00403391,0.00104936,-0.00103864,-0.00105043,-0.00105369,-0.016115
 88,0.00537127,0.00530057,-0.00559614,0.00107136,-0.00397561,-0.0014857
 2,0.00188815,0.00248765,-0.00148401,0.00248712,0.00188861,0.35499274,-
 0.00403680,-0.00556847,-0.00108974,-0.00105141,-0.00103722,0.00105345,
 0.00103561,-0.00554696,0.00406499,0.00540113,-0.01612689,-0.00538204,-
 0.00188876,0.00321792,0.00188809,0.00248634,-0.00148460,-0.00188791,0.
 04769053,0.35496643,0.00534059,-0.00538790,-0.01617643,-0.00105178,0.0
 0105167,-0.00103449,0.00101818,0.00400447,-0.00550497,-0.00399453,-0.0
 0102186,-0.00558742,0.00248960,-0.00188910,-0.00148508,-0.00189086,0.0
 0189114,0.00322157,0.04768718,-0.04770529,0.35504205,-0.00555261,-0.00
 103897,0.00405787,-0.01612796,-0.00536899,-0.00543473,-0.00103686,0.00
 104685,0.00104975,-0.00560195,0.00401586,-0.00101820,-0.00148425,-0.00
 248732,-0.00188669,-0.00148249,-0.00189018,-0.00248613,0.00322062,0.00
 188878,0.00188938,0.35506025,-0.00535541,-0.01614110,-0.00533786,-0.00
 103520,-0.00555343,0.00398773,0.00105076,-0.00104202,0.00105042,0.0039
 9620,-0.00557741,-0.00103960,-0.00248606,-0.00148490,-0.00188821,0.001
 88818,0.00321906,0.00188823,-0.00188927,-0.00148336,-0.00248700,-0.047
 71629,0.35502627,0.00401799,-0.00101604,-0.00553267,-0.00102120,0.0040
 0149,-0.00566959,0.00105163,0.00104697,-0.00103722,-0.00538141,-0.0053
 6908,-0.01610300,0.00188444,0.00188618,0.00322135,-0.00248731,-0.00189
 101,-0.00148367,-0.00188814,-0.00248625,-0.00148389,-0.04768698,-0.047
 69560,0.35506499,0.00006385,-0.00128714,-0.00234494,-0.00147167,0.0007
 1048,-0.00066406,-0.00238115,-0.00314444,0.00117225,-0.00008398,-0.000
 04536,-0.00063580,-0.12817929,-0.09302095,-0.08432245,0.00037337,0.000
 33743,0.00014395,0.00040612,0.00046989,0.00017053,-0.00071459,-0.00079
 896,0.00110616,0.13488650,0.00071468,-0.00147426,-0.00067847,-0.001296
 48,0.00005255,-0.00232771,-0.00314158,-0.00237243,0.00116684,-0.000044
 10,-0.00008471,-0.00063602,-0.09302008,-0.12821624,-0.08433852,0.00046
 975,0.00040610,0.00017158,0.00033751,0.00037314,0.00014388,-0.00079880
 ,-0.00071473,0.00110700,0.09569716,0.13492128,0.00106922,0.00184776,-0
 .00004746,0.00184768,0.00107300,-0.00005408,0.00139754,0.00139313,-0.0
 0040433,0.00000069,0.00000109,0.00044005,-0.06030818,-0.06032555,-0.07
 073533,-0.00052653,-0.00039692,0.00026221,-0.00039782,-0.00052735,0.00
 026356,0.00060062,0.00060093,-0.00049494,0.08188302,0.08191360,0.09483
 696,-0.00008334,-0.00063798,-0.00004427,-0.00146772,-0.00066894,0.0007
 0790,-0.00237901,0.00117073,-0.00314658,0.00005756,-0.00233545,-0.0012
 7638,0.00037337,0.00014517,0.00033555,-0.12825283,-0.08429804,-0.09308
 426,0.00040756,0.00016867,0.00047026,-0.00071542,0.00110639,-0.0007991
 2,0.00019769,0.00026416,-0.00014115,0.13496071,0.00000025,0.00044211,0
 .00000096,0.00184816,-0.00004739,0.00107161,0.00138837,-0.00040048,0.0
 0139735,0.00107425,-0.00005114,0.00184489,-0.00052658,0.00026217,-0.00
 039727,-0.06028361,-0.07065878,-0.06028702,-0.00039838,0.00026361,-0.0
 0052800,0.00060227,-0.00049549,0.00060252,-0.00014245,-0.00016525,0.00
 013043,0.08187320,0.09473768,-0.00004347,-0.00063815,-0.00008366,-0.00
 128389,-0.00233700,0.00005610,-0.00315051,0.00117515,-0.00237416,0.000
 71449,-0.00067528,-0.00146329,0.00046908,0.00017173,0.00040445,-0.0930
 8467,-0.08430192,-0.12825361,0.00033644,0.00014461,0.00037264,-0.00079
 941,0.00110649,-0.00071579,0.00026482,0.00046373,-0.00016542,0.0957714
 5,0.08187131,0.13495542,-0.00237777,0.00315007,0.00117740,-0.00008366,
 0.00004466,-0.00063791,0.00005635,0.00128324,-0.00234026,-0.00146917,-
 0.00071544,-0.00067451,0.00040713,-0.00047187,0.00016819,-0.00071559,0
 .00079950,0.00110750,-0.12818730,0.09300985,-0.08431190,0.00037312,-0.
 00033697,0.00014472,0.00013996,0.00012066,-0.00005510,0.00019727,-0.00
 024969,0.00015140,0.13489266,0.00314433,-0.00238154,-0.00118321,0.0000
 4384,-0.00008389,0.00063826,-0.00071079,-0.00146738,0.00067328,0.00128
 339,0.00006095,0.00233883,-0.00033727,0.00037413,-0.00014451,0.0007991
 2,-0.00071580,-0.00110786,0.09301816,-0.12819792,0.08434014,-0.0004701
 0,0.00040672,-0.00016912,-0.00012043,-0.00005650,0.00002531,0.00006726
 ,0.00013547,-0.00000014,-0.09569122,0.13489270,0.00139145,-0.00139560,
 -0.00040793,0.00000056,-0.00000061,0.00044192,0.00107307,-0.00184587,-
 0.00004971,0.00184719,-0.00107328,-0.00005099,-0.00039883,0.00052860,0
 .00026462,0.00060156,-0.00060154,-0.00049605,-0.06030628,0.06031887,-0
 .07073494,-0.00052724,0.00039821,0.00026358,-0.00005439,-0.00002593,-0
 .00005891,0.00003537,0.00007751,-0.00003391,0.08188233,-0.08189740,0.0
 9484277,-0.00237145,-0.00117016,-0.00313511,0.00006011,0.00234266,-0.0
 0129213,-0.00008336,0.00063522,-0.00004458,-0.00147384,0.00067085,0.00
 070934,0.00040567,-0.00017180,0.00047186,-0.00071494,-0.00110700,-0.00
 079863,0.00037252,-0.00014400,0.00033691,-0.12823651,0.08430214,-0.093
 05432,0.00019735,-0.00006715,0.00003496,-0.00032535,0.00029635,-0.0004
 9630,0.00019732,-0.00026510,-0.00014065,0.13493185,-0.00140004,-0.0004
 0630,-0.00138990,-0.00107136,-0.00004770,-0.00184820,-0.00000012,0.000
 43997,-0.00000098,-0.00184379,-0.00005238,-0.00106901,0.00039694,0.000
 26197,0.00052765,-0.00060131,-0.00049561,-0.00060152,0.00052723,0.0002
 6245,0.00039716,0.06029142,-0.07068823,0.06026884,0.00024962,0.0001353
 8,-0.00007752,-0.00029616,0.00027393,-0.00029617,0.00014226,-0.0001648
 3,-0.00013082,-0.08187573,0.09477967,-0.00314070,-0.00116359,-0.002382
 05,0.00071601,0.00067128,-0.00146961,-0.00004342,0.00063512,-0.0000835
 8,-0.00129266,0.00233558,0.00005416,0.00033550,-0.00014617,0.00037296,
 -0.00079823,-0.00110708,-0.00071490,0.00046807,-0.00017130,0.00040457,
 -0.09305092,0.08427808,-0.12823094,0.00015150,0.00000030,-0.00003409,-
 0.00049618,0.00029641,-0.00032544,0.00026405,-0.00046311,-0.00016718,0
 .09573754,-0.08185509,0.13494589,-0.00147060,-0.00066311,-0.00070364,-
 0.00008349,-0.00063566,0.00004330,0.00005997,-0.00234285,0.00128228,-0
 .00237886,0.00116633,0.00314057,-0.00071511,0.00110484,0.00079870,0.00
 040453,0.00017330,-0.00046741,-0.12823219,-0.08428416,0.09306480,0.000
 37300,0.00014442,-0.00033645,0.00019774,0.00015186,-0.00024967,0.00014
 121,-0.00005652,0.00011901,0.00886680,0.01074580,-0.01182893,-0.000056
 01,-0.00002670,-0.00012006,0.13494169,0.00184404,-0.00005076,-0.001070
 53,0.00000064,0.00043977,-0.00000071,0.00107131,-0.00004958,-0.0018464
 2,0.00140420,-0.00041091,-0.00139304,0.00060206,-0.00049373,-0.0006019
 2,-0.00039760,0.00026236,0.00052675,-0.06027044,-0.07066326,0.06027941
 ,-0.00052769,0.00026257,0.00039823,0.00003503,-0.00003417,0.00007769,-
 0.00005604,-0.00005769,-0.00002476,-0.01182967,-0.01204003,0.01378777,
 0.00002595,-0.00006032,0.00005391,0.08185128,0.09475977,0.00128966,0.0
 0232855,0.00004811,0.00004363,0.00063570,-0.00008292,-0.00071121,0.000
 67334,-0.00147011,0.00313861,-0.00116642,-0.00237568,0.00079885,-0.001
 10500,-0.00071516,-0.00033636,-0.00014459,0.00037259,0.09306189,0.0843
 0084,-0.12825454,-0.00047035,-0.00017107,0.00040768,0.00006701,-0.0000
 0037,0.00013554,-0.00012012,0.00002496,-0.00005601,0.01075397,0.007831
 56,-0.01205101,0.00012000,0.00005177,0.00013998,-0.09574381,-0.0818716
 3,0.13497070,0.00044046,-0.00000026,-0.00000051,-0.00005421,0.00184706
 ,-0.00107380,-0.00005187,0.00107425,-0.00184833,-0.00040944,0.00139404
 ,-0.00139444,-0.00049533,0.00060094,-0.00060143,-0.07074031,-0.0603250
 4,0.06031278,0.00026334,-0.00039754,0.00052747,0.00026316,-0.00052603,
 0.00039740,-0.00003419,0.00003501,0.00007766,-0.01205037,-0.01378819,0
 .01182730,0.00013548,-0.00024957,-0.00007760,0.00013557,0.00007755,0.0
 0024970,-0.00016485,0.00013106,0.00014103,0.09485125,-0.00063663,-0.00
 008224,0.00004414,-0.00067389,-0.00147113,-0.00070757,-0.00232329,0.00
 004823,0.00129162,0.00116679,-0.00238230,0.00312686,0.00110635,-0.0007
 1593,0.00079973,-0.08434689,-0.12821904,0.09303665,0.00016987,0.000406
 12,-0.00046966,0.00014421,0.00037311,-0.00033702,0.00015171,0.00019748
 ,-0.00024961,-0.00783706,-0.01204138,0.01074512,0.00006710,0.00019732,
 -0.00003525,-0.00000019,-0.00003405,-0.00015168,0.00045959,-0.00016622
 ,-0.00026520,0.08190673,0.13493302,0.00063678,0.00004193,-0.00008343,0
 .00233370,0.00128866,0.00005327,0.00066631,-0.00070714,-0.00147010,-0.
 00116549,0.00313308,-0.00237097,-0.00110610,0.00079888,-0.00071582,0.0
 8431985,0.09302618,-0.12817878,-0.00014440,-0.00033698,0.00037368,-0.0
 0017067,-0.00046816,0.00040550,-0.00000021,0.00006742,0.00013544,-0.01
 075775,-0.01182960,0.00886543,0.00000025,-0.00015148,-0.00003411,-0.00
 006736,-0.00003539,0.00019721,-0.00026613,0.00014199,0.00019671,-0.081
 89057,-0.09570674,0.13487980,-0.00040294,-0.00139356,0.00138541,-0.000
 04991,-0.00107430,0.00184990,-0.00004922,-0.00184518,0.00107210,0.0004
 4034,-0.00000079,0.00000063,-0.07071420,0.06030785,-0.06029284,-0.0004
 9558,-0.00060091,0.00060130,0.00026340,0.00052695,-0.00039802,0.000263
 35,0.00039811,-0.00052678,-0.01204708,0.01182651,-0.01378341,-0.000033
 86,0.00007729,0.00003536,-0.00016985,0.00013998,0.00013213,-0.00016712
 ,-0.00013097,-0.00014069,0.00013534,-0.00007768,-0.00024974,0.00027362
 ,-0.00029613,0.00029613,0.09481407,-0.00117063,-0.00237382,0.00312979,
 0.00233797,0.00005259,0.00129763,0.00066530,-0.00146925,-0.00070984,0.
 00063675,-0.00008456,0.00004507,0.08433035,-0.12822209,0.09303336,-0.0
 0110722,-0.00071503,0.00079901,-0.00014438,0.00037385,-0.00033721,-0.0
 0017079,0.00040691,-0.00046913,-0.01074544,0.00886402,-0.01182946,-0.0
 0000008,0.00013534,0.00006755,-0.00026284,0.00019826,0.00014101,-0.000
 46689,-0.00016630,-0.00026250,0.00000047,-0.00003448,-0.00015200,0.000
 29599,-0.00032570,0.00049629,-0.08188974,0.13492599,0.00116762,0.00314
 882,-0.00236506,-0.00066794,-0.00070977,-0.00147663,-0.00233675,0.0012
 8293,0.00005675,-0.00063647,0.00004509,-0.00008444,-0.08431135,0.09302
 211,-0.12820721,0.00110729,0.00079816,-0.00071466,0.00017078,-0.000469
 66,0.00040667,0.00014469,-0.00033717,0.00037310,-0.00783370,0.01074857
 ,-0.01204891,0.00015133,-0.00024949,0.00019697,0.00046492,-0.00026364,
 -0.00016629,0.00026240,0.00014109,0.00019833,0.00006702,-0.00003477,0.
 00019775,-0.00029609,0.00049625,-0.00032539,0.08188240,-0.09570545,0.1
 3490791,-0.00146921,0.00071271,0.00067235,0.00006159,-0.00128556,0.002
 33725,-0.00008373,-0.00004540,0.00063598,-0.00238290,-0.00313997,-0.00
 117245,-0.00071468,-0.00079893,-0.00110580,0.00040748,0.00047086,-0.00
 016873,0.00037277,0.00033677,-0.00014443,-0.12818689,-0.09301991,0.084
 31761,-0.00032519,-0.00049584,0.00029564,0.00019763,0.00003510,-0.0000
 6722,-0.00005605,0.00012021,0.00002537,0.00886508,0.01182909,-0.010752
 76,0.00019668,-0.00014197,-0.00026483,-0.00016636,0.00026398,-0.000462
 26,0.00013538,-0.00006730,-0.00000035,0.13488847,-0.00129165,0.0000531
 0,0.00234309,0.00071735,-0.00146900,0.00066882,-0.00004380,-0.00008476
 ,0.00063604,-0.00314120,-0.00238194,-0.00117476,-0.00079845,-0.0007151
 7,-0.00110608,0.00033715,0.00037325,-0.00014421,0.00046711,0.00040518,
 -0.00017220,-0.09302159,-0.12821136,0.08433132,-0.00049560,-0.00032553
 ,0.00029571,0.00015175,-0.00003422,0.00000030,-0.00012017,0.00014005,0
 .00005482,-0.01074572,-0.01204301,0.00783903,0.00026640,-0.00016343,-0
 .00045834,-0.00014093,0.00019808,-0.00026399,0.00024929,0.00019704,-0.
 00015131,0.09569616,0.13492072,-0.00184911,-0.00107420,-0.00004709,-0.
 00107205,-0.00184816,-0.00004743,-0.00000102,-0.00000145,0.00044006,-0
 .00139472,-0.00139257,-0.00040525,-0.00060024,-0.00060080,-0.00049545,
 0.00039840,0.00052762,0.00026400,0.00052640,0.00039781,0.00026304,0.06
 031030,0.06031801,-0.07072629,-0.00029568,-0.00029601,0.00027324,0.000
 24971,-0.00007768,0.00013536,-0.00002446,0.00005717,-0.00005749,0.0118
 2613,0.01378766,-0.01204755,0.00014149,-0.00013065,-0.00016629,-0.0001
 3227,0.00013961,-0.00016918,0.00007756,-0.00003510,-0.00003397,-0.0818
 9136,-0.08190138,0.09482389,-0.00005163,0.00184645,0.00107327,0.000440
 48,0.00000010,0.00000007,-0.00041248,0.00138691,0.00139365,-0.00005200
 ,0.00106951,0.00184090,0.00026405,-0.00052715,-0.00039784,0.00026314,-
 0.00039807,-0.00052796,-0.07072014,-0.06030246,-0.06029425,-0.00049522
 ,0.00060084,0.00060063,-0.00016977,-0.00013958,0.00013252,-0.00016961,
 0.00013297,-0.00014003,-0.01204508,-0.01182675,-0.01377921,-0.00003389
 ,-0.00007747,0.00003545,-0.01205381,-0.01378814,-0.01182755,-0.0000589
 3,-0.00005256,0.00002611,-0.00005617,0.00002440,-0.00005746,-0.0000340
 2,0.00003541,-0.00007744,0.09484050,-0.00067241,-0.00147582,0.00070546
 ,-0.00063710,-0.00008380,-0.00004321,0.00117214,-0.00236756,-0.0031352
 2,-0.00234107,0.00005635,-0.00128649,0.00014451,0.00037414,0.00033709,
 0.00017169,0.00040621,0.00046915,-0.08433156,-0.12823579,-0.09302077,0
 .00110741,-0.00071447,-0.00079851,0.00026397,0.00019781,-0.00014111,0.
 00046570,-0.00016919,0.00026354,0.01075031,0.00886529,0.01182444,0.000
 00008,0.00013540,-0.00006743,-0.00782689,-0.01204401,-0.01074070,-0.00
 005603,0.00013962,-0.00011999,-0.00002434,-0.00005622,0.00012137,0.000
 15145,0.00019694,0.00024957,0.08189145,0.13493811,-0.00233561,-0.00128
 905,0.00004984,-0.00063680,-0.00004446,-0.00008273,0.00117360,-0.00313
 625,-0.00236114,-0.00067209,0.00071551,-0.00146791,0.00016860,0.000470
 76,0.00040722,0.00014481,0.00033675,0.00037264,-0.08430168,-0.09301995
 ,-0.12815952,0.00110695,-0.00079821,-0.00071469,0.00046478,0.00026314,
 -0.00016733,0.00026354,-0.00014025,0.00019792,-0.00784076,-0.01075393,
 -0.01204947,0.00015136,0.00024947,0.00019705,0.01075053,0.01183194,0.0
 0886397,-0.00002481,0.00012027,-0.00005638,-0.00005838,-0.00012025,0.0
 0014035,0.00000026,-0.00006723,0.00013542,0.08187516,0.09569159,0.1348
 5599,0.00005498,0.00232885,0.00128386,-0.00238032,-0.00116690,0.003148
 14,-0.00147311,0.00067151,-0.00070906,-0.00008449,0.00063566,0.0000452
 8,-0.12826396,0.08430528,0.09306509,0.00037203,-0.00014438,-0.00033688
 ,-0.00071545,-0.00110601,0.00079969,0.00040669,-0.00017054,-0.00046987
 ,0.00886533,-0.01074284,-0.01182459,-0.00005604,0.00002490,-0.00012006
 ,0.00019804,-0.00015203,-0.00024990,0.00013922,0.00005620,0.00012086,-
 0.00032478,0.00029560,0.00049564,-0.00003388,0.00000015,-0.00015155,-0
 .01204817,0.00782686,0.01074523,0.00019724,-0.00006707,-0.00003486,0.0
 0013547,-0.00000036,0.00006687,0.13498126,-0.00107303,-0.00005188,0.00
 184579,-0.00140039,-0.00040540,0.00139444,-0.00184928,-0.00004736,0.00
 107333,-0.00000098,0.00043974,0.00000109,0.06028920,-0.07066671,-0.060
 26871,0.00052733,0.00026350,-0.00039807,-0.00060154,-0.00049438,0.0006
 0197,0.00039787,0.00026312,-0.00052742,0.01183095,-0.01203958,-0.01379
 000,-0.00002519,-0.00005842,-0.00005509,-0.00003468,-0.00003439,-0.000
 07793,0.00005609,-0.00005788,0.00002517,-0.00029551,0.00027320,0.00029
 555,-0.00007751,0.00013550,-0.00024957,0.01378810,-0.01204482,-0.01183
 046,0.00024957,0.00013535,0.00007758,0.00007771,-0.00003431,0.00003484
 ,-0.08186784,0.09475826,-0.00071193,-0.00066663,-0.00146446,0.00314864
 ,0.00117606,-0.00238165,0.00129110,-0.00234304,0.00005717,0.00004487,-
 0.00063555,-0.00008500,0.09306220,-0.08428129,-0.12821871,-0.00046989,
 0.00016940,0.00040727,0.00079885,0.00110533,-0.00071591,-0.00033731,0.
 00014505,0.00037344,0.01075264,-0.00784007,-0.01204390,0.00011980,-0.0
 0005607,0.00014028,0.00006659,0.00000059,0.00013577,-0.00011974,-0.000
 02460,-0.00005636,0.00049533,-0.00029528,-0.00032464,-0.00003523,0.000
 06719,0.00019736,-0.01183106,0.01074079,0.00886531,-0.00015156,-0.0000
 0038,-0.00003427,-0.00024966,0.00015206,0.00019809,-0.09575055,0.08185
 708,0.13491995,-0.00005170,-0.00107291,-0.00184576,-0.00040473,-0.0013
 9504,-0.00139656,0.00044105,-0.00000104,-0.00000079,-0.00005137,-0.001
 84393,-0.00106918,0.00026166,0.00039580,0.00052603,0.00026342,0.000526
 55,0.00039758,-0.00049616,-0.00060124,-0.00060135,-0.07073307,0.060317
 33,0.06030168,0.00013531,0.00024949,-0.00007747,0.00013541,-0.00007760
 ,0.00024965,-0.00003399,-0.00003525,0.00007761,-0.01203975,0.01378859,
 0.01182426,-0.00003411,0.00007764,-0.00003509,-0.00005711,-0.00002470,
 0.00005692,-0.00005729,0.00005887,-0.00002370,-0.01204367,0.01182604,0
 .01378546,0.00027370,-0.00029653,-0.00029625,-0.00016817,-0.00013198,0
 .00014020,0.09482831,0.00233499,0.00005403,-0.00128519,-0.00116258,-0.
 00237890,-0.00314397,0.00063663,-0.00008460,-0.00004441,0.00066645,-0.
 00146962,0.00071127,-0.00017229,0.00040340,0.00046987,-0.00014405,0.00
 037332,0.00033734,-0.00110703,-0.00071498,-0.00079859,0.08433356,-0.12
 822456,-0.09302761,-0.00006693,0.00019726,0.00003505,0.00000023,-0.000
 03413,0.00015181,-0.00015155,0.00019744,0.00024945,0.00783627,-0.01203
 815,-0.01074677,-0.00000026,0.00013542,-0.00006705,0.00002424,-0.00005
 645,0.00012027,0.00005461,0.00014081,-0.00012020,-0.01075058,0.0088654
 0,0.01182750,0.00029590,-0.00032577,-0.00049609,-0.00046286,-0.0001665
 4,0.00026365,-0.08190118,0.13492874,0.00067063,0.00071158,-0.00146773,
 -0.00116450,-0.00314006,-0.00238091,0.00063647,-0.00004515,-0.00008354
 ,0.00233126,-0.00128467,0.00005437,-0.00014537,0.00033568,0.00037364,-
 0.00016917,0.00046899,0.00040619,-0.00110696,-0.00079829,-0.00071493,0
 .08431055,-0.09302378,-0.12818000,0.00000034,0.00015144,-0.00003410,-0
 .00006727,0.00003524,0.00019757,-0.00000018,-0.00006712,0.00013545,-0.
 01075148,0.01182797,0.00886591,-0.00015142,0.00024949,0.00019723,0.000
 05730,-0.00012019,0.00014045,0.00002555,0.00011997,-0.00005589,0.00783
 987,-0.01075334,-0.01204768,0.00029593,-0.00049620,-0.00032544,-0.0002
 6425,-0.00014092,0.00019756,-0.08188210,0.09570503,0.13488683,-0.00008
 337,0.00004240,0.00063663,-0.00236679,0.00313986,-0.00117352,-0.001473
 37,-0.00070909,0.00066998,0.00005574,0.00128591,0.00234628,0.00037407,
 -0.00033547,-0.00014560,-0.12818398,0.09302822,0.08431325,-0.00071436,
 0.00079786,-0.00110749,0.00040762,-0.00046974,-0.00017069,-0.00005633,
 -0.00012034,0.00002437,0.00886513,-0.01183010,-0.01075344,-0.00032569,
 0.00049641,0.00029640,0.00019753,-0.00003523,-0.00006734,0.00019683,-0
 .00024958,-0.00015123,-0.01204603,0.01075485,0.00784642,-0.00003411,-0
 .00015165,0.00000012,0.00014038,0.00011955,0.00005779,0.00013538,0.000
 06757,-0.00000008,0.00019811,0.00014111,-0.00026328,-0.00016774,-0.000
 26357,-0.00046521,0.13488098,0.00004394,-0.00008241,-0.00063684,0.0031
 3585,-0.00237560,0.00117402,0.00129521,0.00005260,-0.00233717,-0.00071
 658,-0.00146764,-0.00067777,-0.00047068,0.00040599,0.00017176,0.093038
 88,-0.12824221,-0.08436483,0.00079863,-0.00071484,0.00110774,-0.000337
 49,0.00037333,0.00014425,0.00012146,0.00013837,-0.00005616,0.01074169,
 -0.01203675,-0.00783280,0.00049643,-0.00032603,-0.00029643,-0.00015187
 ,-0.00003400,-0.00000015,0.00006737,0.00013548,0.00000010,-0.01182575,
 0.00886596,0.01075432,-0.00003511,0.00019746,0.00006753,-0.00012043,-0
 .00005669,-0.00002454,-0.00024948,0.00019708,0.00015138,-0.00026417,-0
 .00016700,0.00046570,0.00014108,0.00019787,0.00026433,-0.09570897,0.13
 493902,-0.00000040,-0.00000019,0.00044038,-0.00139108,0.00138275,-0.00
 039728,-0.00185144,0.00107469,-0.00004888,-0.00107556,0.00185289,-0.00
 004600,0.00052797,-0.00039818,0.00026294,0.06031437,-0.06034150,-0.070
 73621,-0.00060122,0.00060076,-0.00049565,0.00039853,-0.00052649,0.0002
 6306,-0.00002576,-0.00005442,-0.00005818,0.01182817,-0.01378780,-0.012
 05085,-0.00029624,0.00029638,0.00027386,0.00024980,0.00007760,0.000135
 64,-0.00003551,-0.00007746,-0.00003387,0.01378442,-0.01182451,-0.01204
 069,-0.00007756,-0.00024951,0.00013531,0.00005742,0.00002408,-0.000057
 05,0.00007771,0.00003538,-0.00003390,0.00014090,0.00013135,-0.00016730
 ,-0.00013113,-0.00014138,-0.00016499,-0.08189337,0.08192556,0.09481966
 \\-0.00002238,-0.00000013,-0.00005352,0.00000539,-0.00005487,0.0000196
 4,-0.00000874,0.00004844,0.00000481,-0.00000708,-0.00003220,0.00004955
 ,0.00002662,0.00004443,-0.00003600,0.00001123,-0.00001256,0.00000199,-
 0.00001802,0.00002675,0.00001803,-0.00001117,-0.00001503,-0.00000986,-
 0.00000610,-0.00000366,-0.00002082,0.00000350,-0.00001774,0.00000330,0
 .00000719,-0.00001196,0.00002757,0.00000623,-0.00002085,0.00000397,-0.
 00000059,0.00002284,-0.00000744,0.00001805,0.00000085,-0.00000074,0.00
 002506,-0.00000508,0.00000526,0.00001379,0.00000755,-0.00002042,-0.000
 02446,-0.00000797,-0.00001139,0.00000299,0.00002284,-0.00000041,-0.000
 02345,0.00000720,0.00000871,0.00000192,0.00000115,0.00001776\\\@
 The archive entry for this job was punched.


 THE SECRET OF SUCCESS IN LIFE IS TO EAT WHAT YOU LIKE, AND LET THE FOOD
 FIGHT IT OUT INSIDE YOU. -- FROM A FORTUNE COOKIE
 Job cpu time:       0 days 15 hours 55 minutes 35.4 seconds.
 Elapsed time:       0 days  0 hours 59 minutes 44.5 seconds.
 File lengths (MBytes):  RWF=    575 Int=      0 D2E=      0 Chk=     43 Scr=      1
 Normal termination of Gaussian 16 at Fri Jul 30 17:40:06 2021.
