 Entering Gaussian System, Link 0=g16
 Initial command:
 /sw-ng/spack/opt/spack/linux-opensuse_leap15-sandybridge/pgi-18.10/gaussian-src-16-C.01-zldqaomctopxhethwccpmxmwefdscg3m/g16/l1.exe "/data/hutter/SMG16/PBE/Gau-7614.inp" -scrdir="/data/hutter/SMG16/PBE/"
 Entering Link 1 = /sw-ng/spack/opt/spack/linux-opensuse_leap15-sandybridge/pgi-18.10/gaussian-src-16-C.01-zldqaomctopxhethwccpmxmwefdscg3m/g16/l1.exe PID=      7622.
  
 Copyright (c) 1988-2019, Gaussian, Inc.  All Rights Reserved.
  
 This is part of the Gaussian(R) 16 program.  It is based on
 the Gaussian(R) 09 system (copyright 2009, Gaussian, Inc.),
 the Gaussian(R) 03 system (copyright 2003, Gaussian, Inc.),
 the Gaussian(R) 98 system (copyright 1998, Gaussian, Inc.),
 the Gaussian(R) 94 system (copyright 1995, Gaussian, Inc.),
 the Gaussian 92(TM) system (copyright 1992, Gaussian, Inc.),
 the Gaussian 90(TM) system (copyright 1990, Gaussian, Inc.),
 the Gaussian 88(TM) system (copyright 1988, Gaussian, Inc.),
 the Gaussian 86(TM) system (copyright 1986, Carnegie Mellon
 University), and the Gaussian 82(TM) system (copyright 1983,
 Carnegie Mellon University). Gaussian is a federally registered
 trademark of Gaussian, Inc.
  
 This software contains proprietary and confidential information,
 including trade secrets, belonging to Gaussian, Inc.
  
 This software is provided under written license and may be
 used, copied, transmitted, or stored only in accord with that
 written license.
  
 The following legend is applicable only to US Government
 contracts under FAR:
  
                    RESTRICTED RIGHTS LEGEND
  
 Use, reproduction and disclosure by the US Government is
 subject to restrictions as set forth in subparagraphs (a)
 and (c) of the Commercial Computer Software - Restricted
 Rights clause in FAR 52.227-19.
  
 Gaussian, Inc.
 340 Quinnipiac St., Bldg. 40, Wallingford CT 06492
  
  
 ---------------------------------------------------------------
 Warning -- This program may not be used in any manner that
 competes with the business of Gaussian, Inc. or will provide
 assistance to any competitor of Gaussian, Inc.  The licensee
 of this program is prohibited from giving any competitor of
 Gaussian, Inc. access to this program.  By using this program,
 the user acknowledges that Gaussian, Inc. is engaged in the
 business of creating and licensing software in the field of
 computational chemistry and represents and warrants to the
 licensee that it is not a competitor of Gaussian, Inc. and that
 it will not use this program in any manner prohibited above.
 ---------------------------------------------------------------
  

 Cite this work as:
 Gaussian 16, Revision C.01,
 M. J. Frisch, G. W. Trucks, H. B. Schlegel, G. E. Scuseria, 
 M. A. Robb, J. R. Cheeseman, G. Scalmani, V. Barone, 
 G. A. Petersson, H. Nakatsuji, X. Li, M. Caricato, A. V. Marenich, 
 J. Bloino, B. G. Janesko, R. Gomperts, B. Mennucci, H. P. Hratchian, 
 J. V. Ortiz, A. F. Izmaylov, J. L. Sonnenberg, D. Williams-Young, 
 F. Ding, F. Lipparini, F. Egidi, J. Goings, B. Peng, A. Petrone, 
 T. Henderson, D. Ranasinghe, V. G. Zakrzewski, J. Gao, N. Rega, 
 G. Zheng, W. Liang, M. Hada, M. Ehara, K. Toyota, R. Fukuda, 
 J. Hasegawa, M. Ishida, T. Nakajima, Y. Honda, O. Kitao, H. Nakai, 
 T. Vreven, K. Throssell, J. A. Montgomery, Jr., J. E. Peralta, 
 F. Ogliaro, M. J. Bearpark, J. J. Heyd, E. N. Brothers, K. N. Kudin, 
 V. N. Staroverov, T. A. Keith, R. Kobayashi, J. Normand, 
 K. Raghavachari, A. P. Rendell, J. C. Burant, S. S. Iyengar, 
 J. Tomasi, M. Cossi, J. M. Millam, M. Klene, C. Adamo, R. Cammi, 
 J. W. Ochterski, R. L. Martin, K. Morokuma, O. Farkas, 
 J. B. Foresman, and D. J. Fox, Gaussian, Inc., Wallingford CT, 2019.
 
 ******************************************
 Gaussian 16:  ES64L-G16RevC.01  3-Jul-2019
                30-Jul-2021 
 ******************************************
 %mem=32GB
 %NProcShare=16
 Will use up to   16 processors via shared memory.
 -----------------------------------------------------------
 #N RPBEPBE/Def2QZVPP scf=tight Int(Grid=ultrafine) OPT FREQ
 -----------------------------------------------------------
 1/18=20,19=15,26=4,38=1/1,3;
 2/9=110,12=2,17=6,18=5,40=1/2;
 3/5=45,7=202,11=2,25=1,30=1,71=1,74=1009,75=-5,116=1/1,2,3;
 4//1;
 5/5=2,32=2,38=5/2;
 6/7=2,8=2,9=2,10=2,28=1/1;
 7//1,2,3,16;
 1/18=20,19=15,26=4/3(2);
 2/9=110/2;
 99//99;
 2/9=110/2;
 3/5=45,7=202,11=2,25=1,30=1,71=1,74=1009,75=-5,116=1/1,2,3;
 4/5=5,16=3,69=1/1;
 5/5=2,32=2,38=5/2;
 7//1,2,3,16;
 1/18=20,19=15,26=4/3(-5);
 2/9=110/2;
 6/7=2,8=2,9=2,10=2,19=2,28=1/1;
 99/9=1/99;
 ---------
 Mol job 1
 ---------
 Symbolic Z-matrix:
 Charge = -1 Multiplicity = 1
 Sb                    9.5       9.5       9.5 
 Cl                    9.5       11.95775   9.5 
 Cl                    9.5       9.5       11.95775 
 Cl                    11.95775   9.5       9.5 
 Cl                    9.5       9.5       7.04225 
 Cl                    7.04225   9.5       9.5 
 Cl                    9.5       7.04225   9.5 
 

 GradGradGradGradGradGradGradGradGradGradGradGradGradGradGradGradGradGrad
 Berny optimization.
 Initialization pass.
                           ----------------------------
                           !    Initial Parameters    !
                           ! (Angstroms and Degrees)  !
 --------------------------                            --------------------------
 ! Name  Definition              Value          Derivative Info.                !
 --------------------------------------------------------------------------------
 ! R1    R(1,2)                  2.4578         estimate D2E/DX2                !
 ! R2    R(1,3)                  2.4578         estimate D2E/DX2                !
 ! R3    R(1,4)                  2.4578         estimate D2E/DX2                !
 ! R4    R(1,5)                  2.4578         estimate D2E/DX2                !
 ! R5    R(1,6)                  2.4578         estimate D2E/DX2                !
 ! R6    R(1,7)                  2.4578         estimate D2E/DX2                !
 ! A1    A(2,1,3)               90.0            estimate D2E/DX2                !
 ! A2    A(2,1,4)               90.0            estimate D2E/DX2                !
 ! A3    A(2,1,5)               90.0            estimate D2E/DX2                !
 ! A4    A(2,1,6)               90.0            estimate D2E/DX2                !
 ! A5    A(3,1,4)               90.0            estimate D2E/DX2                !
 ! A6    A(3,1,6)               90.0            estimate D2E/DX2                !
 ! A7    A(3,1,7)               90.0            estimate D2E/DX2                !
 ! A8    A(4,1,5)               90.0            estimate D2E/DX2                !
 ! A9    A(4,1,7)               90.0            estimate D2E/DX2                !
 ! A10   A(5,1,6)               90.0            estimate D2E/DX2                !
 ! A11   A(5,1,7)               90.0            estimate D2E/DX2                !
 ! A12   A(6,1,7)               90.0            estimate D2E/DX2                !
 ! A13   L(2,1,7,3,-1)         180.0            estimate D2E/DX2                !
 ! A14   L(3,1,5,2,-1)         180.0            estimate D2E/DX2                !
 ! A15   L(4,1,6,2,-1)         180.0            estimate D2E/DX2                !
 ! A16   L(2,1,7,3,-2)         180.0            estimate D2E/DX2                !
 ! A17   L(3,1,5,2,-2)         180.0            estimate D2E/DX2                !
 ! A18   L(4,1,6,2,-2)         180.0            estimate D2E/DX2                !
 ! D1    D(2,1,4,3)             90.0            estimate D2E/DX2                !
 ! D2    D(2,1,6,3)            -90.0            estimate D2E/DX2                !
 ! D3    D(2,1,5,4)             90.0            estimate D2E/DX2                !
 ! D4    D(2,1,6,5)             90.0            estimate D2E/DX2                !
 ! D5    D(3,1,7,4)            -90.0            estimate D2E/DX2                !
 ! D6    D(3,1,7,6)             90.0            estimate D2E/DX2                !
 ! D7    D(4,1,7,5)            -90.0            estimate D2E/DX2                !
 ! D8    D(5,1,7,6)            -90.0            estimate D2E/DX2                !
 --------------------------------------------------------------------------------
 Trust Radius=3.00D-01 FncErr=1.00D-07 GrdErr=1.00D-06 EigMax=2.50D+02 EigMin=1.00D-04
 Number of steps in this run=     42 maximum allowed number of steps=    100.
 GradGradGradGradGradGradGradGradGradGradGradGradGradGradGradGradGradGrad

                          Input orientation:                          
 ---------------------------------------------------------------------
 Center     Atomic      Atomic             Coordinates (Angstroms)
 Number     Number       Type             X           Y           Z
 ---------------------------------------------------------------------
      1         51           0        9.500000    9.500000    9.500000
      2         17           0        9.500000   11.957750    9.500000
      3         17           0        9.500000    9.500000   11.957750
      4         17           0       11.957750    9.500000    9.500000
      5         17           0        9.500000    9.500000    7.042250
      6         17           0        7.042250    9.500000    9.500000
      7         17           0        9.500000    7.042250    9.500000
 ---------------------------------------------------------------------
                    Distance matrix (angstroms):
                    1          2          3          4          5
     1  Sb   0.000000
     2  Cl   2.457750   0.000000
     3  Cl   2.457750   3.475784   0.000000
     4  Cl   2.457750   3.475784   3.475784   0.000000
     5  Cl   2.457750   3.475784   4.915501   3.475784   0.000000
     6  Cl   2.457750   3.475784   3.475784   4.915501   3.475784
     7  Cl   2.457750   4.915501   3.475784   3.475784   3.475784
                    6          7
     6  Cl   0.000000
     7  Cl   3.475784   0.000000
 Stoichiometry    Cl6Sb(1-)
 Framework group  OH[O(Sb),3C4(Cl.Cl)]
 Deg. of freedom     1
 Full point group                 OH      NOp  48
 Largest Abelian subgroup         D2H     NOp   8
 Largest concise Abelian subgroup D2H     NOp   8
                         Standard orientation:                         
 ---------------------------------------------------------------------
 Center     Atomic      Atomic             Coordinates (Angstroms)
 Number     Number       Type             X           Y           Z
 ---------------------------------------------------------------------
      1         51           0        0.000000    0.000000    0.000000
      2         17           0        0.000000    0.000000    2.457750
      3         17           0        0.000000    2.457750   -0.000000
      4         17           0       -2.457750    0.000000   -0.000000
      5         17           0        0.000000   -2.457750    0.000000
      6         17           0        2.457750    0.000000    0.000000
      7         17           0        0.000000   -0.000000   -2.457750
 ---------------------------------------------------------------------
 Rotational constants (GHZ):           0.5981365           0.5981365           0.5981365
 Standard basis: def2QZVPP (5D, 7F)
 There are   142 symmetry adapted cartesian basis functions of AG  symmetry.
 There are    54 symmetry adapted cartesian basis functions of B1G symmetry.
 There are    54 symmetry adapted cartesian basis functions of B2G symmetry.
 There are    54 symmetry adapted cartesian basis functions of B3G symmetry.
 There are    31 symmetry adapted cartesian basis functions of AU  symmetry.
 There are    95 symmetry adapted cartesian basis functions of B1U symmetry.
 There are    95 symmetry adapted cartesian basis functions of B2U symmetry.
 There are    95 symmetry adapted cartesian basis functions of B3U symmetry.
 There are   108 symmetry adapted basis functions of AG  symmetry.
 There are    46 symmetry adapted basis functions of B1G symmetry.
 There are    46 symmetry adapted basis functions of B2G symmetry.
 There are    46 symmetry adapted basis functions of B3G symmetry.
 There are    28 symmetry adapted basis functions of AU  symmetry.
 There are    76 symmetry adapted basis functions of B1U symmetry.
 There are    76 symmetry adapted basis functions of B2U symmetry.
 There are    76 symmetry adapted basis functions of B3U symmetry.
   502 basis functions,   906 primitive gaussians,   620 cartesian basis functions
    63 alpha electrons       63 beta electrons
       nuclear repulsion energy      1126.4451348173 Hartrees.
 NAtoms=    7 NActive=    7 NUniq=    2 SFac= 4.00D+00 NAtFMM=   60 NAOKFM=F Big=F
 Integral buffers will be    131072 words long.
 Raffenetti 2 integral format.
 Two-electron integral symmetry is turned on.
 One-electron integrals computed using PRISM.
  48 Symmetry operations used in ECPInt.
 ECPInt:  NShTT=   11935 NPrTT=   43624 LenC2=   10589 LenP2D=   27520.
 LDataN:  DoStor=T MaxTD1= 8 Len=  415
 NBasis=   502 RedAO= T EigKep=  3.39D-04  NBF=   108    46    46    46    28    76    76    76
 NBsUse=   502 1.00D-06 EigRej= -1.00D+00 NBFU=   108    46    46    46    28    76    76    76
 Defaulting to unpruned grid for atomic number  51.
 ExpMin= 4.82D-02 ExpMax= 1.47D+06 ExpMxC= 1.67D+03 IAcc=3 IRadAn=         5 AccDes= 0.00D+00
 Harris functional with IExCor= 1009 and IRadAn=       5 diagonalized for initial guess.
 HarFok:  IExCor= 1009 AccDes= 0.00D+00 IRadAn=         5 IDoV= 1 UseB2=F ITyADJ=14
 ICtDFT=  3500011 ScaDFX=  1.000000  1.000000  1.000000  1.000000
 Defaulting to unpruned grid for atomic number  51.
 FoFCou: FMM=F IPFlag=           0 FMFlag=      100000 FMFlg1=           0
         NFxFlg=           0 DoJE=T BraDBF=F KetDBF=T FulRan=T
         wScrn=  0.000000 ICntrl=       500 IOpCl=  0 I1Cent=   200000004 NGrid=           0
         NMat0=    1 NMatS0=      1 NMatT0=    0 NMatD0=    1 NMtDS0=    0 NMtDT0=    0
 Petite list used in FoFCou.
 Initial guess orbital symmetries:
       Occupied  (A1G) (EG) (EG) (T1U) (T1U) (T1U) (A1G) (EG) (EG)
                 (T1U) (T1U) (T1U) (EG) (EG) (A1G) (T1U) (T1U)
                 (T1U) (T1U) (T1U) (T1U) (T2G) (T2G) (T2G) (T1G)
                 (T1G) (T1G) (T2U) (T2U) (T2U) (A1G) (T1U) (T1U)
                 (T1U) (EG) (EG) (T2G) (T2G) (T2G) (A1G) (T1U)
                 (T1U) (T1U) (EG) (EG) (A1G) (T1U) (T1U) (T1U)
                 (T2G) (T2G) (T2G) (EG) (EG) (T1U) (T1U) (T1U)
                 (T2U) (T2U) (T2U) (T1G) (T1G) (T1G)
       Virtual   (A1G) (T1U) (T1U) (T1U) (A1G) (T1U) (T1U) (T1U)
                 (T2G) (T2G) (T2G) (EG) (EG) (T2G) (T2G) (T2G)
                 (T1U) (T1U) (T1U) (A2U) (A1G) (T2U) (T2U) (T2U)
                 (EG) (EG) (T2U) (T2U) (T2U) (T1U) (T1U) (T1U)
                 (T1G) (T1G) (T1G) (T2G) (T2G) (T2G) (EG) (EG)
                 (EU) (EU) (A2G) (T2U) (T2U) (T2U) (T1U) (T1U)
                 (T1U) (T1G) (T1G) (T1G) (T1U) (T1U) (T1U) (A1G)
                 (EG) (EG) (A2U) (T2G) (T2G) (T2G) (T1U) (T1U)
                 (T1U) (A1G) (T2G) (T2G) (T2G) (T1U) (T1U) (T1U)
                 (EG) (EG) (T2U) (T2U) (T2U) (A1G) (T1U) (T1U)
                 (T1U) (EG) (EG) (T2G) (T2G) (T2G) (T2U) (T2U)
                 (T2U) (A2U) (EG) (EG) (T1G) (T1G) (T1G) (T2U)
                 (T2U) (T2U) (T1U) (T1U) (T1U) (EU) (EU) (T2G)
                 (T2G) (T2G) (T2G) (T2G) (T2G) (A2G) (T1U) (T1U)
                 (T1U) (A1G) (EG) (EG) (A2U) (T1G) (T1G) (T1G)
                 (T2U) (T2U) (T2U) (T1U) (T1U) (T1U) (T2U) (T2U)
                 (T2U) (T1G) (T1G) (T1G) (EG) (EG) (EU) (EU) (T2G)
                 (T2G) (T2G) (T1U) (T1U) (T1U) (T2U) (T2U) (T2U)
                 (T1U) (T1U) (T1U) (T2G) (T2G) (T2G) (T1G) (T1G)
                 (T1G) (A2G) (A1G) (T2U) (T2U) (T2U) (T1U) (T1U)
                 (T1U) (T2G) (T2G) (T2G) (A2U) (EG) (EG) (T1U)
                 (T1U) (T1U) (A1G) (T2G) (T2G) (T2G) (T1U) (T1U)
                 (T1U) (T2U) (T2U) (T2U) (EG) (EG) (A1G) (EG) (EG)
                 (T1U) (T1U) (T1U) (EG) (EG) (T1G) (T1G) (T1G)
                 (T2G) (T2G) (T2G) (A1G) (A1G) (T1U) (T1U) (T1U)
                 (EG) (EG) (A2U) (T1U) (T1U) (T1U) (T2U) (T2U)
                 (T2U) (A2U) (T2U) (T2U) (T2U) (T2G) (T2G) (T2G)
                 (EU) (EU) (A2G) (EG) (EG) (T2G) (T2G) (T2G) (T2U)
                 (T2U) (T2U) (T1U) (T1U) (T1U) (T1G) (T1G) (T1G)
                 (A1G) (T1U) (T1U) (T1U) (EG) (EG) (EU) (EU) (A2G)
                 (T2U) (T2U) (T2U) (T2G) (T2G) (T2G) (T1G) (T1G)
                 (T1G) (A1U) (EU) (EU) (EG) (EG) (A1G) (T1G) (T1G)
                 (T1G) (T1U) (T1U) (T1U) (T2G) (T2G) (T2G) (A2U)
                 (T1U) (T1U) (T1U) (T2U) (T2U) (T2U) (T2G) (T2G)
                 (T2G) (T2U) (T2U) (T2U) (T1U) (T1U) (T1U) (EG)
                 (EG) (T1G) (T1G) (T1G) (T1U) (T1U) (T1U) (T2G)
                 (T2G) (T2G) (T2U) (T2U) (T2U) (T1G) (T1G) (T1G)
                 (T1U) (T1U) (T1U) (EU) (EU) (EG) (EG) (T2U) (T2U)
                 (T2U) (T2G) (T2G) (T2G) (A1G) (T1G) (T1G) (T1G)
                 (T1U) (T1U) (T1U) (A2G) (T2G) (T2G) (T2G) (T2U)
                 (T2U) (T2U) (EG) (EG) (T1U) (T1U) (T1U) (A2U)
                 (A1G) (T1G) (T1G) (T1G) (T1U) (T1U) (T1U) (T2U)
                 (T2U) (T2U) (T2G) (T2G) (T2G) (EG) (EG) (A1G)
                 (T1U) (T1U) (T1U) (EG) (EG) (T1U) (T1U) (T1U)
                 (EG) (EG) (A1G) (A2U) (T2U) (T2U) (T2U) (T1U)
                 (T1U) (T1U) (A2U) (T2U) (T2U) (T2U) (T2G) (T2G)
                 (T2G) (EU) (EU) (A2G) (EG) (EG) (T2G) (T2G) (T2G)
                 (T2U) (T2U) (T2U) (A1G) (T1U) (T1U) (T1U) (T1G)
                 (T1G) (T1G) (EG) (EG) (T1U) (T1U) (T1U) (A1G)
                 (T1U) (T1U) (T1U) (EG) (EG) (A1G) (T1U) (T1U)
                 (T1U) (T1G) (T1G) (T1G) (T2U) (T2U) (T2U) (T1U)
                 (T1U) (T1U) (T2G) (T2G) (T2G) (T1U) (T1U) (T1U)
                 (A1G) (EG) (EG) (A1G) (T1U) (T1U) (T1U) (EG) (EG)
                 (A1G) (T1U) (T1U) (T1U) (EG) (EG) (A1G)
 The electronic state of the initial guess is 1-A1G.
 Requested convergence on RMS density matrix=1.00D-08 within 128 cycles.
 Requested convergence on MAX density matrix=1.00D-06.
 Requested convergence on             energy=1.00D-06.
 No special actions if energy rises.
 Defaulting to unpruned grid for atomic number  51.
 Defaulting to unpruned grid for atomic number  51.
 Defaulting to unpruned grid for atomic number  51.
 Defaulting to unpruned grid for atomic number  51.
 Defaulting to unpruned grid for atomic number  51.
 Defaulting to unpruned grid for atomic number  51.
 Defaulting to unpruned grid for atomic number  51.
 Defaulting to unpruned grid for atomic number  51.
 Defaulting to unpruned grid for atomic number  51.
 Defaulting to unpruned grid for atomic number  51.
 Defaulting to unpruned grid for atomic number  51.
 Defaulting to unpruned grid for atomic number  51.
 Defaulting to unpruned grid for atomic number  51.
 Defaulting to unpruned grid for atomic number  51.
 Defaulting to unpruned grid for atomic number  51.
 Defaulting to unpruned grid for atomic number  51.
 SCF Done:  E(RPBE-PBE) =  -3000.78875837     A.U. after    9 cycles
            NFock=  9  Conv=0.25D-08     -V/T= 2.0533

 **********************************************************************

            Population analysis using the SCF Density.

 **********************************************************************

 Orbital symmetries:
       Occupied  (A1G) (EG) (EG) (T1U) (T1U) (T1U) (A1G) (EG) (EG)
                 (T1U) (T1U) (T1U) (A1G) (EG) (EG) (T1U) (T1U)
                 (T1U) (T2G) (T2G) (T2G) (T1U) (T1U) (T1U) (T2U)
                 (T2U) (T2U) (T1G) (T1G) (T1G) (A1G) (T1U) (T1U)
                 (T1U) (EG) (EG) (T2G) (T2G) (T2G) (A1G) (T1U)
                 (T1U) (T1U) (EG) (EG) (A1G) (T1U) (T1U) (T1U)
                 (T2G) (T2G) (T2G) (EG) (EG) (T1U) (T1U) (T1U)
                 (T2U) (T2U) (T2U) (T1G) (T1G) (T1G)
       Virtual   (A1G) (T1U) (T1U) (T1U) (A1G) (T1U) (T1U) (T1U)
                 (EG) (EG) (T2G) (T2G) (T2G) (T1U) (T1U) (T1U)
                 (T2G) (T2G) (T2G) (A1G) (T2U) (T2U) (T2U) (A2U)
                 (T1U) (T1U) (T1U) (EG) (EG) (T1G) (T1G) (T1G)
                 (T2U) (T2U) (T2U) (EG) (EG) (T2G) (T2G) (T2G)
                 (EU) (EU) (A2G) (T2U) (T2U) (T2U) (T1U) (T1U)
                 (T1U) (T1G) (T1G) (T1G) (T1U) (T1U) (T1U) (A1G)
                 (EG) (EG) (A2U) (T1U) (T1U) (T1U) (T2G) (T2G)
                 (T2G) (A1G) (T2G) (T2G) (T2G) (T1U) (T1U) (T1U)
                 (EG) (EG) (T2U) (T2U) (T2U) (A1G) (T1U) (T1U)
                 (T1U) (EG) (EG) (A2U) (T2U) (T2U) (T2U) (T2G)
                 (T2G) (T2G) (T2U) (T2U) (T2U) (EG) (EG) (T1G)
                 (T1G) (T1G) (T1U) (T1U) (T1U) (A2U) (EU) (EU)
                 (T2G) (T2G) (T2G) (T2G) (T2G) (T2G) (A1G) (T1U)
                 (T1U) (T1U) (A2G) (EG) (EG) (T1G) (T1G) (T1G)
                 (T2U) (T2U) (T2U) (T1U) (T1U) (T1U) (T2U) (T2U)
                 (T2U) (T1G) (T1G) (T1G) (T1U) (T1U) (T1U) (EU)
                 (EU) (EG) (EG) (T2G) (T2G) (T2G) (T2U) (T2U) (T2U)
                 (T1U) (T1U) (T1U) (T2G) (T2G) (T2G) (T1G) (T1G)
                 (T1G) (A2G) (A1G) (T2U) (T2U) (T2U) (T1U) (T1U)
                 (T1U) (T2G) (T2G) (T2G) (A2U) (T1U) (T1U) (T1U)
                 (EG) (EG) (A1G) (T2G) (T2G) (T2G) (T1U) (T1U)
                 (T1U) (T2U) (T2U) (T2U) (EG) (EG) (A1G) (EG) (EG)
                 (EG) (EG) (T1U) (T1U) (T1U) (T1G) (T1G) (T1G)
                 (T2G) (T2G) (T2G) (A1G) (A1G) (T1U) (T1U) (T1U)
                 (EG) (EG) (A2U) (T2U) (T2U) (T2U) (T1U) (T1U)
                 (T1U) (A2U) (T2U) (T2U) (T2U) (T2G) (T2G) (T2G)
                 (EU) (EU) (A2G) (EG) (EG) (T2G) (T2G) (T2G) (T2U)
                 (T2U) (T2U) (T1U) (T1U) (T1U) (T1G) (T1G) (T1G)
                 (A1G) (T1U) (T1U) (T1U) (EG) (EG) (EU) (EU) (A2G)
                 (T2U) (T2U) (T2U) (T2G) (T2G) (T2G) (T1G) (T1G)
                 (T1G) (A1U) (EU) (EU) (EG) (EG) (A1G) (T1G) (T1G)
                 (T1G) (T1U) (T1U) (T1U) (T2G) (T2G) (T2G) (T1U)
                 (T1U) (T1U) (A2U) (T2U) (T2U) (T2U) (T2U) (T2U)
                 (T2U) (T2G) (T2G) (T2G) (EG) (EG) (T1U) (T1U)
                 (T1U) (T1G) (T1G) (T1G) (T1U) (T1U) (T1U) (T2G)
                 (T2G) (T2G) (T2U) (T2U) (T2U) (T1G) (T1G) (T1G)
                 (T1U) (T1U) (T1U) (EU) (EU) (EG) (EG) (T2U) (T2U)
                 (T2U) (T2G) (T2G) (T2G) (A1G) (T1G) (T1G) (T1G)
                 (T1U) (T1U) (T1U) (A2G) (T2G) (T2G) (T2G) (T2U)
                 (T2U) (T2U) (EG) (EG) (T1U) (T1U) (T1U) (A2U)
                 (A1G) (T1G) (T1G) (T1G) (T1U) (T1U) (T1U) (T2U)
                 (T2U) (T2U) (T2G) (T2G) (T2G) (EG) (EG) (A1G)
                 (T1U) (T1U) (T1U) (EG) (EG) (T1U) (T1U) (T1U)
                 (EG) (EG) (A1G) (A2U) (T2U) (T2U) (T2U) (T1U)
                 (T1U) (T1U) (A2U) (T2U) (T2U) (T2U) (T2G) (T2G)
                 (T2G) (EU) (EU) (A2G) (EG) (EG) (T2G) (T2G) (T2G)
                 (T2U) (T2U) (T2U) (T1U) (T1U) (T1U) (A1G) (T1G)
                 (T1G) (T1G) (T1U) (T1U) (T1U) (EG) (EG) (A1G)
                 (T1U) (T1U) (T1U) (EG) (EG) (A1G) (T1U) (T1U)
                 (T1U) (T1G) (T1G) (T1G) (T2U) (T2U) (T2U) (T1U)
                 (T1U) (T1U) (T2G) (T2G) (T2G) (T1U) (T1U) (T1U)
                 (A1G) (EG) (EG) (A1G) (T1U) (T1U) (T1U) (EG) (EG)
                 (A1G) (T1U) (T1U) (T1U) (EG) (EG) (A1G)
 The electronic state is 1-A1G.
 Alpha  occ. eigenvalues -- -100.52465-100.52465-100.52465-100.52465-100.52465
 Alpha  occ. eigenvalues -- -100.52465  -9.03515  -9.03515  -9.03515  -9.03515
 Alpha  occ. eigenvalues --   -9.03515  -9.03515  -6.85750  -6.85750  -6.85750
 Alpha  occ. eigenvalues --   -6.85750  -6.85750  -6.85750  -6.84954  -6.84954
 Alpha  occ. eigenvalues --   -6.84954  -6.84954  -6.84954  -6.84954  -6.84954
 Alpha  occ. eigenvalues --   -6.84954  -6.84954  -6.84954  -6.84954  -6.84954
 Alpha  occ. eigenvalues --   -5.46928  -3.73692  -3.73692  -3.73692  -1.17635
 Alpha  occ. eigenvalues --   -1.17635  -1.17467  -1.17467  -1.17467  -0.63714
 Alpha  occ. eigenvalues --   -0.59840  -0.59840  -0.59840  -0.58436  -0.58436
 Alpha  occ. eigenvalues --   -0.40358  -0.24894  -0.24894  -0.24894  -0.17369
 Alpha  occ. eigenvalues --   -0.17369  -0.17369  -0.17076  -0.17076  -0.14646
 Alpha  occ. eigenvalues --   -0.14646  -0.14646  -0.14402  -0.14402  -0.14402
 Alpha  occ. eigenvalues --   -0.12614  -0.12614  -0.12614
 Alpha virt. eigenvalues --   -0.05628   0.09021   0.09021   0.09021   0.16148
 Alpha virt. eigenvalues --    0.19366   0.19366   0.19366   0.22265   0.22265
 Alpha virt. eigenvalues --    0.23780   0.23780   0.23780   0.28303   0.28303
 Alpha virt. eigenvalues --    0.28303   0.28459   0.28459   0.28459   0.31103
 Alpha virt. eigenvalues --    0.32007   0.32007   0.32007   0.32597   0.34334
 Alpha virt. eigenvalues --    0.34334   0.34334   0.34849   0.34849   0.35360
 Alpha virt. eigenvalues --    0.35360   0.35360   0.35664   0.35664   0.35664
 Alpha virt. eigenvalues --    0.42623   0.42623   0.43338   0.43338   0.43338
 Alpha virt. eigenvalues --    0.45530   0.45530   0.49826   0.54167   0.54167
 Alpha virt. eigenvalues --    0.54167   0.54237   0.54237   0.54237   0.57454
 Alpha virt. eigenvalues --    0.57454   0.57454   0.58061   0.58061   0.58061
 Alpha virt. eigenvalues --    0.59167   0.64294   0.64294   0.68992   0.69565
 Alpha virt. eigenvalues --    0.69565   0.69565   0.70518   0.70518   0.70518
 Alpha virt. eigenvalues --    0.74719   0.76692   0.76692   0.76692   0.81204
 Alpha virt. eigenvalues --    0.81204   0.81204   0.81924   0.81924   0.82490
 Alpha virt. eigenvalues --    0.82490   0.82490   0.88654   0.96617   0.96617
 Alpha virt. eigenvalues --    0.96617   1.00038   1.00038   1.14814   1.14844
 Alpha virt. eigenvalues --    1.14844   1.14844   1.14862   1.14862   1.14862
 Alpha virt. eigenvalues --    1.21184   1.21184   1.21184   1.21618   1.21618
 Alpha virt. eigenvalues --    1.21886   1.21886   1.21886   1.25521   1.25521
 Alpha virt. eigenvalues --    1.25521   1.26217   1.26516   1.26516   1.26739
 Alpha virt. eigenvalues --    1.26739   1.26739   1.26970   1.26970   1.26970
 Alpha virt. eigenvalues --    1.27983   1.28635   1.28635   1.28635   1.29229
 Alpha virt. eigenvalues --    1.29727   1.29727   1.30228   1.30228   1.30228
 Alpha virt. eigenvalues --    1.31096   1.31096   1.31096   1.32167   1.32167
 Alpha virt. eigenvalues --    1.32167   1.37069   1.37069   1.37069   1.40062
 Alpha virt. eigenvalues --    1.40062   1.40062   1.40589   1.40589   1.40589
 Alpha virt. eigenvalues --    1.42794   1.42794   1.42867   1.42867   1.43438
 Alpha virt. eigenvalues --    1.43438   1.43438   1.45370   1.45370   1.45370
 Alpha virt. eigenvalues --    1.55370   1.55370   1.55370   1.55512   1.55512
 Alpha virt. eigenvalues --    1.55512   1.59792   1.59792   1.59792   1.60905
 Alpha virt. eigenvalues --    1.63648   1.68133   1.68133   1.68133   1.81709
 Alpha virt. eigenvalues --    1.81709   1.81709   1.83905   1.83905   1.83905
 Alpha virt. eigenvalues --    1.85609   1.89094   1.89094   1.89094   1.89138
 Alpha virt. eigenvalues --    1.89138   1.95016   1.96278   1.96278   1.96278
 Alpha virt. eigenvalues --    2.03401   2.03401   2.03401   2.11107   2.11107
 Alpha virt. eigenvalues --    2.11107   2.15563   2.15563   2.18406   2.21876
 Alpha virt. eigenvalues --    2.21876   2.30863   2.30863   2.31026   2.31026
 Alpha virt. eigenvalues --    2.31026   2.35399   2.35399   2.35399   2.48981
 Alpha virt. eigenvalues --    2.48981   2.48981   2.69607   2.90944   2.92162
 Alpha virt. eigenvalues --    2.92162   2.92162   2.98550   2.98550   3.03715
 Alpha virt. eigenvalues --    3.10406   3.10406   3.10406   3.12227   3.12227
 Alpha virt. eigenvalues --    3.12227   3.20906   3.24835   3.24835   3.24835
 Alpha virt. eigenvalues --    3.28914   3.28914   3.28914   3.29924   3.29924
 Alpha virt. eigenvalues --    3.36796   3.37390   3.37390   3.40195   3.40195
 Alpha virt. eigenvalues --    3.40195   3.44594   3.44594   3.44594   3.45999
 Alpha virt. eigenvalues --    3.45999   3.45999   3.48018   3.48018   3.48018
 Alpha virt. eigenvalues --    3.50488   3.56134   3.56134   3.56134   3.58495
 Alpha virt. eigenvalues --    3.58495   3.60914   3.60914   3.61555   3.62483
 Alpha virt. eigenvalues --    3.62483   3.62483   3.62945   3.62945   3.62945
 Alpha virt. eigenvalues --    3.63158   3.63158   3.63158   3.63680   3.63756
 Alpha virt. eigenvalues --    3.63756   3.63812   3.63812   3.63984   3.64581
 Alpha virt. eigenvalues --    3.64581   3.64581   3.64651   3.64651   3.64651
 Alpha virt. eigenvalues --    3.67256   3.67256   3.67256   3.68849   3.68849
 Alpha virt. eigenvalues --    3.68849   3.69037   3.70577   3.70577   3.70577
 Alpha virt. eigenvalues --    3.71707   3.71707   3.71707   3.72670   3.72670
 Alpha virt. eigenvalues --    3.72670   3.75071   3.75071   3.75339   3.75339
 Alpha virt. eigenvalues --    3.75339   3.83757   3.83757   3.83757   3.84826
 Alpha virt. eigenvalues --    3.84826   3.84826   3.90062   3.90062   3.90062
 Alpha virt. eigenvalues --    3.93779   3.93779   3.93779   3.96166   3.96166
 Alpha virt. eigenvalues --    3.96166   3.96349   3.96349   3.96349   3.97329
 Alpha virt. eigenvalues --    3.97329   3.97374   3.97374   3.98368   3.98368
 Alpha virt. eigenvalues --    3.98368   3.98710   3.98710   3.98710   3.99433
 Alpha virt. eigenvalues --    4.00229   4.00229   4.00229   4.02277   4.02277
 Alpha virt. eigenvalues --    4.02277   4.11986   4.16378   4.16378   4.16378
 Alpha virt. eigenvalues --    4.17511   4.17511   4.17511   4.21893   4.21893
 Alpha virt. eigenvalues --    4.24873   4.24873   4.24873   4.29199   4.35765
 Alpha virt. eigenvalues --    4.41230   4.41230   4.41230   4.44433   4.44433
 Alpha virt. eigenvalues --    4.44433   4.53591   4.53591   4.53591   4.54023
 Alpha virt. eigenvalues --    4.54023   4.54023   4.63541   4.63541   5.04683
 Alpha virt. eigenvalues --    5.05724   5.05724   5.05724   5.12728   5.12728
 Alpha virt. eigenvalues --    8.42238   8.42238   8.42238   8.47183   8.47183
 Alpha virt. eigenvalues --    8.49542   9.94239  10.04292  10.04292  10.04292
 Alpha virt. eigenvalues --   10.20916  10.20916  10.20916  10.55798  10.58305
 Alpha virt. eigenvalues --   10.58305  10.58305  10.61447  10.61447  10.61447
 Alpha virt. eigenvalues --   10.61689  10.61689  10.67865  10.69083  10.69083
 Alpha virt. eigenvalues --   10.72134  10.72134  10.72134  10.74431  10.74431
 Alpha virt. eigenvalues --   10.74431  10.76030  10.76030  10.76030  10.76546
 Alpha virt. eigenvalues --   10.77345  10.77345  10.77345  10.82069  10.82069
 Alpha virt. eigenvalues --   10.82069  10.82131  10.82131  14.70086  28.52954
 Alpha virt. eigenvalues --   28.52954  28.52954  28.56691  28.56691  28.59455
 Alpha virt. eigenvalues --   40.34271  40.34271  40.34271  41.48159  41.48159
 Alpha virt. eigenvalues --   41.48159  41.48376  41.48376  41.48376  41.48780
 Alpha virt. eigenvalues --   41.48780  41.48780  41.49004  41.49004  41.49004
 Alpha virt. eigenvalues --   41.54810  41.54810  41.54810  41.55336  41.55671
 Alpha virt. eigenvalues --   41.55671  76.27045  97.82069  97.82069  97.82069
 Alpha virt. eigenvalues --   97.85406  97.85406  97.87951 524.14977 524.14977
 Alpha virt. eigenvalues --  524.14977 524.20647 524.20647 524.24167
          Condensed to atoms (all electrons):
               1          2          3          4          5          6
     1  Sb  19.867828   0.242566   0.242566   0.242566   0.242566   0.242566
     2  Cl   0.242566  17.346058  -0.035922  -0.035922  -0.035922  -0.035922
     3  Cl   0.242566  -0.035922  17.346058  -0.035922   0.001191  -0.035922
     4  Cl   0.242566  -0.035922  -0.035922  17.346058  -0.035922   0.001191
     5  Cl   0.242566  -0.035922   0.001191  -0.035922  17.346058  -0.035922
     6  Cl   0.242566  -0.035922  -0.035922   0.001191  -0.035922  17.346058
     7  Cl   0.242566   0.001191  -0.035922  -0.035922  -0.035922  -0.035922
               7
     1  Sb   0.242566
     2  Cl   0.001191
     3  Cl  -0.035922
     4  Cl  -0.035922
     5  Cl  -0.035922
     6  Cl  -0.035922
     7  Cl  17.346058
 Mulliken charges:
               1
     1  Sb   1.676776
     2  Cl  -0.446129
     3  Cl  -0.446129
     4  Cl  -0.446129
     5  Cl  -0.446129
     6  Cl  -0.446129
     7  Cl  -0.446129
 Sum of Mulliken charges =  -1.00000
 Mulliken charges with hydrogens summed into heavy atoms:
               1
     1  Sb   1.676776
     2  Cl  -0.446129
     3  Cl  -0.446129
     4  Cl  -0.446129
     5  Cl  -0.446129
     6  Cl  -0.446129
     7  Cl  -0.446129
 Electronic spatial extent (au):  <R**2>=           2464.4696
 Charge=             -1.0000 electrons
 Dipole moment (field-independent basis, Debye):
    X=             -0.0000    Y=              0.0000    Z=              0.0000  Tot=              0.0000
 Quadrupole moment (field-independent basis, Debye-Ang):
   XX=           -118.4583   YY=           -118.4583   ZZ=           -118.4583
   XY=             -0.0000   XZ=             -0.0000   YZ=             -0.0000
 Traceless Quadrupole moment (field-independent basis, Debye-Ang):
   XX=              0.0000   YY=             -0.0000   ZZ=              0.0000
   XY=             -0.0000   XZ=             -0.0000   YZ=             -0.0000
 Octapole moment (field-independent basis, Debye-Ang**2):
  XXX=             -0.0000  YYY=              0.0000  ZZZ=             -0.0000  XYY=             -0.0000
  XXY=              0.0000  XXZ=              0.0000  XZZ=             -0.0000  YZZ=             -0.0000
  YYZ=             -0.0000  XYZ=              0.0000
 Hexadecapole moment (field-independent basis, Debye-Ang**3):
 XXXX=          -1137.2547 YYYY=          -1137.2547 ZZZZ=          -1137.2547 XXXY=              0.0000
 XXXZ=             -0.0000 YYYX=             -0.0000 YYYZ=             -0.0000 ZZZX=              0.0000
 ZZZY=              0.0000 XXYY=           -371.6925 XXZZ=           -371.6925 YYZZ=           -371.6925
 XXYZ=             -0.0000 YYXZ=              0.0000 ZZXY=              0.0000
 N-N= 1.126445134817D+03 E-N=-9.350355722111D+03  KE= 2.848834401596D+03
 Symmetry AG   KE= 1.135022331538D+03
 Symmetry B1G  KE= 1.031560383624D+02
 Symmetry B2G  KE= 1.031560383624D+02
 Symmetry B3G  KE= 1.031560383624D+02
 Symmetry AU   KE=-2.633645941442D-23
 Symmetry B1U  KE= 4.681146516569D+02
 Symmetry B2U  KE= 4.681146516569D+02
 Symmetry B3U  KE= 4.681146516569D+02
  48 Symmetry operations used in ECPInt.
 ECPInt:  NShTT=   11935 NPrTT=   43624 LenC2=   10589 LenP2D=   27520.
 LDataN:  DoStor=T MaxTD1= 9 Len=  602
 Calling FoFJK, ICntrl=      2527 FMM=F ISym2X=1 I1Cent= 0 IOpClX= 0 NMat=1 NMatS=1 NMatT=0.
 Defaulting to unpruned grid for atomic number  51.
 Defaulting to unpruned grid for atomic number  51.
 Defaulting to unpruned grid for atomic number  51.
 Defaulting to unpruned grid for atomic number  51.
 Defaulting to unpruned grid for atomic number  51.
 Defaulting to unpruned grid for atomic number  51.
 Defaulting to unpruned grid for atomic number  51.
 Defaulting to unpruned grid for atomic number  51.
 Defaulting to unpruned grid for atomic number  51.
 Defaulting to unpruned grid for atomic number  51.
 Defaulting to unpruned grid for atomic number  51.
 Defaulting to unpruned grid for atomic number  51.
 Defaulting to unpruned grid for atomic number  51.
 Defaulting to unpruned grid for atomic number  51.
 Defaulting to unpruned grid for atomic number  51.
 Defaulting to unpruned grid for atomic number  51.
 ***** Axes restored to original set *****
 -------------------------------------------------------------------
 Center     Atomic                   Forces (Hartrees/Bohr)
 Number     Number              X              Y              Z
 -------------------------------------------------------------------
      1       51          -0.000000000    0.000000000    0.000000000
      2       17           0.000000000   -0.007310710    0.000000000
      3       17          -0.000000000   -0.000000000   -0.007310710
      4       17          -0.007310710    0.000000000    0.000000000
      5       17           0.000000000    0.000000000    0.007310710
      6       17           0.007310710    0.000000000   -0.000000000
      7       17           0.000000000    0.007310710   -0.000000000
 -------------------------------------------------------------------
 Cartesian Forces:  Max     0.007310710 RMS     0.003907739

 GradGradGradGradGradGradGradGradGradGradGradGradGradGradGradGradGradGrad
 Berny optimization.
 FormGI is forming the generalized inverse of G from B-inverse, IUseBI=4.
 Internal  Forces:  Max     0.007310710 RMS     0.003165630
 Search for a local minimum.
 Step number   1 out of a maximum of   42
 All quantities printed in internal units (Hartrees-Bohrs-Radians)
 Mixed Optimization -- RFO/linear search
 Second derivative matrix not updated -- first step.
 ITU=  0
     Eigenvalues ---    0.07634   0.08487   0.08487   0.09782   0.09892
     Eigenvalues ---    0.10732   0.10732   0.10732   0.10732   0.10732
     Eigenvalues ---    0.10732   0.12615   0.12615   0.18704   0.21640
 RFO step:  Lambda=-2.90920872D-03 EMin= 7.63417371D-02
 Linear search not attempted -- first point.
 Iteration  1 RMS(Cart)=  0.02871871 RMS(Int)=  0.00000000
 Iteration  2 RMS(Cart)=  0.00000000 RMS(Int)=  0.00000000
 ClnCor:  largest displacement from symmetrization is 7.18D-12 for atom     4.
 Variable       Old X    -DE/DX   Delta X   Delta X   Delta X     New X
                                 (Linear)    (Quad)   (Total)
    R1        4.64448  -0.00731   0.00000  -0.06632  -0.06632   4.57815
    R2        4.64448  -0.00731   0.00000  -0.06632  -0.06632   4.57815
    R3        4.64448  -0.00731   0.00000  -0.06632  -0.06632   4.57815
    R4        4.64448  -0.00731   0.00000  -0.06632  -0.06632   4.57815
    R5        4.64448  -0.00731   0.00000  -0.06632  -0.06632   4.57815
    R6        4.64448  -0.00731   0.00000  -0.06632  -0.06632   4.57815
    A1        1.57080  -0.00000   0.00000  -0.00000   0.00000   1.57080
    A2        1.57080   0.00000   0.00000   0.00000   0.00000   1.57080
    A3        1.57080   0.00000   0.00000   0.00000   0.00000   1.57080
    A4        1.57080   0.00000   0.00000  -0.00000   0.00000   1.57080
    A5        1.57080  -0.00000   0.00000  -0.00000   0.00000   1.57080
    A6        1.57080  -0.00000   0.00000  -0.00000   0.00000   1.57080
    A7        1.57080  -0.00000   0.00000  -0.00000   0.00000   1.57080
    A8        1.57080   0.00000   0.00000   0.00000   0.00000   1.57080
    A9        1.57080   0.00000   0.00000  -0.00000   0.00000   1.57080
   A10        1.57080   0.00000   0.00000   0.00000   0.00000   1.57080
   A11        1.57080   0.00000   0.00000   0.00000   0.00000   1.57080
   A12        1.57080  -0.00000   0.00000  -0.00000   0.00000   1.57080
   A13        3.14159  -0.00000   0.00000  -0.00000   0.00000   3.14159
   A14        3.14159   0.00000   0.00000   0.00000   0.00000   3.14159
   A15        3.14159   0.00000   0.00000   0.00000   0.00000   3.14159
   A16        3.14159  -0.00000   0.00000  -0.00000   0.00000   3.14159
   A17        3.14159   0.00000   0.00000   0.00000   0.00000   3.14159
   A18        3.14159   0.00000   0.00000   0.00000   0.00000   3.14159
    D1        1.57080  -0.00000   0.00000  -0.00000   0.00000   1.57080
    D2       -1.57080   0.00000   0.00000   0.00000   0.00000  -1.57080
    D3        1.57080   0.00000   0.00000   0.00000   0.00000   1.57080
    D4        1.57080   0.00000   0.00000   0.00000   0.00000   1.57080
    D5       -1.57080   0.00000   0.00000   0.00000   0.00000  -1.57080
    D6        1.57080  -0.00000   0.00000  -0.00000   0.00000   1.57080
    D7       -1.57080  -0.00000   0.00000  -0.00000   0.00000  -1.57080
    D8       -1.57080  -0.00000   0.00000  -0.00000   0.00000  -1.57080
         Item               Value     Threshold  Converged?
 Maximum Force            0.007311     0.000450     NO 
 RMS     Force            0.003166     0.000300     NO 
 Maximum Displacement     0.066323     0.001800     NO 
 RMS     Displacement     0.028719     0.001200     NO 
 Predicted change in Energy=-1.492996D-03
 GradGradGradGradGradGradGradGradGradGradGradGradGradGradGradGradGradGrad

                          Input orientation:                          
 ---------------------------------------------------------------------
 Center     Atomic      Atomic             Coordinates (Angstroms)
 Number     Number       Type             X           Y           Z
 ---------------------------------------------------------------------
      1         51           0        9.500000    9.500000    9.500000
      2         17           0        9.500000   11.922654    9.500000
      3         17           0        9.500000    9.500000   11.922654
      4         17           0       11.922654    9.500000    9.500000
      5         17           0        9.500000    9.500000    7.077346
      6         17           0        7.077346    9.500000    9.500000
      7         17           0        9.500000    7.077346    9.500000
 ---------------------------------------------------------------------
                    Distance matrix (angstroms):
                    1          2          3          4          5
     1  Sb   0.000000
     2  Cl   2.422654   0.000000
     3  Cl   2.422654   3.426150   0.000000
     4  Cl   2.422654   3.426150   3.426150   0.000000
     5  Cl   2.422654   3.426150   4.845307   3.426150   0.000000
     6  Cl   2.422654   3.426150   3.426150   4.845307   3.426150
     7  Cl   2.422654   4.845307   3.426150   3.426150   3.426150
                    6          7
     6  Cl   0.000000
     7  Cl   3.426150   0.000000
 Stoichiometry    Cl6Sb(1-)
 Framework group  OH[O(Sb),3C4(Cl.Cl)]
 Deg. of freedom     1
 Full point group                 OH      NOp  48
 Largest Abelian subgroup         D2H     NOp   8
 Largest concise Abelian subgroup D2H     NOp   8
                         Standard orientation:                         
 ---------------------------------------------------------------------
 Center     Atomic      Atomic             Coordinates (Angstroms)
 Number     Number       Type             X           Y           Z
 ---------------------------------------------------------------------
      1         51           0        0.000000    0.000000    0.000000
      2         17           0        0.000000    0.000000    2.422654
      3         17           0        0.000000    2.422654   -0.000000
      4         17           0       -2.422654    0.000000   -0.000000
      5         17           0        0.000000   -2.422654    0.000000
      6         17           0        2.422654    0.000000    0.000000
      7         17           0        0.000000   -0.000000   -2.422654
 ---------------------------------------------------------------------
 Rotational constants (GHZ):           0.6155922           0.6155922           0.6155922
 Standard basis: def2QZVPP (5D, 7F)
 There are   142 symmetry adapted cartesian basis functions of AG  symmetry.
 There are    54 symmetry adapted cartesian basis functions of B1G symmetry.
 There are    54 symmetry adapted cartesian basis functions of B2G symmetry.
 There are    54 symmetry adapted cartesian basis functions of B3G symmetry.
 There are    31 symmetry adapted cartesian basis functions of AU  symmetry.
 There are    95 symmetry adapted cartesian basis functions of B1U symmetry.
 There are    95 symmetry adapted cartesian basis functions of B2U symmetry.
 There are    95 symmetry adapted cartesian basis functions of B3U symmetry.
 There are   108 symmetry adapted basis functions of AG  symmetry.
 There are    46 symmetry adapted basis functions of B1G symmetry.
 There are    46 symmetry adapted basis functions of B2G symmetry.
 There are    46 symmetry adapted basis functions of B3G symmetry.
 There are    28 symmetry adapted basis functions of AU  symmetry.
 There are    76 symmetry adapted basis functions of B1U symmetry.
 There are    76 symmetry adapted basis functions of B2U symmetry.
 There are    76 symmetry adapted basis functions of B3U symmetry.
   502 basis functions,   906 primitive gaussians,   620 cartesian basis functions
    63 alpha electrons       63 beta electrons
       nuclear repulsion energy      1142.7637808886 Hartrees.
 NAtoms=    7 NActive=    7 NUniq=    2 SFac= 4.00D+00 NAtFMM=   60 NAOKFM=F Big=F
 Integral buffers will be    131072 words long.
 Raffenetti 2 integral format.
 Two-electron integral symmetry is turned on.
 One-electron integrals computed using PRISM.
  48 Symmetry operations used in ECPInt.
 ECPInt:  NShTT=   11935 NPrTT=   43624 LenC2=   10601 LenP2D=   27628.
 LDataN:  DoStor=T MaxTD1= 8 Len=  415
 NBasis=   502 RedAO= T EigKep=  3.01D-04  NBF=   108    46    46    46    28    76    76    76
 NBsUse=   502 1.00D-06 EigRej= -1.00D+00 NBFU=   108    46    46    46    28    76    76    76
 Defaulting to unpruned grid for atomic number  51.
 Initial guess from the checkpoint file:  "/data/hutter/SMG16/PBE/Gau-7622.chk"
 B after Tr=     0.000000   -0.000000    0.000000
         Rot=    1.000000    0.000000    0.000000    0.000000 Ang=   0.00 deg.
 Initial guess orbital symmetries:
       Occupied  (A1G) (EG) (EG) (T1U) (T1U) (T1U) (A1G) (EG) (EG)
                 (T1U) (T1U) (T1U) (A1G) (EG) (EG) (T1U) (T1U)
                 (T1U) (T2G) (T2G) (T2G) (T1U) (T1U) (T1U) (T2U)
                 (T2U) (T2U) (T1G) (T1G) (T1G) (A1G) (T1U) (T1U)
                 (T1U) (EG) (EG) (T2G) (T2G) (T2G) (A1G) (T1U)
                 (T1U) (T1U) (EG) (EG) (A1G) (T1U) (T1U) (T1U)
                 (T2G) (T2G) (T2G) (EG) (EG) (T1U) (T1U) (T1U)
                 (T2U) (T2U) (T2U) (T1G) (T1G) (T1G)
       Virtual   (A1G) (T1U) (T1U) (T1U) (A1G) (T1U) (T1U) (T1U)
                 (EG) (EG) (T2G) (T2G) (T2G) (T1U) (T1U) (T1U)
                 (T2G) (T2G) (T2G) (A1G) (T2U) (T2U) (T2U) (A2U)
                 (T1U) (T1U) (T1U) (EG) (EG) (T1G) (T1G) (T1G)
                 (T2U) (T2U) (T2U) (EG) (EG) (T2G) (T2G) (T2G)
                 (EU) (EU) (A2G) (T2U) (T2U) (T2U) (T1U) (T1U)
                 (T1U) (T1G) (T1G) (T1G) (T1U) (T1U) (T1U) (A1G)
                 (EG) (EG) (A2U) (T1U) (T1U) (T1U) (T2G) (T2G)
                 (T2G) (A1G) (T2G) (T2G) (T2G) (T1U) (T1U) (T1U)
                 (EG) (EG) (T2U) (T2U) (T2U) (A1G) (T1U) (T1U)
                 (T1U) (EG) (EG) (A2U) (T2U) (T2U) (T2U) (T2G)
                 (T2G) (T2G) (T2U) (T2U) (T2U) (EG) (EG) (T1G)
                 (T1G) (T1G) (T1U) (T1U) (T1U) (A2U) (EU) (EU)
                 (T2G) (T2G) (T2G) (T2G) (T2G) (T2G) (A1G) (T1U)
                 (T1U) (T1U) (A2G) (EG) (EG) (T1G) (T1G) (T1G)
                 (T2U) (T2U) (T2U) (T1U) (T1U) (T1U) (T2U) (T2U)
                 (T2U) (T1G) (T1G) (T1G) (T1U) (T1U) (T1U) (EU)
                 (EU) (EG) (EG) (T2G) (T2G) (T2G) (T2U) (T2U) (T2U)
                 (T1U) (T1U) (T1U) (T2G) (T2G) (T2G) (T1G) (T1G)
                 (T1G) (A2G) (A1G) (T2U) (T2U) (T2U) (T1U) (T1U)
                 (T1U) (T2G) (T2G) (T2G) (A2U) (T1U) (T1U) (T1U)
                 (EG) (EG) (A1G) (T2G) (T2G) (T2G) (T1U) (T1U)
                 (T1U) (T2U) (T2U) (T2U) (EG) (EG) (A1G) (EG) (EG)
                 (EG) (EG) (T1U) (T1U) (T1U) (T1G) (T1G) (T1G)
                 (T2G) (T2G) (T2G) (A1G) (A1G) (T1U) (T1U) (T1U)
                 (EG) (EG) (A2U) (T2U) (T2U) (T2U) (T1U) (T1U)
                 (T1U) (A2U) (T2U) (T2U) (T2U) (T2G) (T2G) (T2G)
                 (EU) (EU) (A2G) (EG) (EG) (T2G) (T2G) (T2G) (T2U)
                 (T2U) (T2U) (T1U) (T1U) (T1U) (T1G) (T1G) (T1G)
                 (A1G) (T1U) (T1U) (T1U) (EG) (EG) (EU) (EU) (A2G)
                 (T2U) (T2U) (T2U) (T2G) (T2G) (T2G) (T1G) (T1G)
                 (T1G) (A1U) (EU) (EU) (EG) (EG) (A1G) (T1G) (T1G)
                 (T1G) (T1U) (T1U) (T1U) (T2G) (T2G) (T2G) (T1U)
                 (T1U) (T1U) (A2U) (T2U) (T2U) (T2U) (T2U) (T2U)
                 (T2U) (T2G) (T2G) (T2G) (EG) (EG) (T1U) (T1U)
                 (T1U) (T1G) (T1G) (T1G) (T1U) (T1U) (T1U) (T2G)
                 (T2G) (T2G) (T2U) (T2U) (T2U) (T1G) (T1G) (T1G)
                 (T1U) (T1U) (T1U) (EU) (EU) (EG) (EG) (T2U) (T2U)
                 (T2U) (T2G) (T2G) (T2G) (A1G) (T1G) (T1G) (T1G)
                 (T1U) (T1U) (T1U) (A2G) (T2G) (T2G) (T2G) (T2U)
                 (T2U) (T2U) (EG) (EG) (T1U) (T1U) (T1U) (A2U)
                 (A1G) (T1G) (T1G) (T1G) (T1U) (T1U) (T1U) (T2U)
                 (T2U) (T2U) (T2G) (T2G) (T2G) (EG) (EG) (A1G)
                 (T1U) (T1U) (T1U) (EG) (EG) (T1U) (T1U) (T1U)
                 (EG) (EG) (A1G) (A2U) (T2U) (T2U) (T2U) (T1U)
                 (T1U) (T1U) (A2U) (T2U) (T2U) (T2U) (T2G) (T2G)
                 (T2G) (EU) (EU) (A2G) (EG) (EG) (T2G) (T2G) (T2G)
                 (T2U) (T2U) (T2U) (T1U) (T1U) (T1U) (A1G) (T1G)
                 (T1G) (T1G) (T1U) (T1U) (T1U) (EG) (EG) (A1G)
                 (T1U) (T1U) (T1U) (EG) (EG) (A1G) (T1U) (T1U)
                 (T1U) (T1G) (T1G) (T1G) (T2U) (T2U) (T2U) (T1U)
                 (T1U) (T1U) (T2G) (T2G) (T2G) (T1U) (T1U) (T1U)
                 (A1G) (EG) (EG) (A1G) (T1U) (T1U) (T1U) (EG) (EG)
                 (A1G) (T1U) (T1U) (T1U) (EG) (EG) (A1G)
 ExpMin= 4.82D-02 ExpMax= 1.47D+06 ExpMxC= 1.67D+03 IAcc=3 IRadAn=         5 AccDes= 0.00D+00
 Harris functional with IExCor= 1009 and IRadAn=       5 diagonalized for initial guess.
 HarFok:  IExCor= 1009 AccDes= 0.00D+00 IRadAn=         5 IDoV= 1 UseB2=F ITyADJ=14
 ICtDFT=  3500011 ScaDFX=  1.000000  1.000000  1.000000  1.000000
 Defaulting to unpruned grid for atomic number  51.
 FoFCou: FMM=F IPFlag=           0 FMFlag=      100000 FMFlg1=           0
         NFxFlg=           0 DoJE=T BraDBF=F KetDBF=T FulRan=T
         wScrn=  0.000000 ICntrl=       500 IOpCl=  0 I1Cent=   200000004 NGrid=           0
         NMat0=    1 NMatS0=      1 NMatT0=    0 NMatD0=    1 NMtDS0=    0 NMtDT0=    0
 Petite list used in FoFCou.
 Requested convergence on RMS density matrix=1.00D-08 within 128 cycles.
 Requested convergence on MAX density matrix=1.00D-06.
 Requested convergence on             energy=1.00D-06.
 No special actions if energy rises.
 Defaulting to unpruned grid for atomic number  51.
 Defaulting to unpruned grid for atomic number  51.
 Defaulting to unpruned grid for atomic number  51.
 Defaulting to unpruned grid for atomic number  51.
 Defaulting to unpruned grid for atomic number  51.
 Defaulting to unpruned grid for atomic number  51.
 Defaulting to unpruned grid for atomic number  51.
 Defaulting to unpruned grid for atomic number  51.
 Defaulting to unpruned grid for atomic number  51.
 Defaulting to unpruned grid for atomic number  51.
 Defaulting to unpruned grid for atomic number  51.
 Defaulting to unpruned grid for atomic number  51.
 Defaulting to unpruned grid for atomic number  51.
 Defaulting to unpruned grid for atomic number  51.
 Defaulting to unpruned grid for atomic number  51.
 Defaulting to unpruned grid for atomic number  51.
 SCF Done:  E(RPBE-PBE) =  -3000.79029874     A.U. after    8 cycles
            NFock=  8  Conv=0.48D-08     -V/T= 2.0533
  48 Symmetry operations used in ECPInt.
 ECPInt:  NShTT=   11935 NPrTT=   43624 LenC2=   10601 LenP2D=   27628.
 LDataN:  DoStor=T MaxTD1= 9 Len=  602
 Calling FoFJK, ICntrl=      2527 FMM=F ISym2X=1 I1Cent= 0 IOpClX= 0 NMat=1 NMatS=1 NMatT=0.
 Defaulting to unpruned grid for atomic number  51.
 Defaulting to unpruned grid for atomic number  51.
 Defaulting to unpruned grid for atomic number  51.
 Defaulting to unpruned grid for atomic number  51.
 Defaulting to unpruned grid for atomic number  51.
 Defaulting to unpruned grid for atomic number  51.
 Defaulting to unpruned grid for atomic number  51.
 Defaulting to unpruned grid for atomic number  51.
 Defaulting to unpruned grid for atomic number  51.
 Defaulting to unpruned grid for atomic number  51.
 Defaulting to unpruned grid for atomic number  51.
 Defaulting to unpruned grid for atomic number  51.
 Defaulting to unpruned grid for atomic number  51.
 Defaulting to unpruned grid for atomic number  51.
 Defaulting to unpruned grid for atomic number  51.
 Defaulting to unpruned grid for atomic number  51.
 ***** Axes restored to original set *****
 -------------------------------------------------------------------
 Center     Atomic                   Forces (Hartrees/Bohr)
 Number     Number              X              Y              Z
 -------------------------------------------------------------------
      1       51          -0.000000000    0.000000000   -0.000000000
      2       17           0.000000000   -0.000227656    0.000000000
      3       17          -0.000000000   -0.000000000   -0.000227656
      4       17          -0.000227656   -0.000000000   -0.000000000
      5       17           0.000000000    0.000000000    0.000227656
      6       17           0.000227656    0.000000000   -0.000000000
      7       17          -0.000000000    0.000227656   -0.000000000
 -------------------------------------------------------------------
 Cartesian Forces:  Max     0.000227656 RMS     0.000121687

 GradGradGradGradGradGradGradGradGradGradGradGradGradGradGradGradGradGrad
 Berny optimization.
 Using GEDIIS/GDIIS optimizer.
 FormGI is forming the generalized inverse of G from B-inverse, IUseBI=4.
 Internal  Forces:  Max     0.000227656 RMS     0.000098578
 Search for a local minimum.
 Step number   2 out of a maximum of   42
 All quantities printed in internal units (Hartrees-Bohrs-Radians)
 Mixed Optimization -- En-DIIS/RFO-DIIS
 Update second derivatives using D2CorX and points    1    2
 DE= -1.54D-03 DEPred=-1.49D-03 R= 1.03D+00
 TightC=F SS=  1.41D+00  RLast= 1.62D-01 DXNew= 5.0454D-01 4.8737D-01
 Trust test= 1.03D+00 RLast= 1.62D-01 DXMaxT set to 4.87D-01
 ITU=  1  0
 Use linear search instead of GDIIS.
     Eigenvalues ---    0.07634   0.08487   0.08487   0.09782   0.09892
     Eigenvalues ---    0.10680   0.10732   0.10732   0.10732   0.10732
     Eigenvalues ---    0.10732   0.12615   0.12615   0.18704   0.21640
 RFO step:  Lambda= 0.00000000D+00 EMin= 7.63417371D-02
 Quartic linear search produced a step of  0.02949.
 Iteration  1 RMS(Cart)=  0.00084680 RMS(Int)=  0.00000000
 Iteration  2 RMS(Cart)=  0.00000000 RMS(Int)=  0.00000000
 ClnCor:  largest displacement from symmetrization is 7.44D-12 for atom     4.
 Variable       Old X    -DE/DX   Delta X   Delta X   Delta X     New X
                                 (Linear)    (Quad)   (Total)
    R1        4.57815  -0.00023  -0.00196   0.00000  -0.00196   4.57620
    R2        4.57815  -0.00023  -0.00196  -0.00000  -0.00196   4.57620
    R3        4.57815  -0.00023  -0.00196  -0.00000  -0.00196   4.57620
    R4        4.57815  -0.00023  -0.00196   0.00000  -0.00196   4.57620
    R5        4.57815  -0.00023  -0.00196   0.00000  -0.00196   4.57620
    R6        4.57815  -0.00023  -0.00196   0.00000  -0.00196   4.57620
    A1        1.57080  -0.00000   0.00000  -0.00000   0.00000   1.57080
    A2        1.57080  -0.00000   0.00000  -0.00000   0.00000   1.57080
    A3        1.57080   0.00000   0.00000   0.00000   0.00000   1.57080
    A4        1.57080   0.00000   0.00000   0.00000   0.00000   1.57080
    A5        1.57080  -0.00000   0.00000  -0.00000   0.00000   1.57080
    A6        1.57080   0.00000   0.00000   0.00000   0.00000   1.57080
    A7        1.57080  -0.00000   0.00000  -0.00000   0.00000   1.57080
    A8        1.57080  -0.00000   0.00000  -0.00000   0.00000   1.57080
    A9        1.57080  -0.00000   0.00000  -0.00000   0.00000   1.57080
   A10        1.57080   0.00000   0.00000   0.00000   0.00000   1.57080
   A11        1.57080   0.00000   0.00000   0.00000   0.00000   1.57080
   A12        1.57080   0.00000   0.00000   0.00000   0.00000   1.57080
   A13        3.14159  -0.00000   0.00000  -0.00000   0.00000   3.14159
   A14        3.14159  -0.00000   0.00000  -0.00000   0.00000   3.14159
   A15        3.14159  -0.00000   0.00000  -0.00000   0.00000   3.14159
   A16        3.14159   0.00000   0.00000   0.00000   0.00000   3.14159
   A17        3.14159  -0.00000   0.00000  -0.00000   0.00000   3.14159
   A18        3.14159   0.00000   0.00000   0.00000   0.00000   3.14159
    D1        1.57080  -0.00000   0.00000  -0.00000   0.00000   1.57080
    D2       -1.57080   0.00000   0.00000   0.00000   0.00000  -1.57080
    D3        1.57080  -0.00000   0.00000  -0.00000   0.00000   1.57080
    D4        1.57080   0.00000   0.00000   0.00000   0.00000   1.57080
    D5       -1.57080   0.00000   0.00000   0.00000   0.00000  -1.57080
    D6        1.57080   0.00000   0.00000   0.00000   0.00000   1.57080
    D7       -1.57080   0.00000   0.00000   0.00000   0.00000  -1.57080
    D8       -1.57080  -0.00000   0.00000  -0.00000   0.00000  -1.57080
         Item               Value     Threshold  Converged?
 Maximum Force            0.000228     0.000450     YES
 RMS     Force            0.000099     0.000300     YES
 Maximum Displacement     0.001956     0.001800     NO 
 RMS     Displacement     0.000847     0.001200     YES
 Predicted change in Energy=-1.445937D-06
 GradGradGradGradGradGradGradGradGradGradGradGradGradGradGradGradGradGrad

                          Input orientation:                          
 ---------------------------------------------------------------------
 Center     Atomic      Atomic             Coordinates (Angstroms)
 Number     Number       Type             X           Y           Z
 ---------------------------------------------------------------------
      1         51           0        9.500000    9.500000    9.500000
      2         17           0        9.500000   11.921619    9.500000
      3         17           0        9.500000    9.500000   11.921619
      4         17           0       11.921619    9.500000    9.500000
      5         17           0        9.500000    9.500000    7.078381
      6         17           0        7.078381    9.500000    9.500000
      7         17           0        9.500000    7.078381    9.500000
 ---------------------------------------------------------------------
                    Distance matrix (angstroms):
                    1          2          3          4          5
     1  Sb   0.000000
     2  Cl   2.421619   0.000000
     3  Cl   2.421619   3.424686   0.000000
     4  Cl   2.421619   3.424686   3.424686   0.000000
     5  Cl   2.421619   3.424686   4.843238   3.424686   0.000000
     6  Cl   2.421619   3.424686   3.424686   4.843238   3.424686
     7  Cl   2.421619   4.843238   3.424686   3.424686   3.424686
                    6          7
     6  Cl   0.000000
     7  Cl   3.424686   0.000000
 Stoichiometry    Cl6Sb(1-)
 Framework group  OH[O(Sb),3C4(Cl.Cl)]
 Deg. of freedom     1
 Full point group                 OH      NOp  48
 Largest Abelian subgroup         D2H     NOp   8
 Largest concise Abelian subgroup D2H     NOp   8
                         Standard orientation:                         
 ---------------------------------------------------------------------
 Center     Atomic      Atomic             Coordinates (Angstroms)
 Number     Number       Type             X           Y           Z
 ---------------------------------------------------------------------
      1         51           0        0.000000    0.000000    0.000000
      2         17           0        0.000000    0.000000    2.421619
      3         17           0        0.000000    2.421619   -0.000000
      4         17           0       -2.421619    0.000000   -0.000000
      5         17           0        0.000000   -2.421619    0.000000
      6         17           0        2.421619    0.000000    0.000000
      7         17           0        0.000000   -0.000000   -2.421619
 ---------------------------------------------------------------------
 Rotational constants (GHZ):           0.6161185           0.6161185           0.6161185
 Standard basis: def2QZVPP (5D, 7F)
 There are   142 symmetry adapted cartesian basis functions of AG  symmetry.
 There are    54 symmetry adapted cartesian basis functions of B1G symmetry.
 There are    54 symmetry adapted cartesian basis functions of B2G symmetry.
 There are    54 symmetry adapted cartesian basis functions of B3G symmetry.
 There are    31 symmetry adapted cartesian basis functions of AU  symmetry.
 There are    95 symmetry adapted cartesian basis functions of B1U symmetry.
 There are    95 symmetry adapted cartesian basis functions of B2U symmetry.
 There are    95 symmetry adapted cartesian basis functions of B3U symmetry.
 There are   108 symmetry adapted basis functions of AG  symmetry.
 There are    46 symmetry adapted basis functions of B1G symmetry.
 There are    46 symmetry adapted basis functions of B2G symmetry.
 There are    46 symmetry adapted basis functions of B3G symmetry.
 There are    28 symmetry adapted basis functions of AU  symmetry.
 There are    76 symmetry adapted basis functions of B1U symmetry.
 There are    76 symmetry adapted basis functions of B2U symmetry.
 There are    76 symmetry adapted basis functions of B3U symmetry.
   502 basis functions,   906 primitive gaussians,   620 cartesian basis functions
    63 alpha electrons       63 beta electrons
       nuclear repulsion energy      1143.2521321257 Hartrees.
 NAtoms=    7 NActive=    7 NUniq=    2 SFac= 4.00D+00 NAtFMM=   60 NAOKFM=F Big=F
 Integral buffers will be    131072 words long.
 Raffenetti 2 integral format.
 Two-electron integral symmetry is turned on.
 One-electron integrals computed using PRISM.
  48 Symmetry operations used in ECPInt.
 ECPInt:  NShTT=   11935 NPrTT=   43624 LenC2=   10601 LenP2D=   27628.
 LDataN:  DoStor=T MaxTD1= 8 Len=  415
 NBasis=   502 RedAO= T EigKep=  3.00D-04  NBF=   108    46    46    46    28    76    76    76
 NBsUse=   502 1.00D-06 EigRej= -1.00D+00 NBFU=   108    46    46    46    28    76    76    76
 Defaulting to unpruned grid for atomic number  51.
 Initial guess from the checkpoint file:  "/data/hutter/SMG16/PBE/Gau-7622.chk"
 B after Tr=     0.000000   -0.000000    0.000000
         Rot=    1.000000    0.000000    0.000000    0.000000 Ang=   0.00 deg.
 Initial guess orbital symmetries:
       Occupied  (A1G) (EG) (EG) (T1U) (T1U) (T1U) (A1G) (EG) (EG)
                 (T1U) (T1U) (T1U) (A1G) (EG) (EG) (T1U) (T1U)
                 (T1U) (T2G) (T2G) (T2G) (T1U) (T1U) (T1U) (T2U)
                 (T2U) (T2U) (T1G) (T1G) (T1G) (A1G) (T1U) (T1U)
                 (T1U) (EG) (EG) (T2G) (T2G) (T2G) (A1G) (T1U)
                 (T1U) (T1U) (EG) (EG) (A1G) (T1U) (T1U) (T1U)
                 (T2G) (T2G) (T2G) (EG) (EG) (T1U) (T1U) (T1U)
                 (T2U) (T2U) (T2U) (T1G) (T1G) (T1G)
       Virtual   (A1G) (T1U) (T1U) (T1U) (A1G) (T1U) (T1U) (T1U)
                 (EG) (EG) (T2G) (T2G) (T2G) (T1U) (T1U) (T1U)
                 (T2G) (T2G) (T2G) (A1G) (T2U) (T2U) (T2U) (A2U)
                 (T1U) (T1U) (T1U) (EG) (EG) (T1G) (T1G) (T1G)
                 (T2U) (T2U) (T2U) (EG) (EG) (T2G) (T2G) (T2G)
                 (EU) (EU) (A2G) (T1U) (T1U) (T1U) (T2U) (T2U)
                 (T2U) (T1G) (T1G) (T1G) (T1U) (T1U) (T1U) (A1G)
                 (EG) (EG) (A2U) (T1U) (T1U) (T1U) (T2G) (T2G)
                 (T2G) (A1G) (T2G) (T2G) (T2G) (T1U) (T1U) (T1U)
                 (EG) (EG) (T2U) (T2U) (T2U) (A1G) (T1U) (T1U)
                 (T1U) (EG) (EG) (T2U) (T2U) (T2U) (T2G) (T2G)
                 (T2G) (A2U) (EG) (EG) (T2U) (T2U) (T2U) (T1G)
                 (T1G) (T1G) (T1U) (T1U) (T1U) (T2G) (T2G) (T2G)
                 (EU) (EU) (A2U) (T2G) (T2G) (T2G) (T1U) (T1U)
                 (T1U) (A1G) (A2G) (T1G) (T1G) (T1G) (EG) (EG)
                 (T2U) (T2U) (T2U) (T1U) (T1U) (T1U) (T2U) (T2U)
                 (T2U) (T1G) (T1G) (T1G) (T1U) (T1U) (T1U) (EU)
                 (EU) (T2G) (T2G) (T2G) (EG) (EG) (T2U) (T2U) (T2U)
                 (T2G) (T2G) (T2G) (T1U) (T1U) (T1U) (T1G) (T1G)
                 (T1G) (A2G) (A1G) (T2U) (T2U) (T2U) (T1U) (T1U)
                 (T1U) (T2G) (T2G) (T2G) (A2U) (EG) (EG) (T1U)
                 (T1U) (T1U) (T2G) (T2G) (T2G) (A1G) (T1U) (T1U)
                 (T1U) (T2U) (T2U) (T2U) (A1G) (EG) (EG) (EG) (EG)
                 (T1U) (T1U) (T1U) (EG) (EG) (T1G) (T1G) (T1G)
                 (T2G) (T2G) (T2G) (A1G) (T1U) (T1U) (T1U) (A1G)
                 (EG) (EG) (A2U) (T2U) (T2U) (T2U) (T1U) (T1U)
                 (T1U) (A2U) (T2U) (T2U) (T2U) (T2G) (T2G) (T2G)
                 (EU) (EU) (A2G) (EG) (EG) (T2G) (T2G) (T2G) (T2U)
                 (T2U) (T2U) (T1U) (T1U) (T1U) (T1G) (T1G) (T1G)
                 (A1G) (T1U) (T1U) (T1U) (EG) (EG) (EU) (EU) (A2G)
                 (T2U) (T2U) (T2U) (T2G) (T2G) (T2G) (T1G) (T1G)
                 (T1G) (A1U) (EU) (EU) (EG) (EG) (A1G) (T1U) (T1U)
                 (T1U) (T1G) (T1G) (T1G) (T2G) (T2G) (T2G) (A2U)
                 (T1U) (T1U) (T1U) (T2U) (T2U) (T2U) (T2G) (T2G)
                 (T2G) (T2U) (T2U) (T2U) (T1U) (T1U) (T1U) (EG)
                 (EG) (T1G) (T1G) (T1G) (T1U) (T1U) (T1U) (T2G)
                 (T2G) (T2G) (T2U) (T2U) (T2U) (T1G) (T1G) (T1G)
                 (T1U) (T1U) (T1U) (EU) (EU) (T2U) (T2U) (T2U)
                 (T2G) (T2G) (T2G) (EG) (EG) (A1G) (T1G) (T1G)
                 (T1G) (T1U) (T1U) (T1U) (A2G) (T2G) (T2G) (T2G)
                 (T2U) (T2U) (T2U) (T1U) (T1U) (T1U) (EG) (EG)
                 (A2U) (A1G) (T1G) (T1G) (T1G) (T1U) (T1U) (T1U)
                 (T2U) (T2U) (T2U) (T2G) (T2G) (T2G) (EG) (EG)
                 (A1G) (T1U) (T1U) (T1U) (EG) (EG) (T1U) (T1U)
                 (T1U) (EG) (EG) (A1G) (A2U) (T2U) (T2U) (T2U)
                 (T1U) (T1U) (T1U) (A2U) (T2U) (T2U) (T2U) (EU)
                 (EU) (T2G) (T2G) (T2G) (A2G) (EG) (EG) (T2G) (T2G)
                 (T2G) (T2U) (T2U) (T2U) (T1U) (T1U) (T1U) (A1G)
                 (T1G) (T1G) (T1G) (T1U) (T1U) (T1U) (EG) (EG)
                 (A1G) (T1U) (T1U) (T1U) (EG) (EG) (A1G) (T1U)
                 (T1U) (T1U) (T1G) (T1G) (T1G) (T2U) (T2U) (T2U)
                 (T1U) (T1U) (T1U) (T2G) (T2G) (T2G) (T1U) (T1U)
                 (T1U) (A1G) (EG) (EG) (A1G) (T1U) (T1U) (T1U)
                 (EG) (EG) (A1G) (T1U) (T1U) (T1U) (EG) (EG) (A1G)
 Requested convergence on RMS density matrix=1.00D-08 within 128 cycles.
 Requested convergence on MAX density matrix=1.00D-06.
 Requested convergence on             energy=1.00D-06.
 No special actions if energy rises.
 Defaulting to unpruned grid for atomic number  51.
 Defaulting to unpruned grid for atomic number  51.
 Defaulting to unpruned grid for atomic number  51.
 Defaulting to unpruned grid for atomic number  51.
 Defaulting to unpruned grid for atomic number  51.
 Defaulting to unpruned grid for atomic number  51.
 Defaulting to unpruned grid for atomic number  51.
 Defaulting to unpruned grid for atomic number  51.
 Defaulting to unpruned grid for atomic number  51.
 Defaulting to unpruned grid for atomic number  51.
 Defaulting to unpruned grid for atomic number  51.
 Defaulting to unpruned grid for atomic number  51.
 Defaulting to unpruned grid for atomic number  51.
 Defaulting to unpruned grid for atomic number  51.
 Defaulting to unpruned grid for atomic number  51.
 Defaulting to unpruned grid for atomic number  51.
 SCF Done:  E(RPBE-PBE) =  -3000.79030008     A.U. after    6 cycles
            NFock=  6  Conv=0.48D-08     -V/T= 2.0533
  48 Symmetry operations used in ECPInt.
 ECPInt:  NShTT=   11935 NPrTT=   43624 LenC2=   10601 LenP2D=   27628.
 LDataN:  DoStor=T MaxTD1= 9 Len=  602
 Calling FoFJK, ICntrl=      2527 FMM=F ISym2X=1 I1Cent= 0 IOpClX= 0 NMat=1 NMatS=1 NMatT=0.
 Defaulting to unpruned grid for atomic number  51.
 Defaulting to unpruned grid for atomic number  51.
 Defaulting to unpruned grid for atomic number  51.
 Defaulting to unpruned grid for atomic number  51.
 Defaulting to unpruned grid for atomic number  51.
 Defaulting to unpruned grid for atomic number  51.
 Defaulting to unpruned grid for atomic number  51.
 Defaulting to unpruned grid for atomic number  51.
 Defaulting to unpruned grid for atomic number  51.
 Defaulting to unpruned grid for atomic number  51.
 Defaulting to unpruned grid for atomic number  51.
 Defaulting to unpruned grid for atomic number  51.
 Defaulting to unpruned grid for atomic number  51.
 Defaulting to unpruned grid for atomic number  51.
 Defaulting to unpruned grid for atomic number  51.
 Defaulting to unpruned grid for atomic number  51.
 ***** Axes restored to original set *****
 -------------------------------------------------------------------
 Center     Atomic                   Forces (Hartrees/Bohr)
 Number     Number              X              Y              Z
 -------------------------------------------------------------------
      1       51          -0.000000000   -0.000000000   -0.000000000
      2       17          -0.000000000    0.000000184    0.000000000
      3       17          -0.000000000   -0.000000000    0.000000184
      4       17           0.000000184   -0.000000000   -0.000000000
      5       17           0.000000000    0.000000000   -0.000000184
      6       17          -0.000000184   -0.000000000   -0.000000000
      7       17          -0.000000000   -0.000000184   -0.000000000
 -------------------------------------------------------------------
 Cartesian Forces:  Max     0.000000184 RMS     0.000000098

 GradGradGradGradGradGradGradGradGradGradGradGradGradGradGradGradGradGrad
 Berny optimization.
 Using GEDIIS/GDIIS optimizer.
 FormGI is forming the generalized inverse of G from B-inverse, IUseBI=4.
 Internal  Forces:  Max     0.000000184 RMS     0.000000080
 Search for a local minimum.
 Step number   3 out of a maximum of   42
 All quantities printed in internal units (Hartrees-Bohrs-Radians)
 Mixed Optimization -- En-DIIS/RFO-DIIS
 Swapping is turned off.
 Update second derivatives using D2CorX and points    1    2    3
 DE= -1.34D-06 DEPred=-1.45D-06 R= 9.23D-01
 TightC=F SS=  1.41D+00  RLast= 4.79D-03 DXNew= 8.1966D-01 1.4371D-02
 Trust test= 9.23D-01 RLast= 4.79D-03 DXMaxT set to 4.87D-01
 ITU=  1  1  0
     Eigenvalues ---    0.07634   0.08487   0.08487   0.09782   0.09892
     Eigenvalues ---    0.10732   0.10732   0.10732   0.10732   0.10732
     Eigenvalues ---    0.11651   0.12615   0.12615   0.18704   0.21640
 En-DIIS/RFO-DIIS/Sim-DIIS IScMMF=       -3 using points:     3    2
 RFO step:  Lambda= 0.00000000D+00.
 DidBck=F Rises=F RFO-DIIS coefs:    0.99919    0.00081
 Iteration  1 RMS(Cart)=  0.00000068 RMS(Int)=  0.00000000
 ClnCor:  largest displacement from symmetrization is 4.44D-12 for atom     4.
 Variable       Old X    -DE/DX   Delta X   Delta X   Delta X     New X
                                 (Linear)    (Quad)   (Total)
    R1        4.57620   0.00000   0.00000  -0.00000   0.00000   4.57620
    R2        4.57620   0.00000   0.00000   0.00000   0.00000   4.57620
    R3        4.57620   0.00000   0.00000   0.00000   0.00000   4.57620
    R4        4.57620   0.00000   0.00000   0.00000   0.00000   4.57620
    R5        4.57620   0.00000   0.00000  -0.00000   0.00000   4.57620
    R6        4.57620   0.00000   0.00000  -0.00000   0.00000   4.57620
    A1        1.57080  -0.00000   0.00000  -0.00000   0.00000   1.57080
    A2        1.57080   0.00000   0.00000   0.00000   0.00000   1.57080
    A3        1.57080  -0.00000   0.00000   0.00000   0.00000   1.57080
    A4        1.57080  -0.00000   0.00000  -0.00000   0.00000   1.57080
    A5        1.57080   0.00000   0.00000   0.00000   0.00000   1.57080
    A6        1.57080  -0.00000   0.00000  -0.00000   0.00000   1.57080
    A7        1.57080  -0.00000   0.00000  -0.00000   0.00000   1.57080
    A8        1.57080   0.00000   0.00000   0.00000   0.00000   1.57080
    A9        1.57080   0.00000   0.00000   0.00000   0.00000   1.57080
   A10        1.57080  -0.00000   0.00000  -0.00000   0.00000   1.57080
   A11        1.57080   0.00000   0.00000   0.00000   0.00000   1.57080
   A12        1.57080  -0.00000   0.00000  -0.00000   0.00000   1.57080
   A13        3.14159  -0.00000   0.00000  -0.00000   0.00000   3.14159
   A14        3.14159  -0.00000   0.00000  -0.00000   0.00000   3.14159
   A15        3.14159  -0.00000   0.00000  -0.00000   0.00000   3.14159
   A16        3.14159  -0.00000   0.00000  -0.00000   0.00000   3.14159
   A17        3.14159   0.00000   0.00000   0.00000   0.00000   3.14159
   A18        3.14159   0.00000   0.00000   0.00000   0.00000   3.14159
    D1        1.57080  -0.00000   0.00000  -0.00000   0.00000   1.57080
    D2       -1.57080   0.00000   0.00000   0.00000   0.00000  -1.57080
    D3        1.57080   0.00000   0.00000   0.00000   0.00000   1.57080
    D4        1.57080  -0.00000   0.00000   0.00000   0.00000   1.57080
    D5       -1.57080  -0.00000   0.00000  -0.00000   0.00000  -1.57080
    D6        1.57080  -0.00000   0.00000  -0.00000   0.00000   1.57080
    D7       -1.57080  -0.00000   0.00000  -0.00000   0.00000  -1.57080
    D8       -1.57080   0.00000   0.00000   0.00000   0.00000  -1.57080
         Item               Value     Threshold  Converged?
 Maximum Force            0.000000     0.000450     YES
 RMS     Force            0.000000     0.000300     YES
 Maximum Displacement     0.000002     0.001800     YES
 RMS     Displacement     0.000001     0.001200     YES
 Predicted change in Energy=-8.711193D-13
 Optimization completed.
    -- Stationary point found.
                           ----------------------------
                           !   Optimized Parameters   !
                           ! (Angstroms and Degrees)  !
 --------------------------                            --------------------------
 ! Name  Definition              Value          Derivative Info.                !
 --------------------------------------------------------------------------------
 ! R1    R(1,2)                  2.4216         -DE/DX =    0.0                 !
 ! R2    R(1,3)                  2.4216         -DE/DX =    0.0                 !
 ! R3    R(1,4)                  2.4216         -DE/DX =    0.0                 !
 ! R4    R(1,5)                  2.4216         -DE/DX =    0.0                 !
 ! R5    R(1,6)                  2.4216         -DE/DX =    0.0                 !
 ! R6    R(1,7)                  2.4216         -DE/DX =    0.0                 !
 ! A1    A(2,1,3)               90.0            -DE/DX =    0.0                 !
 ! A2    A(2,1,4)               90.0            -DE/DX =    0.0                 !
 ! A3    A(2,1,5)               90.0            -DE/DX =    0.0                 !
 ! A4    A(2,1,6)               90.0            -DE/DX =    0.0                 !
 ! A5    A(3,1,4)               90.0            -DE/DX =    0.0                 !
 ! A6    A(3,1,6)               90.0            -DE/DX =    0.0                 !
 ! A7    A(3,1,7)               90.0            -DE/DX =    0.0                 !
 ! A8    A(4,1,5)               90.0            -DE/DX =    0.0                 !
 ! A9    A(4,1,7)               90.0            -DE/DX =    0.0                 !
 ! A10   A(5,1,6)               90.0            -DE/DX =    0.0                 !
 ! A11   A(5,1,7)               90.0            -DE/DX =    0.0                 !
 ! A12   A(6,1,7)               90.0            -DE/DX =    0.0                 !
 ! A13   L(2,1,7,3,-1)         180.0            -DE/DX =    0.0                 !
 ! A14   L(3,1,5,2,-1)         180.0            -DE/DX =    0.0                 !
 ! A15   L(4,1,6,2,-1)         180.0            -DE/DX =    0.0                 !
 ! A16   L(2,1,7,3,-2)         180.0            -DE/DX =    0.0                 !
 ! A17   L(3,1,5,2,-2)         180.0            -DE/DX =    0.0                 !
 ! A18   L(4,1,6,2,-2)         180.0            -DE/DX =    0.0                 !
 ! D1    D(2,1,4,3)             90.0            -DE/DX =    0.0                 !
 ! D2    D(2,1,6,3)            -90.0            -DE/DX =    0.0                 !
 ! D3    D(2,1,5,4)             90.0            -DE/DX =    0.0                 !
 ! D4    D(2,1,6,5)             90.0            -DE/DX =    0.0                 !
 ! D5    D(3,1,7,4)            -90.0            -DE/DX =    0.0                 !
 ! D6    D(3,1,7,6)             90.0            -DE/DX =    0.0                 !
 ! D7    D(4,1,7,5)            -90.0            -DE/DX =    0.0                 !
 ! D8    D(5,1,7,6)            -90.0            -DE/DX =    0.0                 !
 --------------------------------------------------------------------------------
 GradGradGradGradGradGradGradGradGradGradGradGradGradGradGradGradGradGrad

                          Input orientation:                          
 ---------------------------------------------------------------------
 Center     Atomic      Atomic             Coordinates (Angstroms)
 Number     Number       Type             X           Y           Z
 ---------------------------------------------------------------------
      1         51           0        9.500000    9.500000    9.500000
      2         17           0        9.500000   11.921619    9.500000
      3         17           0        9.500000    9.500000   11.921619
      4         17           0       11.921619    9.500000    9.500000
      5         17           0        9.500000    9.500000    7.078381
      6         17           0        7.078381    9.500000    9.500000
      7         17           0        9.500000    7.078381    9.500000
 ---------------------------------------------------------------------
                    Distance matrix (angstroms):
                    1          2          3          4          5
     1  Sb   0.000000
     2  Cl   2.421619   0.000000
     3  Cl   2.421619   3.424686   0.000000
     4  Cl   2.421619   3.424686   3.424686   0.000000
     5  Cl   2.421619   3.424686   4.843238   3.424686   0.000000
     6  Cl   2.421619   3.424686   3.424686   4.843238   3.424686
     7  Cl   2.421619   4.843238   3.424686   3.424686   3.424686
                    6          7
     6  Cl   0.000000
     7  Cl   3.424686   0.000000
 Stoichiometry    Cl6Sb(1-)
 Framework group  OH[O(Sb),3C4(Cl.Cl)]
 Deg. of freedom     1
 Full point group                 OH      NOp  48
 Largest Abelian subgroup         D2H     NOp   8
 Largest concise Abelian subgroup D2H     NOp   8
                         Standard orientation:                         
 ---------------------------------------------------------------------
 Center     Atomic      Atomic             Coordinates (Angstroms)
 Number     Number       Type             X           Y           Z
 ---------------------------------------------------------------------
      1         51           0        0.000000    0.000000    0.000000
      2         17           0        0.000000    0.000000    2.421619
      3         17           0        0.000000    2.421619   -0.000000
      4         17           0       -2.421619    0.000000   -0.000000
      5         17           0        0.000000   -2.421619    0.000000
      6         17           0        2.421619    0.000000    0.000000
      7         17           0        0.000000   -0.000000   -2.421619
 ---------------------------------------------------------------------
 Rotational constants (GHZ):           0.6161185           0.6161185           0.6161185

 **********************************************************************

            Population analysis using the SCF Density.

 **********************************************************************

 Orbital symmetries:
       Occupied  (A1G) (EG) (EG) (T1U) (T1U) (T1U) (A1G) (EG) (EG)
                 (T1U) (T1U) (T1U) (A1G) (EG) (EG) (T1U) (T1U)
                 (T1U) (T2G) (T2G) (T2G) (T1U) (T1U) (T1U) (T2U)
                 (T2U) (T2U) (T1G) (T1G) (T1G) (A1G) (T1U) (T1U)
                 (T1U) (EG) (EG) (T2G) (T2G) (T2G) (A1G) (T1U)
                 (T1U) (T1U) (EG) (EG) (A1G) (T1U) (T1U) (T1U)
                 (T2G) (T2G) (T2G) (EG) (EG) (T1U) (T1U) (T1U)
                 (T2U) (T2U) (T2U) (T1G) (T1G) (T1G)
       Virtual   (A1G) (T1U) (T1U) (T1U) (A1G) (T1U) (T1U) (T1U)
                 (EG) (EG) (T2G) (T2G) (T2G) (T1U) (T1U) (T1U)
                 (T2G) (T2G) (T2G) (A1G) (T2U) (T2U) (T2U) (A2U)
                 (T1U) (T1U) (T1U) (EG) (EG) (T1G) (T1G) (T1G)
                 (T2U) (T2U) (T2U) (EG) (EG) (T2G) (T2G) (T2G)
                 (EU) (EU) (A2G) (T1U) (T1U) (T1U) (T2U) (T2U)
                 (T2U) (T1G) (T1G) (T1G) (T1U) (T1U) (T1U) (A1G)
                 (EG) (EG) (A2U) (T1U) (T1U) (T1U) (T2G) (T2G)
                 (T2G) (A1G) (T2G) (T2G) (T2G) (T1U) (T1U) (T1U)
                 (EG) (EG) (T2U) (T2U) (T2U) (A1G) (T1U) (T1U)
                 (T1U) (EG) (EG) (T2U) (T2U) (T2U) (T2G) (T2G)
                 (T2G) (A2U) (EG) (EG) (T2U) (T2U) (T2U) (T1G)
                 (T1G) (T1G) (T2G) (T2G) (T2G) (T1U) (T1U) (T1U)
                 (EU) (EU) (A2U) (T2G) (T2G) (T2G) (T1U) (T1U)
                 (T1U) (A1G) (A2G) (T1G) (T1G) (T1G) (EG) (EG)
                 (T2U) (T2U) (T2U) (T1U) (T1U) (T1U) (T2U) (T2U)
                 (T2U) (T1G) (T1G) (T1G) (T1U) (T1U) (T1U) (EU)
                 (EU) (T2G) (T2G) (T2G) (EG) (EG) (T2U) (T2U) (T2U)
                 (T2G) (T2G) (T2G) (T1U) (T1U) (T1U) (T1G) (T1G)
                 (T1G) (A2G) (A1G) (T2U) (T2U) (T2U) (T1U) (T1U)
                 (T1U) (T2G) (T2G) (T2G) (A2U) (EG) (EG) (T1U)
                 (T1U) (T1U) (T2G) (T2G) (T2G) (A1G) (T1U) (T1U)
                 (T1U) (T2U) (T2U) (T2U) (A1G) (EG) (EG) (EG) (EG)
                 (T1U) (T1U) (T1U) (EG) (EG) (T1G) (T1G) (T1G)
                 (T2G) (T2G) (T2G) (A1G) (T1U) (T1U) (T1U) (A1G)
                 (EG) (EG) (A2U) (T2U) (T2U) (T2U) (T1U) (T1U)
                 (T1U) (A2U) (T2U) (T2U) (T2U) (T2G) (T2G) (T2G)
                 (EU) (EU) (A2G) (EG) (EG) (T2G) (T2G) (T2G) (T2U)
                 (T2U) (T2U) (T1U) (T1U) (T1U) (T1G) (T1G) (T1G)
                 (A1G) (T1U) (T1U) (T1U) (EG) (EG) (EU) (EU) (A2G)
                 (T2U) (T2U) (T2U) (T2G) (T2G) (T2G) (T1G) (T1G)
                 (T1G) (A1U) (EU) (EU) (EG) (EG) (A1G) (T1U) (T1U)
                 (T1U) (T1G) (T1G) (T1G) (T2G) (T2G) (T2G) (A2U)
                 (T1U) (T1U) (T1U) (T2U) (T2U) (T2U) (T2G) (T2G)
                 (T2G) (T2U) (T2U) (T2U) (T1U) (T1U) (T1U) (EG)
                 (EG) (T1G) (T1G) (T1G) (T1U) (T1U) (T1U) (T2G)
                 (T2G) (T2G) (T2U) (T2U) (T2U) (T1G) (T1G) (T1G)
                 (T1U) (T1U) (T1U) (EU) (EU) (T2U) (T2U) (T2U)
                 (T2G) (T2G) (T2G) (EG) (EG) (A1G) (T1G) (T1G)
                 (T1G) (T1U) (T1U) (T1U) (A2G) (T2G) (T2G) (T2G)
                 (T2U) (T2U) (T2U) (T1U) (T1U) (T1U) (EG) (EG)
                 (A2U) (A1G) (T1G) (T1G) (T1G) (T1U) (T1U) (T1U)
                 (T2U) (T2U) (T2U) (T2G) (T2G) (T2G) (EG) (EG)
                 (A1G) (T1U) (T1U) (T1U) (EG) (EG) (T1U) (T1U)
                 (T1U) (EG) (EG) (A1G) (A2U) (T2U) (T2U) (T2U)
                 (T1U) (T1U) (T1U) (A2U) (T2U) (T2U) (T2U) (EU)
                 (EU) (T2G) (T2G) (T2G) (A2G) (EG) (EG) (T2G) (T2G)
                 (T2G) (T2U) (T2U) (T2U) (T1U) (T1U) (T1U) (A1G)
                 (T1G) (T1G) (T1G) (T1U) (T1U) (T1U) (EG) (EG)
                 (A1G) (T1U) (T1U) (T1U) (EG) (EG) (A1G) (T1U)
                 (T1U) (T1U) (T1G) (T1G) (T1G) (T2U) (T2U) (T2U)
                 (T1U) (T1U) (T1U) (T2G) (T2G) (T2G) (T1U) (T1U)
                 (T1U) (A1G) (EG) (EG) (A1G) (T1U) (T1U) (T1U)
                 (EG) (EG) (A1G) (T1U) (T1U) (T1U) (EG) (EG) (A1G)
 The electronic state is 1-A1G.
 Alpha  occ. eigenvalues -- -100.52200-100.52200-100.52200-100.52200-100.52200
 Alpha  occ. eigenvalues -- -100.52200  -9.03292  -9.03292  -9.03292  -9.03292
 Alpha  occ. eigenvalues --   -9.03292  -9.03292  -6.85509  -6.85509  -6.85509
 Alpha  occ. eigenvalues --   -6.85509  -6.85509  -6.85509  -6.84733  -6.84733
 Alpha  occ. eigenvalues --   -6.84733  -6.84733  -6.84733  -6.84733  -6.84733
 Alpha  occ. eigenvalues --   -6.84733  -6.84733  -6.84733  -6.84733  -6.84733
 Alpha  occ. eigenvalues --   -5.46451  -3.73227  -3.73227  -3.73227  -1.17260
 Alpha  occ. eigenvalues --   -1.17260  -1.17042  -1.17042  -1.17042  -0.64217
 Alpha  occ. eigenvalues --   -0.59917  -0.59917  -0.59917  -0.58311  -0.58311
 Alpha  occ. eigenvalues --   -0.40086  -0.25106  -0.25106  -0.25106  -0.17504
 Alpha  occ. eigenvalues --   -0.17504  -0.17504  -0.16915  -0.16915  -0.14549
 Alpha  occ. eigenvalues --   -0.14549  -0.14549  -0.14306  -0.14306  -0.14306
 Alpha  occ. eigenvalues --   -0.12361  -0.12361  -0.12361
 Alpha virt. eigenvalues --   -0.04403   0.10146   0.10146   0.10146   0.16148
 Alpha virt. eigenvalues --    0.19493   0.19493   0.19493   0.22292   0.22292
 Alpha virt. eigenvalues --    0.23866   0.23866   0.23866   0.28513   0.28513
 Alpha virt. eigenvalues --    0.28513   0.28818   0.28818   0.28818   0.31389
 Alpha virt. eigenvalues --    0.32087   0.32087   0.32087   0.32204   0.34602
 Alpha virt. eigenvalues --    0.34602   0.34602   0.34841   0.34841   0.35531
 Alpha virt. eigenvalues --    0.35531   0.35531   0.35785   0.35785   0.35785
 Alpha virt. eigenvalues --    0.43292   0.43292   0.43562   0.43562   0.43562
 Alpha virt. eigenvalues --    0.45894   0.45894   0.50425   0.54345   0.54345
 Alpha virt. eigenvalues --    0.54345   0.54878   0.54878   0.54878   0.58134
 Alpha virt. eigenvalues --    0.58134   0.58134   0.58813   0.58813   0.58813
 Alpha virt. eigenvalues --    0.60649   0.65626   0.65626   0.69817   0.69972
 Alpha virt. eigenvalues --    0.69972   0.69972   0.71975   0.71975   0.71975
 Alpha virt. eigenvalues --    0.74099   0.76329   0.76329   0.76329   0.81586
 Alpha virt. eigenvalues --    0.81586   0.81586   0.82670   0.82670   0.83640
 Alpha virt. eigenvalues --    0.83640   0.83640   0.88379   0.97601   0.97601
 Alpha virt. eigenvalues --    0.97601   1.01928   1.01928   1.14358   1.14358
 Alpha virt. eigenvalues --    1.14358   1.14473   1.14473   1.14473   1.14756
 Alpha virt. eigenvalues --    1.21185   1.21185   1.21655   1.21655   1.21655
 Alpha virt. eigenvalues --    1.22571   1.22571   1.22571   1.26756   1.26756
 Alpha virt. eigenvalues --    1.26756   1.26770   1.26770   1.26770   1.26796
 Alpha virt. eigenvalues --    1.26796   1.26894   1.27513   1.27513   1.27513
 Alpha virt. eigenvalues --    1.28689   1.28689   1.28689   1.29131   1.29476
 Alpha virt. eigenvalues --    1.30738   1.30738   1.30738   1.30787   1.30787
 Alpha virt. eigenvalues --    1.31557   1.31557   1.31557   1.31994   1.31994
 Alpha virt. eigenvalues --    1.31994   1.38013   1.38013   1.38013   1.40802
 Alpha virt. eigenvalues --    1.40802   1.40802   1.41233   1.41233   1.41233
 Alpha virt. eigenvalues --    1.43862   1.43862   1.44417   1.44417   1.44417
 Alpha virt. eigenvalues --    1.45378   1.45378   1.46644   1.46644   1.46644
 Alpha virt. eigenvalues --    1.57622   1.57622   1.57622   1.57713   1.57713
 Alpha virt. eigenvalues --    1.57713   1.62661   1.62661   1.62661   1.63859
 Alpha virt. eigenvalues --    1.64881   1.71256   1.71256   1.71256   1.80833
 Alpha virt. eigenvalues --    1.80833   1.80833   1.85903   1.85903   1.85903
 Alpha virt. eigenvalues --    1.88502   1.89202   1.89202   1.92435   1.92435
 Alpha virt. eigenvalues --    1.92435   1.96814   1.96814   1.96814   1.99791
 Alpha virt. eigenvalues --    2.05857   2.05857   2.05857   2.13421   2.13421
 Alpha virt. eigenvalues --    2.13421   2.15891   2.15987   2.15987   2.25579
 Alpha virt. eigenvalues --    2.25579   2.31416   2.31416   2.31416   2.32085
 Alpha virt. eigenvalues --    2.32085   2.38589   2.38589   2.38589   2.52096
 Alpha virt. eigenvalues --    2.52096   2.52096   2.69269   2.93058   2.93058
 Alpha virt. eigenvalues --    2.93058   2.94246   2.99855   2.99855   3.04829
 Alpha virt. eigenvalues --    3.09770   3.09770   3.09770   3.11933   3.11933
 Alpha virt. eigenvalues --    3.11933   3.20904   3.26189   3.26189   3.26189
 Alpha virt. eigenvalues --    3.29783   3.29783   3.29783   3.30349   3.30349
 Alpha virt. eigenvalues --    3.37137   3.38419   3.38419   3.40901   3.40901
 Alpha virt. eigenvalues --    3.40901   3.45191   3.45191   3.45191   3.46999
 Alpha virt. eigenvalues --    3.46999   3.46999   3.48214   3.48214   3.48214
 Alpha virt. eigenvalues --    3.51787   3.57290   3.57290   3.57290   3.59788
 Alpha virt. eigenvalues --    3.59788   3.60900   3.60900   3.61637   3.62601
 Alpha virt. eigenvalues --    3.62601   3.62601   3.63161   3.63161   3.63161
 Alpha virt. eigenvalues --    3.63257   3.63257   3.63257   3.63777   3.63873
 Alpha virt. eigenvalues --    3.63873   3.63982   3.63982   3.64207   3.64899
 Alpha virt. eigenvalues --    3.64899   3.64899   3.64921   3.64921   3.64921
 Alpha virt. eigenvalues --    3.67894   3.67894   3.67894   3.69467   3.70518
 Alpha virt. eigenvalues --    3.70518   3.70518   3.71579   3.71579   3.71579
 Alpha virt. eigenvalues --    3.73580   3.73580   3.73580   3.74087   3.74087
 Alpha virt. eigenvalues --    3.74087   3.75767   3.75767   3.75767   3.77993
 Alpha virt. eigenvalues --    3.77993   3.86424   3.86424   3.86424   3.88345
 Alpha virt. eigenvalues --    3.88345   3.88345   3.89774   3.89774   3.89774
 Alpha virt. eigenvalues --    3.94019   3.94019   3.94019   3.96486   3.96486
 Alpha virt. eigenvalues --    3.96486   3.97368   3.97368   3.97368   3.98237
 Alpha virt. eigenvalues --    3.98237   3.99058   3.99058   3.99058   3.99860
 Alpha virt. eigenvalues --    3.99860   3.99860   4.00746   4.00746   4.01963
 Alpha virt. eigenvalues --    4.02528   4.02528   4.02528   4.04162   4.04162
 Alpha virt. eigenvalues --    4.04162   4.15251   4.18387   4.18387   4.18387
 Alpha virt. eigenvalues --    4.21639   4.21639   4.21639   4.26899   4.26899
 Alpha virt. eigenvalues --    4.26899   4.28644   4.28644   4.32537   4.42765
 Alpha virt. eigenvalues --    4.46310   4.46310   4.46310   4.47418   4.47418
 Alpha virt. eigenvalues --    4.47418   4.56935   4.56935   4.56935   4.57306
 Alpha virt. eigenvalues --    4.57306   4.57306   4.63793   4.63793   5.05886
 Alpha virt. eigenvalues --    5.08877   5.08877   5.08877   5.11070   5.11070
 Alpha virt. eigenvalues --    8.44686   8.44686   8.44686   8.50632   8.50632
 Alpha virt. eigenvalues --    8.52910   9.95101  10.05634  10.05634  10.05634
 Alpha virt. eigenvalues --   10.23199  10.23199  10.23199  10.55735  10.59276
 Alpha virt. eigenvalues --   10.59276  10.59276  10.62168  10.62168  10.62182
 Alpha virt. eigenvalues --   10.62182  10.62182  10.68564  10.70090  10.70090
 Alpha virt. eigenvalues --   10.72479  10.72479  10.72479  10.75423  10.75423
 Alpha virt. eigenvalues --   10.75423  10.77369  10.77369  10.77369  10.78239
 Alpha virt. eigenvalues --   10.78416  10.78416  10.78416  10.83910  10.83910
 Alpha virt. eigenvalues --   10.83910  10.86071  10.86071  14.83606  28.55051
 Alpha virt. eigenvalues --   28.55051  28.55051  28.59595  28.59595  28.62409
 Alpha virt. eigenvalues --   40.34938  40.34938  40.34938  41.48492  41.48492
 Alpha virt. eigenvalues --   41.48492  41.48660  41.48660  41.48660  41.49193
 Alpha virt. eigenvalues --   41.49193  41.49193  41.49293  41.49293  41.49293
 Alpha virt. eigenvalues --   41.55171  41.55171  41.55171  41.55715  41.56223
 Alpha virt. eigenvalues --   41.56223  76.41870  97.83991  97.83991  97.83991
 Alpha virt. eigenvalues --   97.88072  97.88072  97.90654 524.17994 524.17994
 Alpha virt. eigenvalues --  524.17994 524.24941 524.24941 524.28294
          Condensed to atoms (all electrons):
               1          2          3          4          5          6
     1  Sb  19.795359   0.247141   0.247141   0.247141   0.247141   0.247141
     2  Cl   0.247141  17.362159  -0.039275  -0.039275  -0.039275  -0.039275
     3  Cl   0.247141  -0.039275  17.362159  -0.039275   0.001431  -0.039275
     4  Cl   0.247141  -0.039275  -0.039275  17.362159  -0.039275   0.001431
     5  Cl   0.247141  -0.039275   0.001431  -0.039275  17.362159  -0.039275
     6  Cl   0.247141  -0.039275  -0.039275   0.001431  -0.039275  17.362159
     7  Cl   0.247141   0.001431  -0.039275  -0.039275  -0.039275  -0.039275
               7
     1  Sb   0.247141
     2  Cl   0.001431
     3  Cl  -0.039275
     4  Cl  -0.039275
     5  Cl  -0.039275
     6  Cl  -0.039275
     7  Cl  17.362159
 Mulliken charges:
               1
     1  Sb   1.721794
     2  Cl  -0.453632
     3  Cl  -0.453632
     4  Cl  -0.453632
     5  Cl  -0.453632
     6  Cl  -0.453632
     7  Cl  -0.453632
 Sum of Mulliken charges =  -1.00000
 Mulliken charges with hydrogens summed into heavy atoms:
               1
     1  Sb   1.721794
     2  Cl  -0.453632
     3  Cl  -0.453632
     4  Cl  -0.453632
     5  Cl  -0.453632
     6  Cl  -0.453632
     7  Cl  -0.453632
 Electronic spatial extent (au):  <R**2>=           2399.1881
 Charge=             -1.0000 electrons
 Dipole moment (field-independent basis, Debye):
    X=             -0.0000    Y=              0.0000    Z=             -0.0000  Tot=              0.0000
 Quadrupole moment (field-independent basis, Debye-Ang):
   XX=           -117.9808   YY=           -117.9808   ZZ=           -117.9808
   XY=             -0.0000   XZ=             -0.0000   YZ=             -0.0000
 Traceless Quadrupole moment (field-independent basis, Debye-Ang):
   XX=              0.0000   YY=              0.0000   ZZ=             -0.0000
   XY=             -0.0000   XZ=             -0.0000   YZ=             -0.0000
 Octapole moment (field-independent basis, Debye-Ang**2):
  XXX=             -0.0000  YYY=              0.0000  ZZZ=              0.0000  XYY=             -0.0000
  XXY=              0.0000  XXZ=             -0.0000  XZZ=             -0.0000  YZZ=              0.0000
  YYZ=             -0.0000  XYZ=              0.0000
 Hexadecapole moment (field-independent basis, Debye-Ang**3):
 XXXX=          -1107.0645 YYYY=          -1107.0645 ZZZZ=          -1107.0645 XXXY=              0.0000
 XXXZ=             -0.0000 YYYX=             -0.0000 YYYZ=             -0.0000 ZZZX=              0.0000
 ZZZY=              0.0000 XXYY=           -361.6451 XXZZ=           -361.6451 YYZZ=           -361.6451
 XXYZ=             -0.0000 YYXZ=             -0.0000 ZZXY=             -0.0000
 N-N= 1.143252132126D+03 E-N=-9.384356385829D+03  KE= 2.849024833254D+03
 Symmetry AG   KE= 1.135134179422D+03
 Symmetry B1G  KE= 1.031578494668D+02
 Symmetry B2G  KE= 1.031578494668D+02
 Symmetry B3G  KE= 1.031578494668D+02
 Symmetry AU   KE=-2.273696922089D-23
 Symmetry B1U  KE= 4.681390351439D+02
 Symmetry B2U  KE= 4.681390351439D+02
 Symmetry B3U  KE= 4.681390351439D+02
 Unable to Open any file for archive entry.
 1\1\GINC-TCOPT10\FOpt\RPBEPBE\def2QZVPP\Cl6Sb1(1-)\HUTTER\30-Jul-2021\
 0\\#N RPBEPBE/Def2QZVPP scf=tight Int(Grid=ultrafine) OPT FREQ\\Mol jo
 b 1\\-1,1\Sb,9.5,9.5,9.5\Cl,9.5,11.9216188595,9.5\Cl,9.5,9.5,11.921618
 8595\Cl,11.9216188595,9.5,9.5\Cl,9.5,9.5,7.0783811405\Cl,7.0783811405,
 9.5,9.5\Cl,9.5,7.0783811405,9.5\\Version=ES64L-G16RevC.01\State=1-A1G\
 HF=-3000.7903001\RMSD=4.764e-09\RMSF=9.831e-08\Dipole=0.,0.,0.\Quadrup
 ole=0.,0.,0.,0.,0.,0.\PG=OH [O(Sb1),3C4(Cl1.Cl1)]\\@
 The archive entry for this job was punched.


 Age does not diminish the extreme disappointment of
 having a scoop of ice cream fall from the cone.
 -- Jim Fiebig
 Job cpu time:       0 days  0 hours 40 minutes 40.4 seconds.
 Elapsed time:       0 days  0 hours  2 minutes 34.6 seconds.
 File lengths (MBytes):  RWF=    158 Int=      0 D2E=      0 Chk=     19 Scr=      1
 Normal termination of Gaussian 16 at Fri Jul 30 19:32:11 2021.
 Link1:  Proceeding to internal job step number  2.
 ----------------------------------------------------------------------
 #N Geom=AllCheck Guess=TCheck SCRF=Check GenChk RPBEPBE/def2QZVPP Freq
 ----------------------------------------------------------------------
 1/10=4,29=7,30=1,38=1,40=1/1,3;
 2/12=2,40=1/2;
 3/5=45,7=202,11=2,14=-4,25=1,30=1,70=2,71=2,74=1009,75=-5,116=1,140=1/1,2,3;
 4/5=101/1;
 5/5=2,32=2,38=6,98=1/2;
 8/6=4,10=90,11=11/1;
 11/6=1,8=1,9=11,15=111,16=1/1,2,10;
 10/6=1/2;
 6/7=2,8=2,9=2,10=2,28=1/1;
 7/8=1,10=1,25=1/1,2,3,16;
 1/10=4,30=1/3;
 99//99;
 Structure from the checkpoint file:  "/data/hutter/SMG16/PBE/Gau-7622.chk"
 ---------
 Mol job 1
 ---------
 Charge = -1 Multiplicity = 1
 Redundant internal coordinates found in file.  (old form).
 Sb,0,9.5,9.5,9.5
 Cl,0,9.5,11.9216188595,9.5
 Cl,0,9.5,9.5,11.9216188595
 Cl,0,11.9216188595,9.5,9.5
 Cl,0,9.5,9.5,7.0783811405
 Cl,0,7.0783811405,9.5,9.5
 Cl,0,9.5,7.0783811405,9.5
 Recover connectivity data from disk.

 GradGradGradGradGradGradGradGradGradGradGradGradGradGradGradGradGradGrad
 Berny optimization.
 Initialization pass.
                           ----------------------------
                           !    Initial Parameters    !
                           ! (Angstroms and Degrees)  !
 --------------------------                            --------------------------
 ! Name  Definition              Value          Derivative Info.                !
 --------------------------------------------------------------------------------
 ! R1    R(1,2)                  2.4216         calculate D2E/DX2 analytically  !
 ! R2    R(1,3)                  2.4216         calculate D2E/DX2 analytically  !
 ! R3    R(1,4)                  2.4216         calculate D2E/DX2 analytically  !
 ! R4    R(1,5)                  2.4216         calculate D2E/DX2 analytically  !
 ! R5    R(1,6)                  2.4216         calculate D2E/DX2 analytically  !
 ! R6    R(1,7)                  2.4216         calculate D2E/DX2 analytically  !
 ! A1    A(2,1,3)               90.0            calculate D2E/DX2 analytically  !
 ! A2    A(2,1,4)               90.0            calculate D2E/DX2 analytically  !
 ! A3    A(2,1,5)               90.0            calculate D2E/DX2 analytically  !
 ! A4    A(2,1,6)               90.0            calculate D2E/DX2 analytically  !
 ! A5    A(3,1,4)               90.0            calculate D2E/DX2 analytically  !
 ! A6    A(3,1,6)               90.0            calculate D2E/DX2 analytically  !
 ! A7    A(3,1,7)               90.0            calculate D2E/DX2 analytically  !
 ! A8    A(4,1,5)               90.0            calculate D2E/DX2 analytically  !
 ! A9    A(4,1,7)               90.0            calculate D2E/DX2 analytically  !
 ! A10   A(5,1,6)               90.0            calculate D2E/DX2 analytically  !
 ! A11   A(5,1,7)               90.0            calculate D2E/DX2 analytically  !
 ! A12   A(6,1,7)               90.0            calculate D2E/DX2 analytically  !
 ! A13   L(2,1,7,3,-1)         180.0            calculate D2E/DX2 analytically  !
 ! A14   L(3,1,5,2,-1)         180.0            calculate D2E/DX2 analytically  !
 ! A15   L(4,1,6,2,-1)         180.0            calculate D2E/DX2 analytically  !
 ! A16   L(2,1,7,3,-2)         180.0            calculate D2E/DX2 analytically  !
 ! A17   L(3,1,5,2,-2)         180.0            calculate D2E/DX2 analytically  !
 ! A18   L(4,1,6,2,-2)         180.0            calculate D2E/DX2 analytically  !
 ! D1    D(2,1,4,3)             90.0            calculate D2E/DX2 analytically  !
 ! D2    D(2,1,6,3)            -90.0            calculate D2E/DX2 analytically  !
 ! D3    D(2,1,5,4)             90.0            calculate D2E/DX2 analytically  !
 ! D4    D(2,1,6,5)             90.0            calculate D2E/DX2 analytically  !
 ! D5    D(3,1,7,4)            -90.0            calculate D2E/DX2 analytically  !
 ! D6    D(3,1,7,6)             90.0            calculate D2E/DX2 analytically  !
 ! D7    D(4,1,7,5)            -90.0            calculate D2E/DX2 analytically  !
 ! D8    D(5,1,7,6)            -90.0            calculate D2E/DX2 analytically  !
 --------------------------------------------------------------------------------
 Trust Radius=3.00D-01 FncErr=1.00D-07 GrdErr=1.00D-07 EigMax=2.50D+02 EigMin=1.00D-04
 Number of steps in this run=      2 maximum allowed number of steps=      2.
 GradGradGradGradGradGradGradGradGradGradGradGradGradGradGradGradGradGrad

                          Input orientation:                          
 ---------------------------------------------------------------------
 Center     Atomic      Atomic             Coordinates (Angstroms)
 Number     Number       Type             X           Y           Z
 ---------------------------------------------------------------------
      1         51           0        9.500000    9.500000    9.500000
      2         17           0        9.500000   11.921619    9.500000
      3         17           0        9.500000    9.500000   11.921619
      4         17           0       11.921619    9.500000    9.500000
      5         17           0        9.500000    9.500000    7.078381
      6         17           0        7.078381    9.500000    9.500000
      7         17           0        9.500000    7.078381    9.500000
 ---------------------------------------------------------------------
                    Distance matrix (angstroms):
                    1          2          3          4          5
     1  Sb   0.000000
     2  Cl   2.421619   0.000000
     3  Cl   2.421619   3.424686   0.000000
     4  Cl   2.421619   3.424686   3.424686   0.000000
     5  Cl   2.421619   3.424686   4.843238   3.424686   0.000000
     6  Cl   2.421619   3.424686   3.424686   4.843238   3.424686
     7  Cl   2.421619   4.843238   3.424686   3.424686   3.424686
                    6          7
     6  Cl   0.000000
     7  Cl   3.424686   0.000000
 Stoichiometry    Cl6Sb(1-)
 Framework group  OH[O(Sb),3C4(Cl.Cl)]
 Deg. of freedom     1
 Full point group                 OH      NOp  48
 Largest Abelian subgroup         D2H     NOp   8
 Largest concise Abelian subgroup D2H     NOp   8
                         Standard orientation:                         
 ---------------------------------------------------------------------
 Center     Atomic      Atomic             Coordinates (Angstroms)
 Number     Number       Type             X           Y           Z
 ---------------------------------------------------------------------
      1         51           0        0.000000    0.000000    0.000000
      2         17           0        0.000000    0.000000    2.421619
      3         17           0        0.000000    2.421619   -0.000000
      4         17           0       -2.421619    0.000000   -0.000000
      5         17           0        0.000000   -2.421619    0.000000
      6         17           0        2.421619    0.000000    0.000000
      7         17           0        0.000000   -0.000000   -2.421619
 ---------------------------------------------------------------------
 Rotational constants (GHZ):           0.6161185           0.6161185           0.6161185
 Standard basis: def2QZVPP (5D, 7F)
 There are   142 symmetry adapted cartesian basis functions of AG  symmetry.
 There are    54 symmetry adapted cartesian basis functions of B1G symmetry.
 There are    54 symmetry adapted cartesian basis functions of B2G symmetry.
 There are    54 symmetry adapted cartesian basis functions of B3G symmetry.
 There are    31 symmetry adapted cartesian basis functions of AU  symmetry.
 There are    95 symmetry adapted cartesian basis functions of B1U symmetry.
 There are    95 symmetry adapted cartesian basis functions of B2U symmetry.
 There are    95 symmetry adapted cartesian basis functions of B3U symmetry.
 There are   108 symmetry adapted basis functions of AG  symmetry.
 There are    46 symmetry adapted basis functions of B1G symmetry.
 There are    46 symmetry adapted basis functions of B2G symmetry.
 There are    46 symmetry adapted basis functions of B3G symmetry.
 There are    28 symmetry adapted basis functions of AU  symmetry.
 There are    76 symmetry adapted basis functions of B1U symmetry.
 There are    76 symmetry adapted basis functions of B2U symmetry.
 There are    76 symmetry adapted basis functions of B3U symmetry.
   502 basis functions,   906 primitive gaussians,   620 cartesian basis functions
    63 alpha electrons       63 beta electrons
       nuclear repulsion energy      1143.2521321257 Hartrees.
 NAtoms=    7 NActive=    7 NUniq=    2 SFac= 4.00D+00 NAtFMM=   60 NAOKFM=F Big=F
 Integral buffers will be    131072 words long.
 Raffenetti 2 integral format.
 Two-electron integral symmetry is turned on.
 One-electron integrals computed using PRISM.
  48 Symmetry operations used in ECPInt.
 ECPInt:  NShTT=   11935 NPrTT=   43624 LenC2=   10601 LenP2D=   27628.
 LDataN:  DoStor=T MaxTD1= 8 Len=  415
 NBasis=   502 RedAO= T EigKep=  3.00D-04  NBF=   108    46    46    46    28    76    76    76
 NBsUse=   502 1.00D-06 EigRej= -1.00D+00 NBFU=   108    46    46    46    28    76    76    76
 Defaulting to unpruned grid for atomic number  51.
 Initial guess from the checkpoint file:  "/data/hutter/SMG16/PBE/Gau-7622.chk"
 B after Tr=     0.000000    0.000000    0.000000
         Rot=    1.000000    0.000000    0.000000    0.000000 Ang=   0.00 deg.
 Initial guess orbital symmetries:
       Occupied  (A1G) (EG) (EG) (T1U) (T1U) (T1U) (A1G) (EG) (EG)
                 (T1U) (T1U) (T1U) (A1G) (EG) (EG) (T1U) (T1U)
                 (T1U) (T2G) (T2G) (T2G) (T1U) (T1U) (T1U) (T2U)
                 (T2U) (T2U) (T1G) (T1G) (T1G) (A1G) (T1U) (T1U)
                 (T1U) (EG) (EG) (T2G) (T2G) (T2G) (A1G) (T1U)
                 (T1U) (T1U) (EG) (EG) (A1G) (T1U) (T1U) (T1U)
                 (T2G) (T2G) (T2G) (EG) (EG) (T1U) (T1U) (T1U)
                 (T2U) (T2U) (T2U) (T1G) (T1G) (T1G)
       Virtual   (A1G) (T1U) (T1U) (T1U) (A1G) (T1U) (T1U) (T1U)
                 (EG) (EG) (T2G) (T2G) (T2G) (T1U) (T1U) (T1U)
                 (T2G) (T2G) (T2G) (A1G) (T2U) (T2U) (T2U) (A2U)
                 (T1U) (T1U) (T1U) (EG) (EG) (T1G) (T1G) (T1G)
                 (T2U) (T2U) (T2U) (EG) (EG) (T2G) (T2G) (T2G)
                 (EU) (EU) (A2G) (T1U) (T1U) (T1U) (T2U) (T2U)
                 (T2U) (T1G) (T1G) (T1G) (T1U) (T1U) (T1U) (A1G)
                 (EG) (EG) (A2U) (T1U) (T1U) (T1U) (T2G) (T2G)
                 (T2G) (A1G) (T2G) (T2G) (T2G) (T1U) (T1U) (T1U)
                 (EG) (EG) (T2U) (T2U) (T2U) (A1G) (T1U) (T1U)
                 (T1U) (EG) (EG) (T2U) (T2U) (T2U) (T2G) (T2G)
                 (T2G) (A2U) (EG) (EG) (T2U) (T2U) (T2U) (T1G)
                 (T1G) (T1G) (T2G) (T2G) (T2G) (T1U) (T1U) (T1U)
                 (EU) (EU) (A2U) (T2G) (T2G) (T2G) (T1U) (T1U)
                 (T1U) (A1G) (A2G) (T1G) (T1G) (T1G) (EG) (EG)
                 (T2U) (T2U) (T2U) (T1U) (T1U) (T1U) (T2U) (T2U)
                 (T2U) (T1G) (T1G) (T1G) (T1U) (T1U) (T1U) (EU)
                 (EU) (T2G) (T2G) (T2G) (EG) (EG) (T2U) (T2U) (T2U)
                 (T2G) (T2G) (T2G) (T1U) (T1U) (T1U) (T1G) (T1G)
                 (T1G) (A2G) (A1G) (T2U) (T2U) (T2U) (T1U) (T1U)
                 (T1U) (T2G) (T2G) (T2G) (A2U) (EG) (EG) (T1U)
                 (T1U) (T1U) (T2G) (T2G) (T2G) (A1G) (T1U) (T1U)
                 (T1U) (T2U) (T2U) (T2U) (A1G) (EG) (EG) (EG) (EG)
                 (T1U) (T1U) (T1U) (EG) (EG) (T1G) (T1G) (T1G)
                 (T2G) (T2G) (T2G) (A1G) (T1U) (T1U) (T1U) (A1G)
                 (EG) (EG) (A2U) (T2U) (T2U) (T2U) (T1U) (T1U)
                 (T1U) (A2U) (T2U) (T2U) (T2U) (T2G) (T2G) (T2G)
                 (EU) (EU) (A2G) (EG) (EG) (T2G) (T2G) (T2G) (T2U)
                 (T2U) (T2U) (T1U) (T1U) (T1U) (T1G) (T1G) (T1G)
                 (A1G) (T1U) (T1U) (T1U) (EG) (EG) (EU) (EU) (A2G)
                 (T2U) (T2U) (T2U) (T2G) (T2G) (T2G) (T1G) (T1G)
                 (T1G) (A1U) (EU) (EU) (EG) (EG) (A1G) (T1U) (T1U)
                 (T1U) (T1G) (T1G) (T1G) (T2G) (T2G) (T2G) (A2U)
                 (T1U) (T1U) (T1U) (T2U) (T2U) (T2U) (T2G) (T2G)
                 (T2G) (T2U) (T2U) (T2U) (T1U) (T1U) (T1U) (EG)
                 (EG) (T1G) (T1G) (T1G) (T1U) (T1U) (T1U) (T2G)
                 (T2G) (T2G) (T2U) (T2U) (T2U) (T1G) (T1G) (T1G)
                 (T1U) (T1U) (T1U) (EU) (EU) (T2U) (T2U) (T2U)
                 (T2G) (T2G) (T2G) (EG) (EG) (A1G) (T1G) (T1G)
                 (T1G) (T1U) (T1U) (T1U) (A2G) (T2G) (T2G) (T2G)
                 (T2U) (T2U) (T2U) (T1U) (T1U) (T1U) (EG) (EG)
                 (A2U) (A1G) (T1G) (T1G) (T1G) (T1U) (T1U) (T1U)
                 (T2U) (T2U) (T2U) (T2G) (T2G) (T2G) (EG) (EG)
                 (A1G) (T1U) (T1U) (T1U) (EG) (EG) (T1U) (T1U)
                 (T1U) (EG) (EG) (A1G) (A2U) (T2U) (T2U) (T2U)
                 (T1U) (T1U) (T1U) (A2U) (T2U) (T2U) (T2U) (EU)
                 (EU) (T2G) (T2G) (T2G) (A2G) (EG) (EG) (T2G) (T2G)
                 (T2G) (T2U) (T2U) (T2U) (T1U) (T1U) (T1U) (A1G)
                 (T1G) (T1G) (T1G) (T1U) (T1U) (T1U) (EG) (EG)
                 (A1G) (T1U) (T1U) (T1U) (EG) (EG) (A1G) (T1U)
                 (T1U) (T1U) (T1G) (T1G) (T1G) (T2U) (T2U) (T2U)
                 (T1U) (T1U) (T1U) (T2G) (T2G) (T2G) (T1U) (T1U)
                 (T1U) (A1G) (EG) (EG) (A1G) (T1U) (T1U) (T1U)
                 (EG) (EG) (A1G) (T1U) (T1U) (T1U) (EG) (EG) (A1G)
 Requested convergence on RMS density matrix=1.00D-08 within 128 cycles.
 Requested convergence on MAX density matrix=1.00D-06.
 Requested convergence on             energy=1.00D-06.
 No special actions if energy rises.
 Defaulting to unpruned grid for atomic number  51.
 Defaulting to unpruned grid for atomic number  51.
 Defaulting to unpruned grid for atomic number  51.
 Defaulting to unpruned grid for atomic number  51.
 Defaulting to unpruned grid for atomic number  51.
 Defaulting to unpruned grid for atomic number  51.
 Defaulting to unpruned grid for atomic number  51.
 Defaulting to unpruned grid for atomic number  51.
 Defaulting to unpruned grid for atomic number  51.
 Defaulting to unpruned grid for atomic number  51.
 Defaulting to unpruned grid for atomic number  51.
 Defaulting to unpruned grid for atomic number  51.
 Defaulting to unpruned grid for atomic number  51.
 Defaulting to unpruned grid for atomic number  51.
 Defaulting to unpruned grid for atomic number  51.
 Defaulting to unpruned grid for atomic number  51.
 SCF Done:  E(RPBE-PBE) =  -3000.79030008     A.U. after    1 cycles
            NFock=  1  Conv=0.28D-08     -V/T= 2.0533
 DoSCS=F DFT=T ScalE2(SS,OS)=  1.000000  1.000000
 Range of M.O.s used for correlation:     1   502
 NBasis=   502 NAE=    63 NBE=    63 NFC=     0 NFV=     0
 NROrb=    502 NOA=    63 NOB=    63 NVA=   439 NVB=   439

 **** Warning!!: The largest alpha MO coefficient is  0.19228695D+02


 **** Warning!!: The smallest alpha delta epsilon is  0.79582639D-01

  48 Symmetry operations used in ECPInt.
 ECPInt:  NShTT=   11935 NPrTT=   43624 LenC2=   10601 LenP2D=   27628.
 LDataN:  DoStor=T MaxTD1= 9 Len=  602
 Symmetrizing basis deriv contribution to polar:
 IMax=3 JMax=2 DiffMx= 0.00D+00
 G2DrvN: will do     8 centers at a time, making    1 passes.
 Calling FoFCou, ICntrl=  3507 FMM=F I1Cent=   0 AccDes= 0.00D+00.
 Defaulting to unpruned grid for atomic number  51.
 Defaulting to unpruned grid for atomic number  51.
 Defaulting to unpruned grid for atomic number  51.
 Defaulting to unpruned grid for atomic number  51.
 Defaulting to unpruned grid for atomic number  51.
 Defaulting to unpruned grid for atomic number  51.
 Defaulting to unpruned grid for atomic number  51.
 Defaulting to unpruned grid for atomic number  51.
 Defaulting to unpruned grid for atomic number  51.
 Defaulting to unpruned grid for atomic number  51.
 Defaulting to unpruned grid for atomic number  51.
 Defaulting to unpruned grid for atomic number  51.
 Defaulting to unpruned grid for atomic number  51.
 Defaulting to unpruned grid for atomic number  51.
 Defaulting to unpruned grid for atomic number  51.
 Defaulting to unpruned grid for atomic number  51.
 End of G2Drv F.D. properties file   721 does not exist.
 End of G2Drv F.D. properties file   722 does not exist.
 End of G2Drv F.D. properties file   788 does not exist.
          IDoAtm=1111111
          Differentiating once with respect to electric field.
                with respect to dipole field.
          Differentiating once with respect to nuclear coordinates.
 Defaulting to unpruned grid for atomic number  51.
 CalDSu exits because no D1Ps are significant.
 Defaulting to unpruned grid for atomic number  51.
 Defaulting to unpruned grid for atomic number  51.
 Defaulting to unpruned grid for atomic number  51.
 Defaulting to unpruned grid for atomic number  51.
 Defaulting to unpruned grid for atomic number  51.
 Defaulting to unpruned grid for atomic number  51.
 Defaulting to unpruned grid for atomic number  51.
 Defaulting to unpruned grid for atomic number  51.
 Defaulting to unpruned grid for atomic number  51.
 Defaulting to unpruned grid for atomic number  51.
 Defaulting to unpruned grid for atomic number  51.
 Defaulting to unpruned grid for atomic number  51.
 Defaulting to unpruned grid for atomic number  51.
 Defaulting to unpruned grid for atomic number  51.
 Defaulting to unpruned grid for atomic number  51.
 Defaulting to unpruned grid for atomic number  51.
          There are     9 degrees of freedom in the 1st order CPHF.  IDoFFX=4 NUNeed=     9.
      9 vectors produced by pass  0 Test12= 3.07D-13 1.11D-08 XBig12= 2.66D+02 7.71D+00.
 AX will form     9 AO Fock derivatives at one time.
      9 vectors produced by pass  1 Test12= 3.07D-13 1.11D-08 XBig12= 6.97D+01 2.52D+00.
      9 vectors produced by pass  2 Test12= 3.07D-13 1.11D-08 XBig12= 1.05D+01 9.07D-01.
      9 vectors produced by pass  3 Test12= 3.07D-13 1.11D-08 XBig12= 1.04D+00 1.91D-01.
      9 vectors produced by pass  4 Test12= 3.07D-13 1.11D-08 XBig12= 6.88D-03 1.30D-02.
      9 vectors produced by pass  5 Test12= 3.07D-13 1.11D-08 XBig12= 1.11D-04 2.21D-03.
      9 vectors produced by pass  6 Test12= 3.07D-13 1.11D-08 XBig12= 2.50D-06 2.94D-04.
      9 vectors produced by pass  7 Test12= 3.07D-13 1.11D-08 XBig12= 1.50D-07 1.02D-04.
      6 vectors produced by pass  8 Test12= 3.07D-13 1.11D-08 XBig12= 1.76D-08 1.63D-05.
      6 vectors produced by pass  9 Test12= 3.07D-13 1.11D-08 XBig12= 1.36D-09 5.94D-06.
      1 vectors produced by pass 10 Test12= 3.07D-13 1.11D-08 XBig12= 2.37D-11 9.41D-07.
      1 vectors produced by pass 11 Test12= 3.07D-13 1.11D-08 XBig12= 3.48D-13 1.35D-07.
      1 vectors produced by pass 12 Test12= 3.07D-13 1.11D-08 XBig12= 1.19D-14 1.59D-08.
 InvSVY:  IOpt=1 It=  1 EMax= 1.37D-15
 Solved reduced A of dimension    87 with     9 vectors.
 Isotropic polarizability for W=    0.000000      142.06 Bohr**3.
 End of Minotr F.D. properties file   721 does not exist.
 End of Minotr F.D. properties file   722 does not exist.
 End of Minotr F.D. properties file   788 does not exist.

 **********************************************************************

            Population analysis using the SCF Density.

 **********************************************************************

 Orbital symmetries:
       Occupied  (A1G) (EG) (EG) (T1U) (T1U) (T1U) (A1G) (EG) (EG)
                 (T1U) (T1U) (T1U) (A1G) (EG) (EG) (T1U) (T1U)
                 (T1U) (T2G) (T2G) (T2G) (T1U) (T1U) (T1U) (T2U)
                 (T2U) (T2U) (T1G) (T1G) (T1G) (A1G) (T1U) (T1U)
                 (T1U) (EG) (EG) (T2G) (T2G) (T2G) (A1G) (T1U)
                 (T1U) (T1U) (EG) (EG) (A1G) (T1U) (T1U) (T1U)
                 (T2G) (T2G) (T2G) (EG) (EG) (T1U) (T1U) (T1U)
                 (T2U) (T2U) (T2U) (T1G) (T1G) (T1G)
       Virtual   (A1G) (T1U) (T1U) (T1U) (A1G) (T1U) (T1U) (T1U)
                 (EG) (EG) (T2G) (T2G) (T2G) (T1U) (T1U) (T1U)
                 (T2G) (T2G) (T2G) (A1G) (T2U) (T2U) (T2U) (A2U)
                 (T1U) (T1U) (T1U) (EG) (EG) (T1G) (T1G) (T1G)
                 (T2U) (T2U) (T2U) (EG) (EG) (T2G) (T2G) (T2G)
                 (EU) (EU) (A2G) (T1U) (T1U) (T1U) (T2U) (T2U)
                 (T2U) (T1G) (T1G) (T1G) (T1U) (T1U) (T1U) (A1G)
                 (EG) (EG) (A2U) (T1U) (T1U) (T1U) (T2G) (T2G)
                 (T2G) (A1G) (T2G) (T2G) (T2G) (T1U) (T1U) (T1U)
                 (EG) (EG) (T2U) (T2U) (T2U) (A1G) (T1U) (T1U)
                 (T1U) (EG) (EG) (T2U) (T2U) (T2U) (T2G) (T2G)
                 (T2G) (A2U) (EG) (EG) (T2U) (T2U) (T2U) (T1G)
                 (T1G) (T1G) (T2G) (T2G) (T2G) (T1U) (T1U) (T1U)
                 (EU) (EU) (A2U) (T2G) (T2G) (T2G) (T1U) (T1U)
                 (T1U) (A1G) (A2G) (T1G) (T1G) (T1G) (EG) (EG)
                 (T2U) (T2U) (T2U) (T1U) (T1U) (T1U) (T2U) (T2U)
                 (T2U) (T1G) (T1G) (T1G) (T1U) (T1U) (T1U) (EU)
                 (EU) (T2G) (T2G) (T2G) (EG) (EG) (T2U) (T2U) (T2U)
                 (T2G) (T2G) (T2G) (T1U) (T1U) (T1U) (T1G) (T1G)
                 (T1G) (A2G) (A1G) (T2U) (T2U) (T2U) (T1U) (T1U)
                 (T1U) (T2G) (T2G) (T2G) (A2U) (EG) (EG) (T1U)
                 (T1U) (T1U) (T2G) (T2G) (T2G) (A1G) (T1U) (T1U)
                 (T1U) (T2U) (T2U) (T2U) (A1G) (EG) (EG) (EG) (EG)
                 (T1U) (T1U) (T1U) (EG) (EG) (T1G) (T1G) (T1G)
                 (T2G) (T2G) (T2G) (A1G) (T1U) (T1U) (T1U) (A1G)
                 (EG) (EG) (A2U) (T2U) (T2U) (T2U) (T1U) (T1U)
                 (T1U) (A2U) (T2U) (T2U) (T2U) (T2G) (T2G) (T2G)
                 (EU) (EU) (A2G) (EG) (EG) (T2G) (T2G) (T2G) (T2U)
                 (T2U) (T2U) (T1U) (T1U) (T1U) (T1G) (T1G) (T1G)
                 (A1G) (T1U) (T1U) (T1U) (EG) (EG) (EU) (EU) (A2G)
                 (T2U) (T2U) (T2U) (T2G) (T2G) (T2G) (T1G) (T1G)
                 (T1G) (A1U) (EU) (EU) (EG) (EG) (A1G) (T1U) (T1U)
                 (T1U) (T1G) (T1G) (T1G) (T2G) (T2G) (T2G) (A2U)
                 (T1U) (T1U) (T1U) (T2U) (T2U) (T2U) (T2G) (T2G)
                 (T2G) (T2U) (T2U) (T2U) (T1U) (T1U) (T1U) (EG)
                 (EG) (T1G) (T1G) (T1G) (T1U) (T1U) (T1U) (T2G)
                 (T2G) (T2G) (T2U) (T2U) (T2U) (T1G) (T1G) (T1G)
                 (T1U) (T1U) (T1U) (EU) (EU) (T2U) (T2U) (T2U)
                 (T2G) (T2G) (T2G) (EG) (EG) (A1G) (T1G) (T1G)
                 (T1G) (T1U) (T1U) (T1U) (A2G) (T2G) (T2G) (T2G)
                 (T2U) (T2U) (T2U) (T1U) (T1U) (T1U) (EG) (EG)
                 (A2U) (A1G) (T1G) (T1G) (T1G) (T1U) (T1U) (T1U)
                 (T2U) (T2U) (T2U) (T2G) (T2G) (T2G) (EG) (EG)
                 (A1G) (T1U) (T1U) (T1U) (EG) (EG) (T1U) (T1U)
                 (T1U) (EG) (EG) (A1G) (A2U) (T2U) (T2U) (T2U)
                 (T1U) (T1U) (T1U) (A2U) (T2U) (T2U) (T2U) (EU)
                 (EU) (T2G) (T2G) (T2G) (A2G) (EG) (EG) (T2G) (T2G)
                 (T2G) (T2U) (T2U) (T2U) (T1U) (T1U) (T1U) (A1G)
                 (T1G) (T1G) (T1G) (T1U) (T1U) (T1U) (EG) (EG)
                 (A1G) (T1U) (T1U) (T1U) (EG) (EG) (A1G) (T1U)
                 (T1U) (T1U) (T1G) (T1G) (T1G) (T2U) (T2U) (T2U)
                 (T1U) (T1U) (T1U) (T2G) (T2G) (T2G) (T1U) (T1U)
                 (T1U) (A1G) (EG) (EG) (A1G) (T1U) (T1U) (T1U)
                 (EG) (EG) (A1G) (T1U) (T1U) (T1U) (EG) (EG) (A1G)
 The electronic state is 1-A1G.
 Alpha  occ. eigenvalues -- -100.52200-100.52200-100.52200-100.52200-100.52200
 Alpha  occ. eigenvalues -- -100.52200  -9.03292  -9.03292  -9.03292  -9.03292
 Alpha  occ. eigenvalues --   -9.03292  -9.03292  -6.85509  -6.85509  -6.85509
 Alpha  occ. eigenvalues --   -6.85509  -6.85509  -6.85509  -6.84733  -6.84733
 Alpha  occ. eigenvalues --   -6.84733  -6.84733  -6.84733  -6.84733  -6.84733
 Alpha  occ. eigenvalues --   -6.84733  -6.84733  -6.84733  -6.84733  -6.84733
 Alpha  occ. eigenvalues --   -5.46451  -3.73227  -3.73227  -3.73227  -1.17260
 Alpha  occ. eigenvalues --   -1.17260  -1.17042  -1.17042  -1.17042  -0.64217
 Alpha  occ. eigenvalues --   -0.59917  -0.59917  -0.59917  -0.58311  -0.58311
 Alpha  occ. eigenvalues --   -0.40086  -0.25106  -0.25106  -0.25106  -0.17504
 Alpha  occ. eigenvalues --   -0.17504  -0.17504  -0.16915  -0.16915  -0.14549
 Alpha  occ. eigenvalues --   -0.14549  -0.14549  -0.14306  -0.14306  -0.14306
 Alpha  occ. eigenvalues --   -0.12361  -0.12361  -0.12361
 Alpha virt. eigenvalues --   -0.04403   0.10146   0.10146   0.10146   0.16148
 Alpha virt. eigenvalues --    0.19493   0.19493   0.19493   0.22292   0.22292
 Alpha virt. eigenvalues --    0.23866   0.23866   0.23866   0.28513   0.28513
 Alpha virt. eigenvalues --    0.28513   0.28818   0.28818   0.28818   0.31389
 Alpha virt. eigenvalues --    0.32087   0.32087   0.32087   0.32204   0.34602
 Alpha virt. eigenvalues --    0.34602   0.34602   0.34841   0.34841   0.35531
 Alpha virt. eigenvalues --    0.35531   0.35531   0.35785   0.35785   0.35785
 Alpha virt. eigenvalues --    0.43292   0.43292   0.43562   0.43562   0.43562
 Alpha virt. eigenvalues --    0.45894   0.45894   0.50425   0.54345   0.54345
 Alpha virt. eigenvalues --    0.54345   0.54878   0.54878   0.54878   0.58134
 Alpha virt. eigenvalues --    0.58134   0.58134   0.58813   0.58813   0.58813
 Alpha virt. eigenvalues --    0.60649   0.65626   0.65626   0.69817   0.69972
 Alpha virt. eigenvalues --    0.69972   0.69972   0.71975   0.71975   0.71975
 Alpha virt. eigenvalues --    0.74099   0.76329   0.76329   0.76329   0.81586
 Alpha virt. eigenvalues --    0.81586   0.81586   0.82670   0.82670   0.83640
 Alpha virt. eigenvalues --    0.83640   0.83640   0.88379   0.97601   0.97601
 Alpha virt. eigenvalues --    0.97601   1.01928   1.01928   1.14358   1.14358
 Alpha virt. eigenvalues --    1.14358   1.14473   1.14473   1.14473   1.14756
 Alpha virt. eigenvalues --    1.21185   1.21185   1.21655   1.21655   1.21655
 Alpha virt. eigenvalues --    1.22571   1.22571   1.22571   1.26756   1.26756
 Alpha virt. eigenvalues --    1.26756   1.26770   1.26770   1.26770   1.26796
 Alpha virt. eigenvalues --    1.26796   1.26894   1.27513   1.27513   1.27513
 Alpha virt. eigenvalues --    1.28689   1.28689   1.28689   1.29131   1.29476
 Alpha virt. eigenvalues --    1.30738   1.30738   1.30738   1.30787   1.30787
 Alpha virt. eigenvalues --    1.31557   1.31557   1.31557   1.31994   1.31994
 Alpha virt. eigenvalues --    1.31994   1.38013   1.38013   1.38013   1.40802
 Alpha virt. eigenvalues --    1.40802   1.40802   1.41233   1.41233   1.41233
 Alpha virt. eigenvalues --    1.43862   1.43862   1.44417   1.44417   1.44417
 Alpha virt. eigenvalues --    1.45378   1.45378   1.46644   1.46644   1.46644
 Alpha virt. eigenvalues --    1.57622   1.57622   1.57622   1.57713   1.57713
 Alpha virt. eigenvalues --    1.57713   1.62661   1.62661   1.62661   1.63859
 Alpha virt. eigenvalues --    1.64881   1.71256   1.71256   1.71256   1.80833
 Alpha virt. eigenvalues --    1.80833   1.80833   1.85903   1.85903   1.85903
 Alpha virt. eigenvalues --    1.88502   1.89202   1.89202   1.92435   1.92435
 Alpha virt. eigenvalues --    1.92435   1.96814   1.96814   1.96814   1.99791
 Alpha virt. eigenvalues --    2.05857   2.05857   2.05857   2.13421   2.13421
 Alpha virt. eigenvalues --    2.13421   2.15891   2.15987   2.15987   2.25579
 Alpha virt. eigenvalues --    2.25579   2.31416   2.31416   2.31416   2.32085
 Alpha virt. eigenvalues --    2.32085   2.38589   2.38589   2.38589   2.52096
 Alpha virt. eigenvalues --    2.52096   2.52096   2.69269   2.93058   2.93058
 Alpha virt. eigenvalues --    2.93058   2.94246   2.99855   2.99855   3.04829
 Alpha virt. eigenvalues --    3.09770   3.09770   3.09770   3.11933   3.11933
 Alpha virt. eigenvalues --    3.11933   3.20904   3.26189   3.26189   3.26189
 Alpha virt. eigenvalues --    3.29783   3.29783   3.29783   3.30349   3.30349
 Alpha virt. eigenvalues --    3.37137   3.38419   3.38419   3.40901   3.40901
 Alpha virt. eigenvalues --    3.40901   3.45191   3.45191   3.45191   3.46999
 Alpha virt. eigenvalues --    3.46999   3.46999   3.48214   3.48214   3.48214
 Alpha virt. eigenvalues --    3.51787   3.57290   3.57290   3.57290   3.59788
 Alpha virt. eigenvalues --    3.59788   3.60900   3.60900   3.61637   3.62601
 Alpha virt. eigenvalues --    3.62601   3.62601   3.63161   3.63161   3.63161
 Alpha virt. eigenvalues --    3.63257   3.63257   3.63257   3.63777   3.63873
 Alpha virt. eigenvalues --    3.63873   3.63982   3.63982   3.64207   3.64899
 Alpha virt. eigenvalues --    3.64899   3.64899   3.64921   3.64921   3.64921
 Alpha virt. eigenvalues --    3.67894   3.67894   3.67894   3.69467   3.70518
 Alpha virt. eigenvalues --    3.70518   3.70518   3.71579   3.71579   3.71579
 Alpha virt. eigenvalues --    3.73580   3.73580   3.73580   3.74087   3.74087
 Alpha virt. eigenvalues --    3.74087   3.75767   3.75767   3.75767   3.77993
 Alpha virt. eigenvalues --    3.77993   3.86424   3.86424   3.86424   3.88345
 Alpha virt. eigenvalues --    3.88345   3.88345   3.89774   3.89774   3.89774
 Alpha virt. eigenvalues --    3.94019   3.94019   3.94019   3.96486   3.96486
 Alpha virt. eigenvalues --    3.96486   3.97368   3.97368   3.97368   3.98237
 Alpha virt. eigenvalues --    3.98237   3.99058   3.99058   3.99058   3.99860
 Alpha virt. eigenvalues --    3.99860   3.99860   4.00746   4.00746   4.01963
 Alpha virt. eigenvalues --    4.02528   4.02528   4.02528   4.04162   4.04162
 Alpha virt. eigenvalues --    4.04162   4.15251   4.18387   4.18387   4.18387
 Alpha virt. eigenvalues --    4.21639   4.21639   4.21639   4.26899   4.26899
 Alpha virt. eigenvalues --    4.26899   4.28644   4.28644   4.32537   4.42765
 Alpha virt. eigenvalues --    4.46310   4.46310   4.46310   4.47418   4.47418
 Alpha virt. eigenvalues --    4.47418   4.56935   4.56935   4.56935   4.57306
 Alpha virt. eigenvalues --    4.57306   4.57306   4.63793   4.63793   5.05886
 Alpha virt. eigenvalues --    5.08877   5.08877   5.08877   5.11070   5.11070
 Alpha virt. eigenvalues --    8.44686   8.44686   8.44686   8.50632   8.50632
 Alpha virt. eigenvalues --    8.52910   9.95101  10.05634  10.05634  10.05634
 Alpha virt. eigenvalues --   10.23199  10.23199  10.23199  10.55735  10.59276
 Alpha virt. eigenvalues --   10.59276  10.59276  10.62168  10.62168  10.62182
 Alpha virt. eigenvalues --   10.62182  10.62182  10.68564  10.70090  10.70090
 Alpha virt. eigenvalues --   10.72479  10.72479  10.72479  10.75423  10.75423
 Alpha virt. eigenvalues --   10.75423  10.77369  10.77369  10.77369  10.78239
 Alpha virt. eigenvalues --   10.78416  10.78416  10.78416  10.83910  10.83910
 Alpha virt. eigenvalues --   10.83910  10.86071  10.86071  14.83606  28.55051
 Alpha virt. eigenvalues --   28.55051  28.55051  28.59595  28.59595  28.62409
 Alpha virt. eigenvalues --   40.34938  40.34938  40.34938  41.48492  41.48492
 Alpha virt. eigenvalues --   41.48492  41.48660  41.48660  41.48660  41.49193
 Alpha virt. eigenvalues --   41.49193  41.49193  41.49293  41.49293  41.49293
 Alpha virt. eigenvalues --   41.55171  41.55171  41.55171  41.55715  41.56223
 Alpha virt. eigenvalues --   41.56223  76.41870  97.83991  97.83991  97.83991
 Alpha virt. eigenvalues --   97.88072  97.88072  97.90654 524.17994 524.17994
 Alpha virt. eigenvalues --  524.17994 524.24941 524.24941 524.28294
          Condensed to atoms (all electrons):
               1          2          3          4          5          6
     1  Sb  19.795361   0.247142   0.247142   0.247142   0.247142   0.247142
     2  Cl   0.247142  17.362158  -0.039275  -0.039275  -0.039275  -0.039275
     3  Cl   0.247142  -0.039275  17.362158  -0.039275   0.001431  -0.039275
     4  Cl   0.247142  -0.039275  -0.039275  17.362158  -0.039275   0.001431
     5  Cl   0.247142  -0.039275   0.001431  -0.039275  17.362158  -0.039275
     6  Cl   0.247142  -0.039275  -0.039275   0.001431  -0.039275  17.362158
     7  Cl   0.247142   0.001431  -0.039275  -0.039275  -0.039275  -0.039275
               7
     1  Sb   0.247142
     2  Cl   0.001431
     3  Cl  -0.039275
     4  Cl  -0.039275
     5  Cl  -0.039275
     6  Cl  -0.039275
     7  Cl  17.362158
 Mulliken charges:
               1
     1  Sb   1.721790
     2  Cl  -0.453632
     3  Cl  -0.453632
     4  Cl  -0.453632
     5  Cl  -0.453632
     6  Cl  -0.453632
     7  Cl  -0.453632
 Sum of Mulliken charges =  -1.00000
 Mulliken charges with hydrogens summed into heavy atoms:
               1
     1  Sb   1.721790
     2  Cl  -0.453632
     3  Cl  -0.453632
     4  Cl  -0.453632
     5  Cl  -0.453632
     6  Cl  -0.453632
     7  Cl  -0.453632
 APT charges:
               1
     1  Sb   2.575104
     2  Cl  -0.595851
     3  Cl  -0.595851
     4  Cl  -0.595851
     5  Cl  -0.595851
     6  Cl  -0.595851
     7  Cl  -0.595851
 Sum of APT charges =  -1.00000
 APT charges with hydrogens summed into heavy atoms:
               1
     1  Sb   2.575104
     2  Cl  -0.595851
     3  Cl  -0.595851
     4  Cl  -0.595851
     5  Cl  -0.595851
     6  Cl  -0.595851
     7  Cl  -0.595851
 Electronic spatial extent (au):  <R**2>=           2399.1880
 Charge=             -1.0000 electrons
 Dipole moment (field-independent basis, Debye):
    X=             -0.0000    Y=              0.0000    Z=              0.0000  Tot=              0.0000
 Quadrupole moment (field-independent basis, Debye-Ang):
   XX=           -117.9808   YY=           -117.9808   ZZ=           -117.9808
   XY=              0.0000   XZ=             -0.0000   YZ=             -0.0000
 Traceless Quadrupole moment (field-independent basis, Debye-Ang):
   XX=             -0.0000   YY=              0.0000   ZZ=              0.0000
   XY=              0.0000   XZ=             -0.0000   YZ=             -0.0000
 Octapole moment (field-independent basis, Debye-Ang**2):
  XXX=             -0.0000  YYY=             -0.0000  ZZZ=             -0.0000  XYY=              0.0000
  XXY=             -0.0000  XXZ=             -0.0000  XZZ=              0.0000  YZZ=             -0.0000
  YYZ=             -0.0000  XYZ=              0.0000
 Hexadecapole moment (field-independent basis, Debye-Ang**3):
 XXXX=          -1107.0639 YYYY=          -1107.0639 ZZZZ=          -1107.0639 XXXY=              0.0000
 XXXZ=             -0.0000 YYYX=             -0.0000 YYYZ=             -0.0000 ZZZX=             -0.0000
 ZZZY=              0.0000 XXYY=           -361.6451 XXZZ=           -361.6451 YYZZ=           -361.6451
 XXYZ=             -0.0000 YYXZ=             -0.0000 ZZXY=             -0.0000
 N-N= 1.143252132126D+03 E-N=-9.384356379128D+03  KE= 2.849024811160D+03
 Symmetry AG   KE= 1.135134174943D+03
 Symmetry B1G  KE= 1.031578476139D+02
 Symmetry B2G  KE= 1.031578476139D+02
 Symmetry B3G  KE= 1.031578476139D+02
 Symmetry AU   KE= 7.686792311192D-24
 Symmetry B1U  KE= 4.681390311253D+02
 Symmetry B2U  KE= 4.681390311254D+02
 Symmetry B3U  KE= 4.681390311253D+02
  Exact polarizability:     142.063       0.000     142.063       0.000      -0.000     142.063
 Approx polarizability:     290.668       0.000     290.668       0.000       0.000     290.668
  48 Symmetry operations used in ECPInt.
 ECPInt:  NShTT=   11935 NPrTT=   43624 LenC2=   10601 LenP2D=   27628.
 LDataN:  DoStor=T MaxTD1=10 Len=  848
 Calling FoFJK, ICntrl=    100527 FMM=F ISym2X=1 I1Cent= 0 IOpClX= 0 NMat=1 NMatS=1 NMatT=0.
 Defaulting to unpruned grid for atomic number  51.
 Defaulting to unpruned grid for atomic number  51.
 Defaulting to unpruned grid for atomic number  51.
 Defaulting to unpruned grid for atomic number  51.
 Defaulting to unpruned grid for atomic number  51.
 Defaulting to unpruned grid for atomic number  51.
 Defaulting to unpruned grid for atomic number  51.
 Defaulting to unpruned grid for atomic number  51.
 Defaulting to unpruned grid for atomic number  51.
 Defaulting to unpruned grid for atomic number  51.
 Defaulting to unpruned grid for atomic number  51.
 Defaulting to unpruned grid for atomic number  51.
 Defaulting to unpruned grid for atomic number  51.
 Defaulting to unpruned grid for atomic number  51.
 Defaulting to unpruned grid for atomic number  51.
 Defaulting to unpruned grid for atomic number  51.
 Full mass-weighted force constant matrix:
 Low frequencies ---   -0.0036   -0.0018   -0.0015    2.7258    2.7258    2.7258
 Low frequencies ---   99.2063   99.2063   99.2063
 Diagonal vibrational polarizability:
       44.7590562      44.7590562      44.7590562
 Harmonic frequencies (cm**-1), IR intensities (KM/Mole), Raman scattering
 activities (A**4/AMU), depolarization ratios for plane and unpolarized
 incident light, reduced masses (AMU), force constants (mDyne/A),
 and normal coordinates:
                      1                      2                      3
                     T2U                    T2U                    T2U
 Frequencies --     99.2063                99.2063                99.2063
 Red. masses --     34.9689                34.9689                34.9689
 Frc consts  --      0.2028                 0.2028                 0.2028
 IR Inten    --      0.0000                 0.0000                 0.0000
  Atom  AN      X      Y      Z        X      Y      Z        X      Y      Z
     1  51    -0.00  -0.00   0.00    -0.00   0.00  -0.00    -0.00   0.00   0.00
     2  17     0.50  -0.00   0.00     0.00   0.50  -0.00    -0.00   0.00   0.00
     3  17    -0.50  -0.00   0.00    -0.00   0.00  -0.00     0.00   0.00   0.50
     4  17    -0.00   0.00  -0.00    -0.00  -0.50   0.00    -0.00  -0.00  -0.50
     5  17    -0.50   0.00   0.00    -0.00   0.00  -0.00     0.00   0.00   0.50
     6  17    -0.00   0.00  -0.00     0.00  -0.50   0.00     0.00  -0.00  -0.50
     7  17     0.50  -0.00   0.00     0.00   0.50  -0.00    -0.00   0.00   0.00
                      4                      5                      6
                     T2G                    T2G                    T2G
 Frequencies --    151.0083               151.0083               151.0083
 Red. masses --     34.9689                34.9689                34.9689
 Frc consts  --      0.4698                 0.4698                 0.4698
 IR Inten    --      0.0000                 0.0000                 0.0000
  Atom  AN      X      Y      Z        X      Y      Z        X      Y      Z
     1  51     0.00  -0.00  -0.00     0.00  -0.00   0.00     0.00  -0.00   0.00
     2  17    -0.00   0.00  -0.00     0.50  -0.00   0.00     0.00   0.50   0.00
     3  17     0.50  -0.00   0.00     0.00  -0.00  -0.00    -0.00  -0.00   0.50
     4  17     0.00  -0.50   0.00     0.00  -0.00  -0.50    -0.00   0.00  -0.00
     5  17    -0.50  -0.00  -0.00    -0.00  -0.00   0.00     0.00  -0.00  -0.50
     6  17     0.00   0.50  -0.00     0.00   0.00   0.50     0.00  -0.00   0.00
     7  17     0.00  -0.00  -0.00    -0.50   0.00   0.00    -0.00  -0.50   0.00
                      7                      8                      9
                     T1U                    T1U                    T1U
 Frequencies --    165.7044               165.7044               165.7044
 Red. masses --     43.6056                43.6056                43.6056
 Frc consts  --      0.7054                 0.7054                 0.7054
 IR Inten    --     12.6280                12.6280                12.6280
  Atom  AN      X      Y      Z        X      Y      Z        X      Y      Z
     1  51     0.32  -0.00  -0.00     0.00   0.32   0.00     0.00  -0.00   0.32
     2  17    -0.42   0.00  -0.00    -0.00  -0.42   0.00    -0.00   0.00   0.30
     3  17    -0.42  -0.00   0.00    -0.00   0.30  -0.00    -0.00  -0.00  -0.42
     4  17     0.30   0.00   0.00     0.00  -0.42  -0.00     0.00   0.00  -0.42
     5  17    -0.42  -0.00   0.00    -0.00   0.30  -0.00    -0.00  -0.00  -0.42
     6  17     0.30   0.00   0.00     0.00  -0.42  -0.00     0.00   0.00  -0.42
     7  17    -0.42   0.00  -0.00    -0.00  -0.42   0.00    -0.00   0.00   0.30
                     10                     11                     12
                     EG                     EG                     A1G
 Frequencies --    256.9029               256.9029               297.1089
 Red. masses --     34.9689                34.9689                34.9689
 Frc consts  --      1.3598                 1.3598                 1.8187
 IR Inten    --      0.0000                 0.0000                 0.0000
  Atom  AN      X      Y      Z        X      Y      Z        X      Y      Z
     1  51     0.00   0.00   0.00     0.00   0.00  -0.00    -0.00   0.00  -0.00
     2  17    -0.00   0.00   0.49    -0.00  -0.00  -0.31     0.00  -0.00   0.41
     3  17    -0.00   0.02  -0.00    -0.00   0.58  -0.00     0.00   0.41  -0.00
     4  17     0.51  -0.00  -0.00     0.27  -0.00   0.00    -0.41  -0.00  -0.00
     5  17    -0.00  -0.02  -0.00    -0.00  -0.58   0.00     0.00  -0.41  -0.00
     6  17    -0.51  -0.00  -0.00    -0.27  -0.00   0.00     0.41  -0.00  -0.00
     7  17    -0.00  -0.00  -0.49    -0.00   0.00   0.31     0.00  -0.00  -0.41
                     13                     14                     15
                     T1U                    T1U                    T1U
 Frequencies --    312.9235               312.9235               312.9235
 Red. masses --     46.8037                46.8037                46.8037
 Frc consts  --      2.7003                 2.7003                 2.7003
 IR Inten    --    117.8295               117.8295               117.8295
  Atom  AN      X      Y      Z        X      Y      Z        X      Y      Z
     1  51     0.37   0.00   0.00    -0.00   0.00   0.37    -0.00   0.37  -0.00
     2  17     0.01   0.00  -0.00    -0.00   0.00  -0.66    -0.00   0.01   0.00
     3  17     0.01  -0.00   0.00    -0.00  -0.00   0.01    -0.00  -0.66  -0.00
     4  17    -0.66   0.00   0.00     0.00   0.00   0.01     0.00   0.01  -0.00
     5  17     0.01  -0.00   0.00    -0.00  -0.00   0.01    -0.00  -0.66  -0.00
     6  17    -0.66   0.00   0.00     0.00   0.00   0.01     0.00   0.01  -0.00
     7  17     0.01   0.00  -0.00    -0.00   0.00  -0.66    -0.00   0.01   0.00

 -------------------
 - Thermochemistry -
 -------------------
 Temperature   298.150 Kelvin.  Pressure   1.00000 Atm.
 Atom     1 has atomic number 51 and mass 120.90380
 Atom     2 has atomic number 17 and mass  34.96885
 Atom     3 has atomic number 17 and mass  34.96885
 Atom     4 has atomic number 17 and mass  34.96885
 Atom     5 has atomic number 17 and mass  34.96885
 Atom     6 has atomic number 17 and mass  34.96885
 Atom     7 has atomic number 17 and mass  34.96885
 Molecular mass:   330.71692 amu.
 Principal axes and moments of inertia in atomic units:
                           1         2         3
     Eigenvalues --  2929.211232929.211232929.21123
           X            1.00000  -0.00000   0.00000
           Y            0.00000   1.00000   0.00000
           Z            0.00000   0.00000   1.00000
 This molecule is a spherical top.
 Rotational symmetry number 24.
 Warning -- assumption of classical behavior for rotation
           may cause significant error
 Rotational temperatures (Kelvin)      0.02957     0.02957     0.02957
 Rotational constants (GHZ):           0.61612     0.61612     0.61612
 Zero-point vibrational energy      17928.7 (Joules/Mol)
                                    4.28506 (Kcal/Mol)
 Warning -- explicit consideration of  15 degrees of freedom as
           vibrations may cause significant error
 Vibrational temperatures:    142.74   142.74   142.74   217.27   217.27
          (Kelvin)            217.27   238.41   238.41   238.41   369.63
                              369.63   427.47   450.23   450.23   450.23
 
 Zero-point correction=                           0.006829 (Hartree/Particle)
 Thermal correction to Energy=                    0.018234
 Thermal correction to Enthalpy=                  0.019178
 Thermal correction to Gibbs Free Energy=        -0.029876
 Sum of electronic and zero-point Energies=          -3000.783471
 Sum of electronic and thermal Energies=             -3000.772066
 Sum of electronic and thermal Enthalpies=           -3000.771122
 Sum of electronic and thermal Free Energies=        -3000.820176
 
                     E (Thermal)             CV                S
                      KCal/Mol        Cal/Mol-Kelvin    Cal/Mol-Kelvin
 Total                   11.442             33.298            103.243
 Electronic               0.000              0.000              0.000
 Translational            0.889              2.981             43.283
 Rotational               0.889              2.981             25.282
 Vibrational              9.665             27.336             34.678
 Vibration     1          0.604              1.950              3.470
 Vibration     2          0.604              1.950              3.470
 Vibration     3          0.604              1.950              3.470
 Vibration     4          0.618              1.902              2.659
 Vibration     5          0.618              1.902              2.659
 Vibration     6          0.618              1.902              2.659
 Vibration     7          0.624              1.885              2.484
 Vibration     8          0.624              1.885              2.484
 Vibration     9          0.624              1.885              2.484
 Vibration    10          0.666              1.751              1.683
 Vibration    11          0.666              1.751              1.683
 Vibration    12          0.691              1.679              1.433
 Vibration    13          0.701              1.649              1.347
 Vibration    14          0.701              1.649              1.347
 Vibration    15          0.701              1.649              1.347
                       Q            Log10(Q)             Ln(Q)
 Total Bot       0.552015D+14         13.741951         31.642011
 Total V=0       0.763697D+17         16.882921         38.874362
 Vib (Bot)       0.312286D+01          0.494552          1.138748
 Vib (Bot)    1  0.206901D+01          0.315763          0.727070
 Vib (Bot)    2  0.206901D+01          0.315763          0.727070
 Vib (Bot)    3  0.206901D+01          0.315763          0.727070
 Vib (Bot)    4  0.134237D+01          0.127873          0.294439
 Vib (Bot)    5  0.134237D+01          0.127873          0.294439
 Vib (Bot)    6  0.134237D+01          0.127873          0.294439
 Vib (Bot)    7  0.121786D+01          0.085598          0.197096
 Vib (Bot)    8  0.121786D+01          0.085598          0.197096
 Vib (Bot)    9  0.121786D+01          0.085598          0.197096
 Vib (Bot)   10  0.757196D+00         -0.120792         -0.278133
 Vib (Bot)   11  0.757196D+00         -0.120792         -0.278133
 Vib (Bot)   12  0.641128D+00         -0.193055         -0.444526
 Vib (Bot)   13  0.603249D+00         -0.219504         -0.505426
 Vib (Bot)   14  0.603249D+00         -0.219504         -0.505426
 Vib (Bot)   15  0.603249D+00         -0.219504         -0.505426
 Vib (V=0)       0.432038D+04          3.635522          8.371099
 Vib (V=0)    1  0.262857D+01          0.419719          0.966439
 Vib (V=0)    2  0.262857D+01          0.419719          0.966439
 Vib (V=0)    3  0.262857D+01          0.419719          0.966439
 Vib (V=0)    4  0.193247D+01          0.286112          0.658798
 Vib (V=0)    5  0.193247D+01          0.286112          0.658798
 Vib (V=0)    6  0.193247D+01          0.286112          0.658798
 Vib (V=0)    7  0.181650D+01          0.259237          0.596914
 Vib (V=0)    8  0.181650D+01          0.259237          0.596914
 Vib (V=0)    9  0.181650D+01          0.259237          0.596914
 Vib (V=0)   10  0.140738D+01          0.148413          0.341733
 Vib (V=0)   11  0.140738D+01          0.148413          0.341733
 Vib (V=0)   12  0.131305D+01          0.118280          0.272350
 Vib (V=0)   13  0.128352D+01          0.108404          0.249609
 Vib (V=0)   14  0.128352D+01          0.108404          0.249609
 Vib (V=0)   15  0.128352D+01          0.108404          0.249609
 Electronic      0.100000D+01          0.000000          0.000000
 Translational   0.236395D+09          8.373638         19.281015
 Rotational      0.747757D+05          4.873760         11.222248
 ***** Axes restored to original set *****
 -------------------------------------------------------------------
 Center     Atomic                   Forces (Hartrees/Bohr)
 Number     Number              X              Y              Z
 -------------------------------------------------------------------
      1       51          -0.000000000   -0.000000000   -0.000000000
      2       17          -0.000000000    0.000000379   -0.000000000
      3       17           0.000000000    0.000000000    0.000000379
      4       17           0.000000379   -0.000000000   -0.000000000
      5       17          -0.000000000    0.000000000   -0.000000379
      6       17          -0.000000379   -0.000000000    0.000000000
      7       17          -0.000000000   -0.000000379    0.000000000
 -------------------------------------------------------------------
 Cartesian Forces:  Max     0.000000379 RMS     0.000000203
 FormGI is forming the generalized inverse of G from B-inverse, IUseBI=4.

 GradGradGradGradGradGradGradGradGradGradGradGradGradGradGradGradGradGrad
 Berny optimization.
 Internal  Forces:  Max     0.000000379 RMS     0.000000164
 Search for a local minimum.
 Step number   1 out of a maximum of    2
 All quantities printed in internal units (Hartrees-Bohrs-Radians)
 Second derivative matrix not updated -- analytic derivatives used.
 ITU=  0
     Eigenvalues ---    0.04361   0.04892   0.05237   0.05783   0.06219
     Eigenvalues ---    0.06975   0.07899   0.08734   0.08734   0.09415
     Eigenvalues ---    0.10567   0.11682   0.11838   0.12903   0.14018
 Angle between quadratic step and forces=   0.00 degrees.
 Linear search not attempted -- first point.
 Iteration  1 RMS(Cart)=  0.00000141 RMS(Int)=  0.00000000
 Iteration  2 RMS(Cart)=  0.00000000 RMS(Int)=  0.00000000
 ClnCor:  largest displacement from symmetrization is 2.42D-11 for atom     7.
 Variable       Old X    -DE/DX   Delta X   Delta X   Delta X     New X
                                 (Linear)    (Quad)   (Total)
    R1        4.57620   0.00000   0.00000   0.00000   0.00000   4.57620
    R2        4.57620   0.00000   0.00000   0.00000   0.00000   4.57620
    R3        4.57620   0.00000   0.00000   0.00000   0.00000   4.57620
    R4        4.57620   0.00000   0.00000   0.00000   0.00000   4.57620
    R5        4.57620   0.00000   0.00000   0.00000   0.00000   4.57620
    R6        4.57620   0.00000   0.00000   0.00000   0.00000   4.57620
    A1        1.57080   0.00000   0.00000   0.00000   0.00000   1.57080
    A2        1.57080   0.00000   0.00000   0.00000   0.00000   1.57080
    A3        1.57080   0.00000   0.00000   0.00000   0.00000   1.57080
    A4        1.57080   0.00000   0.00000   0.00000   0.00000   1.57080
    A5        1.57080  -0.00000   0.00000  -0.00000   0.00000   1.57080
    A6        1.57080  -0.00000   0.00000  -0.00000   0.00000   1.57080
    A7        1.57080  -0.00000   0.00000  -0.00000   0.00000   1.57080
    A8        1.57080   0.00000   0.00000   0.00000   0.00000   1.57080
    A9        1.57080  -0.00000   0.00000  -0.00000   0.00000   1.57080
   A10        1.57080   0.00000   0.00000   0.00000   0.00000   1.57080
   A11        1.57080  -0.00000   0.00000  -0.00000   0.00000   1.57080
   A12        1.57080  -0.00000   0.00000  -0.00000   0.00000   1.57080
   A13        3.14159  -0.00000   0.00000  -0.00000   0.00000   3.14159
   A14        3.14159   0.00000   0.00000   0.00000   0.00000   3.14159
   A15        3.14159   0.00000   0.00000   0.00000   0.00000   3.14159
   A16        3.14159   0.00000   0.00000  -0.00000   0.00000   3.14159
   A17        3.14159   0.00000   0.00000   0.00000   0.00000   3.14159
   A18        3.14159   0.00000   0.00000   0.00000   0.00000   3.14159
    D1        1.57080   0.00000   0.00000   0.00000   0.00000   1.57080
    D2       -1.57080  -0.00000   0.00000  -0.00000   0.00000  -1.57080
    D3        1.57080   0.00000   0.00000   0.00000   0.00000   1.57080
    D4        1.57080   0.00000   0.00000   0.00000   0.00000   1.57080
    D5       -1.57080   0.00000   0.00000   0.00000   0.00000  -1.57080
    D6        1.57080  -0.00000   0.00000  -0.00000   0.00000   1.57080
    D7       -1.57080  -0.00000   0.00000  -0.00000   0.00000  -1.57080
    D8       -1.57080  -0.00000   0.00000  -0.00000   0.00000  -1.57080
         Item               Value     Threshold  Converged?
 Maximum Force            0.000000     0.000450     YES
 RMS     Force            0.000000     0.000300     YES
 Maximum Displacement     0.000003     0.001800     YES
 RMS     Displacement     0.000001     0.001200     YES
 Predicted change in Energy=-3.697112D-12
 Optimization completed.
    -- Stationary point found.
                           ----------------------------
                           !   Optimized Parameters   !
                           ! (Angstroms and Degrees)  !
 --------------------------                            --------------------------
 ! Name  Definition              Value          Derivative Info.                !
 --------------------------------------------------------------------------------
 ! R1    R(1,2)                  2.4216         -DE/DX =    0.0                 !
 ! R2    R(1,3)                  2.4216         -DE/DX =    0.0                 !
 ! R3    R(1,4)                  2.4216         -DE/DX =    0.0                 !
 ! R4    R(1,5)                  2.4216         -DE/DX =    0.0                 !
 ! R5    R(1,6)                  2.4216         -DE/DX =    0.0                 !
 ! R6    R(1,7)                  2.4216         -DE/DX =    0.0                 !
 ! A1    A(2,1,3)               90.0            -DE/DX =    0.0                 !
 ! A2    A(2,1,4)               90.0            -DE/DX =    0.0                 !
 ! A3    A(2,1,5)               90.0            -DE/DX =    0.0                 !
 ! A4    A(2,1,6)               90.0            -DE/DX =    0.0                 !
 ! A5    A(3,1,4)               90.0            -DE/DX =    0.0                 !
 ! A6    A(3,1,6)               90.0            -DE/DX =    0.0                 !
 ! A7    A(3,1,7)               90.0            -DE/DX =    0.0                 !
 ! A8    A(4,1,5)               90.0            -DE/DX =    0.0                 !
 ! A9    A(4,1,7)               90.0            -DE/DX =    0.0                 !
 ! A10   A(5,1,6)               90.0            -DE/DX =    0.0                 !
 ! A11   A(5,1,7)               90.0            -DE/DX =    0.0                 !
 ! A12   A(6,1,7)               90.0            -DE/DX =    0.0                 !
 ! A13   L(2,1,7,3,-1)         180.0            -DE/DX =    0.0                 !
 ! A14   L(3,1,5,2,-1)         180.0            -DE/DX =    0.0                 !
 ! A15   L(4,1,6,2,-1)         180.0            -DE/DX =    0.0                 !
 ! A16   L(2,1,7,3,-2)         180.0            -DE/DX =    0.0                 !
 ! A17   L(3,1,5,2,-2)         180.0            -DE/DX =    0.0                 !
 ! A18   L(4,1,6,2,-2)         180.0            -DE/DX =    0.0                 !
 ! D1    D(2,1,4,3)             90.0            -DE/DX =    0.0                 !
 ! D2    D(2,1,6,3)            -90.0            -DE/DX =    0.0                 !
 ! D3    D(2,1,5,4)             90.0            -DE/DX =    0.0                 !
 ! D4    D(2,1,6,5)             90.0            -DE/DX =    0.0                 !
 ! D5    D(3,1,7,4)            -90.0            -DE/DX =    0.0                 !
 ! D6    D(3,1,7,6)             90.0            -DE/DX =    0.0                 !
 ! D7    D(4,1,7,5)            -90.0            -DE/DX =    0.0                 !
 ! D8    D(5,1,7,6)            -90.0            -DE/DX =    0.0                 !
 --------------------------------------------------------------------------------
 GradGradGradGradGradGradGradGradGradGradGradGradGradGradGradGradGradGrad

 Dipole is zero, so no output in dipole orientation.

 ----------------------------------------------------------------------

 Electric dipole moment (input orientation):
 (Debye = 10**-18 statcoulomb cm , SI units = C m)
                  (au)            (Debye)         (10**-30 SI)
   Tot        0.000000D+00      0.000000D+00      0.000000D+00
   x          0.000000D+00      0.000000D+00      0.000000D+00
   y          0.000000D+00      0.000000D+00      0.000000D+00
   z          0.000000D+00      0.000000D+00      0.000000D+00

 Dipole polarizability, Alpha (input orientation).
 (esu units = cm**3 , SI units = C**2 m**2 J**-1)
 Alpha(0;0):
               (au)            (10**-24 esu)      (10**-40 SI)
   iso        0.142063D+03      0.210516D+02      0.234231D+02
   aniso      0.000000D+00      0.000000D+00      0.000000D+00
   xx         0.142063D+03      0.210516D+02      0.234231D+02
   yx         0.000000D+00      0.000000D+00      0.000000D+00
   yy         0.142063D+03      0.210516D+02      0.234231D+02
   zx         0.000000D+00      0.000000D+00      0.000000D+00
   zy         0.000000D+00      0.000000D+00      0.000000D+00
   zz         0.142063D+03      0.210516D+02      0.234231D+02

 ----------------------------------------------------------------------
 Unable to Open any file for archive entry.
 1\1\GINC-TCOPT10\Freq\RPBEPBE\def2QZVPP\Cl6Sb1(1-)\HUTTER\30-Jul-2021\
 0\\#N Geom=AllCheck Guess=TCheck SCRF=Check GenChk RPBEPBE/def2QZVPP F
 req\\Mol job 1\\-1,1\Sb,9.5,9.5,9.5\Cl,9.5,11.9216188595,9.5\Cl,9.5,9.
 5,11.9216188595\Cl,11.9216188595,9.5,9.5\Cl,9.5,9.5,7.0783811405\Cl,7.
 0783811405,9.5,9.5\Cl,9.5,7.0783811405,9.5\\Version=ES64L-G16RevC.01\S
 tate=1-A1G\HF=-3000.7903001\RMSD=2.807e-09\RMSF=2.028e-07\ZeroPoint=0.
 0068287\Thermal=0.018234\ETot=-3000.7720661\HTot=-3000.7711219\GTot=-3
 000.820176\Dipole=0.,0.,0.\DipoleDeriv=2.5751043,0.,0.,0.,2.5751043,0.
 ,0.,0.,2.5751043,-0.3480132,0.,0.,0.,-1.0915257,0.,0.,0.,-0.3480132,-0
 .3480132,0.,0.,0.,-0.3480132,0.,0.,0.,-1.0915257,-1.0915257,0.,0.,0.,-
 0.3480132,0.,0.,0.,-0.3480132,-0.3480132,0.,0.,0.,-0.3480132,0.,0.,0.,
 -1.0915257,-1.0915257,0.,0.,0.,-0.3480132,0.,0.,0.,-0.3480132,-0.34801
 32,0.,0.,0.,-1.0915257,0.,0.,0.,-0.3480132\Polar=142.0632919,0.,142.06
 3292,0.,0.,142.0632919\Quadrupole=0.,0.,0.,0.,0.,0.\PG=OH [O(Sb1),3C4(
 Cl1.Cl1)]\NImag=0\\0.19439857,0.,0.19439857,0.,0.,0.19439857,-0.012614
 06,0.,0.,0.01604865,0.,-0.07197116,0.,0.,0.09293776,0.,0.,-0.01261406,
 0.,0.,0.01604865,-0.01261406,0.,0.,0.00198986,0.,0.,0.01604865,0.,-0.0
 1261406,0.,0.,-0.00418480,0.00754176,0.,0.01604865,0.,0.,-0.07197116,0
 .,0.00491283,-0.00418480,0.,0.,0.09293776,-0.07197116,0.,0.,-0.0041848
 0,0.00491283,0.,-0.00418480,0.,0.00491283,0.09293776,0.,-0.01261406,0.
 ,0.00754176,-0.00418480,0.,0.,0.00198986,0.,0.,0.01604865,0.,0.,-0.012
 61406,0.,0.,0.00198986,0.00754176,0.,-0.00418480,0.,0.,0.01604865,-0.0
 1261406,0.,0.,0.00198986,0.,0.,0.00095529,0.,0.,-0.00418480,0.,-0.0075
 4176,0.01604865,0.,-0.01261406,0.,0.,-0.00418480,-0.00754176,0.,0.0009
 5529,0.,0.,0.00198986,0.,0.,0.01604865,0.,0.,-0.07197116,0.,-0.0049128
 3,-0.00418480,0.,0.,-0.00422741,-0.00491283,0.,-0.00418480,0.,0.,0.092
 93776,-0.07197116,0.,0.,-0.00418480,-0.00491283,0.,-0.00418480,0.,-0.0
 0491283,-0.00422741,0.,0.,-0.00418480,0.,0.00491283,0.09293776,0.,-0.0
 1261406,0.,-0.00754176,-0.00418480,0.,0.,0.00198986,0.,0.,0.00095529,0
 .,0.,0.00198986,0.,0.,0.01604865,0.,0.,-0.01261406,0.,0.,0.00198986,-0
 .00754176,0.,-0.00418480,0.,0.,0.00095529,0.00754176,0.,-0.00418480,0.
 ,0.,0.01604865,-0.01261406,0.,0.,0.00095529,0.,0.,0.00198986,0.,0.,-0.
 00418480,-0.00754176,0.,0.00198986,0.,0.,-0.00418480,0.00754176,0.,0.0
 1604865,0.,-0.07197116,0.,0.,-0.00422741,0.,0.,-0.00418480,-0.00491283
 ,-0.00491283,-0.00418480,0.,0.,-0.00418480,0.00491283,0.00491283,-0.00
 418480,0.,0.,0.09293776,0.,0.,-0.01261406,0.,0.,0.00095529,0.,-0.00754
 176,-0.00418480,0.,0.,0.00198986,0.,0.00754176,-0.00418480,0.,0.,0.001
 98986,0.,0.,0.01604865\\0.,0.,0.,0.,-0.00000038,0.,0.,0.,-0.00000038,-
 0.00000038,0.,0.,0.,0.,0.00000038,0.00000038,0.,0.,0.,0.00000038,0.\\\
 @
 The archive entry for this job was punched.


 SIC AS THE CAWSE OF EWERY THING IS, SIC WILBE THE EFFECT.
 -- PROVERBS AND REASONS OF THE YEAR 1585
           AS REPRINTED IN PAISLEY MAGAZINE 1828.
 Job cpu time:       0 days  1 hours 38 minutes 44.3 seconds.
 Elapsed time:       0 days  0 hours  6 minutes 11.1 seconds.
 File lengths (MBytes):  RWF=    158 Int=      0 D2E=      0 Chk=     21 Scr=      1
 Normal termination of Gaussian 16 at Fri Jul 30 19:38:22 2021.
