 Entering Gaussian System, Link 0=g16
 Initial command:
 /sw-ng/spack/opt/spack/linux-opensuse_leap15-sandybridge/pgi-18.10/gaussian-src-16-C.01-zldqaomctopxhethwccpmxmwefdscg3m/g16/l1.exe "/data/hutter/SMG16/PBE/Gau-7613.inp" -scrdir="/data/hutter/SMG16/PBE/"
 Entering Link 1 = /sw-ng/spack/opt/spack/linux-opensuse_leap15-sandybridge/pgi-18.10/gaussian-src-16-C.01-zldqaomctopxhethwccpmxmwefdscg3m/g16/l1.exe PID=      7624.
  
 Copyright (c) 1988-2019, Gaussian, Inc.  All Rights Reserved.
  
 This is part of the Gaussian(R) 16 program.  It is based on
 the Gaussian(R) 09 system (copyright 2009, Gaussian, Inc.),
 the Gaussian(R) 03 system (copyright 2003, Gaussian, Inc.),
 the Gaussian(R) 98 system (copyright 1998, Gaussian, Inc.),
 the Gaussian(R) 94 system (copyright 1995, Gaussian, Inc.),
 the Gaussian 92(TM) system (copyright 1992, Gaussian, Inc.),
 the Gaussian 90(TM) system (copyright 1990, Gaussian, Inc.),
 the Gaussian 88(TM) system (copyright 1988, Gaussian, Inc.),
 the Gaussian 86(TM) system (copyright 1986, Carnegie Mellon
 University), and the Gaussian 82(TM) system (copyright 1983,
 Carnegie Mellon University). Gaussian is a federally registered
 trademark of Gaussian, Inc.
  
 This software contains proprietary and confidential information,
 including trade secrets, belonging to Gaussian, Inc.
  
 This software is provided under written license and may be
 used, copied, transmitted, or stored only in accord with that
 written license.
  
 The following legend is applicable only to US Government
 contracts under FAR:
  
                    RESTRICTED RIGHTS LEGEND
  
 Use, reproduction and disclosure by the US Government is
 subject to restrictions as set forth in subparagraphs (a)
 and (c) of the Commercial Computer Software - Restricted
 Rights clause in FAR 52.227-19.
  
 Gaussian, Inc.
 340 Quinnipiac St., Bldg. 40, Wallingford CT 06492
  
  
 ---------------------------------------------------------------
 Warning -- This program may not be used in any manner that
 competes with the business of Gaussian, Inc. or will provide
 assistance to any competitor of Gaussian, Inc.  The licensee
 of this program is prohibited from giving any competitor of
 Gaussian, Inc. access to this program.  By using this program,
 the user acknowledges that Gaussian, Inc. is engaged in the
 business of creating and licensing software in the field of
 computational chemistry and represents and warrants to the
 licensee that it is not a competitor of Gaussian, Inc. and that
 it will not use this program in any manner prohibited above.
 ---------------------------------------------------------------
  

 Cite this work as:
 Gaussian 16, Revision C.01,
 M. J. Frisch, G. W. Trucks, H. B. Schlegel, G. E. Scuseria, 
 M. A. Robb, J. R. Cheeseman, G. Scalmani, V. Barone, 
 G. A. Petersson, H. Nakatsuji, X. Li, M. Caricato, A. V. Marenich, 
 J. Bloino, B. G. Janesko, R. Gomperts, B. Mennucci, H. P. Hratchian, 
 J. V. Ortiz, A. F. Izmaylov, J. L. Sonnenberg, D. Williams-Young, 
 F. Ding, F. Lipparini, F. Egidi, J. Goings, B. Peng, A. Petrone, 
 T. Henderson, D. Ranasinghe, V. G. Zakrzewski, J. Gao, N. Rega, 
 G. Zheng, W. Liang, M. Hada, M. Ehara, K. Toyota, R. Fukuda, 
 J. Hasegawa, M. Ishida, T. Nakajima, Y. Honda, O. Kitao, H. Nakai, 
 T. Vreven, K. Throssell, J. A. Montgomery, Jr., J. E. Peralta, 
 F. Ogliaro, M. J. Bearpark, J. J. Heyd, E. N. Brothers, K. N. Kudin, 
 V. N. Staroverov, T. A. Keith, R. Kobayashi, J. Normand, 
 K. Raghavachari, A. P. Rendell, J. C. Burant, S. S. Iyengar, 
 J. Tomasi, M. Cossi, J. M. Millam, M. Klene, C. Adamo, R. Cammi, 
 J. W. Ochterski, R. L. Martin, K. Morokuma, O. Farkas, 
 J. B. Foresman, and D. J. Fox, Gaussian, Inc., Wallingford CT, 2019.
 
 ******************************************
 Gaussian 16:  ES64L-G16RevC.01  3-Jul-2019
                30-Jul-2021 
 ******************************************
 %mem=8GB
 %NProcShare=8
 Will use up to    8 processors via shared memory.
 -----------------------------------------------------------
 #N RPBEPBE/Def2QZVPP scf=tight Int(Grid=ultrafine) OPT FREQ
 -----------------------------------------------------------
 1/18=20,19=15,26=4,38=1/1,3;
 2/9=110,12=2,17=6,18=5,40=1/2;
 3/5=45,7=202,11=2,25=1,30=1,71=1,74=1009,75=-5,116=1/1,2,3;
 4//1;
 5/5=2,32=2,38=5/2;
 6/7=2,8=2,9=2,10=2,28=1/1;
 7//1,2,3,16;
 1/18=20,19=15,26=4/3(2);
 2/9=110/2;
 99//99;
 2/9=110/2;
 3/5=45,7=202,11=2,25=1,30=1,71=1,74=1009,75=-5,116=1/1,2,3;
 4/5=5,16=3,69=1/1;
 5/5=2,32=2,38=5/2;
 7//1,2,3,16;
 1/18=20,19=15,26=4/3(-5);
 2/9=110/2;
 6/7=2,8=2,9=2,10=2,19=2,28=1/1;
 99/9=1/99;
 ---------
 Mol job 1
 ---------
 Symbolic Z-matrix:
 Charge =  0 Multiplicity = 1
 S                     8.10677   9.08127   9.97609 
 S                     9.99844   8.45826   9.70263 
 S                     9.99845   8.45826   7.29738 
 S                     8.10678   9.08127   7.02391 
 S                     7.00155   7.91873   8.50001 
 

 GradGradGradGradGradGradGradGradGradGradGradGradGradGradGradGradGradGrad
 Berny optimization.
 Initialization pass.
                           ----------------------------
                           !    Initial Parameters    !
                           ! (Angstroms and Degrees)  !
 --------------------------                            --------------------------
 ! Name  Definition              Value          Derivative Info.                !
 --------------------------------------------------------------------------------
 ! R1    R(1,2)                  2.0103         estimate D2E/DX2                !
 ! R2    R(1,5)                  2.1799         estimate D2E/DX2                !
 ! R3    R(2,3)                  2.4052         estimate D2E/DX2                !
 ! R4    R(3,4)                  2.0103         estimate D2E/DX2                !
 ! R5    R(4,5)                  2.1799         estimate D2E/DX2                !
 ! A1    A(2,1,5)              102.6913         estimate D2E/DX2                !
 ! A2    A(1,2,3)               97.8184         estimate D2E/DX2                !
 ! A3    A(2,3,4)               97.8182         estimate D2E/DX2                !
 ! A4    A(3,4,5)              102.6916         estimate D2E/DX2                !
 ! A5    A(1,5,4)               85.2415         estimate D2E/DX2                !
 ! D1    D(5,1,2,3)             42.985          estimate D2E/DX2                !
 ! D2    D(2,1,5,4)            -66.6262         estimate D2E/DX2                !
 ! D3    D(1,2,3,4)             -0.0002         estimate D2E/DX2                !
 ! D4    D(2,3,4,5)            -42.9844         estimate D2E/DX2                !
 ! D5    D(3,4,5,1)             66.6262         estimate D2E/DX2                !
 --------------------------------------------------------------------------------
 Trust Radius=3.00D-01 FncErr=1.00D-07 GrdErr=1.00D-06 EigMax=2.50D+02 EigMin=1.00D-04
 Number of steps in this run=     25 maximum allowed number of steps=    100.
 GradGradGradGradGradGradGradGradGradGradGradGradGradGradGradGradGradGrad

                          Input orientation:                          
 ---------------------------------------------------------------------
 Center     Atomic      Atomic             Coordinates (Angstroms)
 Number     Number       Type             X           Y           Z
 ---------------------------------------------------------------------
      1         16           0        8.106768    9.081275    9.976087
      2         16           0        9.998436    8.458263    9.702625
      3         16           0        9.998446    8.458264    7.297382
      4         16           0        8.106781    9.081268    7.023913
      5         16           0        7.001554    7.918725    8.500005
 ---------------------------------------------------------------------
                    Distance matrix (angstroms):
                    1          2          3          4          5
     1  S    0.000000
     2  S    2.010308   0.000000
     3  S    3.337971   2.405243   0.000000
     4  S    2.952174   3.337963   2.010303   0.000000
     5  S    2.179871   3.273943   3.273953   2.179881   0.000000
 Stoichiometry    S5
 Framework group  C1[X(S5)]
 Deg. of freedom     9
 Full point group                 C1      NOp   1
 Largest Abelian subgroup         C1      NOp   1
 Largest concise Abelian subgroup C1      NOp   1
                         Standard orientation:                         
 ---------------------------------------------------------------------
 Center     Atomic      Atomic             Coordinates (Angstroms)
 Number     Number       Type             X           Y           Z
 ---------------------------------------------------------------------
      1         16           0       -1.476137   -0.517598   -0.500887
      2         16           0       -1.202487    1.350120    0.190548
      3         16           0        1.202755    1.349889    0.190545
      4         16           0        1.476037   -0.517881   -0.500881
      5         16           0       -0.000169   -1.664531    0.620675
 ---------------------------------------------------------------------
 Rotational constants (GHZ):           1.9979839           1.9253485           1.1129999
 Standard basis: def2QZVPP (5D, 7F)
 There are   430 symmetry adapted cartesian basis functions of A   symmetry.
 There are   350 symmetry adapted basis functions of A   symmetry.
   350 basis functions,   605 primitive gaussians,   430 cartesian basis functions
    40 alpha electrons       40 beta electrons
       nuclear repulsion energy       525.2011211803 Hartrees.
 NAtoms=    5 NActive=    5 NUniq=    5 SFac= 1.00D+00 NAtFMM=   60 NAOKFM=F Big=F
 Integral buffers will be    131072 words long.
 Raffenetti 2 integral format.
 Two-electron integral symmetry is turned on.
 One-electron integrals computed using PRISM.
   1 Symmetry operations used in ECPInt.
 ECPInt:  NShTT=    6105 NPrTT=   21500 LenC2=    5665 LenP2D=   14626.
 LDataN:  DoStor=T MaxTD1= 8 Len=  415
 NBasis=   350 RedAO= T EigKep=  2.54D-04  NBF=   350
 NBsUse=   350 1.00D-06 EigRej= -1.00D+00 NBFU=   350
 ExpMin= 8.07D-02 ExpMax= 1.27D+06 ExpMxC= 1.45D+03 IAcc=3 IRadAn=         5 AccDes= 0.00D+00
 Harris functional with IExCor= 1009 and IRadAn=       5 diagonalized for initial guess.
 HarFok:  IExCor= 1009 AccDes= 0.00D+00 IRadAn=         5 IDoV= 1 UseB2=F ITyADJ=14
 ICtDFT=  3500011 ScaDFX=  1.000000  1.000000  1.000000  1.000000
 FoFCou: FMM=F IPFlag=           0 FMFlag=      100000 FMFlg1=           0
         NFxFlg=           0 DoJE=T BraDBF=F KetDBF=T FulRan=T
         wScrn=  0.000000 ICntrl=       500 IOpCl=  0 I1Cent=   200000004 NGrid=           0
         NMat0=    1 NMatS0=      1 NMatT0=    0 NMatD0=    1 NMtDS0=    0 NMtDT0=    0
 Petite list used in FoFCou.
 Requested convergence on RMS density matrix=1.00D-08 within 128 cycles.
 Requested convergence on MAX density matrix=1.00D-06.
 Requested convergence on             energy=1.00D-06.
 No special actions if energy rises.
 Integral accuracy reduced to 1.0D-05 until final iterations.
 Rare condition: small coef for last iteration:  0.000D+00
 Problem detected with inexpensive integrals.
 Switching to full accuracy and repeating last cycle.
 SCF Done:  E(RPBE-PBE) =  -1990.28719027     A.U. after   20 cycles
            NFock= 20  Conv=0.75D-08     -V/T= 2.0016

 **********************************************************************

            Population analysis using the SCF Density.

 **********************************************************************

 Orbital symmetries:
       Occupied  (A) (A) (A) (A) (A) (A) (A) (A) (A) (A) (A) (A)
                 (A) (A) (A) (A) (A) (A) (A) (A) (A) (A) (A) (A)
                 (A) (A) (A) (A) (A) (A) (A) (A) (A) (A) (A) (A)
                 (A) (A) (A) (A)
       Virtual   (A) (A) (A) (A) (A) (A) (A) (A) (A) (A) (A) (A)
                 (A) (A) (A) (A) (A) (A) (A) (A) (A) (A) (A) (A)
                 (A) (A) (A) (A) (A) (A) (A) (A) (A) (A) (A) (A)
                 (A) (A) (A) (A) (A) (A) (A) (A) (A) (A) (A) (A)
                 (A) (A) (A) (A) (A) (A) (A) (A) (A) (A) (A) (A)
                 (A) (A) (A) (A) (A) (A) (A) (A) (A) (A) (A) (A)
                 (A) (A) (A) (A) (A) (A) (A) (A) (A) (A) (A) (A)
                 (A) (A) (A) (A) (A) (A) (A) (A) (A) (A) (A) (A)
                 (A) (A) (A) (A) (A) (A) (A) (A) (A) (A) (A) (A)
                 (A) (A) (A) (A) (A) (A) (A) (A) (A) (A) (A) (A)
                 (A) (A) (A) (A) (A) (A) (A) (A) (A) (A) (A) (A)
                 (A) (A) (A) (A) (A) (A) (A) (A) (A) (A) (A) (A)
                 (A) (A) (A) (A) (A) (A) (A) (A) (A) (A) (A) (A)
                 (A) (A) (A) (A) (A) (A) (A) (A) (A) (A) (A) (A)
                 (A) (A) (A) (A) (A) (A) (A) (A) (A) (A) (A) (A)
                 (A) (A) (A) (A) (A) (A) (A) (A) (A) (A) (A) (A)
                 (A) (A) (A) (A) (A) (A) (A) (A) (A) (A) (A) (A)
                 (A) (A) (A) (A) (A) (A) (A) (A) (A) (A) (A) (A)
                 (A) (A) (A) (A) (A) (A) (A) (A) (A) (A) (A) (A)
                 (A) (A) (A) (A) (A) (A) (A) (A) (A) (A) (A) (A)
                 (A) (A) (A) (A) (A) (A) (A) (A) (A) (A) (A) (A)
                 (A) (A) (A) (A) (A) (A) (A) (A) (A) (A) (A) (A)
                 (A) (A) (A) (A) (A) (A) (A) (A) (A) (A) (A) (A)
                 (A) (A) (A) (A) (A) (A) (A) (A) (A) (A) (A) (A)
                 (A) (A) (A) (A) (A) (A) (A) (A) (A) (A) (A) (A)
                 (A) (A) (A) (A) (A) (A) (A) (A) (A) (A)
 The electronic state is 1-A.
 Alpha  occ. eigenvalues --  -88.12274 -88.12274 -88.10375 -88.10127 -88.10127
 Alpha  occ. eigenvalues --   -7.74497  -7.74497  -7.72697  -7.72507  -7.72507
 Alpha  occ. eigenvalues --   -5.76705  -5.76704  -5.76385  -5.76385  -5.75774
 Alpha  occ. eigenvalues --   -5.75774  -5.74816  -5.74808  -5.74728  -5.74726
 Alpha  occ. eigenvalues --   -5.74473  -5.74472  -5.73815  -5.73662  -5.73661
 Alpha  occ. eigenvalues --   -0.79605  -0.73509  -0.68753  -0.56742  -0.56720
 Alpha  occ. eigenvalues --   -0.40365  -0.38560  -0.38379  -0.34159  -0.33483
 Alpha  occ. eigenvalues --   -0.30644  -0.27231  -0.24949  -0.22831  -0.21484
 Alpha virt. eigenvalues --   -0.14126  -0.11149  -0.10907  -0.09115  -0.05694
 Alpha virt. eigenvalues --    0.05498   0.07155   0.07540   0.07798   0.08421
 Alpha virt. eigenvalues --    0.09463   0.09772   0.10248   0.11775   0.11909
 Alpha virt. eigenvalues --    0.12323   0.13441   0.14550   0.15604   0.16001
 Alpha virt. eigenvalues --    0.17283   0.18206   0.18561   0.19350   0.19674
 Alpha virt. eigenvalues --    0.21132   0.25268   0.25559   0.27143   0.28763
 Alpha virt. eigenvalues --    0.29002   0.32240   0.32297   0.34905   0.36464
 Alpha virt. eigenvalues --    0.38293   0.39706   0.40220   0.42561   0.43960
 Alpha virt. eigenvalues --    0.44845   0.45449   0.46043   0.48372   0.48911
 Alpha virt. eigenvalues --    0.51366   0.52116   0.52701   0.55849   0.60728
 Alpha virt. eigenvalues --    0.71776   0.73383   0.75217   0.77523   0.77541
 Alpha virt. eigenvalues --    0.79336   0.80087   0.81211   0.82994   0.83637
 Alpha virt. eigenvalues --    0.84741   0.85162   0.87287   0.87679   0.88727
 Alpha virt. eigenvalues --    0.90041   0.90361   0.90865   0.90900   0.92258
 Alpha virt. eigenvalues --    0.92951   0.93178   0.93509   0.94268   0.94809
 Alpha virt. eigenvalues --    0.95445   0.95704   0.96460   0.98304   0.98645
 Alpha virt. eigenvalues --    0.99436   0.99990   1.00618   1.00619   1.01927
 Alpha virt. eigenvalues --    1.02296   1.02792   1.03743   1.03784   1.04573
 Alpha virt. eigenvalues --    1.06673   1.10779   1.11955   1.12869   1.13339
 Alpha virt. eigenvalues --    1.15004   1.19561   1.21663   1.23449   1.25373
 Alpha virt. eigenvalues --    1.28675   1.34417   1.34618   1.36941   1.37200
 Alpha virt. eigenvalues --    1.37881   1.42637   1.43855   1.44298   1.46350
 Alpha virt. eigenvalues --    1.52663   1.56658   1.59730   1.60946   1.62623
 Alpha virt. eigenvalues --    1.63659   1.67059   1.67984   1.68603   1.72281
 Alpha virt. eigenvalues --    1.72363   1.74358   1.74678   1.80380   1.86795
 Alpha virt. eigenvalues --    1.90180   2.01009   2.05128   2.26141   2.26891
 Alpha virt. eigenvalues --    2.39138   2.41115   2.41903   2.42410   2.43638
 Alpha virt. eigenvalues --    2.44662   2.45220   2.48306   2.48896   2.49804
 Alpha virt. eigenvalues --    2.50697   2.52335   2.54164   2.55472   2.56810
 Alpha virt. eigenvalues --    2.57600   2.58785   2.60664   2.61475   2.62243
 Alpha virt. eigenvalues --    2.63412   2.64185   2.65023   2.67864   2.67978
 Alpha virt. eigenvalues --    2.68889   2.69454   2.69883   2.70892   2.71093
 Alpha virt. eigenvalues --    2.73639   2.74867   2.76187   2.77263   2.77923
 Alpha virt. eigenvalues --    2.78315   2.79511   2.79604   2.80441   2.83096
 Alpha virt. eigenvalues --    2.83348   2.83561   2.87451   2.89743   2.93150
 Alpha virt. eigenvalues --    2.95397   2.98528   3.02318   3.03849   3.04334
 Alpha virt. eigenvalues --    3.06253   3.06794   3.07745   3.08661   3.09311
 Alpha virt. eigenvalues --    3.09978   3.11579   3.12746   3.15154   3.16628
 Alpha virt. eigenvalues --    3.17187   3.18139   3.18428   3.19545   3.21502
 Alpha virt. eigenvalues --    3.22347   3.23574   3.25216   3.25853   3.28005
 Alpha virt. eigenvalues --    3.28588   3.29487   3.29547   3.32030   3.34900
 Alpha virt. eigenvalues --    3.35426   3.36164   3.38193   3.38827   3.40561
 Alpha virt. eigenvalues --    3.41986   3.42684   3.44944   3.44981   3.45971
 Alpha virt. eigenvalues --    3.48174   3.49973   3.52494   3.53060   3.55026
 Alpha virt. eigenvalues --    3.57812   3.58259   3.63010   3.64245   3.70837
 Alpha virt. eigenvalues --    3.72084   3.75067   3.78608   3.79788   3.82731
 Alpha virt. eigenvalues --    3.86867   3.92236   3.96217   3.96721   4.08641
 Alpha virt. eigenvalues --    4.08871   4.12919   4.15533   4.16855   4.18094
 Alpha virt. eigenvalues --    4.22529   4.24677   4.28197   4.30892   4.35569
 Alpha virt. eigenvalues --    4.41136   4.54294   4.60156   5.11375   5.16267
 Alpha virt. eigenvalues --    6.79325   7.05728   7.08928   7.39879   7.40558
 Alpha virt. eigenvalues --    8.43102   8.44512   8.45965   8.47371   8.49266
 Alpha virt. eigenvalues --    8.49657   8.54505   8.54710   8.55903   8.56452
 Alpha virt. eigenvalues --    8.58607   8.59992   8.61039   8.65776   8.66813
 Alpha virt. eigenvalues --    8.69853   8.70234   8.73671   8.79226   8.79469
 Alpha virt. eigenvalues --    8.94985   9.01623   9.24197   9.25843   9.45011
 Alpha virt. eigenvalues --   23.76605  24.02093  24.06137  24.39748  24.40042
 Alpha virt. eigenvalues --   28.28568  28.31108  28.31194  28.32576  28.36430
 Alpha virt. eigenvalues --   28.37178  28.42891  28.46337  28.47065  28.48711
 Alpha virt. eigenvalues --   28.55593  28.57817  28.65951  28.79092  28.85310
 Alpha virt. eigenvalues --   83.04451  83.27980  83.32843  83.64461  83.65146
 Alpha virt. eigenvalues --  448.92950 449.32735 449.40973 449.94669 449.96649
          Condensed to atoms (all electrons):
               1          2          3          4          5
     1  S   15.564684   0.321540  -0.067801  -0.078079   0.211494
     2  S    0.321540  15.701294   0.138554  -0.067803  -0.074318
     3  S   -0.067801   0.138554  15.701289   0.321540  -0.074316
     4  S   -0.078079  -0.067803   0.321540  15.564690   0.211492
     5  S    0.211494  -0.074318  -0.074316   0.211492  15.783438
 Mulliken charges:
               1
     1  S    0.048162
     2  S   -0.019267
     3  S   -0.019266
     4  S    0.048161
     5  S   -0.057790
 Sum of Mulliken charges =  -0.00000
 Mulliken charges with hydrogens summed into heavy atoms:
               1
     1  S    0.048162
     2  S   -0.019267
     3  S   -0.019266
     4  S    0.048161
     5  S   -0.057790
 Electronic spatial extent (au):  <R**2>=           1007.7747
 Charge=             -0.0000 electrons
 Dipole moment (field-independent basis, Debye):
    X=             -0.0000    Y=             -0.2376    Z=             -0.1122  Tot=              0.2628
 Quadrupole moment (field-independent basis, Debye-Ang):
   XX=            -62.4709   YY=            -62.3655   ZZ=            -65.4605
   XY=              0.0000   XZ=              0.0001   YZ=              0.5619
 Traceless Quadrupole moment (field-independent basis, Debye-Ang):
   XX=              0.9614   YY=              1.0668   ZZ=             -2.0282
   XY=              0.0000   XZ=              0.0001   YZ=              0.5619
 Octapole moment (field-independent basis, Debye-Ang**2):
  XXX=             -0.0006  YYY=              3.7641  ZZZ=             -1.3597  XYY=              0.0008
  XXY=             -2.0283  XXZ=             -1.9845  XZZ=             -0.0003  YZZ=             -2.5160
  YYZ=              4.2663  XYZ=              0.0006
 Hexadecapole moment (field-independent basis, Debye-Ang**3):
 XXXX=           -631.7762 YYYY=           -603.8260 ZZZZ=           -163.2792 XXXY=              0.0008
 XXXZ=              0.0010 YYYX=              0.0002 YYYZ=              3.8856 ZZZX=             -0.0001
 ZZZY=             -1.0475 XXYY=           -204.9007 XXZZ=           -131.3312 YYZZ=           -128.2334
 XXYZ=              3.4720 YYXZ=             -0.0003 ZZXY=             -0.0001
 N-N= 5.252011211803D+02 E-N=-5.784019330672D+03  KE= 1.987176546489D+03
   1 Symmetry operations used in ECPInt.
 ECPInt:  NShTT=    6105 NPrTT=   21500 LenC2=    5665 LenP2D=   14626.
 LDataN:  DoStor=T MaxTD1= 9 Len=  602
 Calling FoFJK, ICntrl=      2527 FMM=F ISym2X=0 I1Cent= 0 IOpClX= 0 NMat=1 NMatS=1 NMatT=0.
 ***** Axes restored to original set *****
 -------------------------------------------------------------------
 Center     Atomic                   Forces (Hartrees/Bohr)
 Number     Number              X              Y              Z
 -------------------------------------------------------------------
      1       16           0.005118286   -0.010116828   -0.010992561
      2       16          -0.011760326    0.003597203   -0.008723993
      3       16          -0.011760256    0.003596518    0.008724727
      4       16           0.005116765   -0.010116220    0.010992349
      5       16           0.013285531    0.013039326   -0.000000521
 -------------------------------------------------------------------
 Cartesian Forces:  Max     0.013285531 RMS     0.009309409

 GradGradGradGradGradGradGradGradGradGradGradGradGradGradGradGradGradGrad
 Berny optimization.
 FormGI is forming the generalized inverse of G from B-inverse, IUseBI=4.
 Internal  Forces:  Max     0.012891522 RMS     0.007132569
 Search for a local minimum.
 Step number   1 out of a maximum of   25
 All quantities printed in internal units (Hartrees-Bohrs-Radians)
 Mixed Optimization -- RFO/linear search
 Second derivative matrix not updated -- first step.
 The second derivative matrix:
                          R1        R2        R3        R4        R5
           R1           0.33436
           R2           0.00000   0.20087
           R3           0.00000   0.00000   0.11406
           R4           0.00000   0.00000   0.00000   0.33436
           R5           0.00000   0.00000   0.00000   0.00000   0.20087
           A1           0.00000   0.00000   0.00000   0.00000   0.00000
           A2           0.00000   0.00000   0.00000   0.00000   0.00000
           A3           0.00000   0.00000   0.00000   0.00000   0.00000
           A4           0.00000   0.00000   0.00000   0.00000   0.00000
           A5           0.00000   0.00000   0.00000   0.00000   0.00000
           D1           0.00000   0.00000   0.00000   0.00000   0.00000
           D2           0.00000   0.00000   0.00000   0.00000   0.00000
           D3           0.00000   0.00000   0.00000   0.00000   0.00000
           D4           0.00000   0.00000   0.00000   0.00000   0.00000
           D5           0.00000   0.00000   0.00000   0.00000   0.00000
                          A1        A2        A3        A4        A5
           A1           0.25000
           A2           0.00000   0.25000
           A3           0.00000   0.00000   0.25000
           A4           0.00000   0.00000   0.00000   0.25000
           A5           0.00000   0.00000   0.00000   0.00000   0.25000
           D1           0.00000   0.00000   0.00000   0.00000   0.00000
           D2           0.00000   0.00000   0.00000   0.00000   0.00000
           D3           0.00000   0.00000   0.00000   0.00000   0.00000
           D4           0.00000   0.00000   0.00000   0.00000   0.00000
           D5           0.00000   0.00000   0.00000   0.00000   0.00000
                          D1        D2        D3        D4        D5
           D1           0.01161
           D2           0.00000   0.00230
           D3           0.00000   0.00000   0.00230
           D4           0.00000   0.00000   0.00000   0.01161
           D5           0.00000   0.00000   0.00000   0.00000   0.00230
 ITU=  0
     Eigenvalues ---    0.01645   0.05839   0.11783   0.19666   0.20038
     Eigenvalues ---    0.20830   0.23423   0.32551   0.33419
 RFO step:  Lambda=-3.57468803D-03 EMin= 1.64544943D-02
 Linear search not attempted -- first point.
 Iteration  1 RMS(Cart)=  0.03235339 RMS(Int)=  0.00010922
 Iteration  2 RMS(Cart)=  0.00009705 RMS(Int)=  0.00003645
 Iteration  3 RMS(Cart)=  0.00000001 RMS(Int)=  0.00003645
 Variable       Old X    -DE/DX   Delta X   Delta X   Delta X     New X
                                 (Linear)    (Quad)   (Total)
    R1        3.79893  -0.01246   0.00000  -0.03671  -0.03671   3.76222
    R2        4.11936  -0.01289   0.00000  -0.06442  -0.06443   4.05493
    R3        4.54525  -0.01079   0.00000  -0.08820  -0.08818   4.45707
    R4        3.79892  -0.01246   0.00000  -0.03671  -0.03671   3.76221
    R5        4.11938  -0.01289   0.00000  -0.06442  -0.06443   4.05494
    A1        1.79230  -0.00003   0.00000  -0.00512  -0.00518   1.78713
    A2        1.70725  -0.00060   0.00000  -0.00289  -0.00290   1.70435
    A3        1.70725  -0.00060   0.00000  -0.00288  -0.00289   1.70436
    A4        1.79231  -0.00003   0.00000  -0.00513  -0.00518   1.78712
    A5        1.48775  -0.00041   0.00000  -0.01078  -0.01087   1.47688
    D1        0.75023   0.00053   0.00000   0.00966   0.00965   0.75988
    D2       -1.16285  -0.00107   0.00000  -0.01344  -0.01339  -1.17624
    D3       -0.00000   0.00000   0.00000   0.00001   0.00001   0.00001
    D4       -0.75022  -0.00053   0.00000  -0.00967  -0.00966  -0.75988
    D5        1.16285   0.00107   0.00000   0.01344   0.01339   1.17624
         Item               Value     Threshold  Converged?
 Maximum Force            0.012892     0.000450     NO 
 RMS     Force            0.007133     0.000300     NO 
 Maximum Displacement     0.059881     0.001800     NO 
 RMS     Displacement     0.032331     0.001200     NO 
 Predicted change in Energy=-1.821738D-03
 GradGradGradGradGradGradGradGradGradGradGradGradGradGradGradGradGradGrad

                          Input orientation:                          
 ---------------------------------------------------------------------
 Center     Atomic      Atomic             Coordinates (Angstroms)
 Number     Number       Type             X           Y           Z
 ---------------------------------------------------------------------
      1         16           0        8.110291    9.081786    9.944400
      2         16           0        9.981725    8.456435    9.679296
      3         16           0        9.981728    8.456426    7.320715
      4         16           0        8.110302    9.081786    7.055601
      5         16           0        7.027938    7.921362    8.500001
 ---------------------------------------------------------------------
                    Distance matrix (angstroms):
                    1          2          3          4          5
     1  S    0.000000
     2  S    1.990881   0.000000
     3  S    3.282845   2.358580   0.000000
     4  S    2.888799   3.282844   1.990878   0.000000
     5  S    2.145777   3.225197   3.225195   2.145784   0.000000
 Stoichiometry    S5
 Framework group  C1[X(S5)]
 Deg. of freedom     9
 Full point group                 C1      NOp   1
 Largest Abelian subgroup         C1      NOp   1
 Largest concise Abelian subgroup C1      NOp   1
                         Standard orientation:                         
 ---------------------------------------------------------------------
 Center     Atomic      Atomic             Coordinates (Angstroms)
 Number     Number       Type             X           Y           Z
 ---------------------------------------------------------------------
      1         16           0       -1.444416   -0.515265   -0.500126
      2         16           0       -1.179245    1.333698    0.188807
      3         16           0        1.179335    1.333616    0.188813
      4         16           0        1.444383   -0.515358   -0.500130
      5         16           0       -0.000057   -1.636690    0.622634
 ---------------------------------------------------------------------
 Rotational constants (GHZ):           2.0458403           1.9975201           1.1520084
 Standard basis: def2QZVPP (5D, 7F)
 There are   430 symmetry adapted cartesian basis functions of A   symmetry.
 There are   350 symmetry adapted basis functions of A   symmetry.
   350 basis functions,   605 primitive gaussians,   430 cartesian basis functions
    40 alpha electrons       40 beta electrons
       nuclear repulsion energy       533.2258973423 Hartrees.
 NAtoms=    5 NActive=    5 NUniq=    5 SFac= 1.00D+00 NAtFMM=   60 NAOKFM=F Big=F
 Integral buffers will be    131072 words long.
 Raffenetti 2 integral format.
 Two-electron integral symmetry is turned on.
 One-electron integrals computed using PRISM.
   1 Symmetry operations used in ECPInt.
 ECPInt:  NShTT=    6105 NPrTT=   21500 LenC2=    5679 LenP2D=   14670.
 LDataN:  DoStor=T MaxTD1= 8 Len=  415
 NBasis=   350 RedAO= T EigKep=  2.38D-04  NBF=   350
 NBsUse=   350 1.00D-06 EigRej= -1.00D+00 NBFU=   350
 Initial guess from the checkpoint file:  "/data/hutter/SMG16/PBE/Gau-7624.chk"
 B after Tr=    -0.000000   -0.000000    0.000000
         Rot=    0.999999    0.001110   -0.000000   -0.000032 Ang=   0.13 deg.
 ExpMin= 8.07D-02 ExpMax= 1.27D+06 ExpMxC= 1.45D+03 IAcc=3 IRadAn=         5 AccDes= 0.00D+00
 Harris functional with IExCor= 1009 and IRadAn=       5 diagonalized for initial guess.
 HarFok:  IExCor= 1009 AccDes= 0.00D+00 IRadAn=         5 IDoV= 1 UseB2=F ITyADJ=14
 ICtDFT=  3500011 ScaDFX=  1.000000  1.000000  1.000000  1.000000
 FoFCou: FMM=F IPFlag=           0 FMFlag=      100000 FMFlg1=           0
         NFxFlg=           0 DoJE=T BraDBF=F KetDBF=T FulRan=T
         wScrn=  0.000000 ICntrl=       500 IOpCl=  0 I1Cent=   200000004 NGrid=           0
         NMat0=    1 NMatS0=      1 NMatT0=    0 NMatD0=    1 NMtDS0=    0 NMtDT0=    0
 Petite list used in FoFCou.
 Requested convergence on RMS density matrix=1.00D-08 within 128 cycles.
 Requested convergence on MAX density matrix=1.00D-06.
 Requested convergence on             energy=1.00D-06.
 No special actions if energy rises.
 Integral accuracy reduced to 1.0D-05 until final iterations.
 EnCoef did     8 forward-backward iterations
 Initial convergence to 1.0D-05 achieved.  Increase integral accuracy.
 SCF Done:  E(RPBE-PBE) =  -1990.28967036     A.U. after   12 cycles
            NFock= 12  Conv=0.51D-08     -V/T= 2.0015
   1 Symmetry operations used in ECPInt.
 ECPInt:  NShTT=    6105 NPrTT=   21500 LenC2=    5679 LenP2D=   14670.
 LDataN:  DoStor=T MaxTD1= 9 Len=  602
 Calling FoFJK, ICntrl=      2527 FMM=F ISym2X=0 I1Cent= 0 IOpClX= 0 NMat=1 NMatS=1 NMatT=0.
 ***** Axes restored to original set *****
 -------------------------------------------------------------------
 Center     Atomic                   Forces (Hartrees/Bohr)
 Number     Number              X              Y              Z
 -------------------------------------------------------------------
      1       16           0.000361655   -0.005346675   -0.002432769
      2       16          -0.003343382    0.001494982   -0.005656836
      3       16          -0.003343253    0.001495321    0.005656998
      4       16           0.000361156   -0.005346981    0.002432796
      5       16           0.005963824    0.007703353   -0.000000189
 -------------------------------------------------------------------
 Cartesian Forces:  Max     0.007703353 RMS     0.004123203

 GradGradGradGradGradGradGradGradGradGradGradGradGradGradGradGradGradGrad
 Berny optimization.
 Using GEDIIS/GDIIS optimizer.
 FormGI is forming the generalized inverse of G from B-inverse, IUseBI=4.
 Internal  Forces:  Max     0.005421108 RMS     0.003008897
 Search for a local minimum.
 Step number   2 out of a maximum of   25
 All quantities printed in internal units (Hartrees-Bohrs-Radians)
 Mixed Optimization -- RFO/linear search
 Update second derivatives using D2CorX and points    1    2
 DE= -2.48D-03 DEPred=-1.82D-03 R= 1.36D+00
 TightC=F SS=  1.41D+00  RLast= 1.40D-01 DXNew= 5.0454D-01 4.1900D-01
 Trust test= 1.36D+00 RLast= 1.40D-01 DXMaxT set to 4.19D-01
 The second derivative matrix:
                          R1        R2        R3        R4        R5
           R1           0.32650
           R2          -0.01580   0.17790
           R3          -0.01380  -0.01913   0.09827
           R4          -0.00786  -0.01580  -0.01379   0.32650
           R5          -0.01580  -0.02298  -0.01913  -0.01580   0.17789
           A1          -0.00684  -0.00672  -0.00512  -0.00684  -0.00672
           A2           0.00380   0.00265   0.00179   0.00380   0.00265
           A3           0.00380   0.00265   0.00179   0.00380   0.00266
           A4          -0.00684  -0.00672  -0.00513  -0.00684  -0.00672
           A5           0.00326   0.00071  -0.00000   0.00326   0.00071
           D1          -0.00867  -0.00721  -0.00521  -0.00867  -0.00721
           D2           0.01083   0.00908   0.00659   0.01083   0.00908
           D3          -0.00000  -0.00000  -0.00000  -0.00000  -0.00000
           D4           0.00868   0.00721   0.00521   0.00868   0.00721
           D5          -0.01083  -0.00908  -0.00659  -0.01083  -0.00908
                          A1        A2        A3        A4        A5
           A1           0.24967
           A2          -0.00068   0.25100
           A3          -0.00068   0.00100   0.25099
           A4          -0.00033  -0.00068  -0.00068   0.24967
           A5          -0.00184   0.00175   0.00174  -0.00184   0.25254
           D1           0.00064  -0.00161  -0.00161   0.00064  -0.00321
           D2          -0.00073   0.00197   0.00197  -0.00073   0.00396
           D3           0.00000  -0.00000  -0.00000   0.00000  -0.00000
           D4          -0.00064   0.00161   0.00161  -0.00064   0.00321
           D5           0.00073  -0.00197  -0.00197   0.00073  -0.00396
                          D1        D2        D3        D4        D5
           D1           0.01395
           D2          -0.00282   0.00571
           D3           0.00000  -0.00000   0.00230
           D4          -0.00234   0.00283  -0.00000   0.01395
           D5           0.00282  -0.00341   0.00000  -0.00282   0.00571
 ITU=  1  0
 Use linear search instead of GDIIS.
     Eigenvalues ---    0.01668   0.05531   0.09907   0.16444   0.19635
     Eigenvalues ---    0.20723   0.24106   0.32513   0.32776
 RFO step:  Lambda=-9.41297513D-04 EMin= 1.66800497D-02
 Quartic linear search produced a step of  0.52217.
 Iteration  1 RMS(Cart)=  0.03243913 RMS(Int)=  0.00089298
 Iteration  2 RMS(Cart)=  0.00087216 RMS(Int)=  0.00032540
 Iteration  3 RMS(Cart)=  0.00000038 RMS(Int)=  0.00032540
 Variable       Old X    -DE/DX   Delta X   Delta X   Delta X     New X
                                 (Linear)    (Quad)   (Total)
    R1        3.76222  -0.00357  -0.01917  -0.00619  -0.02536   3.73686
    R2        4.05493  -0.00542  -0.03364  -0.02031  -0.05398   4.00095
    R3        4.45707  -0.00537  -0.04604  -0.04567  -0.09166   4.36541
    R4        3.76221  -0.00357  -0.01917  -0.00619  -0.02535   3.73686
    R5        4.05494  -0.00542  -0.03365  -0.02031  -0.05399   4.00096
    A1        1.78713  -0.00062  -0.00270   0.01249   0.00931   1.79643
    A2        1.70435   0.00100  -0.00151   0.01954   0.01760   1.72196
    A3        1.70436   0.00100  -0.00151   0.01955   0.01761   1.72197
    A4        1.78712  -0.00062  -0.00271   0.01250   0.00931   1.79643
    A5        1.47688   0.00282  -0.00567   0.04195   0.03561   1.51249
    D1        0.75988  -0.00176   0.00504  -0.03757  -0.03280   0.72707
    D2       -1.17624   0.00170  -0.00699   0.05545   0.04875  -1.12748
    D3        0.00001  -0.00000   0.00001  -0.00002  -0.00002  -0.00001
    D4       -0.75988   0.00176  -0.00505   0.03761   0.03283  -0.72705
    D5        1.17624  -0.00170   0.00699  -0.05546  -0.04877   1.12747
         Item               Value     Threshold  Converged?
 Maximum Force            0.005421     0.000450     NO 
 RMS     Force            0.003009     0.000300     NO 
 Maximum Displacement     0.066053     0.001800     NO 
 RMS     Displacement     0.032212     0.001200     NO 
 Predicted change in Energy=-9.090183D-04
 GradGradGradGradGradGradGradGradGradGradGradGradGradGradGradGradGradGrad

                          Input orientation:                          
 ---------------------------------------------------------------------
 Center     Atomic      Atomic             Coordinates (Angstroms)
 Number     Number       Type             X           Y           Z
 ---------------------------------------------------------------------
      1         16           0        8.112604    9.054072    9.952820
      2         16           0        9.977181    8.466668    9.655045
      3         16           0        9.977187    8.466677    7.344971
      4         16           0        8.112608    9.054062    7.047175
      5         16           0        7.032404    7.956316    8.500003
 ---------------------------------------------------------------------
                    Distance matrix (angstroms):
                    1          2          3          4          5
     1  S    0.000000
     2  S    1.977464   0.000000
     3  S    3.259230   2.310074   0.000000
     4  S    2.905645   3.259241   1.977463   0.000000
     5  S    2.117210   3.204106   3.204110   2.117215   0.000000
 Stoichiometry    S5
 Framework group  C1[X(S5)]
 Deg. of freedom     9
 Full point group                 C1      NOp   1
 Largest Abelian subgroup         C1      NOp   1
 Largest concise Abelian subgroup C1      NOp   1
                         Standard orientation:                         
 ---------------------------------------------------------------------
 Center     Atomic      Atomic             Coordinates (Angstroms)
 Number     Number       Type             X           Y           Z
 ---------------------------------------------------------------------
      1         16           0       -1.452800   -0.514091   -0.472253
      2         16           0       -1.155086    1.329460    0.178169
      3         16           0        1.154987    1.329543    0.178161
      4         16           0        1.452845   -0.513990   -0.472242
      5         16           0        0.000054   -1.630921    0.588165
 ---------------------------------------------------------------------
 Rotational constants (GHZ):           2.0856210           2.0408978           1.1611502
 Standard basis: def2QZVPP (5D, 7F)
 There are   430 symmetry adapted cartesian basis functions of A   symmetry.
 There are   350 symmetry adapted basis functions of A   symmetry.
   350 basis functions,   605 primitive gaussians,   430 cartesian basis functions
    40 alpha electrons       40 beta electrons
       nuclear repulsion energy       537.9378766056 Hartrees.
 NAtoms=    5 NActive=    5 NUniq=    5 SFac= 1.00D+00 NAtFMM=   60 NAOKFM=F Big=F
 Integral buffers will be    131072 words long.
 Raffenetti 2 integral format.
 Two-electron integral symmetry is turned on.
 One-electron integrals computed using PRISM.
   1 Symmetry operations used in ECPInt.
 ECPInt:  NShTT=    6105 NPrTT=   21500 LenC2=    5687 LenP2D=   14688.
 LDataN:  DoStor=T MaxTD1= 8 Len=  415
 NBasis=   350 RedAO= T EigKep=  2.28D-04  NBF=   350
 NBsUse=   350 1.00D-06 EigRej= -1.00D+00 NBFU=   350
 Initial guess from the checkpoint file:  "/data/hutter/SMG16/PBE/Gau-7624.chk"
 B after Tr=    -0.000000    0.000000   -0.000000
         Rot=    1.000000    0.000096    0.000001   -0.000035 Ang=   0.01 deg.
 ExpMin= 8.07D-02 ExpMax= 1.27D+06 ExpMxC= 1.45D+03 IAcc=3 IRadAn=         5 AccDes= 0.00D+00
 Harris functional with IExCor= 1009 and IRadAn=       5 diagonalized for initial guess.
 HarFok:  IExCor= 1009 AccDes= 0.00D+00 IRadAn=         5 IDoV= 1 UseB2=F ITyADJ=14
 ICtDFT=  3500011 ScaDFX=  1.000000  1.000000  1.000000  1.000000
 FoFCou: FMM=F IPFlag=           0 FMFlag=      100000 FMFlg1=           0
         NFxFlg=           0 DoJE=T BraDBF=F KetDBF=T FulRan=T
         wScrn=  0.000000 ICntrl=       500 IOpCl=  0 I1Cent=   200000004 NGrid=           0
         NMat0=    1 NMatS0=      1 NMatT0=    0 NMatD0=    1 NMtDS0=    0 NMtDT0=    0
 Petite list used in FoFCou.
 Requested convergence on RMS density matrix=1.00D-08 within 128 cycles.
 Requested convergence on MAX density matrix=1.00D-06.
 Requested convergence on             energy=1.00D-06.
 No special actions if energy rises.
 Integral accuracy reduced to 1.0D-05 until final iterations.
 Initial convergence to 1.0D-05 achieved.  Increase integral accuracy.
 SCF Done:  E(RPBE-PBE) =  -1990.29038347     A.U. after   12 cycles
            NFock= 12  Conv=0.50D-08     -V/T= 2.0014
   1 Symmetry operations used in ECPInt.
 ECPInt:  NShTT=    6105 NPrTT=   21500 LenC2=    5687 LenP2D=   14688.
 LDataN:  DoStor=T MaxTD1= 9 Len=  602
 Calling FoFJK, ICntrl=      2527 FMM=F ISym2X=0 I1Cent= 0 IOpClX= 0 NMat=1 NMatS=1 NMatT=0.
 ***** Axes restored to original set *****
 -------------------------------------------------------------------
 Center     Atomic                   Forces (Hartrees/Bohr)
 Number     Number              X              Y              Z
 -------------------------------------------------------------------
      1       16          -0.005237692    0.003484433    0.001649458
      2       16           0.004394652   -0.002469535   -0.004220280
      3       16           0.004395770   -0.002470889    0.004219568
      4       16          -0.005237963    0.003484792   -0.001648270
      5       16           0.001685233   -0.002028801   -0.000000476
 -------------------------------------------------------------------
 Cartesian Forces:  Max     0.005237963 RMS     0.003444836

 GradGradGradGradGradGradGradGradGradGradGradGradGradGradGradGradGradGrad
 Berny optimization.
 Using GEDIIS/GDIIS optimizer.
 FormGI is forming the generalized inverse of G from B-inverse, IUseBI=4.
 Internal  Forces:  Max     0.005046389 RMS     0.002463574
 Search for a local minimum.
 Step number   3 out of a maximum of   25
 All quantities printed in internal units (Hartrees-Bohrs-Radians)
 Mixed Optimization -- RFO/linear search
 Update second derivatives using D2CorX and points    1    2    3
 DE= -7.13D-04 DEPred=-9.09D-04 R= 7.84D-01
 TightC=F SS=  1.41D+00  RLast= 1.56D-01 DXNew= 7.0467D-01 4.6946D-01
 Trust test= 7.84D-01 RLast= 1.56D-01 DXMaxT set to 4.69D-01
 The second derivative matrix:
                          R1        R2        R3        R4        R5
           R1           0.36497
           R2           0.00268   0.18253
           R3          -0.01942  -0.03054   0.08122
           R4           0.03062   0.00268  -0.01942   0.36499
           R5           0.00268  -0.01834  -0.03054   0.00268   0.18252
           A1          -0.00593  -0.00200   0.00353  -0.00593  -0.00200
           A2           0.01900   0.01649   0.01299   0.01900   0.01649
           A3           0.01900   0.01649   0.01299   0.01900   0.01649
           A4          -0.00592  -0.00199   0.00353  -0.00592  -0.00199
           A5           0.03129   0.02797   0.02424   0.03128   0.02797
           D1           0.00602   0.00415   0.00148   0.00602   0.00415
           D2          -0.01392  -0.00973  -0.00400  -0.01392  -0.00973
           D3           0.00000   0.00000   0.00000   0.00000   0.00000
           D4          -0.00602  -0.00415  -0.00148  -0.00602  -0.00415
           D5           0.01393   0.00973   0.00400   0.01393   0.00973
                          A1        A2        A3        A4        A5
           A1           0.24533
           A2          -0.00698   0.24685
           A3          -0.00698  -0.00316   0.24684
           A4          -0.00467  -0.00698  -0.00698   0.24532
           A5          -0.01524  -0.00864  -0.00865  -0.01525   0.22761
           D1          -0.00331  -0.00239  -0.00239  -0.00331  -0.00638
           D2           0.00560   0.00278   0.00279   0.00560   0.00827
           D3          -0.00000  -0.00000  -0.00000  -0.00000  -0.00000
           D4           0.00331   0.00239   0.00239   0.00331   0.00638
           D5          -0.00560  -0.00278  -0.00279  -0.00560  -0.00827
                          D1        D2        D3        D4        D5
           D1           0.01515
           D2          -0.00520   0.01027
           D3           0.00000  -0.00000   0.00230
           D4          -0.00354   0.00520  -0.00000   0.01515
           D5           0.00520  -0.00797   0.00000  -0.00520   0.01028
 ITU=  1  1  0
 Use linear search instead of GDIIS.
     Eigenvalues ---    0.01559   0.05713   0.08177   0.17071   0.19691
     Eigenvalues ---    0.21123   0.24676   0.32513   0.41082
 RFO step:  Lambda=-3.64274784D-04 EMin= 1.55876039D-02
 Quartic linear search produced a step of -0.13455.
 Iteration  1 RMS(Cart)=  0.01543074 RMS(Int)=  0.00015592
 Iteration  2 RMS(Cart)=  0.00013110 RMS(Int)=  0.00002499
 Iteration  3 RMS(Cart)=  0.00000001 RMS(Int)=  0.00002499
 Variable       Old X    -DE/DX   Delta X   Delta X   Delta X     New X
                                 (Linear)    (Quad)   (Total)
    R1        3.73686   0.00505   0.00341   0.00580   0.00921   3.74607
    R2        4.00095   0.00046   0.00726  -0.01632  -0.00906   3.99189
    R3        4.36541  -0.00310   0.01233  -0.04768  -0.03534   4.33007
    R4        3.73686   0.00505   0.00341   0.00579   0.00921   3.74607
    R5        4.00096   0.00046   0.00726  -0.01632  -0.00906   3.99190
    A1        1.79643  -0.00303  -0.00125  -0.01674  -0.01801   1.77842
    A2        1.72196   0.00066  -0.00237   0.00362   0.00124   1.72320
    A3        1.72197   0.00066  -0.00237   0.00361   0.00123   1.72320
    A4        1.79643  -0.00303  -0.00125  -0.01675  -0.01802   1.77841
    A5        1.51249   0.00091  -0.00479   0.00108  -0.00378   1.50872
    D1        0.72707   0.00062   0.00441   0.00565   0.01002   0.73710
    D2       -1.12748  -0.00216  -0.00656  -0.01334  -0.01990  -1.14738
    D3       -0.00001   0.00000   0.00000   0.00003   0.00003   0.00002
    D4       -0.72705  -0.00062  -0.00442  -0.00570  -0.01008  -0.73713
    D5        1.12747   0.00216   0.00656   0.01337   0.01993   1.14740
         Item               Value     Threshold  Converged?
 Maximum Force            0.005046     0.000450     NO 
 RMS     Force            0.002464     0.000300     NO 
 Maximum Displacement     0.032754     0.001800     NO 
 RMS     Displacement     0.015507     0.001200     NO 
 Predicted change in Energy=-1.997398D-04
 GradGradGradGradGradGradGradGradGradGradGradGradGradGradGradGradGradGrad

                          Input orientation:                          
 ---------------------------------------------------------------------
 Center     Atomic      Atomic             Coordinates (Angstroms)
 Number     Number       Type             X           Y           Z
 ---------------------------------------------------------------------
      1         16           0        8.108624    9.064706    9.946632
      2         16           0        9.972493    8.460486    9.645690
      3         16           0        9.972493    8.460461    7.354318
      4         16           0        8.108637    9.064715    7.053375
      5         16           0        7.049736    7.947428    8.499997
 ---------------------------------------------------------------------
                    Distance matrix (angstroms):
                    1          2          3          4          5
     1  S    0.000000
     2  S    1.982336   0.000000
     3  S    3.249494   2.291372   0.000000
     4  S    2.893258   3.249485   1.982334   0.000000
     5  S    2.112417   3.180935   3.180926   2.112420   0.000000
 Stoichiometry    S5
 Framework group  C1[X(S5)]
 Deg. of freedom     9
 Full point group                 C1      NOp   1
 Largest Abelian subgroup         C1      NOp   1
 Largest concise Abelian subgroup C1      NOp   1
                         Standard orientation:                         
 ---------------------------------------------------------------------
 Center     Atomic      Atomic             Coordinates (Angstroms)
 Number     Number       Type             X           Y           Z
 ---------------------------------------------------------------------
      1         16           0       -1.446650   -0.519577   -0.480891
      2         16           0       -1.145640    1.325385    0.178778
      3         16           0        1.145732    1.325303    0.178795
      4         16           0        1.446608   -0.519667   -0.480909
      5         16           0       -0.000050   -1.611444    0.604228
 ---------------------------------------------------------------------
 Rotational constants (GHZ):           2.0960182           2.0522526           1.1743165
 Standard basis: def2QZVPP (5D, 7F)
 There are   430 symmetry adapted cartesian basis functions of A   symmetry.
 There are   350 symmetry adapted basis functions of A   symmetry.
   350 basis functions,   605 primitive gaussians,   430 cartesian basis functions
    40 alpha electrons       40 beta electrons
       nuclear repulsion energy       539.4352208551 Hartrees.
 NAtoms=    5 NActive=    5 NUniq=    5 SFac= 1.00D+00 NAtFMM=   60 NAOKFM=F Big=F
 Integral buffers will be    131072 words long.
 Raffenetti 2 integral format.
 Two-electron integral symmetry is turned on.
 One-electron integrals computed using PRISM.
   1 Symmetry operations used in ECPInt.
 ECPInt:  NShTT=    6105 NPrTT=   21500 LenC2=    5691 LenP2D=   14710.
 LDataN:  DoStor=T MaxTD1= 8 Len=  415
 NBasis=   350 RedAO= T EigKep=  2.30D-04  NBF=   350
 NBsUse=   350 1.00D-06 EigRej= -1.00D+00 NBFU=   350
 Initial guess from the checkpoint file:  "/data/hutter/SMG16/PBE/Gau-7624.chk"
 B after Tr=    -0.000000   -0.000000   -0.000000
         Rot=    0.999998    0.002043   -0.000002    0.000034 Ang=   0.23 deg.
 ExpMin= 8.07D-02 ExpMax= 1.27D+06 ExpMxC= 1.45D+03 IAcc=3 IRadAn=         5 AccDes= 0.00D+00
 Harris functional with IExCor= 1009 and IRadAn=       5 diagonalized for initial guess.
 HarFok:  IExCor= 1009 AccDes= 0.00D+00 IRadAn=         5 IDoV= 1 UseB2=F ITyADJ=14
 ICtDFT=  3500011 ScaDFX=  1.000000  1.000000  1.000000  1.000000
 FoFCou: FMM=F IPFlag=           0 FMFlag=      100000 FMFlg1=           0
         NFxFlg=           0 DoJE=T BraDBF=F KetDBF=T FulRan=T
         wScrn=  0.000000 ICntrl=       500 IOpCl=  0 I1Cent=   200000004 NGrid=           0
         NMat0=    1 NMatS0=      1 NMatT0=    0 NMatD0=    1 NMtDS0=    0 NMtDT0=    0
 Petite list used in FoFCou.
 Requested convergence on RMS density matrix=1.00D-08 within 128 cycles.
 Requested convergence on MAX density matrix=1.00D-06.
 Requested convergence on             energy=1.00D-06.
 No special actions if energy rises.
 Integral accuracy reduced to 1.0D-05 until final iterations.
 EnCoef did     6 forward-backward iterations
 Initial convergence to 1.0D-05 achieved.  Increase integral accuracy.
 SCF Done:  E(RPBE-PBE) =  -1990.29062304     A.U. after   12 cycles
            NFock= 12  Conv=0.47D-08     -V/T= 2.0014
   1 Symmetry operations used in ECPInt.
 ECPInt:  NShTT=    6105 NPrTT=   21500 LenC2=    5691 LenP2D=   14710.
 LDataN:  DoStor=T MaxTD1= 9 Len=  602
 Calling FoFJK, ICntrl=      2527 FMM=F ISym2X=0 I1Cent= 0 IOpClX= 0 NMat=1 NMatS=1 NMatT=0.
 ***** Axes restored to original set *****
 -------------------------------------------------------------------
 Center     Atomic                   Forces (Hartrees/Bohr)
 Number     Number              X              Y              Z
 -------------------------------------------------------------------
      1       16          -0.003932027    0.001469124    0.002614084
      2       16           0.004394317   -0.001265598   -0.002621711
      3       16           0.004393186   -0.001263761    0.002622396
      4       16          -0.003931794    0.001468209   -0.002615007
      5       16          -0.000923682   -0.000407974    0.000000238
 -------------------------------------------------------------------
 Cartesian Forces:  Max     0.004394317 RMS     0.002651847

 GradGradGradGradGradGradGradGradGradGradGradGradGradGradGradGradGradGrad
 Berny optimization.
 Using GEDIIS/GDIIS optimizer.
 FormGI is forming the generalized inverse of G from B-inverse, IUseBI=4.
 Internal  Forces:  Max     0.004706785 RMS     0.001947189
 Search for a local minimum.
 Step number   4 out of a maximum of   25
 All quantities printed in internal units (Hartrees-Bohrs-Radians)
 Mixed Optimization -- RFO/linear search
 Update second derivatives using D2CorX and points    1    2    3    4
 DE= -2.40D-04 DEPred=-2.00D-04 R= 1.20D+00
 TightC=F SS=  1.41D+00  RLast= 5.70D-02 DXNew= 7.8953D-01 1.7088D-01
 Trust test= 1.20D+00 RLast= 5.70D-02 DXMaxT set to 4.69D-01
 The second derivative matrix:
                          R1        R2        R3        R4        R5
           R1           0.34083
           R2           0.01995   0.19145
           R3           0.01987  -0.02446   0.07082
           R4           0.00647   0.01995   0.01986   0.34083
           R5           0.01996  -0.00943  -0.02446   0.01995   0.19144
           A1           0.03745  -0.00380  -0.01820   0.03744  -0.00381
           A2           0.01646   0.01507   0.01484   0.01645   0.01507
           A3           0.01650   0.01508   0.01484   0.01649   0.01508
           A4           0.03747  -0.00381  -0.01822   0.03745  -0.00382
           A5           0.03769   0.02078   0.01661   0.03768   0.02077
           D1          -0.00521  -0.00469  -0.00557  -0.00521  -0.00469
           D2           0.00599   0.00996   0.01394   0.00597   0.00996
           D3          -0.00001  -0.00001  -0.00001  -0.00001  -0.00001
           D4           0.00523   0.00470   0.00558   0.00522   0.00471
           D5          -0.00599  -0.00997  -0.01396  -0.00598  -0.00997
                          A1        A2        A3        A4        A5
           A1           0.20509
           A2          -0.01137   0.24095
           A3          -0.01139  -0.00905   0.24094
           A4          -0.04495  -0.01138  -0.01140   0.20501
           A5          -0.04115  -0.02210  -0.02213  -0.04117   0.19172
           D1          -0.00836  -0.00472  -0.00473  -0.00835  -0.01025
           D2           0.02190   0.00805   0.00808   0.02189   0.01873
           D3          -0.00001  -0.00000  -0.00000  -0.00001  -0.00000
           D4           0.00836   0.00472   0.00473   0.00836   0.01025
           D5          -0.02191  -0.00805  -0.00808  -0.02190  -0.01873
                          D1        D2        D3        D4        D5
           D1           0.02098
           D2          -0.01724   0.03526
           D3           0.00001  -0.00001   0.00230
           D4          -0.00938   0.01727  -0.00001   0.02100
           D5           0.01725  -0.03298   0.00001  -0.01728   0.03530
 ITU=  1  1  1  0
 Use linear search instead of GDIIS.
     Eigenvalues ---    0.01581   0.03699   0.12438   0.18039   0.19665
     Eigenvalues ---    0.21049   0.23568   0.32498   0.37729
 RFO step:  Lambda=-2.54242644D-04 EMin= 1.58149543D-02
 Quartic linear search produced a step of  0.22326.
 Iteration  1 RMS(Cart)=  0.01106791 RMS(Int)=  0.00007324
 Iteration  2 RMS(Cart)=  0.00005594 RMS(Int)=  0.00001775
 Iteration  3 RMS(Cart)=  0.00000000 RMS(Int)=  0.00001775
 Variable       Old X    -DE/DX   Delta X   Delta X   Delta X     New X
                                 (Linear)    (Quad)   (Total)
    R1        3.74607   0.00471   0.00206   0.01435   0.01641   3.76248
    R2        3.99189   0.00127  -0.00202  -0.00504  -0.00705   3.98484
    R3        4.33007  -0.00137  -0.00789  -0.04184  -0.04974   4.28033
    R4        3.74607   0.00471   0.00206   0.01435   0.01641   3.76248
    R5        3.99190   0.00127  -0.00202  -0.00503  -0.00705   3.98485
    A1        1.77842  -0.00063  -0.00402  -0.00454  -0.00857   1.76985
    A2        1.72320   0.00079   0.00028   0.00884   0.00907   1.73227
    A3        1.72320   0.00079   0.00027   0.00886   0.00909   1.73228
    A4        1.77841  -0.00063  -0.00402  -0.00453  -0.00856   1.76986
    A5        1.50872   0.00142  -0.00084   0.01201   0.01119   1.51990
    D1        0.73710  -0.00089   0.00224  -0.00887  -0.00665   0.73045
    D2       -1.14738   0.00095  -0.00444   0.01226   0.00781  -1.13957
    D3        0.00002  -0.00000   0.00001  -0.00005  -0.00004  -0.00002
    D4       -0.73713   0.00089  -0.00225   0.00895   0.00672  -0.73041
    D5        1.14740  -0.00095   0.00445  -0.01230  -0.00784   1.13956
         Item               Value     Threshold  Converged?
 Maximum Force            0.004707     0.000450     NO 
 RMS     Force            0.001947     0.000300     NO 
 Maximum Displacement     0.024877     0.001800     NO 
 RMS     Displacement     0.011077     0.001200     NO 
 Predicted change in Energy=-1.376300D-04
 GradGradGradGradGradGradGradGradGradGradGradGradGradGradGradGradGradGrad

                          Input orientation:                          
 ---------------------------------------------------------------------
 Center     Atomic      Atomic             Coordinates (Angstroms)
 Number     Number       Type             X           Y           Z
 ---------------------------------------------------------------------
      1         16           0        8.104340    9.062796    9.952642
      2         16           0        9.974690    8.459907    9.632534
      3         16           0        9.974698    8.459925    7.367482
      4         16           0        8.104342    9.062780    7.047351
      5         16           0        7.053914    7.952387    8.500004
 ---------------------------------------------------------------------
                    Distance matrix (angstroms):
                    1          2          3          4          5
     1  S    0.000000
     2  S    1.991018   0.000000
     3  S    3.247267   2.265051   0.000000
     4  S    2.905291   3.247280   1.991017   0.000000
     5  S    2.108687   3.173505   3.173513   2.108690   0.000000
 Stoichiometry    S5
 Framework group  C1[X(S5)]
 Deg. of freedom     9
 Full point group                 C1      NOp   1
 Largest Abelian subgroup         C1      NOp   1
 Largest concise Abelian subgroup C1      NOp   1
                         Standard orientation:                         
 ---------------------------------------------------------------------
 Center     Atomic      Atomic             Coordinates (Angstroms)
 Number     Number       Type             X           Y           Z
 ---------------------------------------------------------------------
      1         16           0       -1.452613   -0.525292   -0.477743
      2         16           0       -1.132597    1.327931    0.175942
      3         16           0        1.132454    1.328053    0.175926
      4         16           0        1.452678   -0.525146   -0.477724
      5         16           0        0.000078   -1.605546    0.603600
 ---------------------------------------------------------------------
 Rotational constants (GHZ):           2.0965959           2.0613333           1.1759151
 Standard basis: def2QZVPP (5D, 7F)
 There are   430 symmetry adapted cartesian basis functions of A   symmetry.
 There are   350 symmetry adapted basis functions of A   symmetry.
   350 basis functions,   605 primitive gaussians,   430 cartesian basis functions
    40 alpha electrons       40 beta electrons
       nuclear repulsion energy       539.8153002694 Hartrees.
 NAtoms=    5 NActive=    5 NUniq=    5 SFac= 1.00D+00 NAtFMM=   60 NAOKFM=F Big=F
 Integral buffers will be    131072 words long.
 Raffenetti 2 integral format.
 Two-electron integral symmetry is turned on.
 One-electron integrals computed using PRISM.
   1 Symmetry operations used in ECPInt.
 ECPInt:  NShTT=    6105 NPrTT=   21500 LenC2=    5693 LenP2D=   14706.
 LDataN:  DoStor=T MaxTD1= 8 Len=  415
 NBasis=   350 RedAO= T EigKep=  2.34D-04  NBF=   350
 NBsUse=   350 1.00D-06 EigRej= -1.00D+00 NBFU=   350
 Initial guess from the checkpoint file:  "/data/hutter/SMG16/PBE/Gau-7624.chk"
 B after Tr=    -0.000000   -0.000000   -0.000000
         Rot=    0.999999    0.001309    0.000002   -0.000043 Ang=   0.15 deg.
 ExpMin= 8.07D-02 ExpMax= 1.27D+06 ExpMxC= 1.45D+03 IAcc=3 IRadAn=         5 AccDes= 0.00D+00
 Harris functional with IExCor= 1009 and IRadAn=       5 diagonalized for initial guess.
 HarFok:  IExCor= 1009 AccDes= 0.00D+00 IRadAn=         5 IDoV= 1 UseB2=F ITyADJ=14
 ICtDFT=  3500011 ScaDFX=  1.000000  1.000000  1.000000  1.000000
 FoFCou: FMM=F IPFlag=           0 FMFlag=      100000 FMFlg1=           0
         NFxFlg=           0 DoJE=T BraDBF=F KetDBF=T FulRan=T
         wScrn=  0.000000 ICntrl=       500 IOpCl=  0 I1Cent=   200000004 NGrid=           0
         NMat0=    1 NMatS0=      1 NMatT0=    0 NMatD0=    1 NMtDS0=    0 NMtDT0=    0
 Petite list used in FoFCou.
 Requested convergence on RMS density matrix=1.00D-08 within 128 cycles.
 Requested convergence on MAX density matrix=1.00D-06.
 Requested convergence on             energy=1.00D-06.
 No special actions if energy rises.
 Integral accuracy reduced to 1.0D-05 until final iterations.
 EnCoef did     6 forward-backward iterations
 Initial convergence to 1.0D-05 achieved.  Increase integral accuracy.
 SCF Done:  E(RPBE-PBE) =  -1990.29084233     A.U. after   12 cycles
            NFock= 12  Conv=0.23D-08     -V/T= 2.0014
   1 Symmetry operations used in ECPInt.
 ECPInt:  NShTT=    6105 NPrTT=   21500 LenC2=    5693 LenP2D=   14706.
 LDataN:  DoStor=T MaxTD1= 9 Len=  602
 Calling FoFJK, ICntrl=      2527 FMM=F ISym2X=0 I1Cent= 0 IOpClX= 0 NMat=1 NMatS=1 NMatT=0.
 ***** Axes restored to original set *****
 -------------------------------------------------------------------
 Center     Atomic                   Forces (Hartrees/Bohr)
 Number     Number              X              Y              Z
 -------------------------------------------------------------------
      1       16          -0.002727559    0.001042310    0.002216166
      2       16           0.003404024   -0.000820926   -0.001266969
      3       16           0.003405843   -0.000822993    0.001266119
      4       16          -0.002728250    0.001043087   -0.002214776
      5       16          -0.001354058   -0.000441477   -0.000000541
 -------------------------------------------------------------------
 Cartesian Forces:  Max     0.003405843 RMS     0.001943348

 GradGradGradGradGradGradGradGradGradGradGradGradGradGradGradGradGradGrad
 Berny optimization.
 Using GEDIIS/GDIIS optimizer.
 FormGI is forming the generalized inverse of G from B-inverse, IUseBI=4.
 Internal  Forces:  Max     0.003599677 RMS     0.001517221
 Search for a local minimum.
 Step number   5 out of a maximum of   25
 All quantities printed in internal units (Hartrees-Bohrs-Radians)
 Mixed Optimization -- RFO/linear search
 Update second derivatives using D2CorX and points    1    2    3    4    5
 DE= -2.19D-04 DEPred=-1.38D-04 R= 1.59D+00
 TightC=F SS=  1.41D+00  RLast= 6.13D-02 DXNew= 7.8953D-01 1.8396D-01
 Trust test= 1.59D+00 RLast= 6.13D-02 DXMaxT set to 4.69D-01
 The second derivative matrix:
                          R1        R2        R3        R4        R5
           R1           0.28120
           R2           0.00403   0.19165
           R3           0.04009  -0.01176   0.07603
           R4          -0.05318   0.00404   0.04012   0.28117
           R5           0.00403  -0.00923  -0.01176   0.00404   0.19163
           A1           0.03335   0.00319  -0.00273   0.03335   0.00318
           A2          -0.00708   0.01006   0.02521  -0.00709   0.01006
           A3          -0.00710   0.01004   0.02520  -0.00711   0.01004
           A4           0.03331   0.00318  -0.00268   0.03331   0.00318
           A5          -0.00021   0.01299   0.03374  -0.00023   0.01299
           D1          -0.00202  -0.00445  -0.00788  -0.00202  -0.00445
           D2           0.00592   0.01151   0.01683   0.00592   0.01151
           D3          -0.00001   0.00000   0.00002  -0.00001   0.00000
           D4           0.00203   0.00444   0.00786   0.00203   0.00444
           D5          -0.00593  -0.01150  -0.01680  -0.00594  -0.01150
                          A1        A2        A3        A4        A5
           A1           0.21510
           A2          -0.01343   0.23043
           A3          -0.01348  -0.01960   0.23037
           A4          -0.03493  -0.01346  -0.01351   0.21505
           A5          -0.04507  -0.03963  -0.03970  -0.04514   0.16221
           D1          -0.00937  -0.00367  -0.00368  -0.00937  -0.00849
           D2           0.02722   0.00898   0.00900   0.02724   0.01978
           D3           0.00001  -0.00000  -0.00000   0.00001  -0.00000
           D4           0.00936   0.00367   0.00368   0.00935   0.00849
           D5          -0.02721  -0.00898  -0.00900  -0.02723  -0.01978
                          D1        D2        D3        D4        D5
           D1           0.02141
           D2          -0.01804   0.03624
           D3           0.00000  -0.00000   0.00230
           D4          -0.00980   0.01805  -0.00000   0.02142
           D5           0.01805  -0.03394   0.00000  -0.01806   0.03624
 ITU=  1  1  1  1  0
 Use linear search instead of GDIIS.
     Eigenvalues ---    0.01551   0.02600   0.12880   0.18799   0.19675
     Eigenvalues ---    0.20554   0.21168   0.29500   0.32495
 RFO step:  Lambda=-7.52365036D-05 EMin= 1.55124866D-02
 Quartic linear search produced a step of  1.34346.
 Iteration  1 RMS(Cart)=  0.01534223 RMS(Int)=  0.00015463
 Iteration  2 RMS(Cart)=  0.00011470 RMS(Int)=  0.00006010
 Iteration  3 RMS(Cart)=  0.00000001 RMS(Int)=  0.00006010
 Variable       Old X    -DE/DX   Delta X   Delta X   Delta X     New X
                                 (Linear)    (Quad)   (Total)
    R1        3.76248   0.00360   0.02204   0.00596   0.02799   3.79047
    R2        3.98484   0.00133  -0.00947   0.00750  -0.00194   3.98290
    R3        4.28033  -0.00032  -0.06682   0.01000  -0.05687   4.22346
    R4        3.76248   0.00360   0.02204   0.00595   0.02799   3.79046
    R5        3.98485   0.00133  -0.00947   0.00749  -0.00195   3.98290
    A1        1.76985  -0.00007  -0.01151   0.00237  -0.00911   1.76074
    A2        1.73227   0.00053   0.01219   0.00053   0.01261   1.74488
    A3        1.73228   0.00052   0.01221   0.00045   0.01255   1.74483
    A4        1.76986  -0.00007  -0.01149   0.00231  -0.00915   1.76070
    A5        1.51990   0.00100   0.01503   0.00181   0.01697   1.53688
    D1        0.73045  -0.00078  -0.00893  -0.00253  -0.01146   0.71898
    D2       -1.13957   0.00105   0.01049   0.00409   0.01455  -1.12502
    D3       -0.00002   0.00000  -0.00006   0.00021   0.00016   0.00014
    D4       -0.73041   0.00078   0.00903   0.00217   0.01120  -0.71921
    D5        1.13956  -0.00105  -0.01054  -0.00392  -0.01442   1.12513
         Item               Value     Threshold  Converged?
 Maximum Force            0.003600     0.000450     NO 
 RMS     Force            0.001517     0.000300     NO 
 Maximum Displacement     0.028461     0.001800     NO 
 RMS     Displacement     0.015368     0.001200     NO 
 Predicted change in Energy=-1.588772D-04
 GradGradGradGradGradGradGradGradGradGradGradGradGradGradGradGradGradGrad

                          Input orientation:                          
 ---------------------------------------------------------------------
 Center     Atomic      Atomic             Coordinates (Angstroms)
 Number     Number       Type             X           Y           Z
 ---------------------------------------------------------------------
      1         16           0        8.098086    9.058781    9.964874
      2         16           0        9.980698    8.460085    9.617473
      3         16           0        9.980677    8.459943    7.382516
      4         16           0        8.098126    9.058857    7.035173
      5         16           0        7.054398    7.960130    8.499977
 ---------------------------------------------------------------------
                    Distance matrix (angstroms):
                    1          2          3          4          5
     1  S    0.000000
     2  S    2.005830   0.000000
     3  S    3.251357   2.234956   0.000000
     4  S    2.929701   3.251289   2.005827   0.000000
     5  S    2.107662   3.172063   3.172008   2.107657   0.000000
 Stoichiometry    S5
 Framework group  C1[X(S5)]
 Deg. of freedom     9
 Full point group                 C1      NOp   1
 Largest Abelian subgroup         C1      NOp   1
 Largest concise Abelian subgroup C1      NOp   1
                         Standard orientation:                         
 ---------------------------------------------------------------------
 Center     Atomic      Atomic             Coordinates (Angstroms)
 Number     Number       Type             X           Y           Z
 ---------------------------------------------------------------------
      1         16           0       -1.465092   -0.532382   -0.472315
      2         16           0       -1.116932    1.334958    0.172028
      3         16           0        1.118025    1.334035    0.172137
      4         16           0        1.464609   -0.533517   -0.472432
      5         16           0       -0.000610   -1.603094    0.600582
 ---------------------------------------------------------------------
 Rotational constants (GHZ):           2.0892158           2.0648332           1.1718498
 Standard basis: def2QZVPP (5D, 7F)
 There are   430 symmetry adapted cartesian basis functions of A   symmetry.
 There are   350 symmetry adapted basis functions of A   symmetry.
   350 basis functions,   605 primitive gaussians,   430 cartesian basis functions
    40 alpha electrons       40 beta electrons
       nuclear repulsion energy       539.2257410179 Hartrees.
 NAtoms=    5 NActive=    5 NUniq=    5 SFac= 1.00D+00 NAtFMM=   60 NAOKFM=F Big=F
 Integral buffers will be    131072 words long.
 Raffenetti 2 integral format.
 Two-electron integral symmetry is turned on.
 One-electron integrals computed using PRISM.
   1 Symmetry operations used in ECPInt.
 ECPInt:  NShTT=    6105 NPrTT=   21500 LenC2=    5695 LenP2D=   14700.
 LDataN:  DoStor=T MaxTD1= 8 Len=  415
 NBasis=   350 RedAO= T EigKep=  2.43D-04  NBF=   350
 NBsUse=   350 1.00D-06 EigRej= -1.00D+00 NBFU=   350
 Initial guess from the checkpoint file:  "/data/hutter/SMG16/PBE/Gau-7624.chk"
 B after Tr=    -0.000000    0.000000    0.000000
         Rot=    0.999999    0.001468   -0.000008    0.000226 Ang=   0.17 deg.
 ExpMin= 8.07D-02 ExpMax= 1.27D+06 ExpMxC= 1.45D+03 IAcc=3 IRadAn=         5 AccDes= 0.00D+00
 Harris functional with IExCor= 1009 and IRadAn=       5 diagonalized for initial guess.
 HarFok:  IExCor= 1009 AccDes= 0.00D+00 IRadAn=         5 IDoV= 1 UseB2=F ITyADJ=14
 ICtDFT=  3500011 ScaDFX=  1.000000  1.000000  1.000000  1.000000
 FoFCou: FMM=F IPFlag=           0 FMFlag=      100000 FMFlg1=           0
         NFxFlg=           0 DoJE=T BraDBF=F KetDBF=T FulRan=T
         wScrn=  0.000000 ICntrl=       500 IOpCl=  0 I1Cent=   200000004 NGrid=           0
         NMat0=    1 NMatS0=      1 NMatT0=    0 NMatD0=    1 NMtDS0=    0 NMtDT0=    0
 Petite list used in FoFCou.
 Requested convergence on RMS density matrix=1.00D-08 within 128 cycles.
 Requested convergence on MAX density matrix=1.00D-06.
 Requested convergence on             energy=1.00D-06.
 No special actions if energy rises.
 Integral accuracy reduced to 1.0D-05 until final iterations.
 EnCoef did     6 forward-backward iterations
 Initial convergence to 1.0D-05 achieved.  Increase integral accuracy.
 SCF Done:  E(RPBE-PBE) =  -1990.29100779     A.U. after   12 cycles
            NFock= 12  Conv=0.52D-08     -V/T= 2.0014
   1 Symmetry operations used in ECPInt.
 ECPInt:  NShTT=    6105 NPrTT=   21500 LenC2=    5695 LenP2D=   14700.
 LDataN:  DoStor=T MaxTD1= 9 Len=  602
 Calling FoFJK, ICntrl=      2527 FMM=F ISym2X=0 I1Cent= 0 IOpClX= 0 NMat=1 NMatS=1 NMatT=0.
 ***** Axes restored to original set *****
 -------------------------------------------------------------------
 Center     Atomic                   Forces (Hartrees/Bohr)
 Number     Number              X              Y              Z
 -------------------------------------------------------------------
      1       16          -0.000684277    0.000034480    0.000353261
      2       16           0.000969021   -0.000110748    0.000354059
      3       16           0.000958646   -0.000099467   -0.000349371
      4       16          -0.000680111    0.000030202   -0.000361099
      5       16          -0.000563280    0.000145532    0.000003150
 -------------------------------------------------------------------
 Cartesian Forces:  Max     0.000969021 RMS     0.000493567

 GradGradGradGradGradGradGradGradGradGradGradGradGradGradGradGradGradGrad
 Berny optimization.
 Using GEDIIS/GDIIS optimizer.
 FormGI is forming the generalized inverse of G from B-inverse, IUseBI=4.
 Internal  Forces:  Max     0.000966262 RMS     0.000462322
 Search for a local minimum.
 Step number   6 out of a maximum of   25
 All quantities printed in internal units (Hartrees-Bohrs-Radians)
 Mixed Optimization -- En-DIIS/RFO-DIIS
 Update second derivatives using D2CorX and points    1    2    3    4    5
                                                      6
 DE= -1.65D-04 DEPred=-1.59D-04 R= 1.04D+00
 TightC=F SS=  1.41D+00  RLast= 7.91D-02 DXNew= 7.8953D-01 2.3729D-01
 Trust test= 1.04D+00 RLast= 7.91D-02 DXMaxT set to 4.69D-01
 The second derivative matrix:
                          R1        R2        R3        R4        R5
           R1           0.26334
           R2          -0.00498   0.18317
           R3           0.03298  -0.01885   0.07660
           R4          -0.07097  -0.00500   0.03290   0.26344
           R5          -0.00497  -0.01771  -0.01885  -0.00499   0.18316
           A1           0.02167  -0.00686  -0.00609   0.02161  -0.00686
           A2          -0.01257   0.00570   0.02048  -0.01256   0.00570
           A3          -0.01254   0.00570   0.02052  -0.01253   0.00570
           A4           0.02176  -0.00688  -0.00622   0.02170  -0.00689
           A5          -0.01088   0.00572   0.02709  -0.01086   0.00571
           D1           0.00047  -0.00262  -0.00584   0.00046  -0.00262
           D2           0.00042   0.00664   0.01327   0.00041   0.00664
           D3           0.00002  -0.00001  -0.00004   0.00002  -0.00001
           D4          -0.00049   0.00263   0.00590  -0.00048   0.00263
           D5          -0.00038  -0.00665  -0.01336  -0.00037  -0.00666
                          A1        A2        A3        A4        A5
           A1           0.21186
           A2          -0.01770   0.22893
           A3          -0.01773  -0.02110   0.22887
           A4          -0.03826  -0.01770  -0.01772   0.21162
           A5          -0.05177  -0.04273  -0.04279  -0.05177   0.15583
           D1          -0.00656  -0.00280  -0.00281  -0.00658  -0.00686
           D2           0.02233   0.00629   0.00633   0.02233   0.01506
           D3          -0.00003   0.00001   0.00001  -0.00003   0.00001
           D4           0.00660   0.00278   0.00279   0.00661   0.00683
           D5          -0.02239  -0.00628  -0.00631  -0.02239  -0.01503
                          D1        D2        D3        D4        D5
           D1           0.02141
           D2          -0.01719   0.03346
           D3          -0.00000  -0.00001   0.00230
           D4          -0.00980   0.01720   0.00000   0.02141
           D5           0.01718  -0.03118   0.00001  -0.01720   0.03349
 ITU=  1  1  1  1  1  0
 Use linear search instead of GDIIS.
     Eigenvalues ---    0.01506   0.02985   0.12765   0.16581   0.18621
     Eigenvalues ---    0.19694   0.21349   0.26695   0.32496
 RFO step:  Lambda=-1.14547072D-05 EMin= 1.50561828D-02
 Quartic linear search produced a step of  0.13210.
 Iteration  1 RMS(Cart)=  0.00281539 RMS(Int)=  0.00000560
 Iteration  2 RMS(Cart)=  0.00000206 RMS(Int)=  0.00000493
 Iteration  3 RMS(Cart)=  0.00000000 RMS(Int)=  0.00000493
 Variable       Old X    -DE/DX   Delta X   Delta X   Delta X     New X
                                 (Linear)    (Quad)   (Total)
    R1        3.79047   0.00097   0.00370   0.00100   0.00470   3.79517
    R2        3.98290   0.00024  -0.00026   0.00184   0.00159   3.98450
    R3        4.22346   0.00051  -0.00751   0.00863   0.00111   4.22457
    R4        3.79046   0.00096   0.00370   0.00101   0.00470   3.79517
    R5        3.98290   0.00024  -0.00026   0.00187   0.00162   3.98451
    A1        1.76074   0.00045  -0.00120   0.00269   0.00149   1.76223
    A2        1.74488  -0.00005   0.00167  -0.00109   0.00056   1.74544
    A3        1.74483  -0.00004   0.00166  -0.00096   0.00068   1.74551
    A4        1.76070   0.00045  -0.00121   0.00278   0.00157   1.76228
    A5        1.53688   0.00007   0.00224  -0.00045   0.00180   1.53867
    D1        0.71898  -0.00023  -0.00151  -0.00029  -0.00181   0.71718
    D2       -1.12502   0.00047   0.00192   0.00131   0.00323  -1.12179
    D3        0.00014  -0.00000   0.00002  -0.00034  -0.00032  -0.00018
    D4       -0.71921   0.00024   0.00148   0.00086   0.00234  -0.71687
    D5        1.12513  -0.00048  -0.00191  -0.00158  -0.00348   1.12165
         Item               Value     Threshold  Converged?
 Maximum Force            0.000966     0.000450     NO 
 RMS     Force            0.000462     0.000300     NO 
 Maximum Displacement     0.005325     0.001800     NO 
 RMS     Displacement     0.002816     0.001200     NO 
 Predicted change in Energy=-8.032394D-06
 GradGradGradGradGradGradGradGradGradGradGradGradGradGradGradGradGradGrad

                          Input orientation:                          
 ---------------------------------------------------------------------
 Center     Atomic      Atomic             Coordinates (Angstroms)
 Number     Number       Type             X           Y           Z
 ---------------------------------------------------------------------
      1         16           0        8.097353    9.057521    9.966773
      2         16           0        9.982851    8.460487    9.617796
      3         16           0        9.982886    8.460671    7.382250
      4         16           0        8.097315    9.057412    7.033165
      5         16           0        7.051580    7.961704    8.500030
 ---------------------------------------------------------------------
                    Distance matrix (angstroms):
                    1          2          3          4          5
     1  S    0.000000
     2  S    2.008317   0.000000
     3  S    3.254416   2.235546   0.000000
     4  S    2.933608   3.254517   2.008317   0.000000
     5  S    2.108504   3.176560   3.176626   2.108513   0.000000
 Stoichiometry    S5
 Framework group  C1[X(S5)]
 Deg. of freedom     9
 Full point group                 C1      NOp   1
 Largest Abelian subgroup         C1      NOp   1
 Largest concise Abelian subgroup C1      NOp   1
                         Standard orientation:                         
 ---------------------------------------------------------------------
 Center     Atomic      Atomic             Coordinates (Angstroms)
 Number     Number       Type             X           Y           Z
 ---------------------------------------------------------------------
      1         16           0       -1.466344   -0.534856   -0.471147
      2         16           0       -1.118841    1.335788    0.171713
      3         16           0        1.116704    1.337575    0.171568
      4         16           0        1.467263   -0.532603   -0.470990
      5         16           0        0.001218   -1.605904    0.598856
 ---------------------------------------------------------------------
 Rotational constants (GHZ):           2.0843905           2.0626953           1.1688063
 Standard basis: def2QZVPP (5D, 7F)
 There are   430 symmetry adapted cartesian basis functions of A   symmetry.
 There are   350 symmetry adapted basis functions of A   symmetry.
   350 basis functions,   605 primitive gaussians,   430 cartesian basis functions
    40 alpha electrons       40 beta electrons
       nuclear repulsion energy       538.7260600629 Hartrees.
 NAtoms=    5 NActive=    5 NUniq=    5 SFac= 1.00D+00 NAtFMM=   60 NAOKFM=F Big=F
 Integral buffers will be    131072 words long.
 Raffenetti 2 integral format.
 Two-electron integral symmetry is turned on.
 One-electron integrals computed using PRISM.
   1 Symmetry operations used in ECPInt.
 ECPInt:  NShTT=    6105 NPrTT=   21500 LenC2=    5691 LenP2D=   14694.
 LDataN:  DoStor=T MaxTD1= 8 Len=  415
 NBasis=   350 RedAO= T EigKep=  2.44D-04  NBF=   350
 NBsUse=   350 1.00D-06 EigRej= -1.00D+00 NBFU=   350
 Initial guess from the checkpoint file:  "/data/hutter/SMG16/PBE/Gau-7624.chk"
 B after Tr=    -0.000000   -0.000000    0.000000
         Rot=    1.000000   -0.000026    0.000016   -0.000592 Ang=  -0.07 deg.
 Requested convergence on RMS density matrix=1.00D-08 within 128 cycles.
 Requested convergence on MAX density matrix=1.00D-06.
 Requested convergence on             energy=1.00D-06.
 No special actions if energy rises.
 SCF Done:  E(RPBE-PBE) =  -1990.29101671     A.U. after    8 cycles
            NFock=  8  Conv=0.89D-08     -V/T= 2.0014
   1 Symmetry operations used in ECPInt.
 ECPInt:  NShTT=    6105 NPrTT=   21500 LenC2=    5691 LenP2D=   14694.
 LDataN:  DoStor=T MaxTD1= 9 Len=  602
 Calling FoFJK, ICntrl=      2527 FMM=F ISym2X=0 I1Cent= 0 IOpClX= 0 NMat=1 NMatS=1 NMatT=0.
 ***** Axes restored to original set *****
 -------------------------------------------------------------------
 Center     Atomic                   Forces (Hartrees/Bohr)
 Number     Number              X              Y              Z
 -------------------------------------------------------------------
      1       16          -0.000203094   -0.000083204   -0.000069426
      2       16           0.000145634   -0.000016519    0.000102121
      3       16           0.000160725   -0.000032268   -0.000109140
      4       16          -0.000208685   -0.000077278    0.000080787
      5       16           0.000105420    0.000209269   -0.000004342
 -------------------------------------------------------------------
 Cartesian Forces:  Max     0.000209269 RMS     0.000125076

 GradGradGradGradGradGradGradGradGradGradGradGradGradGradGradGradGradGrad
 Berny optimization.
 Using GEDIIS/GDIIS optimizer.
 FormGI is forming the generalized inverse of G from B-inverse, IUseBI=4.
 Internal  Forces:  Max     0.000157235 RMS     0.000090599
 Search for a local minimum.
 Step number   7 out of a maximum of   25
 All quantities printed in internal units (Hartrees-Bohrs-Radians)
 Mixed Optimization -- En-DIIS/RFO-DIIS
 Swapping is turned off.
 Update second derivatives using D2CorX and points    1    2    3    4    5
                                                      6    7
 DE= -8.92D-06 DEPred=-8.03D-06 R= 1.11D+00
 TightC=F SS=  1.41D+00  RLast= 9.52D-03 DXNew= 7.8953D-01 2.8574D-02
 Trust test= 1.11D+00 RLast= 9.52D-03 DXMaxT set to 4.69D-01
 The second derivative matrix:
                          R1        R2        R3        R4        R5
           R1           0.25240
           R2           0.00215   0.19184
           R3           0.02558  -0.01691   0.07171
           R4          -0.08297   0.00177   0.02521   0.25040
           R5           0.00209  -0.00901  -0.01694   0.00170   0.19189
           A1           0.01569  -0.00666  -0.01181   0.01526  -0.00669
           A2          -0.01088   0.00606   0.02067  -0.01086   0.00607
           A3          -0.01086   0.00637   0.02063  -0.01088   0.00637
           A4           0.01379  -0.00723  -0.01254   0.01337  -0.00727
           A5          -0.01694   0.00382   0.02329  -0.01702   0.00378
           D1           0.00358  -0.00435  -0.00460   0.00381  -0.00433
           D2          -0.00073   0.01114   0.01141  -0.00123   0.01113
           D3          -0.00048  -0.00020  -0.00018  -0.00047  -0.00021
           D4          -0.00290   0.00469   0.00484  -0.00316   0.00467
           D5          -0.00032  -0.01157  -0.01179   0.00019  -0.01157
                          A1        A2        A3        A4        A5
           A1           0.20647
           A2          -0.01797   0.22865
           A3          -0.01798  -0.02133   0.22869
           A4          -0.04435  -0.01793  -0.01801   0.20481
           A5          -0.05567  -0.04311  -0.04331  -0.05592   0.15333
           D1          -0.00456  -0.00295  -0.00293  -0.00410  -0.00508
           D2           0.01987   0.00622   0.00637   0.01901   0.01130
           D3          -0.00021   0.00001  -0.00001  -0.00020  -0.00002
           D4           0.00484   0.00294   0.00295   0.00437   0.00507
           D5          -0.02031  -0.00621  -0.00640  -0.01944  -0.01135
                          D1        D2        D3        D4        D5
           D1           0.02087
           D2          -0.01691   0.03441
           D3           0.00011  -0.00025   0.00231
           D4          -0.00941   0.01728  -0.00012   0.02119
           D5           0.01715  -0.03264   0.00026  -0.01754   0.03549
 ITU=  1  1  1  1  1  1  0
     Eigenvalues ---    0.01501   0.02884   0.12007   0.16593   0.19337
     Eigenvalues ---    0.19699   0.21378   0.24599   0.32501
 En-DIIS/RFO-DIIS/Sim-DIIS IScMMF=       -3 using points:     7    6
 RFO step:  Lambda=-7.23999957D-07.
 DidBck=F Rises=F RFO-DIIS coefs:    1.15514   -0.15514
 Iteration  1 RMS(Cart)=  0.00056812 RMS(Int)=  0.00000041
 Iteration  2 RMS(Cart)=  0.00000021 RMS(Int)=  0.00000034
 Variable       Old X    -DE/DX   Delta X   Delta X   Delta X     New X
                                 (Linear)    (Quad)   (Total)
    R1        3.79517   0.00015   0.00073   0.00024   0.00097   3.79614
    R2        3.98450  -0.00014   0.00025  -0.00110  -0.00085   3.98365
    R3        4.22457   0.00012   0.00017  -0.00005   0.00012   4.22469
    R4        3.79517   0.00016   0.00073   0.00023   0.00096   3.79613
    R5        3.98451  -0.00014   0.00025  -0.00114  -0.00089   3.98362
    A1        1.76223   0.00007   0.00023   0.00008   0.00031   1.76254
    A2        1.74544  -0.00002   0.00009   0.00005   0.00014   1.74557
    A3        1.74551  -0.00004   0.00011  -0.00017  -0.00006   1.74545
    A4        1.76228   0.00007   0.00024  -0.00006   0.00019   1.76246
    A5        1.53867   0.00004   0.00028   0.00040   0.00068   1.53936
    D1        0.71718  -0.00005  -0.00028  -0.00066  -0.00094   0.71624
    D2       -1.12179   0.00005   0.00050   0.00027   0.00077  -1.12102
    D3       -0.00018   0.00001  -0.00005   0.00055   0.00050   0.00031
    D4       -0.71687   0.00004   0.00036  -0.00025   0.00011  -0.71676
    D5        1.12165  -0.00004  -0.00054   0.00016  -0.00038   1.12127
         Item               Value     Threshold  Converged?
 Maximum Force            0.000157     0.000450     YES
 RMS     Force            0.000091     0.000300     YES
 Maximum Displacement     0.001101     0.001800     YES
 RMS     Displacement     0.000568     0.001200     YES
 Predicted change in Energy=-3.620004D-07
 Optimization completed.
    -- Stationary point found.
                           ----------------------------
                           !   Optimized Parameters   !
                           ! (Angstroms and Degrees)  !
 --------------------------                            --------------------------
 ! Name  Definition              Value          Derivative Info.                !
 --------------------------------------------------------------------------------
 ! R1    R(1,2)                  2.0083         -DE/DX =    0.0001              !
 ! R2    R(1,5)                  2.1085         -DE/DX =   -0.0001              !
 ! R3    R(2,3)                  2.2355         -DE/DX =    0.0001              !
 ! R4    R(3,4)                  2.0083         -DE/DX =    0.0002              !
 ! R5    R(4,5)                  2.1085         -DE/DX =   -0.0001              !
 ! A1    A(2,1,5)              100.9685         -DE/DX =    0.0001              !
 ! A2    A(1,2,3)              100.0063         -DE/DX =    0.0                 !
 ! A3    A(2,3,4)              100.0105         -DE/DX =    0.0                 !
 ! A4    A(3,4,5)              100.971          -DE/DX =    0.0001              !
 ! A5    A(1,5,4)               88.1596         -DE/DX =    0.0                 !
 ! D1    D(5,1,2,3)             41.0912         -DE/DX =    0.0                 !
 ! D2    D(2,1,5,4)            -64.274          -DE/DX =    0.0001              !
 ! D3    D(1,2,3,4)             -0.0104         -DE/DX =    0.0                 !
 ! D4    D(2,3,4,5)            -41.0738         -DE/DX =    0.0                 !
 ! D5    D(3,4,5,1)             64.2657         -DE/DX =    0.0                 !
 --------------------------------------------------------------------------------
 GradGradGradGradGradGradGradGradGradGradGradGradGradGradGradGradGradGrad

                          Input orientation:                          
 ---------------------------------------------------------------------
 Center     Atomic      Atomic             Coordinates (Angstroms)
 Number     Number       Type             X           Y           Z
 ---------------------------------------------------------------------
      1         16           0        8.097353    9.057521    9.966773
      2         16           0        9.982851    8.460487    9.617796
      3         16           0        9.982886    8.460671    7.382250
      4         16           0        8.097315    9.057412    7.033165
      5         16           0        7.051580    7.961704    8.500030
 ---------------------------------------------------------------------
                    Distance matrix (angstroms):
                    1          2          3          4          5
     1  S    0.000000
     2  S    2.008317   0.000000
     3  S    3.254416   2.235546   0.000000
     4  S    2.933608   3.254517   2.008317   0.000000
     5  S    2.108504   3.176560   3.176626   2.108513   0.000000
 Stoichiometry    S5
 Framework group  C1[X(S5)]
 Deg. of freedom     9
 Full point group                 C1      NOp   1
 Largest Abelian subgroup         C1      NOp   1
 Largest concise Abelian subgroup C1      NOp   1
                         Standard orientation:                         
 ---------------------------------------------------------------------
 Center     Atomic      Atomic             Coordinates (Angstroms)
 Number     Number       Type             X           Y           Z
 ---------------------------------------------------------------------
      1         16           0       -1.466344   -0.534856   -0.471147
      2         16           0       -1.118841    1.335788    0.171713
      3         16           0        1.116704    1.337575    0.171568
      4         16           0        1.467263   -0.532603   -0.470990
      5         16           0        0.001218   -1.605904    0.598856
 ---------------------------------------------------------------------
 Rotational constants (GHZ):           2.0843905           2.0626953           1.1688063

 **********************************************************************

            Population analysis using the SCF Density.

 **********************************************************************

 Orbital symmetries:
       Occupied  (A) (A) (A) (A) (A) (A) (A) (A) (A) (A) (A) (A)
                 (A) (A) (A) (A) (A) (A) (A) (A) (A) (A) (A) (A)
                 (A) (A) (A) (A) (A) (A) (A) (A) (A) (A) (A) (A)
                 (A) (A) (A) (A)
       Virtual   (A) (A) (A) (A) (A) (A) (A) (A) (A) (A) (A) (A)
                 (A) (A) (A) (A) (A) (A) (A) (A) (A) (A) (A) (A)
                 (A) (A) (A) (A) (A) (A) (A) (A) (A) (A) (A) (A)
                 (A) (A) (A) (A) (A) (A) (A) (A) (A) (A) (A) (A)
                 (A) (A) (A) (A) (A) (A) (A) (A) (A) (A) (A) (A)
                 (A) (A) (A) (A) (A) (A) (A) (A) (A) (A) (A) (A)
                 (A) (A) (A) (A) (A) (A) (A) (A) (A) (A) (A) (A)
                 (A) (A) (A) (A) (A) (A) (A) (A) (A) (A) (A) (A)
                 (A) (A) (A) (A) (A) (A) (A) (A) (A) (A) (A) (A)
                 (A) (A) (A) (A) (A) (A) (A) (A) (A) (A) (A) (A)
                 (A) (A) (A) (A) (A) (A) (A) (A) (A) (A) (A) (A)
                 (A) (A) (A) (A) (A) (A) (A) (A) (A) (A) (A) (A)
                 (A) (A) (A) (A) (A) (A) (A) (A) (A) (A) (A) (A)
                 (A) (A) (A) (A) (A) (A) (A) (A) (A) (A) (A) (A)
                 (A) (A) (A) (A) (A) (A) (A) (A) (A) (A) (A) (A)
                 (A) (A) (A) (A) (A) (A) (A) (A) (A) (A) (A) (A)
                 (A) (A) (A) (A) (A) (A) (A) (A) (A) (A) (A) (A)
                 (A) (A) (A) (A) (A) (A) (A) (A) (A) (A) (A) (A)
                 (A) (A) (A) (A) (A) (A) (A) (A) (A) (A) (A) (A)
                 (A) (A) (A) (A) (A) (A) (A) (A) (A) (A) (A) (A)
                 (A) (A) (A) (A) (A) (A) (A) (A) (A) (A) (A) (A)
                 (A) (A) (A) (A) (A) (A) (A) (A) (A) (A) (A) (A)
                 (A) (A) (A) (A) (A) (A) (A) (A) (A) (A) (A) (A)
                 (A) (A) (A) (A) (A) (A) (A) (A) (A) (A) (A) (A)
                 (A) (A) (A) (A) (A) (A) (A) (A) (A) (A) (A) (A)
                 (A) (A) (A) (A) (A) (A) (A) (A) (A) (A)
 The electronic state is 1-A.
 Alpha  occ. eigenvalues --  -88.11629 -88.11629 -88.10513 -88.10162 -88.10161
 Alpha  occ. eigenvalues --   -7.73971  -7.73971  -7.72911  -7.72612  -7.72611
 Alpha  occ. eigenvalues --   -5.76196  -5.76196  -5.75867  -5.75867  -5.75185
 Alpha  occ. eigenvalues --   -5.75185  -5.75029  -5.74968  -5.74878  -5.74873
 Alpha  occ. eigenvalues --   -5.74547  -5.74543  -5.74053  -5.73728  -5.73727
 Alpha  occ. eigenvalues --   -0.81239  -0.73544  -0.70516  -0.57140  -0.56612
 Alpha  occ. eigenvalues --   -0.41101  -0.39327  -0.38973  -0.34565  -0.33302
 Alpha  occ. eigenvalues --   -0.31686  -0.26954  -0.25631  -0.22811  -0.20595
 Alpha virt. eigenvalues --   -0.12297  -0.10030  -0.09556  -0.09128  -0.05246
 Alpha virt. eigenvalues --    0.05302   0.07043   0.07099   0.07257   0.08238
 Alpha virt. eigenvalues --    0.09422   0.09786   0.10019   0.11801   0.11918
 Alpha virt. eigenvalues --    0.12499   0.13312   0.14669   0.15268   0.16690
 Alpha virt. eigenvalues --    0.17322   0.18403   0.18863   0.19281   0.20325
 Alpha virt. eigenvalues --    0.21339   0.25737   0.26230   0.28293   0.28720
 Alpha virt. eigenvalues --    0.29461   0.33439   0.33671   0.35230   0.37657
 Alpha virt. eigenvalues --    0.39230   0.39545   0.42173   0.42969   0.44559
 Alpha virt. eigenvalues --    0.46054   0.46069   0.46711   0.49217   0.49583
 Alpha virt. eigenvalues --    0.51186   0.52372   0.52585   0.57370   0.61923
 Alpha virt. eigenvalues --    0.71794   0.73332   0.74619   0.76969   0.77165
 Alpha virt. eigenvalues --    0.79276   0.80247   0.81379   0.82593   0.84310
 Alpha virt. eigenvalues --    0.84484   0.85232   0.87472   0.88389   0.89261
 Alpha virt. eigenvalues --    0.90263   0.90758   0.91370   0.91923   0.92911
 Alpha virt. eigenvalues --    0.93003   0.93660   0.94055   0.94872   0.94970
 Alpha virt. eigenvalues --    0.95539   0.96548   0.97404   0.98844   0.98871
 Alpha virt. eigenvalues --    1.00005   1.00752   1.01321   1.01499   1.02687
 Alpha virt. eigenvalues --    1.03206   1.04456   1.04735   1.05555   1.07221
 Alpha virt. eigenvalues --    1.07742   1.11586   1.14650   1.14703   1.16512
 Alpha virt. eigenvalues --    1.18385   1.21183   1.22964   1.25113   1.27138
 Alpha virt. eigenvalues --    1.30392   1.35453   1.36347   1.37431   1.39359
 Alpha virt. eigenvalues --    1.40630   1.43395   1.45450   1.48148   1.49792
 Alpha virt. eigenvalues --    1.58744   1.61151   1.62715   1.64247   1.64289
 Alpha virt. eigenvalues --    1.65511   1.67143   1.69653   1.70304   1.73597
 Alpha virt. eigenvalues --    1.73967   1.75352   1.77472   1.81442   1.85890
 Alpha virt. eigenvalues --    1.90701   2.04137   2.06126   2.28039   2.30178
 Alpha virt. eigenvalues --    2.37613   2.39859   2.42871   2.43128   2.43516
 Alpha virt. eigenvalues --    2.45138   2.46379   2.47826   2.49418   2.50214
 Alpha virt. eigenvalues --    2.50427   2.54201   2.54958   2.55722   2.57417
 Alpha virt. eigenvalues --    2.58138   2.58998   2.59618   2.61546   2.62276
 Alpha virt. eigenvalues --    2.63873   2.64444   2.65503   2.67709   2.68466
 Alpha virt. eigenvalues --    2.68757   2.69403   2.69989   2.70041   2.72658
 Alpha virt. eigenvalues --    2.72705   2.75093   2.75414   2.76129   2.78064
 Alpha virt. eigenvalues --    2.78339   2.80448   2.81051   2.82670   2.83010
 Alpha virt. eigenvalues --    2.84235   2.85776   2.87880   2.93196   2.95406
 Alpha virt. eigenvalues --    2.98117   3.05082   3.06724   3.06729   3.07969
 Alpha virt. eigenvalues --    3.08421   3.09714   3.11089   3.11816   3.13570
 Alpha virt. eigenvalues --    3.14034   3.15696   3.15774   3.17796   3.18305
 Alpha virt. eigenvalues --    3.20204   3.20966   3.22653   3.23066   3.23700
 Alpha virt. eigenvalues --    3.25508   3.27720   3.29720   3.29890   3.30763
 Alpha virt. eigenvalues --    3.31377   3.32871   3.35019   3.35515   3.37741
 Alpha virt. eigenvalues --    3.39362   3.39955   3.40820   3.42556   3.42641
 Alpha virt. eigenvalues --    3.45057   3.45524   3.46769   3.47601   3.48765
 Alpha virt. eigenvalues --    3.49752   3.52333   3.56211   3.57218   3.60237
 Alpha virt. eigenvalues --    3.60366   3.62254   3.65106   3.65270   3.74857
 Alpha virt. eigenvalues --    3.76344   3.78251   3.85657   3.90196   3.92350
 Alpha virt. eigenvalues --    3.92820   3.94028   4.00608   4.03547   4.09926
 Alpha virt. eigenvalues --    4.15381   4.16447   4.19186   4.24851   4.25195
 Alpha virt. eigenvalues --    4.28201   4.30479   4.33417   4.39027   4.40586
 Alpha virt. eigenvalues --    4.49441   4.77220   4.78911   5.12327   5.17664
 Alpha virt. eigenvalues --    6.84108   7.10476   7.15591   7.43521   7.45301
 Alpha virt. eigenvalues --    8.43717   8.45002   8.46886   8.48355   8.50583
 Alpha virt. eigenvalues --    8.53433   8.57093   8.57713   8.59676   8.59928
 Alpha virt. eigenvalues --    8.60808   8.61132   8.64884   8.66572   8.69998
 Alpha virt. eigenvalues --    8.72209   8.72994   8.77742   8.80763   8.86147
 Alpha virt. eigenvalues --    9.01704   9.05325   9.28279   9.34515   9.50152
 Alpha virt. eigenvalues --   23.79929  24.09620  24.10444  24.44021  24.46391
 Alpha virt. eigenvalues --   28.28877  28.31561  28.31758  28.32794  28.37460
 Alpha virt. eigenvalues --   28.37720  28.44211  28.48562  28.49103  28.50833
 Alpha virt. eigenvalues --   28.59543  28.64875  28.70177  28.80974  28.86234
 Alpha virt. eigenvalues --   83.07507  83.36075  83.36156  83.69526  83.70989
 Alpha virt. eigenvalues --  448.98035 449.46620 449.46678 450.04110 450.05685
          Condensed to atoms (all electrons):
               1          2          3          4          5
     1  S   15.629113   0.307919  -0.077589  -0.111921   0.222918
     2  S    0.307919  15.712065   0.151484  -0.077579  -0.085193
     3  S   -0.077589   0.151484  15.712094   0.307889  -0.085167
     4  S   -0.111921  -0.077579   0.307889  15.629126   0.222927
     5  S    0.222918  -0.085193  -0.085167   0.222927  15.766228
 Mulliken charges:
               1
     1  S    0.029561
     2  S   -0.008695
     3  S   -0.008711
     4  S    0.029557
     5  S   -0.041712
 Sum of Mulliken charges =   0.00000
 Mulliken charges with hydrogens summed into heavy atoms:
               1
     1  S    0.029561
     2  S   -0.008695
     3  S   -0.008711
     4  S    0.029557
     5  S   -0.041712
 Electronic spatial extent (au):  <R**2>=            963.3765
 Charge=              0.0000 electrons
 Dipole moment (field-independent basis, Debye):
    X=              0.0000    Y=             -0.2487    Z=             -0.0540  Tot=              0.2545
 Quadrupole moment (field-independent basis, Debye-Ang):
   XX=            -62.5018   YY=            -62.1902   ZZ=            -65.5523
   XY=             -0.0006   XZ=             -0.0004   YZ=              0.3896
 Traceless Quadrupole moment (field-independent basis, Debye-Ang):
   XX=              0.9130   YY=              1.2245   ZZ=             -2.1375
   XY=             -0.0006   XZ=             -0.0004   YZ=              0.3896
 Octapole moment (field-independent basis, Debye-Ang**2):
  XXX=              0.0041  YYY=              2.4394  ZZZ=             -0.7991  XYY=             -0.0049
  XXY=             -1.5559  XXZ=             -2.0389  XZZ=              0.0009  YZZ=             -2.4166
  YYZ=              3.5132  XYZ=             -0.0051
 Hexadecapole moment (field-independent basis, Debye-Ang**3):
 XXXX=           -596.6310 YYYY=           -584.8699 ZZZZ=           -155.7613 XXXY=             -0.0055
 XXXZ=             -0.0092 YYYX=             -0.0011 YYYZ=              3.6915 ZZZX=              0.0022
 ZZZY=             -1.4341 XXYY=           -196.1938 XXZZ=           -124.9004 YYZZ=           -124.6524
 XXYZ=              2.8561 YYXZ=              0.0004 ZZXY=              0.0001
 N-N= 5.387260600629D+02 E-N=-5.811216752739D+03  KE= 1.987424332289D+03
 Unable to Open any file for archive entry.
 1\1\GINC-TCOPT10\FOpt\RPBEPBE\def2QZVPP\S5\HUTTER\30-Jul-2021\0\\#N RP
 BEPBE/Def2QZVPP scf=tight Int(Grid=ultrafine) OPT FREQ\\Mol job 1\\0,1
 \S,8.0973528411,9.0575210738,9.9667726682\S,9.9828507245,8.4604874147,
 9.6177958802\S,9.9828856361,8.4606709379,7.3822499101\S,8.0973148751,9
 .0574118732,7.0331647206\S,7.0515804732,7.9617041304,8.5000297809\\Ver
 sion=ES64L-G16RevC.01\State=1-A\HF=-1990.2910167\RMSD=8.928e-09\RMSF=1
 .251e-04\Dipole=-0.0983385,0.0188697,0.0000619\Quadrupole=0.9230592,-1
 .601837,0.6787778,-0.2283365,0.0002418,-0.0001302\PG=C01 [X(S5)]\\@
 The archive entry for this job was punched.


 TOWERING GENIUS DISDAINS A BEATEN PATH.  IT SEEKS 
 REGIONS HITHERTO UNEXPLORED.

                                -- ABRAHAM LINCOLN
 Job cpu time:       0 days  1 hours 56 minutes 52.8 seconds.
 Elapsed time:       0 days  0 hours 14 minutes 38.7 seconds.
 File lengths (MBytes):  RWF=     81 Int=      0 D2E=      0 Chk=     10 Scr=      1
 Normal termination of Gaussian 16 at Fri Jul 30 19:44:16 2021.
 Link1:  Proceeding to internal job step number  2.
 ----------------------------------------------------------------------
 #N Geom=AllCheck Guess=TCheck SCRF=Check GenChk RPBEPBE/def2QZVPP Freq
 ----------------------------------------------------------------------
 1/10=4,29=7,30=1,38=1,40=1/1,3;
 2/12=2,40=1/2;
 3/5=45,7=202,11=2,14=-4,25=1,30=1,70=2,71=2,74=1009,75=-5,116=1,140=1/1,2,3;
 4/5=101/1;
 5/5=2,32=2,38=6,98=1/2;
 8/6=4,10=90,11=11/1;
 11/6=1,8=1,9=11,15=111,16=1/1,2,10;
 10/6=1/2;
 6/7=2,8=2,9=2,10=2,28=1/1;
 7/8=1,10=1,25=1/1,2,3,16;
 1/10=4,30=1/3;
 99//99;
 Structure from the checkpoint file:  "/data/hutter/SMG16/PBE/Gau-7624.chk"
 ---------
 Mol job 1
 ---------
 Charge =  0 Multiplicity = 1
 Redundant internal coordinates found in file.  (old form).
 S,0,8.0973528411,9.0575210738,9.9667726682
 S,0,9.9828507245,8.4604874147,9.6177958802
 S,0,9.9828856361,8.4606709379,7.3822499101
 S,0,8.0973148751,9.0574118732,7.0331647206
 S,0,7.0515804732,7.9617041304,8.5000297809
 Recover connectivity data from disk.

 GradGradGradGradGradGradGradGradGradGradGradGradGradGradGradGradGradGrad
 Berny optimization.
 Initialization pass.
                           ----------------------------
                           !    Initial Parameters    !
                           ! (Angstroms and Degrees)  !
 --------------------------                            --------------------------
 ! Name  Definition              Value          Derivative Info.                !
 --------------------------------------------------------------------------------
 ! R1    R(1,2)                  2.0083         calculate D2E/DX2 analytically  !
 ! R2    R(1,5)                  2.1085         calculate D2E/DX2 analytically  !
 ! R3    R(2,3)                  2.2355         calculate D2E/DX2 analytically  !
 ! R4    R(3,4)                  2.0083         calculate D2E/DX2 analytically  !
 ! R5    R(4,5)                  2.1085         calculate D2E/DX2 analytically  !
 ! A1    A(2,1,5)              100.9685         calculate D2E/DX2 analytically  !
 ! A2    A(1,2,3)              100.0063         calculate D2E/DX2 analytically  !
 ! A3    A(2,3,4)              100.0105         calculate D2E/DX2 analytically  !
 ! A4    A(3,4,5)              100.971          calculate D2E/DX2 analytically  !
 ! A5    A(1,5,4)               88.1596         calculate D2E/DX2 analytically  !
 ! D1    D(5,1,2,3)             41.0912         calculate D2E/DX2 analytically  !
 ! D2    D(2,1,5,4)            -64.274          calculate D2E/DX2 analytically  !
 ! D3    D(1,2,3,4)             -0.0104         calculate D2E/DX2 analytically  !
 ! D4    D(2,3,4,5)            -41.0738         calculate D2E/DX2 analytically  !
 ! D5    D(3,4,5,1)             64.2657         calculate D2E/DX2 analytically  !
 --------------------------------------------------------------------------------
 Trust Radius=3.00D-01 FncErr=1.00D-07 GrdErr=1.00D-07 EigMax=2.50D+02 EigMin=1.00D-04
 Number of steps in this run=      2 maximum allowed number of steps=      2.
 GradGradGradGradGradGradGradGradGradGradGradGradGradGradGradGradGradGrad

                          Input orientation:                          
 ---------------------------------------------------------------------
 Center     Atomic      Atomic             Coordinates (Angstroms)
 Number     Number       Type             X           Y           Z
 ---------------------------------------------------------------------
      1         16           0        8.097353    9.057521    9.966773
      2         16           0        9.982851    8.460487    9.617796
      3         16           0        9.982886    8.460671    7.382250
      4         16           0        8.097315    9.057412    7.033165
      5         16           0        7.051580    7.961704    8.500030
 ---------------------------------------------------------------------
                    Distance matrix (angstroms):
                    1          2          3          4          5
     1  S    0.000000
     2  S    2.008317   0.000000
     3  S    3.254416   2.235546   0.000000
     4  S    2.933608   3.254517   2.008317   0.000000
     5  S    2.108504   3.176560   3.176626   2.108513   0.000000
 Stoichiometry    S5
 Framework group  C1[X(S5)]
 Deg. of freedom     9
 Full point group                 C1      NOp   1
 Largest Abelian subgroup         C1      NOp   1
 Largest concise Abelian subgroup C1      NOp   1
                         Standard orientation:                         
 ---------------------------------------------------------------------
 Center     Atomic      Atomic             Coordinates (Angstroms)
 Number     Number       Type             X           Y           Z
 ---------------------------------------------------------------------
      1         16           0       -1.466344   -0.534856   -0.471147
      2         16           0       -1.118841    1.335788    0.171713
      3         16           0        1.116704    1.337575    0.171568
      4         16           0        1.467263   -0.532603   -0.470990
      5         16           0        0.001218   -1.605904    0.598856
 ---------------------------------------------------------------------
 Rotational constants (GHZ):           2.0843905           2.0626953           1.1688063
 Standard basis: def2QZVPP (5D, 7F)
 There are   430 symmetry adapted cartesian basis functions of A   symmetry.
 There are   350 symmetry adapted basis functions of A   symmetry.
   350 basis functions,   605 primitive gaussians,   430 cartesian basis functions
    40 alpha electrons       40 beta electrons
       nuclear repulsion energy       538.7260600629 Hartrees.
 NAtoms=    5 NActive=    5 NUniq=    5 SFac= 1.00D+00 NAtFMM=   60 NAOKFM=F Big=F
 Integral buffers will be    131072 words long.
 Raffenetti 2 integral format.
 Two-electron integral symmetry is turned on.
 One-electron integrals computed using PRISM.
   1 Symmetry operations used in ECPInt.
 ECPInt:  NShTT=    6105 NPrTT=   21500 LenC2=    5691 LenP2D=   14694.
 LDataN:  DoStor=T MaxTD1= 8 Len=  415
 NBasis=   350 RedAO= T EigKep=  2.44D-04  NBF=   350
 NBsUse=   350 1.00D-06 EigRej= -1.00D+00 NBFU=   350
 Initial guess from the checkpoint file:  "/data/hutter/SMG16/PBE/Gau-7624.chk"
 B after Tr=     0.000000    0.000000    0.000000
         Rot=    1.000000    0.000000    0.000000    0.000000 Ang=   0.00 deg.
 Requested convergence on RMS density matrix=1.00D-08 within 128 cycles.
 Requested convergence on MAX density matrix=1.00D-06.
 Requested convergence on             energy=1.00D-06.
 No special actions if energy rises.
 SCF Done:  E(RPBE-PBE) =  -1990.29101671     A.U. after    2 cycles
            NFock=  2  Conv=0.97D-08     -V/T= 2.0014
 DoSCS=F DFT=T ScalE2(SS,OS)=  1.000000  1.000000
 Range of M.O.s used for correlation:     1   350
 NBasis=   350 NAE=    40 NBE=    40 NFC=     0 NFV=     0
 NROrb=    350 NOA=    40 NOB=    40 NVA=   310 NVB=   310

 **** Warning!!: The largest alpha MO coefficient is  0.13343030D+02


 **** Warning!!: The smallest alpha delta epsilon is  0.82984760D-01

   1 Symmetry operations used in ECPInt.
 ECPInt:  NShTT=    6105 NPrTT=   21500 LenC2=    5691 LenP2D=   14694.
 LDataN:  DoStor=T MaxTD1= 9 Len=  602
 Symmetrizing basis deriv contribution to polar:
 IMax=3 JMax=2 DiffMx= 0.00D+00
 G2DrvN: will do     6 centers at a time, making    1 passes.
 Calling FoFCou, ICntrl=  3507 FMM=F I1Cent=   0 AccDes= 0.00D+00.
 End of G2Drv F.D. properties file   721 does not exist.
 End of G2Drv F.D. properties file   722 does not exist.
 End of G2Drv F.D. properties file   788 does not exist.
          IDoAtm=11111
          Differentiating once with respect to electric field.
                with respect to dipole field.
          Differentiating once with respect to nuclear coordinates.
 CalDSu exits because no D1Ps are significant.
          There are    18 degrees of freedom in the 1st order CPHF.  IDoFFX=6 NUNeed=     3.
     15 vectors produced by pass  0 Test12= 6.89D-14 5.56D-09 XBig12= 4.77D+02 1.17D+01.
 AX will form    15 AO Fock derivatives at one time.
     15 vectors produced by pass  1 Test12= 6.89D-14 5.56D-09 XBig12= 3.78D+02 4.85D+00.
     15 vectors produced by pass  2 Test12= 6.89D-14 5.56D-09 XBig12= 2.16D+01 1.37D+00.
     15 vectors produced by pass  3 Test12= 6.89D-14 5.56D-09 XBig12= 7.25D-01 1.60D-01.
     15 vectors produced by pass  4 Test12= 6.89D-14 5.56D-09 XBig12= 3.56D-03 9.52D-03.
     15 vectors produced by pass  5 Test12= 6.89D-14 5.56D-09 XBig12= 5.30D-05 8.31D-04.
     15 vectors produced by pass  6 Test12= 6.89D-14 5.56D-09 XBig12= 6.32D-07 1.37D-04.
      8 vectors produced by pass  7 Test12= 6.89D-14 5.56D-09 XBig12= 2.02D-09 7.02D-06.
      3 vectors produced by pass  8 Test12= 6.89D-14 5.56D-09 XBig12= 8.66D-12 3.09D-07.
      3 vectors produced by pass  9 Test12= 6.89D-14 5.56D-09 XBig12= 3.23D-14 2.38D-08.
 InvSVY:  IOpt=1 It=  1 EMax= 1.78D-15
 Solved reduced A of dimension   119 with    15 vectors.
 Isotropic polarizability for W=    0.000000       99.78 Bohr**3.
 End of Minotr F.D. properties file   721 does not exist.
 End of Minotr F.D. properties file   722 does not exist.
 End of Minotr F.D. properties file   788 does not exist.

 **********************************************************************

            Population analysis using the SCF Density.

 **********************************************************************

 Orbital symmetries:
       Occupied  (A) (A) (A) (A) (A) (A) (A) (A) (A) (A) (A) (A)
                 (A) (A) (A) (A) (A) (A) (A) (A) (A) (A) (A) (A)
                 (A) (A) (A) (A) (A) (A) (A) (A) (A) (A) (A) (A)
                 (A) (A) (A) (A)
       Virtual   (A) (A) (A) (A) (A) (A) (A) (A) (A) (A) (A) (A)
                 (A) (A) (A) (A) (A) (A) (A) (A) (A) (A) (A) (A)
                 (A) (A) (A) (A) (A) (A) (A) (A) (A) (A) (A) (A)
                 (A) (A) (A) (A) (A) (A) (A) (A) (A) (A) (A) (A)
                 (A) (A) (A) (A) (A) (A) (A) (A) (A) (A) (A) (A)
                 (A) (A) (A) (A) (A) (A) (A) (A) (A) (A) (A) (A)
                 (A) (A) (A) (A) (A) (A) (A) (A) (A) (A) (A) (A)
                 (A) (A) (A) (A) (A) (A) (A) (A) (A) (A) (A) (A)
                 (A) (A) (A) (A) (A) (A) (A) (A) (A) (A) (A) (A)
                 (A) (A) (A) (A) (A) (A) (A) (A) (A) (A) (A) (A)
                 (A) (A) (A) (A) (A) (A) (A) (A) (A) (A) (A) (A)
                 (A) (A) (A) (A) (A) (A) (A) (A) (A) (A) (A) (A)
                 (A) (A) (A) (A) (A) (A) (A) (A) (A) (A) (A) (A)
                 (A) (A) (A) (A) (A) (A) (A) (A) (A) (A) (A) (A)
                 (A) (A) (A) (A) (A) (A) (A) (A) (A) (A) (A) (A)
                 (A) (A) (A) (A) (A) (A) (A) (A) (A) (A) (A) (A)
                 (A) (A) (A) (A) (A) (A) (A) (A) (A) (A) (A) (A)
                 (A) (A) (A) (A) (A) (A) (A) (A) (A) (A) (A) (A)
                 (A) (A) (A) (A) (A) (A) (A) (A) (A) (A) (A) (A)
                 (A) (A) (A) (A) (A) (A) (A) (A) (A) (A) (A) (A)
                 (A) (A) (A) (A) (A) (A) (A) (A) (A) (A) (A) (A)
                 (A) (A) (A) (A) (A) (A) (A) (A) (A) (A) (A) (A)
                 (A) (A) (A) (A) (A) (A) (A) (A) (A) (A) (A) (A)
                 (A) (A) (A) (A) (A) (A) (A) (A) (A) (A) (A) (A)
                 (A) (A) (A) (A) (A) (A) (A) (A) (A) (A) (A) (A)
                 (A) (A) (A) (A) (A) (A) (A) (A) (A) (A)
 The electronic state is 1-A.
 Alpha  occ. eigenvalues --  -88.11629 -88.11629 -88.10513 -88.10162 -88.10161
 Alpha  occ. eigenvalues --   -7.73971  -7.73971  -7.72911  -7.72612  -7.72611
 Alpha  occ. eigenvalues --   -5.76196  -5.76196  -5.75867  -5.75867  -5.75185
 Alpha  occ. eigenvalues --   -5.75185  -5.75029  -5.74968  -5.74878  -5.74873
 Alpha  occ. eigenvalues --   -5.74547  -5.74543  -5.74053  -5.73728  -5.73727
 Alpha  occ. eigenvalues --   -0.81239  -0.73544  -0.70516  -0.57140  -0.56612
 Alpha  occ. eigenvalues --   -0.41101  -0.39327  -0.38973  -0.34565  -0.33302
 Alpha  occ. eigenvalues --   -0.31686  -0.26954  -0.25631  -0.22811  -0.20595
 Alpha virt. eigenvalues --   -0.12297  -0.10030  -0.09556  -0.09128  -0.05246
 Alpha virt. eigenvalues --    0.05302   0.07043   0.07099   0.07257   0.08238
 Alpha virt. eigenvalues --    0.09422   0.09786   0.10019   0.11801   0.11918
 Alpha virt. eigenvalues --    0.12499   0.13312   0.14669   0.15268   0.16690
 Alpha virt. eigenvalues --    0.17322   0.18403   0.18863   0.19281   0.20325
 Alpha virt. eigenvalues --    0.21339   0.25737   0.26230   0.28293   0.28720
 Alpha virt. eigenvalues --    0.29461   0.33439   0.33671   0.35230   0.37657
 Alpha virt. eigenvalues --    0.39230   0.39545   0.42173   0.42969   0.44559
 Alpha virt. eigenvalues --    0.46054   0.46069   0.46711   0.49217   0.49583
 Alpha virt. eigenvalues --    0.51186   0.52372   0.52585   0.57370   0.61923
 Alpha virt. eigenvalues --    0.71794   0.73332   0.74619   0.76969   0.77165
 Alpha virt. eigenvalues --    0.79276   0.80247   0.81379   0.82593   0.84310
 Alpha virt. eigenvalues --    0.84484   0.85232   0.87472   0.88389   0.89261
 Alpha virt. eigenvalues --    0.90263   0.90758   0.91370   0.91923   0.92911
 Alpha virt. eigenvalues --    0.93003   0.93660   0.94055   0.94872   0.94970
 Alpha virt. eigenvalues --    0.95539   0.96548   0.97404   0.98844   0.98871
 Alpha virt. eigenvalues --    1.00005   1.00752   1.01321   1.01499   1.02687
 Alpha virt. eigenvalues --    1.03206   1.04456   1.04735   1.05555   1.07221
 Alpha virt. eigenvalues --    1.07742   1.11586   1.14650   1.14703   1.16512
 Alpha virt. eigenvalues --    1.18385   1.21183   1.22964   1.25113   1.27138
 Alpha virt. eigenvalues --    1.30392   1.35453   1.36347   1.37431   1.39359
 Alpha virt. eigenvalues --    1.40630   1.43395   1.45450   1.48148   1.49792
 Alpha virt. eigenvalues --    1.58744   1.61151   1.62715   1.64247   1.64289
 Alpha virt. eigenvalues --    1.65511   1.67143   1.69653   1.70304   1.73597
 Alpha virt. eigenvalues --    1.73967   1.75352   1.77472   1.81442   1.85890
 Alpha virt. eigenvalues --    1.90701   2.04137   2.06126   2.28039   2.30178
 Alpha virt. eigenvalues --    2.37613   2.39859   2.42871   2.43128   2.43516
 Alpha virt. eigenvalues --    2.45138   2.46379   2.47826   2.49418   2.50214
 Alpha virt. eigenvalues --    2.50427   2.54201   2.54958   2.55722   2.57417
 Alpha virt. eigenvalues --    2.58138   2.58998   2.59618   2.61546   2.62276
 Alpha virt. eigenvalues --    2.63873   2.64444   2.65503   2.67709   2.68466
 Alpha virt. eigenvalues --    2.68757   2.69403   2.69989   2.70041   2.72658
 Alpha virt. eigenvalues --    2.72705   2.75092   2.75414   2.76129   2.78064
 Alpha virt. eigenvalues --    2.78339   2.80448   2.81051   2.82670   2.83010
 Alpha virt. eigenvalues --    2.84235   2.85776   2.87880   2.93196   2.95406
 Alpha virt. eigenvalues --    2.98117   3.05082   3.06724   3.06729   3.07969
 Alpha virt. eigenvalues --    3.08421   3.09714   3.11089   3.11816   3.13570
 Alpha virt. eigenvalues --    3.14034   3.15696   3.15774   3.17796   3.18305
 Alpha virt. eigenvalues --    3.20204   3.20966   3.22653   3.23066   3.23700
 Alpha virt. eigenvalues --    3.25508   3.27720   3.29720   3.29890   3.30763
 Alpha virt. eigenvalues --    3.31377   3.32871   3.35019   3.35515   3.37741
 Alpha virt. eigenvalues --    3.39362   3.39955   3.40820   3.42556   3.42641
 Alpha virt. eigenvalues --    3.45057   3.45524   3.46769   3.47601   3.48765
 Alpha virt. eigenvalues --    3.49752   3.52333   3.56211   3.57218   3.60237
 Alpha virt. eigenvalues --    3.60366   3.62254   3.65106   3.65270   3.74857
 Alpha virt. eigenvalues --    3.76344   3.78251   3.85657   3.90196   3.92350
 Alpha virt. eigenvalues --    3.92820   3.94028   4.00608   4.03547   4.09926
 Alpha virt. eigenvalues --    4.15381   4.16447   4.19186   4.24851   4.25195
 Alpha virt. eigenvalues --    4.28201   4.30479   4.33417   4.39027   4.40586
 Alpha virt. eigenvalues --    4.49441   4.77220   4.78911   5.12327   5.17664
 Alpha virt. eigenvalues --    6.84108   7.10476   7.15591   7.43521   7.45301
 Alpha virt. eigenvalues --    8.43717   8.45002   8.46886   8.48355   8.50583
 Alpha virt. eigenvalues --    8.53433   8.57093   8.57713   8.59676   8.59928
 Alpha virt. eigenvalues --    8.60808   8.61132   8.64884   8.66572   8.69998
 Alpha virt. eigenvalues --    8.72209   8.72994   8.77742   8.80763   8.86147
 Alpha virt. eigenvalues --    9.01704   9.05325   9.28279   9.34515   9.50152
 Alpha virt. eigenvalues --   23.79929  24.09620  24.10444  24.44021  24.46391
 Alpha virt. eigenvalues --   28.28877  28.31561  28.31758  28.32794  28.37460
 Alpha virt. eigenvalues --   28.37720  28.44211  28.48562  28.49103  28.50833
 Alpha virt. eigenvalues --   28.59543  28.64875  28.70177  28.80974  28.86234
 Alpha virt. eigenvalues --   83.07507  83.36075  83.36156  83.69526  83.70989
 Alpha virt. eigenvalues --  448.98035 449.46620 449.46678 450.04110 450.05685
          Condensed to atoms (all electrons):
               1          2          3          4          5
     1  S   15.629112   0.307919  -0.077589  -0.111921   0.222918
     2  S    0.307919  15.712064   0.151484  -0.077579  -0.085193
     3  S   -0.077589   0.151484  15.712095   0.307889  -0.085167
     4  S   -0.111921  -0.077579   0.307889  15.629127   0.222927
     5  S    0.222918  -0.085193  -0.085167   0.222927  15.766228
 Mulliken charges:
               1
     1  S    0.029562
     2  S   -0.008695
     3  S   -0.008711
     4  S    0.029557
     5  S   -0.041712
 Sum of Mulliken charges =   0.00000
 Mulliken charges with hydrogens summed into heavy atoms:
               1
     1  S    0.029562
     2  S   -0.008695
     3  S   -0.008711
     4  S    0.029557
     5  S   -0.041712
 APT charges:
               1
     1  S    0.098654
     2  S   -0.062793
     3  S   -0.062829
     4  S    0.098625
     5  S   -0.071656
 Sum of APT charges =   0.00000
 APT charges with hydrogens summed into heavy atoms:
               1
     1  S    0.098654
     2  S   -0.062793
     3  S   -0.062829
     4  S    0.098625
     5  S   -0.071656
 Electronic spatial extent (au):  <R**2>=            963.3765
 Charge=              0.0000 electrons
 Dipole moment (field-independent basis, Debye):
    X=              0.0000    Y=             -0.2487    Z=             -0.0541  Tot=              0.2545
 Quadrupole moment (field-independent basis, Debye-Ang):
   XX=            -62.5018   YY=            -62.1902   ZZ=            -65.5523
   XY=             -0.0006   XZ=             -0.0004   YZ=              0.3896
 Traceless Quadrupole moment (field-independent basis, Debye-Ang):
   XX=              0.9130   YY=              1.2246   ZZ=             -2.1375
   XY=             -0.0006   XZ=             -0.0004   YZ=              0.3896
 Octapole moment (field-independent basis, Debye-Ang**2):
  XXX=              0.0040  YYY=              2.4394  ZZZ=             -0.7991  XYY=             -0.0049
  XXY=             -1.5559  XXZ=             -2.0390  XZZ=              0.0009  YZZ=             -2.4166
  YYZ=              3.5132  XYZ=             -0.0051
 Hexadecapole moment (field-independent basis, Debye-Ang**3):
 XXXX=           -596.6311 YYYY=           -584.8698 ZZZZ=           -155.7612 XXXY=             -0.0055
 XXXZ=             -0.0092 YYYX=             -0.0011 YYYZ=              3.6915 ZZZX=              0.0022
 ZZZY=             -1.4341 XXYY=           -196.1938 XXZZ=           -124.9004 YYZZ=           -124.6524
 XXYZ=              2.8561 YYXZ=              0.0004 ZZXY=              0.0001
 N-N= 5.387260600629D+02 E-N=-5.811216755592D+03  KE= 1.987424332962D+03
  Exact polarizability:     114.495      -0.002     116.392       0.000      -0.645      68.461
 Approx polarizability:     336.617      -0.022     366.488       0.002      -2.938     158.663
   1 Symmetry operations used in ECPInt.
 ECPInt:  NShTT=    6105 NPrTT=   21500 LenC2=    5691 LenP2D=   14694.
 LDataN:  DoStor=T MaxTD1=10 Len=  848
 Calling FoFJK, ICntrl=    100527 FMM=F ISym2X=0 I1Cent= 0 IOpClX= 0 NMat=1 NMatS=1 NMatT=0.
 Full mass-weighted force constant matrix:
 Low frequencies ---   -6.9961   -4.5941   -0.0016    0.0014    0.0047    4.6815
 Low frequencies ---  116.0133  212.4420  270.7087
 Diagonal vibrational polarizability:
        4.4259801       3.8812285       0.1461693
 Harmonic frequencies (cm**-1), IR intensities (KM/Mole), Raman scattering
 activities (A**4/AMU), depolarization ratios for plane and unpolarized
 incident light, reduced masses (AMU), force constants (mDyne/A),
 and normal coordinates:
                      1                      2                      3
                      A                      A                      A
 Frequencies --    116.0133               212.4419               270.7087
 Red. masses --     31.9721                31.9721                31.9721
 Frc consts  --      0.2535                 0.8502                 1.3805
 IR Inten    --      1.6309                 0.1660                 2.2416
  Atom  AN      X      Y      Z        X      Y      Z        X      Y      Z
     1  16     0.01  -0.19   0.37    -0.42  -0.12   0.27    -0.16  -0.16  -0.22
     2  16    -0.02   0.29  -0.49     0.37   0.11  -0.07     0.06  -0.24   0.17
     3  16    -0.02  -0.29   0.49    -0.37   0.11  -0.07    -0.06  -0.24   0.17
     4  16     0.01   0.19  -0.38     0.42  -0.12   0.27     0.16  -0.16  -0.22
     5  16     0.02  -0.00   0.00     0.00   0.02  -0.40    -0.00   0.78   0.10
                      4                      5                      6
                      A                      A                      A
 Frequencies --    281.8976               297.5814               302.1694
 Red. masses --     31.9721                31.9721                31.9721
 Frc consts  --      1.4969                 1.6681                 1.7200
 IR Inten    --      1.6104                 0.2099                 0.2988
  Atom  AN      X      Y      Z        X      Y      Z        X      Y      Z
     1  16    -0.21   0.35  -0.11     0.43   0.18   0.06    -0.35   0.01   0.13
     2  16    -0.15   0.15  -0.12    -0.37   0.31   0.19    -0.58  -0.04  -0.05
     3  16    -0.15  -0.15   0.12    -0.37  -0.32  -0.19     0.59  -0.04  -0.05
     4  16    -0.21  -0.35   0.11     0.43  -0.18  -0.06     0.35   0.01   0.13
     5  16     0.73   0.00   0.00    -0.12   0.00  -0.00     0.00   0.05  -0.17
                      7                      8                      9
                      A                      A                      A
 Frequencies --    423.8745               516.6769               527.2566
 Red. masses --     31.9721                31.9721                31.9721
 Frc consts  --      3.3845                 5.0287                 5.2368
 IR Inten    --     19.1429                 1.4875                 5.7418
  Atom  AN      X      Y      Z        X      Y      Z        X      Y      Z
     1  16    -0.36   0.38  -0.17    -0.21  -0.30  -0.31    -0.14  -0.39  -0.25
     2  16     0.13  -0.23  -0.04    -0.04   0.42   0.16     0.07   0.45   0.22
     3  16    -0.13  -0.23  -0.04     0.04   0.42   0.16     0.07  -0.45  -0.22
     4  16     0.36   0.38  -0.17     0.21  -0.30  -0.31    -0.14   0.39   0.25
     5  16     0.00  -0.29   0.42     0.00  -0.23   0.29     0.14   0.00   0.00

 -------------------
 - Thermochemistry -
 -------------------
 Temperature   298.150 Kelvin.  Pressure   1.00000 Atm.
 Atom     1 has atomic number 16 and mass  31.97207
 Atom     2 has atomic number 16 and mass  31.97207
 Atom     3 has atomic number 16 and mass  31.97207
 Atom     4 has atomic number 16 and mass  31.97207
 Atom     5 has atomic number 16 and mass  31.97207
 Molecular mass:   159.86036 amu.
 Principal axes and moments of inertia in atomic units:
                           1         2         3
     Eigenvalues --   865.83643 874.943181544.08918
           X            1.00000   0.00000   0.00000
           Y           -0.00000   1.00000   0.00000
           Z           -0.00000  -0.00000   1.00000
 This molecule is an asymmetric top.
 Rotational symmetry number  1.
 Warning -- assumption of classical behavior for rotation
           may cause significant error
 Rotational temperatures (Kelvin)      0.10003     0.09899     0.05609
 Rotational constants (GHZ):           2.08439     2.06270     1.16881
 Zero-point vibrational energy      17636.7 (Joules/Mol)
                                    4.21526 (Kcal/Mol)
 Warning -- explicit consideration of   9 degrees of freedom as
           vibrations may cause significant error
 Vibrational temperatures:    166.92   305.66   389.49   405.59   428.15
          (Kelvin)            434.75   609.86   743.38   758.60
 
 Zero-point correction=                           0.006717 (Hartree/Particle)
 Thermal correction to Energy=                    0.013242
 Thermal correction to Enthalpy=                  0.014186
 Thermal correction to Gibbs Free Energy=        -0.025200
 Sum of electronic and zero-point Energies=          -1990.284299
 Sum of electronic and thermal Energies=             -1990.277775
 Sum of electronic and thermal Enthalpies=           -1990.276831
 Sum of electronic and thermal Free Energies=        -1990.316216
 
                     E (Thermal)             CV                S
                      KCal/Mol        Cal/Mol-Kelvin    Cal/Mol-Kelvin
 Total                    8.309             20.323             82.893
 Electronic               0.000              0.000              0.000
 Translational            0.889              2.981             41.116
 Rotational               0.889              2.981             28.549
 Vibrational              6.532             14.361             13.227
 Vibration     1          0.608              1.936              3.166
 Vibration     2          0.643              1.822              2.023
 Vibration     3          0.674              1.727              1.592
 Vibration     4          0.681              1.707              1.522
 Vibration     5          0.691              1.678              1.430
 Vibration     6          0.694              1.670              1.405
 Vibration     7          0.786              1.418              0.879
 Vibration     8          0.872              1.213              0.618
 Vibration     9          0.882              1.190              0.593
                       Q            Log10(Q)             Ln(Q)
 Total Bot       0.389910D+12         11.590965         26.689182
 Total V=0       0.479485D+15         14.680775         33.803734
 Vib (Bot)       0.126768D-01         -1.896990         -4.367981
 Vib (Bot)    1  0.176310D+01          0.246277          0.567073
 Vib (Bot)    2  0.934000D+00         -0.029653         -0.068279
 Vib (Bot)    3  0.713650D+00         -0.146514         -0.337362
 Vib (Bot)    4  0.681342D+00         -0.166635         -0.383691
 Vib (Bot)    5  0.639941D+00         -0.193860         -0.446379
 Vib (Bot)    6  0.628600D+00         -0.201626         -0.464260
 Vib (Bot)    7  0.413018D+00         -0.384031         -0.884263
 Vib (Bot)    8  0.313358D+00         -0.503959         -1.160409
 Vib (Bot)    9  0.304097D+00         -0.516988         -1.190410
 Vib (V=0)       0.155891D+02          1.192820          2.746570
 Vib (V=0)    1  0.233263D+01          0.367845          0.846995
 Vib (V=0)    2  0.155941D+01          0.192961          0.444309
 Vib (V=0)    3  0.137138D+01          0.137157          0.315815
 Vib (V=0)    4  0.134512D+01          0.128761          0.296483
 Vib (V=0)    5  0.131211D+01          0.117971          0.271638
 Vib (V=0)    6  0.130320D+01          0.115013          0.264826
 Vib (V=0)    7  0.114852D+01          0.060140          0.138478
 Vib (V=0)    8  0.109008D+01          0.037458          0.086250
 Vib (V=0)    9  0.108521D+01          0.035515          0.081777
 Electronic      0.100000D+01          0.000000          0.000000
 Translational   0.794447D+08          7.900065         18.190572
 Rotational      0.387159D+06          5.587890         12.866591
 ***** Axes restored to original set *****
 -------------------------------------------------------------------
 Center     Atomic                   Forces (Hartrees/Bohr)
 Number     Number              X              Y              Z
 -------------------------------------------------------------------
      1       16          -0.000203036   -0.000083207   -0.000069471
      2       16           0.000145541   -0.000016531    0.000102155
      3       16           0.000160854   -0.000032294   -0.000109122
      4       16          -0.000208805   -0.000077220    0.000080677
      5       16           0.000105446    0.000209252   -0.000004239
 -------------------------------------------------------------------
 Cartesian Forces:  Max     0.000209252 RMS     0.000125082
 FormGI is forming the generalized inverse of G from B-inverse, IUseBI=4.

 GradGradGradGradGradGradGradGradGradGradGradGradGradGradGradGradGradGrad
 Berny optimization.
 Internal  Forces:  Max     0.000157365 RMS     0.000090598
 Search for a local minimum.
 Step number   1 out of a maximum of    2
 All quantities printed in internal units (Hartrees-Bohrs-Radians)
 Second derivative matrix not updated -- analytic derivatives used.
 The second derivative matrix:
                          R1        R2        R3        R4        R5
           R1           0.14935
           R2           0.02695   0.08358
           R3           0.01639   0.00803   0.06019
           R4           0.00874   0.00572   0.01639   0.14935
           R5           0.00572   0.02830   0.00802   0.02695   0.08358
           A1           0.00088  -0.00661  -0.01129   0.03768  -0.01836
           A2          -0.01883  -0.00822   0.00549  -0.00130   0.03074
           A3          -0.00130   0.03073   0.00548  -0.01883  -0.00822
           A4           0.03768  -0.01835  -0.01128   0.00088  -0.00662
           A5          -0.01890   0.00699   0.03343  -0.01890   0.00699
           D1           0.01253  -0.01066  -0.01608  -0.00008   0.00381
           D2           0.00922  -0.00018   0.00671  -0.00825   0.01066
           D3          -0.01384   0.00257  -0.00001   0.01386  -0.00257
           D4           0.00008  -0.00382   0.01609  -0.01254   0.01065
           D5           0.00826  -0.01066  -0.00671  -0.00921   0.00018
                          A1        A2        A3        A4        A5
           A1           0.10237
           A2          -0.06323   0.08837
           A3           0.01416  -0.06271   0.08836
           A4           0.04653   0.01416  -0.06323   0.10237
           A5          -0.05960   0.02873   0.02872  -0.05960   0.08099
           D1           0.00790  -0.01338  -0.00778   0.01081  -0.03083
           D2           0.00645   0.03676  -0.03473   0.05082   0.00250
           D3           0.00577   0.00062  -0.00062  -0.00576   0.00000
           D4          -0.01080   0.00777   0.01338  -0.00789   0.03081
           D5          -0.05083   0.03473  -0.03675  -0.00645  -0.00249
                          D1        D2        D3        D4        D5
           D1           0.02696
           D2          -0.01879   0.05604
           D3          -0.00888   0.00030   0.01096
           D4          -0.00923   0.01316  -0.00888   0.02694
           D5           0.01316  -0.01573   0.00029  -0.01879   0.05603
 ITU=  0
     Eigenvalues ---    0.01453   0.03271   0.05401   0.08842   0.12506
     Eigenvalues ---    0.16262   0.17614   0.24061   0.27133
 Angle between quadratic step and forces=  20.11 degrees.
 Linear search not attempted -- first point.
 Iteration  1 RMS(Cart)=  0.00068651 RMS(Int)=  0.00000028
 Iteration  2 RMS(Cart)=  0.00000032 RMS(Int)=  0.00000008
 Variable       Old X    -DE/DX   Delta X   Delta X   Delta X     New X
                                 (Linear)    (Quad)   (Total)
    R1        3.79517   0.00015   0.00000   0.00134   0.00134   3.79651
    R2        3.98450  -0.00014   0.00000  -0.00177  -0.00177   3.98272
    R3        4.22457   0.00012   0.00000   0.00087   0.00087   4.22544
    R4        3.79517   0.00016   0.00000   0.00134   0.00134   3.79651
    R5        3.98451  -0.00014   0.00000  -0.00179  -0.00179   3.98272
    A1        1.76223   0.00007   0.00000   0.00021   0.00021   1.76244
    A2        1.74544  -0.00002   0.00000  -0.00009  -0.00009   1.74534
    A3        1.74551  -0.00004   0.00000  -0.00017  -0.00017   1.74534
    A4        1.76228   0.00007   0.00000   0.00017   0.00017   1.76244
    A5        1.53867   0.00004   0.00000   0.00099   0.00099   1.53966
    D1        0.71718  -0.00005   0.00000  -0.00074  -0.00074   0.71644
    D2       -1.12179   0.00005   0.00000   0.00042   0.00042  -1.12137
    D3       -0.00018   0.00001   0.00000   0.00018   0.00018  -0.00000
    D4       -0.71687   0.00004   0.00000   0.00043   0.00043  -0.71644
    D5        1.12165  -0.00004   0.00000  -0.00028  -0.00028   1.12137
         Item               Value     Threshold  Converged?
 Maximum Force            0.000157     0.000450     YES
 RMS     Force            0.000091     0.000300     YES
 Maximum Displacement     0.001451     0.001800     YES
 RMS     Displacement     0.000686     0.001200     YES
 Predicted change in Energy=-5.902852D-07
 Optimization completed.
    -- Stationary point found.
                           ----------------------------
                           !   Optimized Parameters   !
                           ! (Angstroms and Degrees)  !
 --------------------------                            --------------------------
 ! Name  Definition              Value          Derivative Info.                !
 --------------------------------------------------------------------------------
 ! R1    R(1,2)                  2.0083         -DE/DX =    0.0001              !
 ! R2    R(1,5)                  2.1085         -DE/DX =   -0.0001              !
 ! R3    R(2,3)                  2.2355         -DE/DX =    0.0001              !
 ! R4    R(3,4)                  2.0083         -DE/DX =    0.0002              !
 ! R5    R(4,5)                  2.1085         -DE/DX =   -0.0001              !
 ! A1    A(2,1,5)              100.9685         -DE/DX =    0.0001              !
 ! A2    A(1,2,3)              100.0063         -DE/DX =    0.0                 !
 ! A3    A(2,3,4)              100.0105         -DE/DX =    0.0                 !
 ! A4    A(3,4,5)              100.971          -DE/DX =    0.0001              !
 ! A5    A(1,5,4)               88.1596         -DE/DX =    0.0                 !
 ! D1    D(5,1,2,3)             41.0912         -DE/DX =    0.0                 !
 ! D2    D(2,1,5,4)            -64.274          -DE/DX =    0.0001              !
 ! D3    D(1,2,3,4)             -0.0104         -DE/DX =    0.0                 !
 ! D4    D(2,3,4,5)            -41.0738         -DE/DX =    0.0                 !
 ! D5    D(3,4,5,1)             64.2657         -DE/DX =    0.0                 !
 --------------------------------------------------------------------------------
 GradGradGradGradGradGradGradGradGradGradGradGradGradGradGradGradGradGrad


 ----------------------------------------------------------------------

 Electric dipole moment (input orientation):
 (Debye = 10**-18 statcoulomb cm , SI units = C m)
                  (au)            (Debye)         (10**-30 SI)
   Tot        0.100133D+00      0.254513D+00      0.848964D+00
   x         -0.983383D-01     -0.249951D+00     -0.833747D+00
   y          0.188736D-01      0.479719D-01      0.160017D+00
   z          0.704430D-04      0.179048D-03      0.597241D-03

 Dipole polarizability, Alpha (input orientation).
 (esu units = cm**3 , SI units = C**2 m**2 J**-1)
 Alpha(0;0):
               (au)            (10**-24 esu)      (10**-40 SI)
   iso        0.997825D+02      0.147862D+02      0.164519D+02
   aniso      0.470239D+02      0.696823D+01      0.775320D+01
   xx         0.116332D+03      0.172386D+02      0.191805D+02
   yx         0.181346D+01      0.268727D+00      0.298999D+00
   yy         0.685212D+02      0.101538D+02      0.112976D+02
   zx         0.316607D-03      0.469163D-04      0.522014D-04
   zy        -0.778598D-03     -0.115376D-03     -0.128373D-03
   zz         0.114495D+03      0.169664D+02      0.188776D+02

 ----------------------------------------------------------------------

 Dipole orientation:
    16         22.21698262         15.78903234        -11.78810193
    16         21.48963812         15.48424182        -15.50042977
    16         17.34085708         16.28085695        -15.50340115
    16         16.77259295         16.83372783        -11.79197034
    16         19.04032380         13.94863226        -10.23956450

 Electric dipole moment (dipole orientation):
 (Debye = 10**-18 statcoulomb cm , SI units = C m)
                  (au)            (Debye)         (10**-30 SI)
   Tot        0.100133D+00      0.254513D+00      0.848964D+00
   x          0.000000D+00      0.000000D+00      0.000000D+00
   y          0.000000D+00      0.000000D+00      0.000000D+00
   z          0.100133D+00      0.254513D+00      0.848964D+00

 Dipole polarizability, Alpha (dipole orientation).
 (esu units = cm**3 , SI units = C**2 m**2 J**-1)
 Alpha(0;0):
               (au)            (10**-24 esu)      (10**-40 SI)
   iso        0.997825D+02      0.147862D+02      0.164519D+02
   aniso      0.470239D+02      0.696823D+01      0.775320D+01
   xx         0.112948D+03      0.167372D+02      0.186226D+02
   yx        -0.806511D+01     -0.119513D+01     -0.132976D+01
   yy         0.724377D+02      0.107342D+02      0.119434D+02
   zx        -0.198570D+01     -0.294250D+00     -0.327398D+00
   zy        -0.103458D+02     -0.153309D+01     -0.170579D+01
   zz         0.113962D+03      0.168874D+02      0.187897D+02

 ----------------------------------------------------------------------
 Unable to Open any file for archive entry.
 1\1\GINC-TCOPT10\Freq\RPBEPBE\def2QZVPP\S5\HUTTER\30-Jul-2021\0\\#N Ge
 om=AllCheck Guess=TCheck SCRF=Check GenChk RPBEPBE/def2QZVPP Freq\\Mol
  job 1\\0,1\S,8.0973528411,9.0575210738,9.9667726682\S,9.9828507245,8.
 4604874147,9.6177958802\S,9.9828856361,8.4606709379,7.3822499101\S,8.0
 973148751,9.0574118732,7.0331647206\S,7.0515804732,7.9617041304,8.5000
 297809\\Version=ES64L-G16RevC.01\State=1-A\HF=-1990.2910167\RMSD=9.711
 e-09\RMSF=1.251e-04\ZeroPoint=0.0067175\Thermal=0.0132415\ETot=-1990.2
 777752\HTot=-1990.276831\GTot=-1990.3162162\Dipole=-0.0983383,0.018873
 6,0.0000704\DipoleDeriv=0.3914442,0.0729211,0.1537976,0.0074318,0.0449
 562,-0.0505955,0.1786558,0.0415087,-0.1404379,-0.1998385,-0.0492701,-0
 .2641007,0.1079982,-0.0060121,-0.0679537,-0.1742999,-0.0060197,0.01747
 11,-0.1998748,-0.049257,0.2640838,0.1079198,-0.0060683,0.0680124,0.174
 298,0.0059952,0.0174552,0.3913677,0.0729463,-0.1537711,0.0074114,0.044
 967,0.0505126,-0.1785961,-0.0414993,-0.1404611,-0.3830986,-0.0473403,-
 0.0000097,-0.2307613,-0.0778428,0.0000242,-0.0000578,0.0000151,0.24597
 27\Polar=116.3315362,1.8134585,68.5212315,0.0003166,-0.0007786,114.494
 8328\Quadrupole=0.9230664,-1.601831,0.6787646,-0.2283424,0.0002442,-0.
 0001281\PG=C01 [X(S5)]\NImag=0\\0.13118958,-0.04542417,0.06957986,-0.0
 1645769,0.04260118,0.09907735,-0.10791689,0.06123423,0.01811935,0.1583
 1523,0.04694287,-0.03602248,-0.00578607,-0.05291654,0.03473418,0.01124
 753,-0.01170016,-0.01159283,0.01263406,-0.00063559,0.06839561,-0.00794
 924,-0.00863792,-0.00178873,-0.00973804,0.01612123,0.00566135,0.158325
 35,-0.00676900,-0.00066008,-0.00706560,0.01611489,-0.01293370,-0.00071
 010,-0.05290878,0.03471803,0.03270572,-0.00173413,-0.02313865,-0.00564
 915,0.00073001,-0.03137622,-0.01264528,0.00061580,0.06839769,-0.003970
 49,0.01085892,0.02409101,-0.00794713,-0.00677990,-0.03271119,-0.107925
 15,0.04693942,-0.01124128,0.13119367,0.01085226,0.02223263,0.00920258,
 -0.00863605,-0.00066480,0.00171900,0.06122823,-0.03600295,0.01171752,-
 0.04542369,0.06955384,-0.02409005,-0.00920201,-0.03721700,0.00179068,0
 .00705881,-0.02313042,-0.01812112,0.00579185,-0.01159759,0.01645662,-0
 .04260365,0.09907992,-0.01135295,-0.01803106,-0.02396395,-0.03271316,-
 0.00336766,0.00316825,-0.03271291,-0.00337653,-0.00317002,-0.01135089,
 -0.01802075,0.02396387,0.08812992,-0.00560196,-0.05512993,-0.03895209,
 -0.01579653,0.01488680,0.01132684,-0.01580277,0.01487869,-0.01132920,-
 0.00559474,-0.05511872,0.03895500,0.04279600,0.08048315,-0.00340551,-0
 .01996488,-0.02712887,-0.02689494,-0.00136716,-0.00229615,0.02689378,0
 .00136805,-0.00228523,0.00340483,0.01996455,-0.02713491,0.00000185,-0.
 00000056,0.05884517\\0.00020304,0.00008321,0.00006947,-0.00014554,0.00
 001653,-0.00010215,-0.00016085,0.00003229,0.00010912,0.00020880,0.0000
 7722,-0.00008068,-0.00010545,-0.00020925,0.00000424\\\@
 The archive entry for this job was punched.


 The most important thing in communication is to hear what isn't being said.
 -- Peter F. Drucker
 Job cpu time:       0 days  1 hours  8 minutes 33.9 seconds.
 Elapsed time:       0 days  0 hours  8 minutes 34.6 seconds.
 File lengths (MBytes):  RWF=     82 Int=      0 D2E=      0 Chk=     11 Scr=      1
 Normal termination of Gaussian 16 at Fri Jul 30 19:52:50 2021.
