 Entering Gaussian System, Link 0=g16
 Initial command:
 /sw-ng/spack/opt/spack/linux-opensuse_leap15-sandybridge/pgi-18.10/gaussian-src-16-C.01-zldqaomctopxhethwccpmxmwefdscg3m/g16/l1.exe "/data/hutter/SMG16/PBE/Gau-47311.inp" -scrdir="/data/hutter/SMG16/PBE/"
 Entering Link 1 = /sw-ng/spack/opt/spack/linux-opensuse_leap15-sandybridge/pgi-18.10/gaussian-src-16-C.01-zldqaomctopxhethwccpmxmwefdscg3m/g16/l1.exe PID=     47318.
  
 Copyright (c) 1988-2019, Gaussian, Inc.  All Rights Reserved.
  
 This is part of the Gaussian(R) 16 program.  It is based on
 the Gaussian(R) 09 system (copyright 2009, Gaussian, Inc.),
 the Gaussian(R) 03 system (copyright 2003, Gaussian, Inc.),
 the Gaussian(R) 98 system (copyright 1998, Gaussian, Inc.),
 the Gaussian(R) 94 system (copyright 1995, Gaussian, Inc.),
 the Gaussian 92(TM) system (copyright 1992, Gaussian, Inc.),
 the Gaussian 90(TM) system (copyright 1990, Gaussian, Inc.),
 the Gaussian 88(TM) system (copyright 1988, Gaussian, Inc.),
 the Gaussian 86(TM) system (copyright 1986, Carnegie Mellon
 University), and the Gaussian 82(TM) system (copyright 1983,
 Carnegie Mellon University). Gaussian is a federally registered
 trademark of Gaussian, Inc.
  
 This software contains proprietary and confidential information,
 including trade secrets, belonging to Gaussian, Inc.
  
 This software is provided under written license and may be
 used, copied, transmitted, or stored only in accord with that
 written license.
  
 The following legend is applicable only to US Government
 contracts under FAR:
  
                    RESTRICTED RIGHTS LEGEND
  
 Use, reproduction and disclosure by the US Government is
 subject to restrictions as set forth in subparagraphs (a)
 and (c) of the Commercial Computer Software - Restricted
 Rights clause in FAR 52.227-19.
  
 Gaussian, Inc.
 340 Quinnipiac St., Bldg. 40, Wallingford CT 06492
  
  
 ---------------------------------------------------------------
 Warning -- This program may not be used in any manner that
 competes with the business of Gaussian, Inc. or will provide
 assistance to any competitor of Gaussian, Inc.  The licensee
 of this program is prohibited from giving any competitor of
 Gaussian, Inc. access to this program.  By using this program,
 the user acknowledges that Gaussian, Inc. is engaged in the
 business of creating and licensing software in the field of
 computational chemistry and represents and warrants to the
 licensee that it is not a competitor of Gaussian, Inc. and that
 it will not use this program in any manner prohibited above.
 ---------------------------------------------------------------
  

 Cite this work as:
 Gaussian 16, Revision C.01,
 M. J. Frisch, G. W. Trucks, H. B. Schlegel, G. E. Scuseria, 
 M. A. Robb, J. R. Cheeseman, G. Scalmani, V. Barone, 
 G. A. Petersson, H. Nakatsuji, X. Li, M. Caricato, A. V. Marenich, 
 J. Bloino, B. G. Janesko, R. Gomperts, B. Mennucci, H. P. Hratchian, 
 J. V. Ortiz, A. F. Izmaylov, J. L. Sonnenberg, D. Williams-Young, 
 F. Ding, F. Lipparini, F. Egidi, J. Goings, B. Peng, A. Petrone, 
 T. Henderson, D. Ranasinghe, V. G. Zakrzewski, J. Gao, N. Rega, 
 G. Zheng, W. Liang, M. Hada, M. Ehara, K. Toyota, R. Fukuda, 
 J. Hasegawa, M. Ishida, T. Nakajima, Y. Honda, O. Kitao, H. Nakai, 
 T. Vreven, K. Throssell, J. A. Montgomery, Jr., J. E. Peralta, 
 F. Ogliaro, M. J. Bearpark, J. J. Heyd, E. N. Brothers, K. N. Kudin, 
 V. N. Staroverov, T. A. Keith, R. Kobayashi, J. Normand, 
 K. Raghavachari, A. P. Rendell, J. C. Burant, S. S. Iyengar, 
 J. Tomasi, M. Cossi, J. M. Millam, M. Klene, C. Adamo, R. Cammi, 
 J. W. Ochterski, R. L. Martin, K. Morokuma, O. Farkas, 
 J. B. Foresman, and D. J. Fox, Gaussian, Inc., Wallingford CT, 2019.
 
 ******************************************
 Gaussian 16:  ES64L-G16RevC.01  3-Jul-2019
                30-Jul-2021 
 ******************************************
 %mem=8GB
 %NProcShare=8
 Will use up to    8 processors via shared memory.
 -----------------------------------------------------------
 #N RPBEPBE/Def2QZVPP scf=tight Int(Grid=ultrafine) OPT FREQ
 -----------------------------------------------------------
 1/18=20,19=15,26=4,38=1/1,3;
 2/9=110,12=2,17=6,18=5,40=1/2;
 3/5=45,7=202,11=2,25=1,30=1,71=1,74=1009,75=-5,116=1/1,2,3;
 4//1;
 5/5=2,32=2,38=5/2;
 6/7=2,8=2,9=2,10=2,28=1/1;
 7//1,2,3,16;
 1/18=20,19=15,26=4/3(2);
 2/9=110/2;
 99//99;
 2/9=110/2;
 3/5=45,7=202,11=2,25=1,30=1,71=1,74=1009,75=-5,116=1/1,2,3;
 4/5=5,16=3,69=1/1;
 5/5=2,32=2,38=5/2;
 7//1,2,3,16;
 1/18=20,19=15,26=4/3(-5);
 2/9=110/2;
 6/7=2,8=2,9=2,10=2,19=2,28=1/1;
 99/9=1/99;
 ---------
 Mol job 1
 ---------
 Symbolic Z-matrix:
 Charge =  0 Multiplicity = 1
 P                     11.18417   10.5      11.16941 
 K                     12.55252   8.12995   9.83059 
 K                     12.55252   12.87005   9.83059 
 K                     8.44748   10.5      9.83059 
 

 GradGradGradGradGradGradGradGradGradGradGradGradGradGradGradGradGradGrad
 Berny optimization.
 Initialization pass.
                           ----------------------------
                           !    Initial Parameters    !
                           ! (Angstroms and Degrees)  !
 --------------------------                            --------------------------
 ! Name  Definition              Value          Derivative Info.                !
 --------------------------------------------------------------------------------
 ! R1    R(1,2)                  3.0466         estimate D2E/DX2                !
 ! R2    R(1,3)                  3.0466         estimate D2E/DX2                !
 ! R3    R(1,4)                  3.0466         estimate D2E/DX2                !
 ! A1    A(2,1,3)              102.1421         estimate D2E/DX2                !
 ! A2    A(2,1,4)              102.1421         estimate D2E/DX2                !
 ! A3    A(3,1,4)              102.1421         estimate D2E/DX2                !
 ! D1    D(2,1,4,3)           -105.4479         estimate D2E/DX2                !
 --------------------------------------------------------------------------------
 Trust Radius=3.00D-01 FncErr=1.00D-07 GrdErr=1.00D-06 EigMax=2.50D+02 EigMin=1.00D-04
 Number of steps in this run=     20 maximum allowed number of steps=    100.
 GradGradGradGradGradGradGradGradGradGradGradGradGradGradGradGradGradGrad

                          Input orientation:                          
 ---------------------------------------------------------------------
 Center     Atomic      Atomic             Coordinates (Angstroms)
 Number     Number       Type             X           Y           Z
 ---------------------------------------------------------------------
      1         15           0       11.184174   10.500000   11.169407
      2         19           0       12.552522    8.129951    9.830593
      3         19           0       12.552522   12.870049    9.830593
      4         19           0        8.447478   10.500000    9.830593
 ---------------------------------------------------------------------
                    Distance matrix (angstroms):
                    1          2          3          4
     1  P    0.000000
     2  K    3.046626   0.000000
     3  K    3.046626   4.740097   0.000000
     4  K    3.046626   4.740097   4.740097   0.000000
 Stoichiometry    K3P
 Framework group  C3V[C3(P),3SGV(K)]
 Deg. of freedom     2
 Full point group                 C3V     NOp   6
 Largest Abelian subgroup         CS      NOp   2
 Largest concise Abelian subgroup CS      NOp   2
                         Standard orientation:                         
 ---------------------------------------------------------------------
 Center     Atomic      Atomic             Coordinates (Angstroms)
 Number     Number       Type             X           Y           Z
 ---------------------------------------------------------------------
      1         15           0        0.000000    0.000000    1.059895
      2         19           0        0.000000    2.736697   -0.278920
      3         19           0       -2.370049   -1.368348   -0.278920
      4         19           0        2.370049   -1.368348   -0.278920
 ---------------------------------------------------------------------
 Rotational constants (GHZ):           1.0493379           1.0493379           0.5772745
 Standard basis: def2QZVPP (5D, 7F)
 There are   198 symmetry adapted cartesian basis functions of A'  symmetry.
 There are   137 symmetry adapted cartesian basis functions of A"  symmetry.
 There are   163 symmetry adapted basis functions of A'  symmetry.
 There are   117 symmetry adapted basis functions of A"  symmetry.
   280 basis functions,   517 primitive gaussians,   335 cartesian basis functions
    36 alpha electrons       36 beta electrons
       nuclear repulsion energy       269.4118506226 Hartrees.
 NAtoms=    4 NActive=    4 NUniq=    2 SFac= 4.00D+00 NAtFMM=   60 NAOKFM=F Big=F
 Integral buffers will be    131072 words long.
 Raffenetti 2 integral format.
 Two-electron integral symmetry is turned on.
 One-electron integrals computed using PRISM.
   6 Symmetry operations used in ECPInt.
 ECPInt:  NShTT=    4465 NPrTT=   18164 LenC2=    4094 LenP2D=   12206.
 LDataN:  DoStor=T MaxTD1= 8 Len=  415
 NBasis=   280 RedAO= T EigKep=  4.16D-04  NBF=   163   117
 NBsUse=   280 1.00D-06 EigRej= -1.00D+00 NBFU=   163   117
 ExpMin= 1.53D-02 ExpMax= 2.02D+06 ExpMxC= 2.31D+03 IAcc=3 IRadAn=         5 AccDes= 0.00D+00
 Harris functional with IExCor= 1009 and IRadAn=       5 diagonalized for initial guess.
 HarFok:  IExCor= 1009 AccDes= 0.00D+00 IRadAn=         5 IDoV= 1 UseB2=F ITyADJ=14
 ICtDFT=  3500011 ScaDFX=  1.000000  1.000000  1.000000  1.000000
 FoFCou: FMM=F IPFlag=           0 FMFlag=      100000 FMFlg1=           0
         NFxFlg=           0 DoJE=T BraDBF=F KetDBF=T FulRan=T
         wScrn=  0.000000 ICntrl=       500 IOpCl=  0 I1Cent=   200000004 NGrid=           0
         NMat0=    1 NMatS0=      1 NMatT0=    0 NMatD0=    1 NMtDS0=    0 NMtDT0=    0
 Petite list used in FoFCou.
 Initial guess orbital symmetries:
       Occupied  (E) (E) (A1) (A1) (E) (E) (A1) (E) (E) (A1) (A2)
                 (E) (E) (E) (E) (A1) (A1) (E) (E) (A1) (A1) (E)
                 (E) (A1) (E) (E) (E) (E) (A1) (A2) (E) (E) (A1)
                 (E) (E) (A1)
       Virtual   (A1) (E) (E) (A1) (E) (E) (A1) (E) (E) (A1) (E)
                 (E) (A2) (E) (E) (A1) (E) (E) (A1) (E) (E) (A1)
                 (E) (E) (E) (E) (A2) (A1) (E) (E) (A2) (A1) (E)
                 (E) (E) (E) (E) (E) (A2) (A1) (E) (E) (E) (E)
                 (A1) (A1) (E) (E) (E) (E) (A2) (E) (E) (A1) (A1)
                 (A1) (E) (E) (E) (E) (A1) (A2) (A1) (E) (E) (E)
                 (E) (E) (E) (E) (E) (A2) (A1) (E) (E) (A1) (A2)
                 (E) (E) (E) (E) (A2) (E) (E) (A1) (E) (E) (A1)
                 (E) (E) (E) (E) (A1) (E) (E) (A2) (A1) (A1) (E)
                 (E) (E) (E) (A2) (E) (E) (E) (E) (A1) (A2) (A1)
                 (E) (E) (E) (E) (E) (E) (A2) (E) (E) (A1) (A1)
                 (E) (E) (A1) (E) (E) (A1) (E) (E) (A2) (E) (E)
                 (A1) (E) (E) (A1) (E) (E) (A1) (E) (E) (A1) (E)
                 (E) (A1) (E) (E) (A1) (A2) (E) (E) (A2) (E) (E)
                 (A1) (E) (E) (A2) (E) (E) (A1) (E) (E) (E) (E)
                 (A1) (E) (E) (A2) (E) (E) (A1) (E) (E) (A1) (E)
                 (E) (A2) (E) (E) (A1) (A1) (E) (E) (E) (E) (A2)
                 (A2) (E) (E) (E) (E) (A1) (E) (E) (A1) (A1) (E)
                 (E) (A1) (E) (E) (A1) (A1) (E) (E) (E) (E) (A1)
                 (E) (E) (A1) (E) (E) (A2) (E) (E) (A1) (E) (E)
                 (A2) (E) (E) (E) (E) (A2) (A1) (E) (E) (A1) (E)
                 (E) (A1) (E) (E) (A1) (A1) (E) (E) (A1) (A1) (E)
                 (E) (A1)
 The electronic state of the initial guess is 1-A1.
 Requested convergence on RMS density matrix=1.00D-08 within 128 cycles.
 Requested convergence on MAX density matrix=1.00D-06.
 Requested convergence on             energy=1.00D-06.
 No special actions if energy rises.
 Rare condition: small coef for last iteration:  0.000D+00
 SCF Done:  E(RPBE-PBE) =  -2140.38186223     A.U. after   16 cycles
            NFock= 16  Conv=0.27D-08     -V/T= 2.0022

 **********************************************************************

            Population analysis using the SCF Density.

 **********************************************************************

 Orbital symmetries:
       Occupied  (E) (E) (A1) (A1) (E) (E) (A1) (E) (E) (A2) (E)
                 (E) (A1) (E) (E) (A1) (A1) (A1) (E) (E) (A1) (E)
                 (E) (E) (E) (A1) (A2) (E) (E) (A1) (E) (E) (A1)
                 (E) (E) (A1)
       Virtual   (A1) (E) (E) (A1) (E) (E) (A1) (E) (E) (A2) (E)
                 (E) (A1) (A1) (E) (E) (E) (E) (A1) (E) (E) (A1)
                 (E) (E) (A2) (E) (E) (E) (E) (A2) (A1) (E) (E)
                 (A1) (E) (E) (E) (E) (A2) (A1) (E) (E) (A1) (E)
                 (E) (A2) (A1) (E) (E) (E) (E) (A1) (E) (E) (A1)
                 (E) (E) (A2) (E) (E) (A1) (A1) (E) (E) (E) (E)
                 (A1) (A2) (E) (E) (E) (E) (A1) (E) (E) (A2) (A1)
                 (E) (E) (E) (E) (A2) (E) (E) (E) (E) (A1) (E)
                 (E) (A1) (E) (E) (A2) (A1) (E) (E) (A1) (E) (E)
                 (A1) (E) (E) (A2) (E) (E) (A1) (E) (E) (A2) (E)
                 (E) (E) (E) (A2) (A1) (E) (E) (A1) (E) (E) (E)
                 (E) (A1) (A1) (E) (E) (A1) (E) (E) (A2) (E) (E)
                 (A1) (E) (E) (A1) (E) (E) (A1) (A1) (E) (E) (E)
                 (E) (A1) (A2) (E) (E) (E) (E) (A1) (A2) (E) (E)
                 (E) (E) (A1) (A2) (E) (E) (A1) (E) (E) (E) (E)
                 (A1) (E) (E) (A2) (E) (E) (A1) (E) (E) (A1) (E)
                 (E) (A2) (E) (E) (A1) (E) (E) (E) (E) (A2) (A1)
                 (E) (E) (A2) (E) (E) (A1) (E) (E) (A1) (A1) (E)
                 (E) (A1) (E) (E) (A1) (A1) (E) (E) (E) (E) (E)
                 (E) (A1) (A1) (E) (E) (A2) (E) (E) (E) (E) (A1)
                 (A2) (E) (E) (E) (E) (A2) (A1) (E) (E) (A1) (E)
                 (E) (A1) (E) (E) (A1) (A1) (E) (E) (A1) (A1) (E)
                 (E) (A1)
 The electronic state is 1-A1.
 Alpha  occ. eigenvalues -- -128.79651-128.79651-128.79651 -76.16787 -12.84615
 Alpha  occ. eigenvalues --  -12.84615 -12.84615 -10.25452 -10.25452 -10.25452
 Alpha  occ. eigenvalues --  -10.25452 -10.25452 -10.25452 -10.25449 -10.25449
 Alpha  occ. eigenvalues --  -10.25449  -6.17255  -4.38906  -4.38714  -4.38714
 Alpha  occ. eigenvalues --   -1.24366  -1.24363  -1.24363  -0.64990  -0.64990
 Alpha  occ. eigenvalues --   -0.64976  -0.64962  -0.64958  -0.64958  -0.64661
 Alpha  occ. eigenvalues --   -0.64548  -0.64548  -0.35711  -0.08931  -0.08931
 Alpha  occ. eigenvalues --   -0.08642
 Alpha virt. eigenvalues --   -0.05715  -0.04125  -0.04125  -0.01540  -0.01345
 Alpha virt. eigenvalues --   -0.01345   0.00101   0.00119   0.00119   0.01085
 Alpha virt. eigenvalues --    0.01611   0.01611   0.03034   0.03903   0.03971
 Alpha virt. eigenvalues --    0.03971   0.04568   0.04568   0.04822   0.05553
 Alpha virt. eigenvalues --    0.05553   0.05873   0.06157   0.06157   0.06266
 Alpha virt. eigenvalues --    0.06734   0.06734   0.08451   0.08451   0.09134
 Alpha virt. eigenvalues --    0.09163   0.09732   0.09732   0.12690   0.13015
 Alpha virt. eigenvalues --    0.13015   0.14429   0.14429   0.15800   0.17408
 Alpha virt. eigenvalues --    0.18728   0.18728   0.19070   0.20343   0.20343
 Alpha virt. eigenvalues --    0.21143   0.21447   0.21503   0.21503   0.22252
 Alpha virt. eigenvalues --    0.22252   0.22742   0.23401   0.23401   0.24182
 Alpha virt. eigenvalues --    0.24267   0.24267   0.24657   0.24797   0.24797
 Alpha virt. eigenvalues --    0.25106   0.25390   0.26260   0.26260   0.27186
 Alpha virt. eigenvalues --    0.27186   0.28015   0.28136   0.28332   0.28332
 Alpha virt. eigenvalues --    0.29758   0.29758   0.31387   0.32603   0.32603
 Alpha virt. eigenvalues --    0.32822   0.34458   0.35007   0.35007   0.36615
 Alpha virt. eigenvalues --    0.36615   0.40386   0.41537   0.41537   0.44905
 Alpha virt. eigenvalues --    0.44905   0.45394   0.46593   0.46593   0.46801
 Alpha virt. eigenvalues --    0.49108   0.49108   0.51707   0.53278   0.53281
 Alpha virt. eigenvalues --    0.53281   0.64040   0.65834   0.65834   0.67198
 Alpha virt. eigenvalues --    0.67451   0.67451   0.73216   0.76309   0.76309
 Alpha virt. eigenvalues --    0.80413   0.80664   0.80664   0.81101   0.82411
 Alpha virt. eigenvalues --    0.82411   0.83143   0.83143   0.84324   0.86539
 Alpha virt. eigenvalues --    0.88216   0.88216   0.92093   0.94314   0.94314
 Alpha virt. eigenvalues --    0.96285   0.96285   0.97880   1.05640   1.05663
 Alpha virt. eigenvalues --    1.05663   1.07793   1.08723   1.08723   1.10607
 Alpha virt. eigenvalues --    1.11427   1.11427   1.14146   1.20037   1.20037
 Alpha virt. eigenvalues --    1.31436   1.34361   1.34361   1.58458   2.10160
 Alpha virt. eigenvalues --    2.10199   2.10199   2.10498   2.10498   2.10529
 Alpha virt. eigenvalues --    2.10822   2.11278   2.11278   2.11718   2.11718
 Alpha virt. eigenvalues --    2.11720   2.12153   2.12707   2.12707   2.14025
 Alpha virt. eigenvalues --    2.14025   2.15602   2.15722   2.19416   2.19416
 Alpha virt. eigenvalues --    2.33575   2.35490   2.35490   2.39027   2.39027
 Alpha virt. eigenvalues --    2.64036   2.64082   2.64082   2.64301   2.64339
 Alpha virt. eigenvalues --    2.64339   2.65292   2.67297   2.67297   2.71820
 Alpha virt. eigenvalues --    2.76566   2.76566   2.78323   2.87653   2.87653
 Alpha virt. eigenvalues --    2.87959   2.88312   2.88312   2.88392   2.88392
 Alpha virt. eigenvalues --    2.88695   2.93611   2.93984   2.93984   2.94185
 Alpha virt. eigenvalues --    2.94600   2.94600   2.94901   3.02635   3.02635
 Alpha virt. eigenvalues --    3.05059   3.61897   3.68275   3.68275   4.04975
 Alpha virt. eigenvalues --    4.09968   4.09968   5.66487   7.14517   7.15641
 Alpha virt. eigenvalues --    7.15641   7.20563   7.20563   7.36786   7.36786
 Alpha virt. eigenvalues --    7.36786   7.36940   7.36990   7.36990   7.37152
 Alpha virt. eigenvalues --    7.37536   7.37536   7.37912   7.37912   7.37984
 Alpha virt. eigenvalues --    7.37997   7.38672   7.38672   7.39102   7.39102
 Alpha virt. eigenvalues --    7.39861   7.42744   7.44870   7.44870  14.19947
 Alpha virt. eigenvalues --   14.24527  14.24527  17.42394  17.48115  17.48115
 Alpha virt. eigenvalues --   19.84391  49.17800  49.21951  49.21951  69.90064
 Alpha virt. eigenvalues --  341.12671 341.19694 341.19694 380.00566
          Condensed to atoms (all electrons):
               1          2          3          4
     1  P   15.144256   0.257977   0.257977   0.257977
     2  K    0.257977  18.436166  -0.000103  -0.000103
     3  K    0.257977  -0.000103  18.436166  -0.000103
     4  K    0.257977  -0.000103  -0.000103  18.436166
 Mulliken charges:
               1
     1  P   -0.918188
     2  K    0.306063
     3  K    0.306063
     4  K    0.306063
 Sum of Mulliken charges =  -0.00000
 Mulliken charges with hydrogens summed into heavy atoms:
               1
     1  P   -0.918188
     2  K    0.306063
     3  K    0.306063
     4  K    0.306063
 Electronic spatial extent (au):  <R**2>=           1711.7689
 Charge=             -0.0000 electrons
 Dipole moment (field-independent basis, Debye):
    X=              0.0000    Y=              0.0000    Z=             -4.8336  Tot=              4.8336
 Quadrupole moment (field-independent basis, Debye-Ang):
   XX=            -39.1608   YY=            -39.1608   ZZ=            -71.3325
   XY=              0.0000   XZ=             -0.0000   YZ=              0.0000
 Traceless Quadrupole moment (field-independent basis, Debye-Ang):
   XX=             10.7239   YY=             10.7239   ZZ=            -21.4478
   XY=              0.0000   XZ=             -0.0000   YZ=              0.0000
 Octapole moment (field-independent basis, Debye-Ang**2):
  XXX=              0.0000  YYY=             40.6824  ZZZ=            -15.4974  XYY=              0.0000
  XXY=            -40.6824  XXZ=             -6.0079  XZZ=              0.0000  YZZ=              0.0000
  YYZ=             -6.0079  XYZ=             -0.0000
 Hexadecapole moment (field-independent basis, Debye-Ang**3):
 XXXX=           -983.5253 YYYY=           -983.5253 ZZZZ=           -373.6587 XXXY=             -0.0000
 XXXZ=              0.0000 YYYX=              0.0000 YYYZ=              0.9105 ZZZX=             -0.0000
 ZZZY=             -0.0000 XXYY=           -327.8418 XXZZ=           -254.0449 YYZZ=           -254.0449
 XXYZ=             -0.9105 YYXZ=             -0.0000 ZZXY=              0.0000
 N-N= 2.694118506226D+02 E-N=-5.622778068423D+03  KE= 2.135741855812D+03
 Symmetry A'   KE= 1.443618399561D+03
 Symmetry A"   KE= 6.921234562510D+02
   6 Symmetry operations used in ECPInt.
 ECPInt:  NShTT=    4465 NPrTT=   18164 LenC2=    4094 LenP2D=   12206.
 LDataN:  DoStor=T MaxTD1= 9 Len=  602
 Calling FoFJK, ICntrl=      2527 FMM=F ISym2X=1 I1Cent= 0 IOpClX= 0 NMat=1 NMatS=1 NMatT=0.
 ***** Axes restored to original set *****
 -------------------------------------------------------------------
 Center     Atomic                   Forces (Hartrees/Bohr)
 Number     Number              X              Y              Z
 -------------------------------------------------------------------
      1       15           0.000000000   -0.000000000   -0.007267788
      2       19          -0.002367636    0.004100865    0.002422596
      3       19          -0.002367636   -0.004100865    0.002422596
      4       19           0.004735271   -0.000000000    0.002422596
 -------------------------------------------------------------------
 Cartesian Forces:  Max     0.007267788 RMS     0.003387428

 GradGradGradGradGradGradGradGradGradGradGradGradGradGradGradGradGradGrad
 Berny optimization.
 FormGI is forming the generalized inverse of G from B-inverse, IUseBI=4.
 Internal  Forces:  Max     0.005318147 RMS     0.003489288
 Search for a local minimum.
 Step number   1 out of a maximum of   20
 All quantities printed in internal units (Hartrees-Bohrs-Radians)
 Mixed Optimization -- RFO/linear search
 Second derivative matrix not updated -- first step.
 The second derivative matrix:
                          R1        R2        R3        A1        A2
           R1           0.02849
           R2           0.00000   0.02849
           R3           0.00000   0.00000   0.02849
           A1           0.00000   0.00000   0.00000   0.25000
           A2           0.00000   0.00000   0.00000   0.00000   0.25000
           A3           0.00000   0.00000   0.00000   0.00000   0.00000
           D1           0.00000   0.00000   0.00000   0.00000   0.00000
                          A3        D1
           A3           0.25000
           D1           0.00000   0.00230
 ITU=  0
     Eigenvalues ---    0.02849   0.02849   0.02849   0.11066   0.25000
     Eigenvalues ---    0.25000
 RFO step:  Lambda=-2.72080881D-03 EMin= 2.84914927D-02
 Linear search not attempted -- first point.
 Iteration  1 RMS(Cart)=  0.10143955 RMS(Int)=  0.00004857
 Iteration  2 RMS(Cart)=  0.00010375 RMS(Int)=  0.00000173
 Iteration  3 RMS(Cart)=  0.00000000 RMS(Int)=  0.00000173
 ClnCor:  largest displacement from symmetrization is 7.56D-05 for atom     4.
 Variable       Old X    -DE/DX   Delta X   Delta X   Delta X     New X
                                 (Linear)    (Quad)   (Total)
    R1        5.75729  -0.00532   0.00000  -0.17039  -0.17041   5.58688
    R2        5.75729  -0.00532   0.00000  -0.17039  -0.17041   5.58688
    R3        5.75729  -0.00532   0.00000  -0.17039  -0.17041   5.58688
    A1        1.78272   0.00011   0.00000   0.00173   0.00176   1.78447
    A2        1.78272   0.00036   0.00000   0.00178   0.00176   1.78447
    A3        1.78272   0.00036   0.00000   0.00178   0.00176   1.78447
    D1       -1.84041  -0.00032   0.00000  -0.00284  -0.00286  -1.84328
         Item               Value     Threshold  Converged?
 Maximum Force            0.005318     0.000450     NO 
 RMS     Force            0.003489     0.000300     NO 
 Maximum Displacement     0.149513     0.001800     NO 
 RMS     Displacement     0.101507     0.001200     NO 
 Predicted change in Energy=-1.478941D-03
 GradGradGradGradGradGradGradGradGradGradGradGradGradGradGradGradGradGrad

                          Input orientation:                          
 ---------------------------------------------------------------------
 Center     Atomic      Atomic             Coordinates (Angstroms)
 Number     Number       Type             X           Y           Z
 ---------------------------------------------------------------------
      1         15           0       11.184174   10.500000   11.136794
      2         19           0       12.512963    8.198470    9.841460
      3         19           0       12.512963   12.801530    9.841460
      4         19           0        8.526596   10.500000    9.841460
 ---------------------------------------------------------------------
                    Distance matrix (angstroms):
                    1          2          3          4
     1  P    0.000000
     2  K    2.956452   0.000000
     3  K    2.956452   4.603060   0.000000
     4  K    2.956452   4.603060   4.603060   0.000000
 Stoichiometry    K3P
 Framework group  C3V[C3(P),3SGV(K)]
 Deg. of freedom     2
 Full point group                 C3V     NOp   6
 Largest Abelian subgroup         CS      NOp   2
 Largest concise Abelian subgroup CS      NOp   2
                         Standard orientation:                         
 ---------------------------------------------------------------------
 Center     Atomic      Atomic             Coordinates (Angstroms)
 Number     Number       Type             X           Y           Z
 ---------------------------------------------------------------------
      1         15           0        0.000000    0.000000    1.025472
      2         19           0        0.000000    2.657578   -0.269861
      3         19           0       -2.301530   -1.328789   -0.269861
      4         19           0        2.301530   -1.328789   -0.269861
 ---------------------------------------------------------------------
 Rotational constants (GHZ):           1.1134918           1.1134918           0.6121583
 Standard basis: def2QZVPP (5D, 7F)
 There are   198 symmetry adapted cartesian basis functions of A'  symmetry.
 There are   137 symmetry adapted cartesian basis functions of A"  symmetry.
 There are   163 symmetry adapted basis functions of A'  symmetry.
 There are   117 symmetry adapted basis functions of A"  symmetry.
   280 basis functions,   517 primitive gaussians,   335 cartesian basis functions
    36 alpha electrons       36 beta electrons
       nuclear repulsion energy       277.5409136615 Hartrees.
 NAtoms=    4 NActive=    4 NUniq=    2 SFac= 4.00D+00 NAtFMM=   60 NAOKFM=F Big=F
 Integral buffers will be    131072 words long.
 Raffenetti 2 integral format.
 Two-electron integral symmetry is turned on.
 One-electron integrals computed using PRISM.
   6 Symmetry operations used in ECPInt.
 ECPInt:  NShTT=    4465 NPrTT=   18164 LenC2=    4118 LenP2D=   12338.
 LDataN:  DoStor=T MaxTD1= 8 Len=  415
 NBasis=   280 RedAO= T EigKep=  3.56D-04  NBF=   163   117
 NBsUse=   280 1.00D-06 EigRej= -1.00D+00 NBFU=   163   117
 Initial guess from the checkpoint file:  "/data/hutter/SMG16/PBE/Gau-47318.chk"
 B after Tr=    -0.000000    0.000000   -0.000000
         Rot=    1.000000   -0.000000   -0.000000    0.000000 Ang=   0.00 deg.
 Initial guess orbital symmetries:
       Occupied  (E) (E) (A1) (A1) (E) (E) (A1) (E) (E) (A2) (E)
                 (E) (A1) (E) (E) (A1) (A1) (A1) (E) (E) (A1) (E)
                 (E) (E) (E) (A1) (A2) (E) (E) (A1) (E) (E) (A1)
                 (E) (E) (A1)
       Virtual   (A1) (E) (E) (A1) (E) (E) (A1) (E) (E) (A2) (E)
                 (E) (A1) (A1) (E) (E) (E) (E) (A1) (E) (E) (A1)
                 (E) (E) (A2) (E) (E) (E) (E) (A2) (A1) (E) (E)
                 (A1) (E) (E) (E) (E) (A2) (A1) (E) (E) (A1) (E)
                 (E) (A2) (A1) (E) (E) (E) (E) (A1) (E) (E) (A1)
                 (E) (E) (A2) (E) (E) (A1) (A1) (E) (E) (E) (E)
                 (A1) (A2) (E) (E) (E) (E) (A1) (E) (E) (A2) (A1)
                 (E) (E) (E) (E) (A2) (E) (E) (E) (E) (A1) (E)
                 (E) (A1) (E) (E) (A2) (A1) (E) (E) (A1) (E) (E)
                 (A1) (E) (E) (A2) (E) (E) (A1) (E) (E) (A2) (E)
                 (E) (E) (E) (A2) (A1) (E) (E) (A1) (E) (E) (E)
                 (E) (A1) (A1) (E) (E) (A1) (E) (E) (A2) (E) (E)
                 (A1) (E) (E) (A1) (E) (E) (A1) (A1) (E) (E) (E)
                 (E) (A1) (A2) (E) (E) (E) (E) (A1) (A2) (E) (E)
                 (E) (E) (A1) (A2) (E) (E) (A1) (E) (E) (E) (E)
                 (A1) (E) (E) (A2) (E) (E) (A1) (E) (E) (A1) (E)
                 (E) (A2) (E) (E) (A1) (E) (E) (E) (E) (A2) (A1)
                 (E) (E) (A2) (E) (E) (A1) (E) (E) (A1) (A1) (E)
                 (E) (A1) (E) (E) (A1) (A1) (E) (E) (E) (E) (E)
                 (E) (A1) (A1) (E) (E) (A2) (E) (E) (E) (E) (A1)
                 (A2) (E) (E) (E) (E) (A2) (A1) (E) (E) (A1) (E)
                 (E) (A1) (E) (E) (A1) (A1) (E) (E) (A1) (A1) (E)
                 (E) (A1)
 ExpMin= 1.53D-02 ExpMax= 2.02D+06 ExpMxC= 2.31D+03 IAcc=3 IRadAn=         5 AccDes= 0.00D+00
 Harris functional with IExCor= 1009 and IRadAn=       5 diagonalized for initial guess.
 HarFok:  IExCor= 1009 AccDes= 0.00D+00 IRadAn=         5 IDoV= 1 UseB2=F ITyADJ=14
 ICtDFT=  3500011 ScaDFX=  1.000000  1.000000  1.000000  1.000000
 FoFCou: FMM=F IPFlag=           0 FMFlag=      100000 FMFlg1=           0
         NFxFlg=           0 DoJE=T BraDBF=F KetDBF=T FulRan=T
         wScrn=  0.000000 ICntrl=       500 IOpCl=  0 I1Cent=   200000004 NGrid=           0
         NMat0=    1 NMatS0=      1 NMatT0=    0 NMatD0=    1 NMtDS0=    0 NMtDT0=    0
 Petite list used in FoFCou.
 Requested convergence on RMS density matrix=1.00D-08 within 128 cycles.
 Requested convergence on MAX density matrix=1.00D-06.
 Requested convergence on             energy=1.00D-06.
 No special actions if energy rises.
 SCF Done:  E(RPBE-PBE) =  -2140.38350029     A.U. after   10 cycles
            NFock= 10  Conv=0.51D-08     -V/T= 2.0021
   6 Symmetry operations used in ECPInt.
 ECPInt:  NShTT=    4465 NPrTT=   18164 LenC2=    4118 LenP2D=   12338.
 LDataN:  DoStor=T MaxTD1= 9 Len=  602
 Calling FoFJK, ICntrl=      2527 FMM=F ISym2X=1 I1Cent= 0 IOpClX= 0 NMat=1 NMatS=1 NMatT=0.
 ***** Axes restored to original set *****
 -------------------------------------------------------------------
 Center     Atomic                   Forces (Hartrees/Bohr)
 Number     Number              X              Y              Z
 -------------------------------------------------------------------
      1       15          -0.000000000    0.000000000   -0.002517530
      2       19          -0.000267422    0.000463188    0.000839177
      3       19          -0.000267422   -0.000463188    0.000839177
      4       19           0.000534844    0.000000000    0.000839177
 -------------------------------------------------------------------
 Cartesian Forces:  Max     0.002517530 RMS     0.000880757

 GradGradGradGradGradGradGradGradGradGradGradGradGradGradGradGradGradGrad
 Berny optimization.
 Using GEDIIS/GDIIS optimizer.
 FormGI is forming the generalized inverse of G from B-inverse, IUseBI=4.
 Internal  Forces:  Max     0.001913080 RMS     0.001349809
 Search for a local minimum.
 Step number   2 out of a maximum of   20
 All quantities printed in internal units (Hartrees-Bohrs-Radians)
 Mixed Optimization -- RFO/linear search
 Update second derivatives using D2CorX and points    1    2
 DE= -1.64D-03 DEPred=-1.48D-03 R= 1.11D+00
 TightC=F SS=  1.41D+00  RLast= 2.95D-01 DXNew= 5.0454D-01 8.8554D-01
 Trust test= 1.11D+00 RLast= 2.95D-01 DXMaxT set to 5.05D-01
 The second derivative matrix:
                          R1        R2        R3        A1        A2
           R1           0.02779
           R2          -0.00071   0.02779
           R3          -0.00071  -0.00071   0.02779
           A1           0.00179   0.00179   0.00179   0.25002
           A2           0.00391   0.00391   0.00391   0.00024   0.25098
           A3           0.00391   0.00391   0.00391   0.00024   0.00098
           D1          -0.00275  -0.00275  -0.00275  -0.00029  -0.00095
                          A3        D1
           A3           0.25098
           D1          -0.00095   0.00315
 ITU=  1  0
 Use linear search instead of GDIIS.
     Eigenvalues ---    0.02542   0.02849   0.02849   0.11245   0.25000
     Eigenvalues ---    0.25178
 RFO step:  Lambda=-8.85124228D-05 EMin= 2.54203445D-02
 Quartic linear search produced a step of  0.16736.
 Iteration  1 RMS(Cart)=  0.02050733 RMS(Int)=  0.00018911
 Iteration  2 RMS(Cart)=  0.00025106 RMS(Int)=  0.00007033
 Iteration  3 RMS(Cart)=  0.00000002 RMS(Int)=  0.00007033
 ClnCor:  largest displacement from symmetrization is 3.70D-04 for atom     4.
 Variable       Old X    -DE/DX   Delta X   Delta X   Delta X     New X
                                 (Linear)    (Quad)   (Total)
    R1        5.58688  -0.00085  -0.02852  -0.00472  -0.03334   5.55355
    R2        5.58688  -0.00085  -0.02852  -0.00472  -0.03334   5.55355
    R3        5.58688  -0.00085  -0.02852  -0.00472  -0.03334   5.55355
    A1        1.78447   0.00058   0.00029   0.01078   0.01108   1.79555
    A2        1.78447   0.00191   0.00029   0.01091   0.01108   1.79555
    A3        1.78447   0.00191   0.00029   0.01091   0.01108   1.79555
    D1       -1.84328  -0.00171  -0.00048  -0.01769  -0.01838  -1.86166
         Item               Value     Threshold  Converged?
 Maximum Force            0.001913     0.000450     NO 
 RMS     Force            0.001350     0.000300     NO 
 Maximum Displacement     0.045569     0.001800     NO 
 RMS     Displacement     0.020514     0.001200     NO 
 Predicted change in Energy=-8.960319D-05
 GradGradGradGradGradGradGradGradGradGradGradGradGradGradGradGradGradGrad

                          Input orientation:                          
 ---------------------------------------------------------------------
 Center     Atomic      Atomic             Coordinates (Angstroms)
 Number     Number       Type             X           Y           Z
 ---------------------------------------------------------------------
      1         15           0       11.184174   10.500000   11.112680
      2         19           0       12.510913    8.202021    9.849481
      3         19           0       12.510913   12.797979    9.849481
      4         19           0        8.530697   10.500000    9.849481
 ---------------------------------------------------------------------
                    Distance matrix (angstroms):
                    1          2          3          4
     1  P    0.000000
     2  K    2.938811   0.000000
     3  K    2.938811   4.595957   0.000000
     4  K    2.938811   4.595957   4.595957   0.000000
 Stoichiometry    K3P
 Framework group  C3V[C3(P),3SGV(K)]
 Deg. of freedom     2
 Full point group                 C3V     NOp   6
 Largest Abelian subgroup         CS      NOp   2
 Largest concise Abelian subgroup CS      NOp   2
                         Standard orientation:                         
 ---------------------------------------------------------------------
 Center     Atomic      Atomic             Coordinates (Angstroms)
 Number     Number       Type             X           Y           Z
 ---------------------------------------------------------------------
      1         15           0        0.000000    0.000000    1.000032
      2         19           0        0.000000    2.653477   -0.263166
      3         19           0       -2.297979   -1.326739   -0.263166
      4         19           0        2.297979   -1.326739   -0.263166
 ---------------------------------------------------------------------
 Rotational constants (GHZ):           1.1216122           1.1216122           0.6140518
 Standard basis: def2QZVPP (5D, 7F)
 There are   198 symmetry adapted cartesian basis functions of A'  symmetry.
 There are   137 symmetry adapted cartesian basis functions of A"  symmetry.
 There are   163 symmetry adapted basis functions of A'  symmetry.
 There are   117 symmetry adapted basis functions of A"  symmetry.
   280 basis functions,   517 primitive gaussians,   335 cartesian basis functions
    36 alpha electrons       36 beta electrons
       nuclear repulsion energy       278.6519404415 Hartrees.
 NAtoms=    4 NActive=    4 NUniq=    2 SFac= 4.00D+00 NAtFMM=   60 NAOKFM=F Big=F
 Integral buffers will be    131072 words long.
 Raffenetti 2 integral format.
 Two-electron integral symmetry is turned on.
 One-electron integrals computed using PRISM.
   6 Symmetry operations used in ECPInt.
 ECPInt:  NShTT=    4465 NPrTT=   18164 LenC2=    4124 LenP2D=   12359.
 LDataN:  DoStor=T MaxTD1= 8 Len=  415
 NBasis=   280 RedAO= T EigKep=  3.52D-04  NBF=   163   117
 NBsUse=   280 1.00D-06 EigRej= -1.00D+00 NBFU=   163   117
 Initial guess from the checkpoint file:  "/data/hutter/SMG16/PBE/Gau-47318.chk"
 B after Tr=     0.000000   -0.000000   -0.000000
         Rot=    1.000000    0.000000    0.000000   -0.000000 Ang=   0.00 deg.
 Initial guess orbital symmetries:
       Occupied  (E) (E) (A1) (A1) (E) (E) (A1) (E) (E) (A1) (A2)
                 (E) (E) (E) (E) (A1) (A1) (A1) (E) (E) (A1) (E)
                 (E) (E) (E) (A1) (A2) (E) (E) (A1) (E) (E) (A1)
                 (E) (E) (A1)
       Virtual   (A1) (E) (E) (A1) (E) (E) (A1) (E) (E) (A2) (E)
                 (E) (A1) (A1) (E) (E) (E) (E) (A1) (E) (E) (A1)
                 (E) (E) (A2) (E) (E) (E) (E) (A2) (A1) (E) (E)
                 (A1) (E) (E) (E) (E) (A2) (A1) (E) (E) (A1) (E)
                 (E) (A2) (A1) (E) (E) (E) (E) (A1) (E) (E) (A1)
                 (E) (E) (A2) (E) (E) (A1) (A1) (E) (E) (E) (E)
                 (A2) (A1) (E) (E) (E) (E) (A1) (E) (E) (A2) (A1)
                 (E) (E) (E) (E) (A2) (E) (E) (E) (E) (A1) (E)
                 (E) (A1) (E) (E) (A2) (A1) (E) (E) (A1) (E) (E)
                 (E) (E) (A1) (A2) (E) (E) (A1) (E) (E) (A2) (E)
                 (E) (E) (E) (A2) (A1) (E) (E) (A1) (E) (E) (E)
                 (E) (A1) (A1) (E) (E) (A1) (E) (E) (A2) (E) (E)
                 (A1) (E) (E) (A1) (E) (E) (A1) (A1) (E) (E) (E)
                 (E) (A1) (A2) (E) (E) (A1) (E) (E) (A2) (E) (E)
                 (E) (E) (A2) (A1) (E) (E) (A1) (E) (E) (E) (E)
                 (A1) (E) (E) (E) (E) (A2) (A1) (E) (E) (A1) (E)
                 (E) (A2) (E) (E) (A1) (E) (E) (E) (E) (A2) (A1)
                 (E) (E) (A2) (E) (E) (A1) (E) (E) (A1) (A1) (E)
                 (E) (A1) (E) (E) (A1) (A1) (E) (E) (E) (E) (A1)
                 (E) (E) (A1) (E) (E) (A2) (E) (E) (E) (E) (A2)
                 (A1) (E) (E) (E) (E) (A2) (A1) (E) (E) (A1) (E)
                 (E) (A1) (E) (E) (A1) (A1) (E) (E) (A1) (A1) (E)
                 (E) (A1)
 ExpMin= 1.53D-02 ExpMax= 2.02D+06 ExpMxC= 2.31D+03 IAcc=3 IRadAn=         5 AccDes= 0.00D+00
 Harris functional with IExCor= 1009 and IRadAn=       5 diagonalized for initial guess.
 HarFok:  IExCor= 1009 AccDes= 0.00D+00 IRadAn=         5 IDoV= 1 UseB2=F ITyADJ=14
 ICtDFT=  3500011 ScaDFX=  1.000000  1.000000  1.000000  1.000000
 FoFCou: FMM=F IPFlag=           0 FMFlag=      100000 FMFlg1=           0
         NFxFlg=           0 DoJE=T BraDBF=F KetDBF=T FulRan=T
         wScrn=  0.000000 ICntrl=       500 IOpCl=  0 I1Cent=   200000004 NGrid=           0
         NMat0=    1 NMatS0=      1 NMatT0=    0 NMatD0=    1 NMtDS0=    0 NMtDT0=    0
 Petite list used in FoFCou.
 Requested convergence on RMS density matrix=1.00D-08 within 128 cycles.
 Requested convergence on MAX density matrix=1.00D-06.
 Requested convergence on             energy=1.00D-06.
 No special actions if energy rises.
 SCF Done:  E(RPBE-PBE) =  -2140.38362036     A.U. after    9 cycles
            NFock=  9  Conv=0.14D-08     -V/T= 2.0021
   6 Symmetry operations used in ECPInt.
 ECPInt:  NShTT=    4465 NPrTT=   18164 LenC2=    4124 LenP2D=   12359.
 LDataN:  DoStor=T MaxTD1= 9 Len=  602
 Calling FoFJK, ICntrl=      2527 FMM=F ISym2X=1 I1Cent= 0 IOpClX= 0 NMat=1 NMatS=1 NMatT=0.
 ***** Axes restored to original set *****
 -------------------------------------------------------------------
 Center     Atomic                   Forces (Hartrees/Bohr)
 Number     Number              X              Y              Z
 -------------------------------------------------------------------
      1       15           0.000000000   -0.000000000   -0.001327485
      2       19           0.000127347   -0.000220572    0.000442495
      3       19           0.000127347    0.000220572    0.000442495
      4       19          -0.000254694    0.000000000    0.000442495
 -------------------------------------------------------------------
 Cartesian Forces:  Max     0.001327485 RMS     0.000460455

 GradGradGradGradGradGradGradGradGradGradGradGradGradGradGradGradGradGrad
 Berny optimization.
 Using GEDIIS/GDIIS optimizer.
 FormGI is forming the generalized inverse of G from B-inverse, IUseBI=4.
 Internal  Forces:  Max     0.001842418 RMS     0.001195224
 Search for a local minimum.
 Step number   3 out of a maximum of   20
 All quantities printed in internal units (Hartrees-Bohrs-Radians)
 Mixed Optimization -- RFO/linear search
 Update second derivatives using D2CorX and points    1    2    3
 DE= -1.20D-04 DEPred=-8.96D-05 R= 1.34D+00
 TightC=F SS=  1.41D+00  RLast= 6.36D-02 DXNew= 8.4853D-01 1.9068D-01
 Trust test= 1.34D+00 RLast= 6.36D-02 DXMaxT set to 5.05D-01
 The second derivative matrix:
                          R1        R2        R3        A1        A2
           R1           0.03381
           R2           0.00532   0.03381
           R3           0.00532   0.00532   0.03381
           A1           0.01622   0.01622   0.01622   0.21256
           A2           0.01718   0.01718   0.01718  -0.03414   0.21942
           A3           0.01718   0.01718   0.01718  -0.03414  -0.03058
           D1          -0.00179  -0.00179  -0.00179  -0.00373  -0.00409
                          A3        D1
           A3           0.21942
           D1          -0.00409   0.00283
 ITU=  1  1  0
 Use linear search instead of GDIIS.
     Eigenvalues ---    0.02142   0.02849   0.02849   0.09820   0.23301
     Eigenvalues ---    0.25000
 RFO step:  Lambda=-9.47574212D-05 EMin= 2.14189348D-02
 Quartic linear search produced a step of  0.78025.
 Iteration  1 RMS(Cart)=  0.03660767 RMS(Int)=  0.00073499
 Iteration  2 RMS(Cart)=  0.00078227 RMS(Int)=  0.00034178
 Iteration  3 RMS(Cart)=  0.00000012 RMS(Int)=  0.00034178
 ClnCor:  largest displacement from symmetrization is 7.95D-04 for atom     4.
 Variable       Old X    -DE/DX   Delta X   Delta X   Delta X     New X
                                 (Linear)    (Quad)   (Total)
    R1        5.55355   0.00004  -0.02601   0.00086  -0.02536   5.52819
    R2        5.55355   0.00004  -0.02601   0.00086  -0.02536   5.52819
    R3        5.55355   0.00004  -0.02601   0.00086  -0.02536   5.52819
    A1        1.79555   0.00054   0.00864   0.01340   0.02172   1.81726
    A2        1.79555   0.00184   0.00864   0.01348   0.02172   1.81726
    A3        1.79555   0.00184   0.00864   0.01348   0.02172   1.81726
    D1       -1.86166  -0.00171  -0.01434  -0.02263  -0.03774  -1.89940
         Item               Value     Threshold  Converged?
 Maximum Force            0.001842     0.000450     NO 
 RMS     Force            0.001195     0.000300     NO 
 Maximum Displacement     0.077464     0.001800     NO 
 RMS     Displacement     0.036237     0.001200     NO 
 Predicted change in Energy=-8.020731D-05
 GradGradGradGradGradGradGradGradGradGradGradGradGradGradGradGradGradGrad

                          Input orientation:                          
 ---------------------------------------------------------------------
 Center     Atomic      Atomic             Coordinates (Angstroms)
 Number     Number       Type             X           Y           Z
 ---------------------------------------------------------------------
      1         15           0       11.184174   10.500000   11.071687
      2         19           0       12.516208    8.192849    9.863109
      3         19           0       12.516208   12.807151    9.863109
      4         19           0        8.520106   10.500000    9.863109
 ---------------------------------------------------------------------
                    Distance matrix (angstroms):
                    1          2          3          4
     1  P    0.000000
     2  K    2.925393   0.000000
     3  K    2.925393   4.614302   0.000000
     4  K    2.925393   4.614302   4.614302   0.000000
 Stoichiometry    K3P
 Framework group  C3V[C3(P),3SGV(K)]
 Deg. of freedom     2
 Full point group                 C3V     NOp   6
 Largest Abelian subgroup         CS      NOp   2
 Largest concise Abelian subgroup CS      NOp   2
                         Standard orientation:                         
 ---------------------------------------------------------------------
 Center     Atomic      Atomic             Coordinates (Angstroms)
 Number     Number       Type             X           Y           Z
 ---------------------------------------------------------------------
      1         15           0        0.000000    0.000000    0.956791
      2         19           0        0.000000    2.664068   -0.251787
      3         19           0       -2.307151   -1.332034   -0.251787
      4         19           0        2.307151   -1.332034   -0.251787
 ---------------------------------------------------------------------
 Rotational constants (GHZ):           1.1216474           1.1216474           0.6091790
 Standard basis: def2QZVPP (5D, 7F)
 There are   198 symmetry adapted cartesian basis functions of A'  symmetry.
 There are   137 symmetry adapted cartesian basis functions of A"  symmetry.
 There are   163 symmetry adapted basis functions of A'  symmetry.
 There are   117 symmetry adapted basis functions of A"  symmetry.
   280 basis functions,   517 primitive gaussians,   335 cartesian basis functions
    36 alpha electrons       36 beta electrons
       nuclear repulsion energy       278.8623750148 Hartrees.
 NAtoms=    4 NActive=    4 NUniq=    2 SFac= 4.00D+00 NAtFMM=   60 NAOKFM=F Big=F
 Integral buffers will be    131072 words long.
 Raffenetti 2 integral format.
 Two-electron integral symmetry is turned on.
 One-electron integrals computed using PRISM.
   6 Symmetry operations used in ECPInt.
 ECPInt:  NShTT=    4465 NPrTT=   18164 LenC2=    4118 LenP2D=   12341.
 LDataN:  DoStor=T MaxTD1= 8 Len=  415
 NBasis=   280 RedAO= T EigKep=  3.59D-04  NBF=   163   117
 NBsUse=   280 1.00D-06 EigRej= -1.00D+00 NBFU=   163   117
 Initial guess from the checkpoint file:  "/data/hutter/SMG16/PBE/Gau-47318.chk"
 B after Tr=    -0.000000    0.000000    0.000000
         Rot=    1.000000   -0.000000   -0.000000   -0.000000 Ang=   0.00 deg.
 Initial guess orbital symmetries:
       Occupied  (E) (E) (A1) (A1) (E) (E) (A1) (E) (E) (A1) (A2)
                 (E) (E) (E) (E) (A1) (A1) (A1) (E) (E) (A1) (E)
                 (E) (E) (E) (A1) (A2) (E) (E) (A1) (E) (E) (A1)
                 (E) (E) (A1)
       Virtual   (A1) (E) (E) (A1) (E) (E) (A1) (E) (E) (A2) (E)
                 (E) (A1) (A1) (E) (E) (E) (E) (A1) (E) (E) (A1)
                 (E) (E) (A2) (E) (E) (E) (E) (A2) (A1) (E) (E)
                 (A1) (E) (E) (E) (E) (A2) (A1) (E) (E) (A1) (E)
                 (E) (A2) (A1) (E) (E) (E) (E) (A1) (E) (E) (A1)
                 (E) (E) (A2) (E) (E) (A1) (A1) (E) (E) (E) (E)
                 (A2) (A1) (E) (E) (E) (E) (A1) (E) (E) (A2) (A1)
                 (E) (E) (E) (E) (A2) (E) (E) (E) (E) (A1) (E)
                 (E) (A1) (E) (E) (A2) (A1) (E) (E) (A1) (E) (E)
                 (E) (E) (A1) (A2) (E) (E) (A1) (E) (E) (A2) (E)
                 (E) (E) (E) (A2) (A1) (E) (E) (A1) (E) (E) (E)
                 (E) (A1) (A1) (E) (E) (A1) (E) (E) (A2) (E) (E)
                 (A1) (E) (E) (A1) (E) (E) (A1) (A1) (E) (E) (E)
                 (E) (A1) (A2) (E) (E) (A1) (A2) (E) (E) (E) (E)
                 (E) (E) (A2) (A1) (E) (E) (A1) (E) (E) (E) (E)
                 (A1) (E) (E) (E) (E) (A2) (A1) (E) (E) (A1) (E)
                 (E) (A2) (E) (E) (A1) (E) (E) (A2) (E) (E) (A1)
                 (E) (E) (A2) (E) (E) (A1) (E) (E) (A1) (A1) (E)
                 (E) (A1) (E) (E) (A1) (A1) (E) (E) (E) (E) (A1)
                 (E) (E) (E) (E) (A1) (A2) (E) (E) (E) (E) (A2)
                 (A1) (E) (E) (E) (E) (A2) (A1) (E) (E) (A1) (E)
                 (E) (A1) (E) (E) (A1) (A1) (E) (E) (A1) (A1) (E)
                 (E) (A1)
 ExpMin= 1.53D-02 ExpMax= 2.02D+06 ExpMxC= 2.31D+03 IAcc=3 IRadAn=         5 AccDes= 0.00D+00
 Harris functional with IExCor= 1009 and IRadAn=       5 diagonalized for initial guess.
 HarFok:  IExCor= 1009 AccDes= 0.00D+00 IRadAn=         5 IDoV= 1 UseB2=F ITyADJ=14
 ICtDFT=  3500011 ScaDFX=  1.000000  1.000000  1.000000  1.000000
 FoFCou: FMM=F IPFlag=           0 FMFlag=      100000 FMFlg1=           0
         NFxFlg=           0 DoJE=T BraDBF=F KetDBF=T FulRan=T
         wScrn=  0.000000 ICntrl=       500 IOpCl=  0 I1Cent=   200000004 NGrid=           0
         NMat0=    1 NMatS0=      1 NMatT0=    0 NMatD0=    1 NMtDS0=    0 NMtDT0=    0
 Petite list used in FoFCou.
 Requested convergence on RMS density matrix=1.00D-08 within 128 cycles.
 Requested convergence on MAX density matrix=1.00D-06.
 Requested convergence on             energy=1.00D-06.
 No special actions if energy rises.
 SCF Done:  E(RPBE-PBE) =  -2140.38373246     A.U. after    9 cycles
            NFock=  9  Conv=0.53D-08     -V/T= 2.0021
   6 Symmetry operations used in ECPInt.
 ECPInt:  NShTT=    4465 NPrTT=   18164 LenC2=    4118 LenP2D=   12341.
 LDataN:  DoStor=T MaxTD1= 9 Len=  602
 Calling FoFJK, ICntrl=      2527 FMM=F ISym2X=1 I1Cent= 0 IOpClX= 0 NMat=1 NMatS=1 NMatT=0.
 ***** Axes restored to original set *****
 -------------------------------------------------------------------
 Center     Atomic                   Forces (Hartrees/Bohr)
 Number     Number              X              Y              Z
 -------------------------------------------------------------------
      1       15           0.000000000   -0.000000000   -0.000319536
      2       19           0.000337821   -0.000585122    0.000106512
      3       19           0.000337821    0.000585122    0.000106512
      4       19          -0.000675641   -0.000000000    0.000106512
 -------------------------------------------------------------------
 Cartesian Forces:  Max     0.000675641 RMS     0.000354214

 GradGradGradGradGradGradGradGradGradGradGradGradGradGradGradGradGradGrad
 Berny optimization.
 Using GEDIIS/GDIIS optimizer.
 FormGI is forming the generalized inverse of G from B-inverse, IUseBI=4.
 Internal  Forces:  Max     0.001323975 RMS     0.000951746
 Search for a local minimum.
 Step number   4 out of a maximum of   20
 All quantities printed in internal units (Hartrees-Bohrs-Radians)
 Mixed Optimization -- En-DIIS/RFO-DIIS
 Update second derivatives using D2CorX and points    1    2    3    4
 DE= -1.12D-04 DEPred=-8.02D-05 R= 1.40D+00
 TightC=F SS=  1.41D+00  RLast= 6.90D-02 DXNew= 8.4853D-01 2.0715D-01
 Trust test= 1.40D+00 RLast= 6.90D-02 DXMaxT set to 5.05D-01
 The second derivative matrix:
                          R1        R2        R3        A1        A2
           R1           0.03576
           R2           0.00727   0.03576
           R3           0.00727   0.00727   0.03576
           A1           0.01259   0.01259   0.01259   0.18213
           A2           0.01150   0.01150   0.01150  -0.06600   0.18731
           A3           0.01150   0.01150   0.01150  -0.06600  -0.06269
           D1           0.00076   0.00076   0.00076  -0.00143  -0.00317
                          A3        D1
           A3           0.18731
           D1          -0.00317   0.00438
 ITU=  1  1  1  0
 Use linear search instead of GDIIS.
     Eigenvalues ---    0.01664   0.02849   0.02849   0.06573   0.22048
     Eigenvalues ---    0.25000
 RFO step:  Lambda=-8.16764784D-05 EMin= 1.66367231D-02
 Quartic linear search produced a step of  0.89044.
 Iteration  1 RMS(Cart)=  0.05527849 RMS(Int)=  0.00152354
 Iteration  2 RMS(Cart)=  0.00140853 RMS(Int)=  0.00085304
 Iteration  3 RMS(Cart)=  0.00000018 RMS(Int)=  0.00085304
 ClnCor:  largest displacement from symmetrization is 1.34D-03 for atom     4.
 Variable       Old X    -DE/DX   Delta X   Delta X   Delta X     New X
                                 (Linear)    (Quad)   (Total)
    R1        5.52819   0.00057  -0.02258   0.01295  -0.00998   5.51821
    R2        5.52819   0.00057  -0.02258   0.01295  -0.00998   5.51821
    R3        5.52819   0.00057  -0.02258   0.01295  -0.00998   5.51821
    A1        1.81726   0.00035   0.01934   0.01130   0.02959   1.84686
    A2        1.81726   0.00132   0.01934   0.01119   0.02959   1.84686
    A3        1.81726   0.00132   0.01934   0.01119   0.02959   1.84686
    D1       -1.89940  -0.00132  -0.03360  -0.02017  -0.05548  -1.95487
         Item               Value     Threshold  Converged?
 Maximum Force            0.001324     0.000450     NO 
 RMS     Force            0.000952     0.000300     NO 
 Maximum Displacement     0.101465     0.001800     NO 
 RMS     Displacement     0.054395     0.001200     NO 
 Predicted change in Energy=-7.463334D-05
 GradGradGradGradGradGradGradGradGradGradGradGradGradGradGradGradGradGrad

                          Input orientation:                          
 ---------------------------------------------------------------------
 Center     Atomic      Atomic             Coordinates (Angstroms)
 Number     Number       Type             X           Y           Z
 ---------------------------------------------------------------------
      1         15           0       11.184174   10.500000   11.017994
      2         19           0       12.528995    8.170701    9.880948
      3         19           0       12.528995   12.829299    9.880948
      4         19           0        8.494531   10.500000    9.880948
 ---------------------------------------------------------------------
                    Distance matrix (angstroms):
                    1          2          3          4
     1  P    0.000000
     2  K    2.920112   0.000000
     3  K    2.920112   4.658598   0.000000
     4  K    2.920112   4.658598   4.658598   0.000000
 Stoichiometry    K3P
 Framework group  C3V[C3(P),3SGV(K)]
 Deg. of freedom     2
 Full point group                 C3V     NOp   6
 Largest Abelian subgroup         CS      NOp   2
 Largest concise Abelian subgroup CS      NOp   2
                         Standard orientation:                         
 ---------------------------------------------------------------------
 Center     Atomic      Atomic             Coordinates (Angstroms)
 Number     Number       Type             X           Y           Z
 ---------------------------------------------------------------------
      1         15           0        0.000000    0.000000    0.900162
      2         19           0        0.000000    2.689643   -0.236885
      3         19           0       -2.329299   -1.344821   -0.236885
      4         19           0        2.329299   -1.344821   -0.236885
 ---------------------------------------------------------------------
 Rotational constants (GHZ):           1.1120371           1.1120371           0.5976494
 Standard basis: def2QZVPP (5D, 7F)
 There are   198 symmetry adapted cartesian basis functions of A'  symmetry.
 There are   137 symmetry adapted cartesian basis functions of A"  symmetry.
 There are   163 symmetry adapted basis functions of A'  symmetry.
 There are   117 symmetry adapted basis functions of A"  symmetry.
   280 basis functions,   517 primitive gaussians,   335 cartesian basis functions
    36 alpha electrons       36 beta electrons
       nuclear repulsion energy       277.9611280415 Hartrees.
 NAtoms=    4 NActive=    4 NUniq=    2 SFac= 4.00D+00 NAtFMM=   60 NAOKFM=F Big=F
 Integral buffers will be    131072 words long.
 Raffenetti 2 integral format.
 Two-electron integral symmetry is turned on.
 One-electron integrals computed using PRISM.
   6 Symmetry operations used in ECPInt.
 ECPInt:  NShTT=    4465 NPrTT=   18164 LenC2=    4112 LenP2D=   12320.
 LDataN:  DoStor=T MaxTD1= 8 Len=  415
 NBasis=   280 RedAO= T EigKep=  3.75D-04  NBF=   163   117
 NBsUse=   280 1.00D-06 EigRej= -1.00D+00 NBFU=   163   117
 Initial guess from the checkpoint file:  "/data/hutter/SMG16/PBE/Gau-47318.chk"
 B after Tr=     0.000000    0.000000    0.000000
         Rot=    1.000000    0.000000    0.000000    0.000000 Ang=   0.00 deg.
 Initial guess orbital symmetries:
       Occupied  (E) (E) (A1) (A1) (E) (E) (A1) (E) (E) (A1) (A2)
                 (E) (E) (E) (E) (A1) (A1) (A1) (E) (E) (A1) (E)
                 (E) (E) (E) (A1) (A2) (E) (E) (A1) (E) (E) (A1)
                 (E) (E) (A1)
       Virtual   (A1) (E) (E) (A1) (E) (E) (A1) (E) (E) (A2) (E)
                 (E) (A1) (A1) (E) (E) (E) (E) (A1) (E) (E) (A1)
                 (E) (E) (A2) (E) (E) (E) (E) (A2) (A1) (E) (E)
                 (A1) (E) (E) (E) (E) (A2) (A1) (E) (E) (A1) (E)
                 (E) (A2) (A1) (E) (E) (E) (E) (A1) (E) (E) (A1)
                 (E) (E) (A2) (E) (E) (A1) (A1) (E) (E) (E) (E)
                 (A2) (A1) (E) (E) (E) (E) (A1) (E) (E) (A2) (A1)
                 (E) (E) (E) (E) (A2) (E) (E) (E) (E) (A1) (E)
                 (E) (A1) (E) (E) (A2) (A1) (E) (E) (A1) (E) (E)
                 (E) (E) (A1) (A2) (E) (E) (A1) (E) (E) (A2) (E)
                 (E) (E) (E) (A2) (A1) (E) (E) (A1) (E) (E) (E)
                 (E) (A1) (A1) (E) (E) (A1) (E) (E) (A2) (E) (E)
                 (A1) (E) (E) (A1) (E) (E) (A1) (A1) (E) (E) (E)
                 (E) (A1) (A2) (E) (E) (A1) (A2) (E) (E) (E) (E)
                 (E) (E) (A2) (A1) (E) (E) (A1) (E) (E) (E) (E)
                 (A1) (E) (E) (E) (E) (A2) (A1) (E) (E) (A1) (E)
                 (E) (A2) (E) (E) (A1) (E) (E) (A2) (E) (E) (A1)
                 (E) (E) (A2) (E) (E) (A1) (E) (E) (A1) (A1) (E)
                 (E) (A1) (E) (E) (A1) (A1) (E) (E) (E) (E) (A1)
                 (E) (E) (E) (E) (A1) (A2) (E) (E) (E) (E) (A2)
                 (A1) (E) (E) (E) (E) (A2) (A1) (E) (E) (A1) (E)
                 (E) (A1) (E) (E) (A1) (A1) (E) (E) (A1) (A1) (E)
                 (E) (A1)
 ExpMin= 1.53D-02 ExpMax= 2.02D+06 ExpMxC= 2.31D+03 IAcc=3 IRadAn=         5 AccDes= 0.00D+00
 Harris functional with IExCor= 1009 and IRadAn=       5 diagonalized for initial guess.
 HarFok:  IExCor= 1009 AccDes= 0.00D+00 IRadAn=         5 IDoV= 1 UseB2=F ITyADJ=14
 ICtDFT=  3500011 ScaDFX=  1.000000  1.000000  1.000000  1.000000
 FoFCou: FMM=F IPFlag=           0 FMFlag=      100000 FMFlg1=           0
         NFxFlg=           0 DoJE=T BraDBF=F KetDBF=T FulRan=T
         wScrn=  0.000000 ICntrl=       500 IOpCl=  0 I1Cent=   200000004 NGrid=           0
         NMat0=    1 NMatS0=      1 NMatT0=    0 NMatD0=    1 NMtDS0=    0 NMtDT0=    0
 Petite list used in FoFCou.
 Requested convergence on RMS density matrix=1.00D-08 within 128 cycles.
 Requested convergence on MAX density matrix=1.00D-06.
 Requested convergence on             energy=1.00D-06.
 No special actions if energy rises.
 SCF Done:  E(RPBE-PBE) =  -2140.38382667     A.U. after    9 cycles
            NFock=  9  Conv=0.66D-08     -V/T= 2.0021
   6 Symmetry operations used in ECPInt.
 ECPInt:  NShTT=    4465 NPrTT=   18164 LenC2=    4112 LenP2D=   12320.
 LDataN:  DoStor=T MaxTD1= 9 Len=  602
 Calling FoFJK, ICntrl=      2527 FMM=F ISym2X=1 I1Cent= 0 IOpClX= 0 NMat=1 NMatS=1 NMatT=0.
 ***** Axes restored to original set *****
 -------------------------------------------------------------------
 Center     Atomic                   Forces (Hartrees/Bohr)
 Number     Number              X              Y              Z
 -------------------------------------------------------------------
      1       15           0.000000000   -0.000000000    0.000203525
      2       19           0.000264395   -0.000457945   -0.000067842
      3       19           0.000264395    0.000457945   -0.000067842
      4       19          -0.000528790   -0.000000000   -0.000067842
 -------------------------------------------------------------------
 Cartesian Forces:  Max     0.000528790 RMS     0.000272960

 GradGradGradGradGradGradGradGradGradGradGradGradGradGradGradGradGradGrad
 Berny optimization.
 Using GEDIIS/GDIIS optimizer.
 FormGI is forming the generalized inverse of G from B-inverse, IUseBI=4.
 Internal  Forces:  Max     0.000531826 RMS     0.000471364
 Search for a local minimum.
 Step number   5 out of a maximum of   20
 All quantities printed in internal units (Hartrees-Bohrs-Radians)
 Mixed Optimization -- En-DIIS/RFO-DIIS
 Swapping is turned off.
 Update second derivatives using D2CorX and points    1    2    3    4    5
 DE= -9.42D-05 DEPred=-7.46D-05 R= 1.26D+00
 TightC=F SS=  1.41D+00  RLast= 7.75D-02 DXNew= 8.4853D-01 2.3245D-01
 Trust test= 1.26D+00 RLast= 7.75D-02 DXMaxT set to 5.05D-01
 The second derivative matrix:
                          R1        R2        R3        A1        A2
           R1           0.03076
           R2           0.00226   0.03076
           R3           0.00226   0.00226   0.03076
           A1           0.00519   0.00519   0.00519   0.17024
           A2           0.00473   0.00473   0.00473  -0.07862   0.17621
           A3           0.00473   0.00473   0.00473  -0.07862  -0.07379
           D1           0.00042   0.00042   0.00042  -0.00022  -0.00499
                          A3        D1
           A3           0.17621
           D1          -0.00499   0.00846
 ITU=  1  1  1  1  0
     Eigenvalues ---    0.01509   0.02849   0.02849   0.03923   0.22315
     Eigenvalues ---    0.25000
 En-DIIS/RFO-DIIS/Sim-DIIS IScMMF=       -3 using points:     5    4
 RFO step:  Lambda=-4.21148963D-05.
 DidBck=F Rises=F RFO-DIIS coefs:    1.38207   -0.38207
 Iteration  1 RMS(Cart)=  0.02825384 RMS(Int)=  0.00041285
 Iteration  2 RMS(Cart)=  0.00023267 RMS(Int)=  0.00035247
 Iteration  3 RMS(Cart)=  0.00000024 RMS(Int)=  0.00035247
 ClnCor:  largest displacement from symmetrization is 4.99D-04 for atom     4.
 Variable       Old X    -DE/DX   Delta X   Delta X   Delta X     New X
                                 (Linear)    (Quad)   (Total)
    R1        5.51821   0.00051  -0.00381   0.01316   0.00921   5.52742
    R2        5.51821   0.00051  -0.00381   0.01316   0.00921   5.52742
    R3        5.51821   0.00051  -0.00381   0.01316   0.00921   5.52742
    A1        1.84686   0.00011   0.01131   0.00196   0.01282   1.85968
    A2        1.84686   0.00048   0.01131   0.00190   0.01282   1.85968
    A3        1.84686   0.00048   0.01131   0.00190   0.01282   1.85968
    D1       -1.95487  -0.00053  -0.02120  -0.00379  -0.02567  -1.98054
         Item               Value     Threshold  Converged?
 Maximum Force            0.000532     0.000450     NO 
 RMS     Force            0.000471     0.000300     NO 
 Maximum Displacement     0.041649     0.001800     NO 
 RMS     Displacement     0.028254     0.001200     NO 
 Predicted change in Energy=-2.118315D-05
 GradGradGradGradGradGradGradGradGradGradGradGradGradGradGradGradGradGrad

                          Input orientation:                          
 ---------------------------------------------------------------------
 Center     Atomic      Atomic             Coordinates (Angstroms)
 Number     Number       Type             X           Y           Z
 ---------------------------------------------------------------------
      1         15           0       11.184174   10.500000   10.995954
      2         19           0       12.537742    8.155551    9.888273
      3         19           0       12.537742   12.844449    9.888273
      4         19           0        8.477038   10.500000    9.888273
 ---------------------------------------------------------------------
                    Distance matrix (angstroms):
                    1          2          3          4
     1  P    0.000000
     2  K    2.924986   0.000000
     3  K    2.924986   4.688898   0.000000
     4  K    2.924986   4.688898   4.688898   0.000000
 Stoichiometry    K3P
 Framework group  C3V[C3(P),3SGV(K)]
 Deg. of freedom     2
 Full point group                 C3V     NOp   6
 Largest Abelian subgroup         CS      NOp   2
 Largest concise Abelian subgroup CS      NOp   2
                         Standard orientation:                         
 ---------------------------------------------------------------------
 Center     Atomic      Atomic             Coordinates (Angstroms)
 Number     Number       Type             X           Y           Z
 ---------------------------------------------------------------------
      1         15           0        0.000000    0.000000    0.876914
      2         19           0        0.000000    2.707136   -0.230767
      3         19           0       -2.344449   -1.353568   -0.230767
      4         19           0        2.344449   -1.353568   -0.230767
 ---------------------------------------------------------------------
 Rotational constants (GHZ):           1.1025660           1.1025660           0.5899502
 Standard basis: def2QZVPP (5D, 7F)
 There are   198 symmetry adapted cartesian basis functions of A'  symmetry.
 There are   137 symmetry adapted cartesian basis functions of A"  symmetry.
 There are   163 symmetry adapted basis functions of A'  symmetry.
 There are   117 symmetry adapted basis functions of A"  symmetry.
   280 basis functions,   517 primitive gaussians,   335 cartesian basis functions
    36 alpha electrons       36 beta electrons
       nuclear repulsion energy       276.9079426425 Hartrees.
 NAtoms=    4 NActive=    4 NUniq=    2 SFac= 4.00D+00 NAtFMM=   60 NAOKFM=F Big=F
 Integral buffers will be    131072 words long.
 Raffenetti 2 integral format.
 Two-electron integral symmetry is turned on.
 One-electron integrals computed using PRISM.
   6 Symmetry operations used in ECPInt.
 ECPInt:  NShTT=    4465 NPrTT=   18164 LenC2=    4106 LenP2D=   12305.
 LDataN:  DoStor=T MaxTD1= 8 Len=  415
 NBasis=   280 RedAO= T EigKep=  3.87D-04  NBF=   163   117
 NBsUse=   280 1.00D-06 EigRej= -1.00D+00 NBFU=   163   117
 Initial guess from the checkpoint file:  "/data/hutter/SMG16/PBE/Gau-47318.chk"
 B after Tr=     0.000000   -0.000000    0.000000
         Rot=    1.000000   -0.000000    0.000000    0.000000 Ang=   0.00 deg.
 Initial guess orbital symmetries:
       Occupied  (E) (E) (A1) (A1) (E) (E) (A1) (E) (E) (A1) (A2)
                 (E) (E) (E) (E) (A1) (A1) (A1) (E) (E) (A1) (E)
                 (E) (E) (E) (A1) (A2) (E) (E) (A1) (E) (E) (A1)
                 (E) (E) (A1)
       Virtual   (A1) (E) (E) (A1) (E) (E) (E) (E) (A1) (A2) (E)
                 (E) (A1) (E) (E) (A1) (E) (E) (A1) (E) (E) (A1)
                 (E) (E) (A2) (E) (E) (E) (E) (A2) (A1) (E) (E)
                 (E) (E) (A1) (E) (E) (A2) (A1) (E) (E) (A1) (E)
                 (E) (A2) (A1) (E) (E) (E) (E) (A1) (E) (E) (A1)
                 (E) (E) (A2) (E) (E) (A1) (A1) (E) (E) (E) (E)
                 (A2) (A1) (E) (E) (E) (E) (A1) (E) (E) (A2) (A1)
                 (E) (E) (E) (E) (A2) (E) (E) (E) (E) (A1) (A1)
                 (E) (E) (E) (E) (A2) (A1) (E) (E) (A1) (E) (E)
                 (E) (E) (A1) (A2) (E) (E) (A1) (E) (E) (A2) (E)
                 (E) (E) (E) (A2) (A1) (E) (E) (A1) (E) (E) (E)
                 (E) (A1) (A1) (E) (E) (A1) (E) (E) (A2) (E) (E)
                 (A1) (E) (E) (A1) (E) (E) (A1) (E) (E) (A1) (E)
                 (E) (A1) (A2) (E) (E) (A1) (E) (E) (A2) (E) (E)
                 (E) (E) (A2) (A1) (E) (E) (A1) (E) (E) (E) (E)
                 (A1) (E) (E) (E) (E) (A2) (A1) (E) (E) (A1) (E)
                 (E) (A2) (E) (E) (A1) (E) (E) (A2) (E) (E) (A1)
                 (E) (E) (A2) (A1) (E) (E) (E) (E) (A1) (A1) (E)
                 (E) (A1) (E) (E) (A1) (A1) (E) (E) (E) (E) (A1)
                 (E) (E) (E) (E) (A1) (A2) (E) (E) (E) (E) (A1)
                 (A2) (E) (E) (E) (E) (A2) (A1) (E) (E) (A1) (E)
                 (E) (A1) (E) (E) (A1) (A1) (E) (E) (A1) (A1) (E)
                 (E) (A1)
 ExpMin= 1.53D-02 ExpMax= 2.02D+06 ExpMxC= 2.31D+03 IAcc=3 IRadAn=         5 AccDes= 0.00D+00
 Harris functional with IExCor= 1009 and IRadAn=       5 diagonalized for initial guess.
 HarFok:  IExCor= 1009 AccDes= 0.00D+00 IRadAn=         5 IDoV= 1 UseB2=F ITyADJ=14
 ICtDFT=  3500011 ScaDFX=  1.000000  1.000000  1.000000  1.000000
 FoFCou: FMM=F IPFlag=           0 FMFlag=      100000 FMFlg1=           0
         NFxFlg=           0 DoJE=T BraDBF=F KetDBF=T FulRan=T
         wScrn=  0.000000 ICntrl=       500 IOpCl=  0 I1Cent=   200000004 NGrid=           0
         NMat0=    1 NMatS0=      1 NMatT0=    0 NMatD0=    1 NMtDS0=    0 NMtDT0=    0
 Petite list used in FoFCou.
 Requested convergence on RMS density matrix=1.00D-08 within 128 cycles.
 Requested convergence on MAX density matrix=1.00D-06.
 Requested convergence on             energy=1.00D-06.
 No special actions if energy rises.
 SCF Done:  E(RPBE-PBE) =  -2140.38384955     A.U. after    9 cycles
            NFock=  9  Conv=0.19D-08     -V/T= 2.0021
   6 Symmetry operations used in ECPInt.
 ECPInt:  NShTT=    4465 NPrTT=   18164 LenC2=    4106 LenP2D=   12305.
 LDataN:  DoStor=T MaxTD1= 9 Len=  602
 Calling FoFJK, ICntrl=      2527 FMM=F ISym2X=1 I1Cent= 0 IOpClX= 0 NMat=1 NMatS=1 NMatT=0.
 ***** Axes restored to original set *****
 -------------------------------------------------------------------
 Center     Atomic                   Forces (Hartrees/Bohr)
 Number     Number              X              Y              Z
 -------------------------------------------------------------------
      1       15           0.000000000   -0.000000000    0.000011920
      2       19           0.000025990   -0.000045016   -0.000003973
      3       19           0.000025990    0.000045016   -0.000003973
      4       19          -0.000051980   -0.000000000   -0.000003973
 -------------------------------------------------------------------
 Cartesian Forces:  Max     0.000051980 RMS     0.000026292

 GradGradGradGradGradGradGradGradGradGradGradGradGradGradGradGradGradGrad
 Berny optimization.
 Using GEDIIS/GDIIS optimizer.
 FormGI is forming the generalized inverse of G from B-inverse, IUseBI=4.
 Internal  Forces:  Max     0.000060955 RMS     0.000049070
 Search for a local minimum.
 Step number   6 out of a maximum of   20
 All quantities printed in internal units (Hartrees-Bohrs-Radians)
 Mixed Optimization -- En-DIIS/RFO-DIIS
 Swapping is turned off.
 Update second derivatives using D2CorX and points    1    2    3    4    5
                                                      6
 DE= -2.29D-05 DEPred=-2.12D-05 R= 1.08D+00
 TightC=F SS=  1.41D+00  RLast= 3.75D-02 DXNew= 8.4853D-01 1.1252D-01
 Trust test= 1.08D+00 RLast= 3.75D-02 DXMaxT set to 5.05D-01
 The second derivative matrix:
                          R1        R2        R3        A1        A2
           R1           0.02955
           R2           0.00106   0.02955
           R3           0.00106   0.00106   0.02955
           A1           0.00102   0.00102   0.00102   0.16778
           A2           0.00309   0.00309   0.00309  -0.08118   0.17370
           A3           0.00309   0.00309   0.00309  -0.08118  -0.07630
           D1          -0.00311  -0.00311  -0.00311  -0.00009  -0.00537
                          A3        D1
           A3           0.17370
           D1          -0.00537   0.00958
 ITU=  1  1  1  1  1  0
     Eigenvalues ---    0.01281   0.02849   0.02849   0.03557   0.22501
     Eigenvalues ---    0.25000
 En-DIIS/RFO-DIIS/Sim-DIIS IScMMF=       -3 using points:     6    5    4
 RFO step:  Lambda=-5.36535371D-07.
 DidBck=F Rises=F RFO-DIIS coefs:    1.10561   -0.09460   -0.01101
 Iteration  1 RMS(Cart)=  0.00353400 RMS(Int)=  0.00002803
 Iteration  2 RMS(Cart)=  0.00000381 RMS(Int)=  0.00002776
 Iteration  3 RMS(Cart)=  0.00000000 RMS(Int)=  0.00002776
 ClnCor:  largest displacement from symmetrization is 3.62D-05 for atom     4.
 Variable       Old X    -DE/DX   Delta X   Delta X   Delta X     New X
                                 (Linear)    (Quad)   (Total)
    R1        5.52742   0.00005   0.00086  -0.00000   0.00085   5.52828
    R2        5.52742   0.00005   0.00086  -0.00000   0.00085   5.52828
    R3        5.52742   0.00005   0.00086  -0.00000   0.00085   5.52828
    A1        1.85968   0.00001   0.00168   0.00000   0.00165   1.86133
    A2        1.85968   0.00005   0.00168  -0.00000   0.00165   1.86133
    A3        1.85968   0.00005   0.00168  -0.00000   0.00165   1.86133
    D1       -1.98054  -0.00006  -0.00332  -0.00000  -0.00338  -1.98392
         Item               Value     Threshold  Converged?
 Maximum Force            0.000061     0.000450     YES
 RMS     Force            0.000049     0.000300     YES
 Maximum Displacement     0.005532     0.001800     NO 
 RMS     Displacement     0.003529     0.001200     NO 
 Predicted change in Energy=-2.681367D-07
 GradGradGradGradGradGradGradGradGradGradGradGradGradGradGradGradGradGrad

                          Input orientation:                          
 ---------------------------------------------------------------------
 Center     Atomic      Atomic             Coordinates (Angstroms)
 Number     Number       Type             X           Y           Z
 ---------------------------------------------------------------------
      1         15           0       11.184174   10.500000   10.993027
      2         19           0       12.538783    8.153749    9.889247
      3         19           0       12.538783   12.846251    9.889247
      4         19           0        8.474957   10.500000    9.889247
 ---------------------------------------------------------------------
                    Distance matrix (angstroms):
                    1          2          3          4
     1  P    0.000000
     2  K    2.925438   0.000000
     3  K    2.925438   4.692502   0.000000
     4  K    2.925438   4.692502   4.692502   0.000000
 Stoichiometry    K3P
 Framework group  C3V[C3(P),3SGV(K)]
 Deg. of freedom     2
 Full point group                 C3V     NOp   6
 Largest Abelian subgroup         CS      NOp   2
 Largest concise Abelian subgroup CS      NOp   2
                         Standard orientation:                         
 ---------------------------------------------------------------------
 Center     Atomic      Atomic             Coordinates (Angstroms)
 Number     Number       Type             X           Y           Z
 ---------------------------------------------------------------------
      1         15           0        0.000000    0.000000    0.873826
      2         19           0        0.000000    2.709217   -0.229954
      3         19           0       -2.346251   -1.354609   -0.229954
      4         19           0        2.346251   -1.354609   -0.229954
 ---------------------------------------------------------------------
 Rotational constants (GHZ):           1.1014909           1.1014909           0.5890444
 Standard basis: def2QZVPP (5D, 7F)
 There are   198 symmetry adapted cartesian basis functions of A'  symmetry.
 There are   137 symmetry adapted cartesian basis functions of A"  symmetry.
 There are   163 symmetry adapted basis functions of A'  symmetry.
 There are   117 symmetry adapted basis functions of A"  symmetry.
   280 basis functions,   517 primitive gaussians,   335 cartesian basis functions
    36 alpha electrons       36 beta electrons
       nuclear repulsion energy       276.7901996764 Hartrees.
 NAtoms=    4 NActive=    4 NUniq=    2 SFac= 4.00D+00 NAtFMM=   60 NAOKFM=F Big=F
 Integral buffers will be    131072 words long.
 Raffenetti 2 integral format.
 Two-electron integral symmetry is turned on.
 One-electron integrals computed using PRISM.
   6 Symmetry operations used in ECPInt.
 ECPInt:  NShTT=    4465 NPrTT=   18164 LenC2=    4106 LenP2D=   12305.
 LDataN:  DoStor=T MaxTD1= 8 Len=  415
 NBasis=   280 RedAO= T EigKep=  3.88D-04  NBF=   163   117
 NBsUse=   280 1.00D-06 EigRej= -1.00D+00 NBFU=   163   117
 Initial guess from the checkpoint file:  "/data/hutter/SMG16/PBE/Gau-47318.chk"
 B after Tr=     0.000000   -0.000000    0.000000
         Rot=    1.000000    0.000000    0.000000    0.000000 Ang=   0.00 deg.
 Initial guess orbital symmetries:
       Occupied  (E) (E) (A1) (A1) (E) (E) (A1) (E) (E) (A1) (A2)
                 (E) (E) (E) (E) (A1) (A1) (A1) (E) (E) (A1) (E)
                 (E) (E) (E) (A1) (A2) (E) (E) (A1) (E) (E) (A1)
                 (E) (E) (A1)
       Virtual   (A1) (E) (E) (A1) (E) (E) (E) (E) (A1) (A2) (E)
                 (E) (A1) (E) (E) (A1) (E) (E) (A1) (E) (E) (E)
                 (E) (A1) (A2) (E) (E) (E) (E) (A2) (A1) (E) (E)
                 (E) (E) (A1) (E) (E) (A2) (A1) (E) (E) (A1) (E)
                 (E) (A2) (A1) (E) (E) (E) (E) (A1) (E) (E) (A1)
                 (E) (E) (A2) (E) (E) (A1) (A1) (E) (E) (E) (E)
                 (A2) (A1) (E) (E) (E) (E) (A1) (E) (E) (A2) (A1)
                 (E) (E) (E) (E) (A2) (E) (E) (A1) (E) (E) (A1)
                 (E) (E) (E) (E) (A2) (A1) (E) (E) (A1) (E) (E)
                 (E) (E) (A1) (A2) (E) (E) (A1) (A2) (E) (E) (E)
                 (E) (E) (E) (A2) (A1) (E) (E) (A1) (E) (E) (E)
                 (E) (A1) (E) (E) (A1) (A1) (E) (E) (A2) (E) (E)
                 (A1) (E) (E) (A1) (E) (E) (A1) (E) (E) (A1) (E)
                 (E) (A1) (A2) (E) (E) (A1) (E) (E) (A2) (E) (E)
                 (E) (E) (A2) (A1) (E) (E) (A1) (E) (E) (E) (E)
                 (A1) (E) (E) (A2) (E) (E) (A1) (E) (E) (A1) (E)
                 (E) (A2) (E) (E) (A1) (E) (E) (A2) (E) (E) (A1)
                 (E) (E) (A2) (A1) (E) (E) (E) (E) (A1) (A1) (E)
                 (E) (A1) (E) (E) (A1) (A1) (E) (E) (E) (E) (A1)
                 (E) (E) (E) (E) (A1) (A2) (E) (E) (E) (E) (A1)
                 (A2) (E) (E) (E) (E) (A2) (A1) (E) (E) (A1) (E)
                 (E) (A1) (E) (E) (A1) (A1) (E) (E) (A1) (A1) (E)
                 (E) (A1)
 Requested convergence on RMS density matrix=1.00D-08 within 128 cycles.
 Requested convergence on MAX density matrix=1.00D-06.
 Requested convergence on             energy=1.00D-06.
 No special actions if energy rises.
 SCF Done:  E(RPBE-PBE) =  -2140.38384983     A.U. after    7 cycles
            NFock=  7  Conv=0.51D-08     -V/T= 2.0021
   6 Symmetry operations used in ECPInt.
 ECPInt:  NShTT=    4465 NPrTT=   18164 LenC2=    4106 LenP2D=   12305.
 LDataN:  DoStor=T MaxTD1= 9 Len=  602
 Calling FoFJK, ICntrl=      2527 FMM=F ISym2X=1 I1Cent= 0 IOpClX= 0 NMat=1 NMatS=1 NMatT=0.
 ***** Axes restored to original set *****
 -------------------------------------------------------------------
 Center     Atomic                   Forces (Hartrees/Bohr)
 Number     Number              X              Y              Z
 -------------------------------------------------------------------
      1       15           0.000000000   -0.000000000   -0.000001209
      2       19           0.000000862   -0.000001493    0.000000403
      3       19           0.000000862    0.000001493    0.000000403
      4       19          -0.000001724    0.000000000    0.000000403
 -------------------------------------------------------------------
 Cartesian Forces:  Max     0.000001724 RMS     0.000000952

 GradGradGradGradGradGradGradGradGradGradGradGradGradGradGradGradGradGrad
 Berny optimization.
 Using GEDIIS/GDIIS optimizer.
 FormGI is forming the generalized inverse of G from B-inverse, IUseBI=4.
 Internal  Forces:  Max     0.000003911 RMS     0.000002534
 Search for a local minimum.
 Step number   7 out of a maximum of   20
 All quantities printed in internal units (Hartrees-Bohrs-Radians)
 Mixed Optimization -- En-DIIS/RFO-DIIS
 Swapping is turned off.
 Update second derivatives using D2CorX and points    1    2    3    4    5
                                                      6    7
 DE= -2.77D-07 DEPred=-2.68D-07 R= 1.03D+00
 Trust test= 1.03D+00 RLast= 4.66D-03 DXMaxT set to 5.05D-01
 The second derivative matrix:
                          R1        R2        R3        A1        A2
           R1           0.02919
           R2           0.00070   0.02919
           R3           0.00070   0.00070   0.02919
           A1           0.00017   0.00017   0.00017   0.16788
           A2           0.00262   0.00262   0.00262  -0.08101   0.17349
           A3           0.00262   0.00262   0.00262  -0.08101  -0.07651
           D1          -0.00391  -0.00391  -0.00391  -0.00016  -0.00494
                          A3        D1
           A3           0.17349
           D1          -0.00494   0.00904
 ITU=  0  1  1  1  1  1  0
     Eigenvalues ---    0.01206   0.02849   0.02849   0.03447   0.22508
     Eigenvalues ---    0.25000
 En-DIIS/RFO-DIIS/Sim-DIIS IScMMF=       -3 using points:     7    6    5    4
 RFO step:  Lambda=-6.62015546D-10.
 DIIS inversion failure, remove point   4.
 DIIS inversion failure, remove point   3.
 RFO-DIIS uses    2 points instead of    4
 DidBck=F Rises=F RFO-DIIS coefs:    1.07332   -0.07332    0.00000    0.00000
 Iteration  1 RMS(Cart)=  0.00026674 RMS(Int)=  0.00000017
 Iteration  2 RMS(Cart)=  0.00000003 RMS(Int)=  0.00000017
 ClnCor:  largest displacement from symmetrization is 1.16D-07 for atom     4.
 Variable       Old X    -DE/DX   Delta X   Delta X   Delta X     New X
                                 (Linear)    (Quad)   (Total)
    R1        5.52828   0.00000   0.00006  -0.00008  -0.00001   5.52826
    R2        5.52828   0.00000   0.00006  -0.00008  -0.00001   5.52826
    R3        5.52828   0.00000   0.00006  -0.00008  -0.00001   5.52826
    A1        1.86133   0.00000   0.00012   0.00002   0.00014   1.86147
    A2        1.86133   0.00000   0.00012   0.00002   0.00014   1.86147
    A3        1.86133   0.00000   0.00012   0.00002   0.00014   1.86147
    D1       -1.98392  -0.00000  -0.00025  -0.00003  -0.00028  -1.98420
         Item               Value     Threshold  Converged?
 Maximum Force            0.000004     0.000450     YES
 RMS     Force            0.000003     0.000300     YES
 Maximum Displacement     0.000484     0.001800     YES
 RMS     Displacement     0.000267     0.001200     YES
 Predicted change in Energy=-1.033852D-09
 Optimization completed.
    -- Stationary point found.
                           ----------------------------
                           !   Optimized Parameters   !
                           ! (Angstroms and Degrees)  !
 --------------------------                            --------------------------
 ! Name  Definition              Value          Derivative Info.                !
 --------------------------------------------------------------------------------
 ! R1    R(1,2)                  2.9254         -DE/DX =    0.0                 !
 ! R2    R(1,3)                  2.9254         -DE/DX =    0.0                 !
 ! R3    R(1,4)                  2.9254         -DE/DX =    0.0                 !
 ! A1    A(2,1,3)              106.6463         -DE/DX =    0.0                 !
 ! A2    A(2,1,4)              106.6463         -DE/DX =    0.0                 !
 ! A3    A(3,1,4)              106.6463         -DE/DX =    0.0                 !
 ! D1    D(2,1,4,3)           -113.67           -DE/DX =    0.0                 !
 --------------------------------------------------------------------------------
 GradGradGradGradGradGradGradGradGradGradGradGradGradGradGradGradGradGrad

                          Input orientation:                          
 ---------------------------------------------------------------------
 Center     Atomic      Atomic             Coordinates (Angstroms)
 Number     Number       Type             X           Y           Z
 ---------------------------------------------------------------------
      1         15           0       11.184174   10.500000   10.993027
      2         19           0       12.538783    8.153749    9.889247
      3         19           0       12.538783   12.846251    9.889247
      4         19           0        8.474957   10.500000    9.889247
 ---------------------------------------------------------------------
                    Distance matrix (angstroms):
                    1          2          3          4
     1  P    0.000000
     2  K    2.925438   0.000000
     3  K    2.925438   4.692502   0.000000
     4  K    2.925438   4.692502   4.692502   0.000000
 Stoichiometry    K3P
 Framework group  C3V[C3(P),3SGV(K)]
 Deg. of freedom     2
 Full point group                 C3V     NOp   6
 Largest Abelian subgroup         CS      NOp   2
 Largest concise Abelian subgroup CS      NOp   2
                         Standard orientation:                         
 ---------------------------------------------------------------------
 Center     Atomic      Atomic             Coordinates (Angstroms)
 Number     Number       Type             X           Y           Z
 ---------------------------------------------------------------------
      1         15           0        0.000000    0.000000    0.873826
      2         19           0        0.000000    2.709217   -0.229954
      3         19           0       -2.346251   -1.354609   -0.229954
      4         19           0        2.346251   -1.354609   -0.229954
 ---------------------------------------------------------------------
 Rotational constants (GHZ):           1.1014909           1.1014909           0.5890444

 **********************************************************************

            Population analysis using the SCF Density.

 **********************************************************************

 Orbital symmetries:
       Occupied  (E) (E) (A1) (A1) (E) (E) (A1) (E) (E) (A1) (A2)
                 (E) (E) (E) (E) (A1) (A1) (A1) (E) (E) (A1) (E)
                 (E) (E) (E) (A1) (A2) (E) (E) (A1) (E) (E) (A1)
                 (E) (E) (A1)
       Virtual   (A1) (E) (E) (A1) (E) (E) (E) (E) (A1) (A2) (E)
                 (E) (A1) (E) (E) (A1) (E) (E) (A1) (E) (E) (E)
                 (E) (A1) (A2) (E) (E) (E) (E) (A2) (A1) (E) (E)
                 (E) (E) (A1) (E) (E) (A2) (A1) (E) (E) (A1) (E)
                 (E) (A2) (A1) (E) (E) (E) (E) (A1) (E) (E) (A1)
                 (E) (E) (A2) (E) (E) (A1) (A1) (E) (E) (E) (E)
                 (A2) (A1) (E) (E) (E) (E) (A1) (E) (E) (A2) (A1)
                 (E) (E) (E) (E) (A2) (E) (E) (A1) (E) (E) (A1)
                 (E) (E) (E) (E) (A2) (A1) (E) (E) (A1) (E) (E)
                 (E) (E) (A1) (A2) (E) (E) (A1) (A2) (E) (E) (E)
                 (E) (E) (E) (A2) (A1) (E) (E) (A1) (E) (E) (E)
                 (E) (A1) (E) (E) (A1) (A1) (E) (E) (A2) (E) (E)
                 (A1) (E) (E) (A1) (E) (E) (A1) (E) (E) (A1) (E)
                 (E) (A1) (A2) (E) (E) (A1) (E) (E) (A2) (E) (E)
                 (E) (E) (A2) (A1) (E) (E) (A1) (E) (E) (E) (E)
                 (A1) (E) (E) (A2) (E) (E) (A1) (E) (E) (A1) (E)
                 (E) (A2) (E) (E) (A1) (E) (E) (A2) (E) (E) (A2)
                 (A1) (E) (E) (A1) (E) (E) (E) (E) (A1) (A1) (E)
                 (E) (A1) (E) (E) (A1) (A1) (E) (E) (E) (E) (A1)
                 (E) (E) (E) (E) (A1) (A2) (E) (E) (E) (E) (A1)
                 (A2) (E) (E) (E) (E) (A2) (A1) (E) (E) (A1) (E)
                 (E) (A1) (E) (E) (A1) (A1) (E) (E) (A1) (A1) (E)
                 (E) (A1)
 The electronic state is 1-A1.
 Alpha  occ. eigenvalues -- -128.79016-128.79016-128.79016 -76.15883 -12.83974
 Alpha  occ. eigenvalues --  -12.83974 -12.83974 -10.24814 -10.24814 -10.24813
 Alpha  occ. eigenvalues --  -10.24812 -10.24811 -10.24811 -10.24808 -10.24808
 Alpha  occ. eigenvalues --  -10.24808  -6.16471  -4.38064  -4.37943  -4.37943
 Alpha  occ. eigenvalues --   -1.23772  -1.23768  -1.23768  -0.64416  -0.64416
 Alpha  occ. eigenvalues --   -0.64395  -0.64384  -0.64378  -0.64378  -0.64175
 Alpha  occ. eigenvalues --   -0.64012  -0.64012  -0.35402  -0.08870  -0.08870
 Alpha  occ. eigenvalues --   -0.08266
 Alpha virt. eigenvalues --   -0.05473  -0.03810  -0.03810  -0.01206  -0.01137
 Alpha virt. eigenvalues --   -0.01137   0.00232   0.00232   0.00288   0.01229
 Alpha virt. eigenvalues --    0.01765   0.01765   0.03140   0.04217   0.04217
 Alpha virt. eigenvalues --    0.04264   0.04699   0.04699   0.05008   0.05720
 Alpha virt. eigenvalues --    0.05720   0.06239   0.06239   0.06271   0.06440
 Alpha virt. eigenvalues --    0.07141   0.07141   0.08665   0.08665   0.09501
 Alpha virt. eigenvalues --    0.09837   0.10180   0.10180   0.13027   0.13027
 Alpha virt. eigenvalues --    0.13459   0.14584   0.14584   0.16293   0.17653
 Alpha virt. eigenvalues --    0.18958   0.18958   0.19414   0.20503   0.20503
 Alpha virt. eigenvalues --    0.21457   0.21770   0.22022   0.22022   0.22669
 Alpha virt. eigenvalues --    0.22669   0.23159   0.23872   0.23872   0.24435
 Alpha virt. eigenvalues --    0.24597   0.24597   0.25053   0.25182   0.25182
 Alpha virt. eigenvalues --    0.25512   0.25687   0.26679   0.26679   0.27603
 Alpha virt. eigenvalues --    0.27603   0.28459   0.29318   0.29338   0.29338
 Alpha virt. eigenvalues --    0.30030   0.30030   0.32927   0.33111   0.33111
 Alpha virt. eigenvalues --    0.33283   0.35443   0.35830   0.35830   0.37350
 Alpha virt. eigenvalues --    0.37350   0.41038   0.42002   0.42002   0.45793
 Alpha virt. eigenvalues --    0.45937   0.45937   0.46584   0.46750   0.46750
 Alpha virt. eigenvalues --    0.49948   0.49948   0.51833   0.54207   0.54224
 Alpha virt. eigenvalues --    0.54224   0.64804   0.66438   0.66438   0.67774
 Alpha virt. eigenvalues --    0.67774   0.68241   0.73259   0.76800   0.76800
 Alpha virt. eigenvalues --    0.80896   0.81879   0.81938   0.81938   0.82951
 Alpha virt. eigenvalues --    0.82951   0.83999   0.83999   0.85151   0.86530
 Alpha virt. eigenvalues --    0.88968   0.88968   0.94421   0.96110   0.96110
 Alpha virt. eigenvalues --    0.97936   0.97936   0.98966   1.07202   1.07202
 Alpha virt. eigenvalues --    1.07230   1.07817   1.09030   1.09030   1.12467
 Alpha virt. eigenvalues --    1.12759   1.12759   1.16373   1.21195   1.21195
 Alpha virt. eigenvalues --    1.33412   1.36392   1.36392   1.58358   2.10747
 Alpha virt. eigenvalues --    2.10747   2.10767   2.11041   2.11041   2.11103
 Alpha virt. eigenvalues --    2.11387   2.11747   2.11747   2.12321   2.12508
 Alpha virt. eigenvalues --    2.12508   2.12676   2.13332   2.13332   2.14361
 Alpha virt. eigenvalues --    2.14361   2.15930   2.20061   2.23216   2.23216
 Alpha virt. eigenvalues --    2.33635   2.37093   2.37093   2.39396   2.39396
 Alpha virt. eigenvalues --    2.64241   2.64500   2.64500   2.64801   2.64832
 Alpha virt. eigenvalues --    2.64832   2.66103   2.68761   2.68761   2.74572
 Alpha virt. eigenvalues --    2.80258   2.80258   2.82719   2.88193   2.88193
 Alpha virt. eigenvalues --    2.88735   2.89009   2.89009   2.89188   2.89195
 Alpha virt. eigenvalues --    2.89195   2.93711   2.93720   2.93726   2.93726
 Alpha virt. eigenvalues --    2.95533   2.95895   2.95895   3.06247   3.06247
 Alpha virt. eigenvalues --    3.14283   3.63694   3.74464   3.74464   4.07273
 Alpha virt. eigenvalues --    4.12024   4.12024   5.67432   7.15337   7.17341
 Alpha virt. eigenvalues --    7.17341   7.21124   7.21124   7.37406   7.37415
 Alpha virt. eigenvalues --    7.37415   7.37608   7.37608   7.37622   7.37800
 Alpha virt. eigenvalues --    7.38318   7.38318   7.38598   7.38598   7.38792
 Alpha virt. eigenvalues --    7.38841   7.39736   7.39736   7.40242   7.40242
 Alpha virt. eigenvalues --    7.40712   7.47451   7.48109   7.48109  14.21618
 Alpha virt. eigenvalues --   14.25780  14.25780  17.43730  17.53875  17.53875
 Alpha virt. eigenvalues --   19.85492  49.19384  49.23124  49.23124  69.91180
 Alpha virt. eigenvalues --  341.14911 341.21224 341.21224 380.01882
          Condensed to atoms (all electrons):
               1          2          3          4
     1  P   15.138316   0.269606   0.269606   0.269606
     2  K    0.269606  18.413653   0.000515   0.000515
     3  K    0.269606   0.000515  18.413653   0.000515
     4  K    0.269606   0.000515   0.000515  18.413653
 Mulliken charges:
               1
     1  P   -0.947133
     2  K    0.315711
     3  K    0.315711
     4  K    0.315711
 Sum of Mulliken charges =  -0.00000
 Mulliken charges with hydrogens summed into heavy atoms:
               1
     1  P   -0.947133
     2  K    0.315711
     3  K    0.315711
     4  K    0.315711
 Electronic spatial extent (au):  <R**2>=           1655.1198
 Charge=             -0.0000 electrons
 Dipole moment (field-independent basis, Debye):
    X=             -0.0000    Y=              0.0000    Z=             -3.9946  Tot=              3.9946
 Quadrupole moment (field-independent basis, Debye-Ang):
   XX=            -38.7305   YY=            -38.7305   ZZ=            -69.7151
   XY=             -0.0000   XZ=              0.0000   YZ=              0.0000
 Traceless Quadrupole moment (field-independent basis, Debye-Ang):
   XX=             10.3282   YY=             10.3282   ZZ=            -20.6564
   XY=             -0.0000   XZ=              0.0000   YZ=              0.0000
 Octapole moment (field-independent basis, Debye-Ang**2):
  XXX=             -0.0000  YYY=             38.2597  ZZZ=            -12.2464  XYY=              0.0000
  XXY=            -38.2597  XXZ=             -3.5180  XZZ=              0.0000  YZZ=              0.0000
  YYZ=             -3.5180  XYZ=              0.0000
 Hexadecapole moment (field-independent basis, Debye-Ang**3):
 XXXX=           -961.1286 YYYY=           -961.1286 ZZZZ=           -320.2066 XXXY=             -0.0000
 XXXZ=             -0.0000 YYYX=              0.0000 YYYZ=              2.9702 ZZZX=             -0.0000
 ZZZY=             -0.0000 XXYY=           -320.3762 XXZZ=           -237.4382 YYZZ=           -237.4382
 XXYZ=             -2.9702 YYXZ=             -0.0000 ZZXY=             -0.0000
 N-N= 2.767901996764D+02 E-N=-5.638029469004D+03  KE= 2.135829613966D+03
 Symmetry A'   KE= 1.443682405465D+03
 Symmetry A"   KE= 6.921472085002D+02
 Unable to Open any file for archive entry.
 1\1\GINC-TCOPT10\FOpt\RPBEPBE\def2QZVPP\K3P1\HUTTER\30-Jul-2021\0\\#N 
 RPBEPBE/Def2QZVPP scf=tight Int(Grid=ultrafine) OPT FREQ\\Mol job 1\\0
 ,1\P,11.1841741326,10.5,10.9930269878\K,12.5387827,8.153749137,9.88924
 73444\K,12.5387827,12.846250863,9.8892473444\K,8.4749569979,10.5,9.889
 2473444\\Version=ES64L-G16RevC.01\State=1-A1\HF=-2140.3838498\RMSD=5.0
 66e-09\RMSF=9.516e-07\Dipole=0.,0.,-1.5715871\Quadrupole=7.6787809,7.6
 787809,-15.3575618,0.,0.,0.\PG=C03V [C3(P1),3SGV(K1)]\\@
 The archive entry for this job was punched.


 IT MATTERS NOT HOW DEEP YOU PLOW,
 BUT HOW LONG YOU STAY IN THE FURROW.
 Job cpu time:       0 days  0 hours 34 minutes 55.5 seconds.
 Elapsed time:       0 days  0 hours  4 minutes 23.7 seconds.
 File lengths (MBytes):  RWF=     53 Int=      0 D2E=      0 Chk=      7 Scr=      1
 Normal termination of Gaussian 16 at Fri Jul 30 15:56:47 2021.
 Link1:  Proceeding to internal job step number  2.
 ----------------------------------------------------------------------
 #N Geom=AllCheck Guess=TCheck SCRF=Check GenChk RPBEPBE/def2QZVPP Freq
 ----------------------------------------------------------------------
 1/10=4,29=7,30=1,38=1,40=1/1,3;
 2/12=2,40=1/2;
 3/5=45,7=202,11=2,14=-4,25=1,30=1,70=2,71=2,74=1009,75=-5,116=1,140=1/1,2,3;
 4/5=101/1;
 5/5=2,32=2,38=6,98=1/2;
 8/6=4,10=90,11=11/1;
 11/6=1,8=1,9=11,15=111,16=1/1,2,10;
 10/6=1/2;
 6/7=2,8=2,9=2,10=2,28=1/1;
 7/8=1,10=1,25=1/1,2,3,16;
 1/10=4,30=1/3;
 99//99;
 Structure from the checkpoint file:  "/data/hutter/SMG16/PBE/Gau-47318.chk"
 ---------
 Mol job 1
 ---------
 Charge =  0 Multiplicity = 1
 Redundant internal coordinates found in file.  (old form).
 P,0,11.1841741326,10.5,10.9930269878
 K,0,12.5387827,8.153749137,9.8892473444
 K,0,12.5387827,12.846250863,9.8892473444
 K,0,8.4749569979,10.5,9.8892473444
 Recover connectivity data from disk.

 GradGradGradGradGradGradGradGradGradGradGradGradGradGradGradGradGradGrad
 Berny optimization.
 Initialization pass.
                           ----------------------------
                           !    Initial Parameters    !
                           ! (Angstroms and Degrees)  !
 --------------------------                            --------------------------
 ! Name  Definition              Value          Derivative Info.                !
 --------------------------------------------------------------------------------
 ! R1    R(1,2)                  2.9254         calculate D2E/DX2 analytically  !
 ! R2    R(1,3)                  2.9254         calculate D2E/DX2 analytically  !
 ! R3    R(1,4)                  2.9254         calculate D2E/DX2 analytically  !
 ! A1    A(2,1,3)              106.6463         calculate D2E/DX2 analytically  !
 ! A2    A(2,1,4)              106.6463         calculate D2E/DX2 analytically  !
 ! A3    A(3,1,4)              106.6463         calculate D2E/DX2 analytically  !
 ! D1    D(2,1,4,3)           -113.67           calculate D2E/DX2 analytically  !
 --------------------------------------------------------------------------------
 Trust Radius=3.00D-01 FncErr=1.00D-07 GrdErr=1.00D-07 EigMax=2.50D+02 EigMin=1.00D-04
 Number of steps in this run=      2 maximum allowed number of steps=      2.
 GradGradGradGradGradGradGradGradGradGradGradGradGradGradGradGradGradGrad

                          Input orientation:                          
 ---------------------------------------------------------------------
 Center     Atomic      Atomic             Coordinates (Angstroms)
 Number     Number       Type             X           Y           Z
 ---------------------------------------------------------------------
      1         15           0       11.184174   10.500000   10.993027
      2         19           0       12.538783    8.153749    9.889247
      3         19           0       12.538783   12.846251    9.889247
      4         19           0        8.474957   10.500000    9.889247
 ---------------------------------------------------------------------
                    Distance matrix (angstroms):
                    1          2          3          4
     1  P    0.000000
     2  K    2.925438   0.000000
     3  K    2.925438   4.692502   0.000000
     4  K    2.925438   4.692502   4.692502   0.000000
 Stoichiometry    K3P
 Framework group  C3V[C3(P),3SGV(K)]
 Deg. of freedom     2
 Full point group                 C3V     NOp   6
 Largest Abelian subgroup         CS      NOp   2
 Largest concise Abelian subgroup CS      NOp   2
                         Standard orientation:                         
 ---------------------------------------------------------------------
 Center     Atomic      Atomic             Coordinates (Angstroms)
 Number     Number       Type             X           Y           Z
 ---------------------------------------------------------------------
      1         15           0        0.000000    0.000000    0.873826
      2         19           0        0.000000    2.709217   -0.229954
      3         19           0       -2.346251   -1.354609   -0.229954
      4         19           0        2.346251   -1.354609   -0.229954
 ---------------------------------------------------------------------
 Rotational constants (GHZ):           1.1014909           1.1014909           0.5890444
 Standard basis: def2QZVPP (5D, 7F)
 There are   198 symmetry adapted cartesian basis functions of A'  symmetry.
 There are   137 symmetry adapted cartesian basis functions of A"  symmetry.
 There are   163 symmetry adapted basis functions of A'  symmetry.
 There are   117 symmetry adapted basis functions of A"  symmetry.
   280 basis functions,   517 primitive gaussians,   335 cartesian basis functions
    36 alpha electrons       36 beta electrons
       nuclear repulsion energy       276.7901996764 Hartrees.
 NAtoms=    4 NActive=    4 NUniq=    2 SFac= 4.00D+00 NAtFMM=   60 NAOKFM=F Big=F
 Integral buffers will be    131072 words long.
 Raffenetti 2 integral format.
 Two-electron integral symmetry is turned on.
 One-electron integrals computed using PRISM.
   6 Symmetry operations used in ECPInt.
 ECPInt:  NShTT=    4465 NPrTT=   18164 LenC2=    4106 LenP2D=   12305.
 LDataN:  DoStor=T MaxTD1= 8 Len=  415
 NBasis=   280 RedAO= T EigKep=  3.88D-04  NBF=   163   117
 NBsUse=   280 1.00D-06 EigRej= -1.00D+00 NBFU=   163   117
 Initial guess from the checkpoint file:  "/data/hutter/SMG16/PBE/Gau-47318.chk"
 B after Tr=     0.000000    0.000000    0.000000
         Rot=    1.000000    0.000000    0.000000    0.000000 Ang=   0.00 deg.
 Initial guess orbital symmetries:
       Occupied  (E) (E) (A1) (A1) (E) (E) (A1) (E) (E) (A1) (A2)
                 (E) (E) (E) (E) (A1) (A1) (A1) (E) (E) (A1) (E)
                 (E) (E) (E) (A1) (A2) (E) (E) (A1) (E) (E) (A1)
                 (E) (E) (A1)
       Virtual   (A1) (E) (E) (A1) (E) (E) (E) (E) (A1) (A2) (E)
                 (E) (A1) (E) (E) (A1) (E) (E) (A1) (E) (E) (E)
                 (E) (A1) (A2) (E) (E) (E) (E) (A2) (A1) (E) (E)
                 (E) (E) (A1) (E) (E) (A2) (A1) (E) (E) (A1) (E)
                 (E) (A2) (A1) (E) (E) (E) (E) (A1) (E) (E) (A1)
                 (E) (E) (A2) (E) (E) (A1) (A1) (E) (E) (E) (E)
                 (A2) (A1) (E) (E) (E) (E) (A1) (E) (E) (A2) (A1)
                 (E) (E) (E) (E) (A2) (E) (E) (A1) (E) (E) (A1)
                 (E) (E) (E) (E) (A2) (A1) (E) (E) (A1) (E) (E)
                 (E) (E) (A1) (A2) (E) (E) (A1) (A2) (E) (E) (E)
                 (E) (E) (E) (A2) (A1) (E) (E) (A1) (E) (E) (E)
                 (E) (A1) (E) (E) (A1) (A1) (E) (E) (A2) (E) (E)
                 (A1) (E) (E) (A1) (E) (E) (A1) (E) (E) (A1) (E)
                 (E) (A1) (A2) (E) (E) (A1) (E) (E) (A2) (E) (E)
                 (E) (E) (A2) (A1) (E) (E) (A1) (E) (E) (E) (E)
                 (A1) (E) (E) (A2) (E) (E) (A1) (E) (E) (A1) (E)
                 (E) (A2) (E) (E) (A1) (E) (E) (A2) (E) (E) (A2)
                 (A1) (E) (E) (A1) (E) (E) (E) (E) (A1) (A1) (E)
                 (E) (A1) (E) (E) (A1) (A1) (E) (E) (E) (E) (A1)
                 (E) (E) (E) (E) (A1) (A2) (E) (E) (E) (E) (A1)
                 (A2) (E) (E) (E) (E) (A2) (A1) (E) (E) (A1) (E)
                 (E) (A1) (E) (E) (A1) (A1) (E) (E) (A1) (A1) (E)
                 (E) (A1)
 Requested convergence on RMS density matrix=1.00D-08 within 128 cycles.
 Requested convergence on MAX density matrix=1.00D-06.
 Requested convergence on             energy=1.00D-06.
 No special actions if energy rises.
 SCF Done:  E(RPBE-PBE) =  -2140.38384983     A.U. after    3 cycles
            NFock=  3  Conv=0.93D-09     -V/T= 2.0021
 DoSCS=F DFT=T ScalE2(SS,OS)=  1.000000  1.000000
 Range of M.O.s used for correlation:     1   280
 NBasis=   280 NAE=    36 NBE=    36 NFC=     0 NFV=     0
 NROrb=    280 NOA=    36 NOB=    36 NVA=   244 NVB=   244

 **** Warning!!: The largest alpha MO coefficient is  0.12874490D+02


 **** Warning!!: The smallest alpha delta epsilon is  0.27922925D-01

   6 Symmetry operations used in ECPInt.
 ECPInt:  NShTT=    4465 NPrTT=   18164 LenC2=    4106 LenP2D=   12305.
 LDataN:  DoStor=T MaxTD1= 9 Len=  602
 Symmetrizing basis deriv contribution to polar:
 IMax=3 JMax=2 DiffMx= 0.00D+00
 G2DrvN: will do     5 centers at a time, making    1 passes.
 Calling FoFCou, ICntrl=  3507 FMM=F I1Cent=   0 AccDes= 0.00D+00.
 End of G2Drv F.D. properties file   721 does not exist.
 End of G2Drv F.D. properties file   722 does not exist.
 End of G2Drv F.D. properties file   788 does not exist.
          IDoAtm=1111
          Differentiating once with respect to electric field.
                with respect to dipole field.
          Differentiating once with respect to nuclear coordinates.
 CalDSu exits because no D1Ps are significant.
          There are     9 degrees of freedom in the 1st order CPHF.  IDoFFX=4 NUNeed=     9.
      9 vectors produced by pass  0 Test12= 9.76D-14 1.11D-08 XBig12= 6.41D+03 5.81D+01.
 AX will form     9 AO Fock derivatives at one time.
      9 vectors produced by pass  1 Test12= 9.76D-14 1.11D-08 XBig12= 7.58D+03 2.71D+01.
      9 vectors produced by pass  2 Test12= 9.76D-14 1.11D-08 XBig12= 2.93D+02 3.93D+00.
      9 vectors produced by pass  3 Test12= 9.76D-14 1.11D-08 XBig12= 7.35D+00 7.19D-01.
      9 vectors produced by pass  4 Test12= 9.76D-14 1.11D-08 XBig12= 6.38D-01 2.25D-01.
      9 vectors produced by pass  5 Test12= 9.76D-14 1.11D-08 XBig12= 2.47D-02 4.73D-02.
      9 vectors produced by pass  6 Test12= 9.76D-14 1.11D-08 XBig12= 3.57D-04 4.16D-03.
      8 vectors produced by pass  7 Test12= 9.76D-14 1.11D-08 XBig12= 3.66D-06 5.26D-04.
      5 vectors produced by pass  8 Test12= 9.76D-14 1.11D-08 XBig12= 3.87D-08 5.11D-05.
      3 vectors produced by pass  9 Test12= 9.76D-14 1.11D-08 XBig12= 2.89D-10 4.28D-06.
      3 vectors produced by pass 10 Test12= 9.76D-14 1.11D-08 XBig12= 4.69D-12 5.21D-07.
      2 vectors produced by pass 11 Test12= 9.76D-14 1.11D-08 XBig12= 2.82D-14 3.14D-08.
 InvSVY:  IOpt=1 It=  1 EMax= 2.84D-14
 Solved reduced A of dimension    84 with     9 vectors.
 Isotropic polarizability for W=    0.000000      488.10 Bohr**3.
 End of Minotr F.D. properties file   721 does not exist.
 End of Minotr F.D. properties file   722 does not exist.
 End of Minotr F.D. properties file   788 does not exist.

 **********************************************************************

            Population analysis using the SCF Density.

 **********************************************************************

 Orbital symmetries:
       Occupied  (E) (E) (A1) (A1) (E) (E) (A1) (E) (E) (A1) (A2)
                 (E) (E) (E) (E) (A1) (A1) (A1) (E) (E) (A1) (E)
                 (E) (E) (E) (A1) (A2) (E) (E) (A1) (E) (E) (A1)
                 (E) (E) (A1)
       Virtual   (A1) (E) (E) (A1) (E) (E) (E) (E) (A1) (A2) (E)
                 (E) (A1) (E) (E) (A1) (E) (E) (A1) (E) (E) (E)
                 (E) (A1) (A2) (E) (E) (E) (E) (A2) (A1) (E) (E)
                 (E) (E) (A1) (E) (E) (A2) (A1) (E) (E) (A1) (E)
                 (E) (A2) (A1) (E) (E) (E) (E) (A1) (E) (E) (A1)
                 (E) (E) (A2) (E) (E) (A1) (A1) (E) (E) (E) (E)
                 (A2) (A1) (E) (E) (E) (E) (A1) (E) (E) (A2) (A1)
                 (E) (E) (E) (E) (A2) (E) (E) (A1) (E) (E) (A1)
                 (E) (E) (E) (E) (A2) (A1) (E) (E) (A1) (E) (E)
                 (E) (E) (A1) (A2) (E) (E) (A1) (A2) (E) (E) (E)
                 (E) (E) (E) (A2) (A1) (E) (E) (A1) (E) (E) (E)
                 (E) (A1) (E) (E) (A1) (A1) (E) (E) (A2) (E) (E)
                 (A1) (E) (E) (A1) (E) (E) (A1) (E) (E) (A1) (E)
                 (E) (A1) (A2) (E) (E) (A1) (E) (E) (A2) (E) (E)
                 (E) (E) (A2) (A1) (E) (E) (A1) (E) (E) (E) (E)
                 (A1) (E) (E) (A2) (E) (E) (A1) (E) (E) (A1) (E)
                 (E) (A2) (E) (E) (A1) (E) (E) (A2) (E) (E) (A2)
                 (A1) (E) (E) (A1) (E) (E) (E) (E) (A1) (A1) (E)
                 (E) (A1) (E) (E) (A1) (A1) (E) (E) (E) (E) (A1)
                 (E) (E) (E) (E) (A1) (A2) (E) (E) (E) (E) (A1)
                 (A2) (E) (E) (E) (E) (A2) (A1) (E) (E) (A1) (E)
                 (E) (A1) (E) (E) (A1) (A1) (E) (E) (A1) (A1) (E)
                 (E) (A1)
 The electronic state is 1-A1.
 Alpha  occ. eigenvalues -- -128.79016-128.79016-128.79016 -76.15883 -12.83974
 Alpha  occ. eigenvalues --  -12.83974 -12.83974 -10.24814 -10.24814 -10.24813
 Alpha  occ. eigenvalues --  -10.24812 -10.24811 -10.24811 -10.24808 -10.24808
 Alpha  occ. eigenvalues --  -10.24808  -6.16471  -4.38064  -4.37943  -4.37943
 Alpha  occ. eigenvalues --   -1.23772  -1.23768  -1.23768  -0.64416  -0.64416
 Alpha  occ. eigenvalues --   -0.64395  -0.64384  -0.64378  -0.64378  -0.64175
 Alpha  occ. eigenvalues --   -0.64012  -0.64012  -0.35402  -0.08870  -0.08870
 Alpha  occ. eigenvalues --   -0.08266
 Alpha virt. eigenvalues --   -0.05473  -0.03810  -0.03810  -0.01206  -0.01137
 Alpha virt. eigenvalues --   -0.01137   0.00232   0.00232   0.00288   0.01229
 Alpha virt. eigenvalues --    0.01765   0.01765   0.03140   0.04217   0.04217
 Alpha virt. eigenvalues --    0.04264   0.04699   0.04699   0.05008   0.05720
 Alpha virt. eigenvalues --    0.05720   0.06239   0.06239   0.06271   0.06440
 Alpha virt. eigenvalues --    0.07141   0.07141   0.08665   0.08665   0.09501
 Alpha virt. eigenvalues --    0.09837   0.10180   0.10180   0.13027   0.13027
 Alpha virt. eigenvalues --    0.13459   0.14584   0.14584   0.16293   0.17653
 Alpha virt. eigenvalues --    0.18958   0.18958   0.19414   0.20503   0.20503
 Alpha virt. eigenvalues --    0.21457   0.21770   0.22022   0.22022   0.22669
 Alpha virt. eigenvalues --    0.22669   0.23159   0.23872   0.23872   0.24435
 Alpha virt. eigenvalues --    0.24597   0.24597   0.25053   0.25182   0.25182
 Alpha virt. eigenvalues --    0.25512   0.25687   0.26679   0.26679   0.27603
 Alpha virt. eigenvalues --    0.27603   0.28459   0.29318   0.29338   0.29338
 Alpha virt. eigenvalues --    0.30030   0.30030   0.32927   0.33111   0.33111
 Alpha virt. eigenvalues --    0.33283   0.35443   0.35830   0.35830   0.37350
 Alpha virt. eigenvalues --    0.37350   0.41038   0.42002   0.42002   0.45793
 Alpha virt. eigenvalues --    0.45937   0.45937   0.46584   0.46750   0.46750
 Alpha virt. eigenvalues --    0.49948   0.49948   0.51833   0.54207   0.54224
 Alpha virt. eigenvalues --    0.54224   0.64804   0.66438   0.66438   0.67774
 Alpha virt. eigenvalues --    0.67774   0.68241   0.73259   0.76800   0.76800
 Alpha virt. eigenvalues --    0.80896   0.81879   0.81938   0.81938   0.82951
 Alpha virt. eigenvalues --    0.82951   0.83999   0.83999   0.85151   0.86530
 Alpha virt. eigenvalues --    0.88968   0.88968   0.94421   0.96110   0.96110
 Alpha virt. eigenvalues --    0.97936   0.97936   0.98966   1.07202   1.07202
 Alpha virt. eigenvalues --    1.07230   1.07817   1.09030   1.09030   1.12467
 Alpha virt. eigenvalues --    1.12759   1.12759   1.16373   1.21195   1.21195
 Alpha virt. eigenvalues --    1.33412   1.36392   1.36392   1.58358   2.10747
 Alpha virt. eigenvalues --    2.10747   2.10767   2.11041   2.11041   2.11103
 Alpha virt. eigenvalues --    2.11387   2.11747   2.11747   2.12321   2.12508
 Alpha virt. eigenvalues --    2.12508   2.12676   2.13332   2.13332   2.14361
 Alpha virt. eigenvalues --    2.14361   2.15930   2.20061   2.23216   2.23216
 Alpha virt. eigenvalues --    2.33635   2.37093   2.37093   2.39396   2.39396
 Alpha virt. eigenvalues --    2.64241   2.64500   2.64500   2.64801   2.64832
 Alpha virt. eigenvalues --    2.64832   2.66103   2.68761   2.68761   2.74572
 Alpha virt. eigenvalues --    2.80258   2.80258   2.82719   2.88193   2.88193
 Alpha virt. eigenvalues --    2.88735   2.89009   2.89009   2.89188   2.89195
 Alpha virt. eigenvalues --    2.89195   2.93711   2.93720   2.93726   2.93726
 Alpha virt. eigenvalues --    2.95533   2.95895   2.95895   3.06247   3.06247
 Alpha virt. eigenvalues --    3.14283   3.63694   3.74464   3.74464   4.07273
 Alpha virt. eigenvalues --    4.12024   4.12024   5.67432   7.15337   7.17341
 Alpha virt. eigenvalues --    7.17341   7.21124   7.21124   7.37406   7.37415
 Alpha virt. eigenvalues --    7.37415   7.37608   7.37608   7.37622   7.37800
 Alpha virt. eigenvalues --    7.38318   7.38318   7.38598   7.38598   7.38792
 Alpha virt. eigenvalues --    7.38841   7.39736   7.39736   7.40242   7.40242
 Alpha virt. eigenvalues --    7.40712   7.47451   7.48109   7.48109  14.21618
 Alpha virt. eigenvalues --   14.25780  14.25780  17.43730  17.53875  17.53875
 Alpha virt. eigenvalues --   19.85492  49.19384  49.23124  49.23124  69.91180
 Alpha virt. eigenvalues --  341.14911 341.21224 341.21224 380.01882
          Condensed to atoms (all electrons):
               1          2          3          4
     1  P   15.138318   0.269606   0.269606   0.269606
     2  K    0.269606  18.413653   0.000515   0.000515
     3  K    0.269606   0.000515  18.413653   0.000515
     4  K    0.269606   0.000515   0.000515  18.413653
 Mulliken charges:
               1
     1  P   -0.947135
     2  K    0.315712
     3  K    0.315712
     4  K    0.315712
 Sum of Mulliken charges =  -0.00000
 Mulliken charges with hydrogens summed into heavy atoms:
               1
     1  P   -0.947135
     2  K    0.315712
     3  K    0.315712
     4  K    0.315712
 APT charges:
               1
     1  P   -0.883264
     2  K    0.294378
     3  K    0.294410
     4  K    0.294410
 Sum of APT charges =  -0.00007
 APT charges with hydrogens summed into heavy atoms:
               1
     1  P   -0.883264
     2  K    0.294378
     3  K    0.294410
     4  K    0.294410
 Electronic spatial extent (au):  <R**2>=           1655.1197
 Charge=             -0.0000 electrons
 Dipole moment (field-independent basis, Debye):
    X=             -0.0000    Y=              0.0000    Z=             -3.9946  Tot=              3.9946
 Quadrupole moment (field-independent basis, Debye-Ang):
   XX=            -38.7304   YY=            -38.7304   ZZ=            -69.7151
   XY=             -0.0000   XZ=              0.0000   YZ=             -0.0000
 Traceless Quadrupole moment (field-independent basis, Debye-Ang):
   XX=             10.3282   YY=             10.3282   ZZ=            -20.6565
   XY=             -0.0000   XZ=              0.0000   YZ=             -0.0000
 Octapole moment (field-independent basis, Debye-Ang**2):
  XXX=              0.0000  YYY=             38.2598  ZZZ=            -12.2464  XYY=              0.0000
  XXY=            -38.2598  XXZ=             -3.5181  XZZ=              0.0000  YZZ=              0.0000
  YYZ=             -3.5181  XYZ=              0.0000
 Hexadecapole moment (field-independent basis, Debye-Ang**3):
 XXXX=           -961.1276 YYYY=           -961.1276 ZZZZ=           -320.2063 XXXY=             -0.0000
 XXXZ=             -0.0000 YYYX=             -0.0000 YYYZ=              2.9701 ZZZX=             -0.0000
 ZZZY=             -0.0000 XXYY=           -320.3759 XXZZ=           -237.4380 YYZZ=           -237.4380
 XXYZ=             -2.9701 YYXZ=              0.0000 ZZXY=             -0.0000
 N-N= 2.767901996764D+02 E-N=-5.638029486554D+03  KE= 2.135829617837D+03
 Symmetry A'   KE= 1.443682407979D+03
 Symmetry A"   KE= 6.921472098585D+02
  Exact polarizability:     577.294       0.000     577.317       0.000       0.015     309.679
 Approx polarizability:    1213.693      -0.000    1213.693       0.000       0.000     872.654
   6 Symmetry operations used in ECPInt.
 ECPInt:  NShTT=    4465 NPrTT=   18164 LenC2=    4106 LenP2D=   12305.
 LDataN:  DoStor=T MaxTD1=10 Len=  848
 Calling FoFJK, ICntrl=    100527 FMM=F ISym2X=1 I1Cent= 0 IOpClX= 0 NMat=1 NMatS=1 NMatT=0.
 Full mass-weighted force constant matrix:
 Low frequencies ---   -0.0108   -0.0059   -0.0043    4.4080    5.1682    5.1700
 Low frequencies ---   49.2093   49.2094   56.0110
 Diagonal vibrational polarizability:
       29.8056783      29.8052691     189.0416665
 Harmonic frequencies (cm**-1), IR intensities (KM/Mole), Raman scattering
 activities (A**4/AMU), depolarization ratios for plane and unpolarized
 incident light, reduced masses (AMU), force constants (mDyne/A),
 and normal coordinates:
                      1                      2                      3
                      E                      E                     A1
 Frequencies --     49.2090                49.2092                56.0110
 Red. masses --     37.7551                37.7551                34.5937
 Frc consts  --      0.0539                 0.0539                 0.0639
 IR Inten    --      1.2524                 1.2522                21.6132
  Atom  AN      X      Y      Z        X      Y      Z        X      Y      Z
     1  15     0.00   0.39   0.00    -0.39   0.00   0.00    -0.00  -0.00   0.74
     2  19    -0.00   0.42   0.08     0.62   0.00   0.00     0.00  -0.34  -0.20
     3  19     0.45  -0.36  -0.04    -0.16  -0.45   0.07     0.29   0.17  -0.20
     4  19    -0.45  -0.36  -0.04    -0.16   0.45  -0.07    -0.29   0.17  -0.20
                      4                      5                      6
                     A1                      E                      E
 Frequencies --    174.6101               240.3444               240.3453
 Red. masses --     36.1579                33.6285                33.6285
 Frc consts  --      0.6495                 1.1445                 1.1445
 IR Inten    --      4.1281                34.1024                34.1066
  Atom  AN      X      Y      Z        X      Y      Z        X      Y      Z
     1  15     0.00   0.00   0.59     0.00   0.82  -0.00     0.82  -0.00  -0.00
     2  19     0.00   0.44  -0.16     0.00  -0.44   0.18     0.00   0.00  -0.00
     3  19    -0.38  -0.22  -0.16    -0.19  -0.11  -0.09    -0.33  -0.19  -0.15
     4  19     0.38  -0.22  -0.16     0.19  -0.11  -0.09    -0.33   0.19   0.15

 -------------------
 - Thermochemistry -
 -------------------
 Temperature   298.150 Kelvin.  Pressure   1.00000 Atm.
 Atom     1 has atomic number 15 and mass  30.97376
 Atom     2 has atomic number 19 and mass  38.96371
 Atom     3 has atomic number 19 and mass  38.96371
 Atom     4 has atomic number 19 and mass  38.96371
 Molecular mass:   147.86489 amu.
 Principal axes and moments of inertia in atomic units:
                           1         2         3
     Eigenvalues --  1638.453121638.453123063.84574
           X            0.60000   0.80000   0.00000
           Y            0.80000  -0.60000   0.00000
           Z           -0.00000   0.00000   1.00000
 This molecule is an oblate symmetric top.
 Rotational symmetry number  3.
 Warning -- assumption of classical behavior for rotation
           may cause significant error
 Rotational temperatures (Kelvin)      0.05286     0.05286     0.02827
 Rotational constants (GHZ):           1.10149     1.10149     0.58904
 Zero-point vibrational energy       4843.3 (Joules/Mol)
                                    1.15757 (Kcal/Mol)
 Warning -- explicit consideration of   6 degrees of freedom as
           vibrations may cause significant error
 Vibrational temperatures:     70.80    70.80    80.59   251.22   345.80
          (Kelvin)            345.80
 
 Zero-point correction=                           0.001845 (Hartree/Particle)
 Thermal correction to Energy=                    0.008775
 Thermal correction to Enthalpy=                  0.009719
 Thermal correction to Gibbs Free Energy=        -0.032789
 Sum of electronic and zero-point Energies=          -2140.382005
 Sum of electronic and thermal Energies=             -2140.375075
 Sum of electronic and thermal Enthalpies=           -2140.374131
 Sum of electronic and thermal Free Energies=        -2140.416639
 
                     E (Thermal)             CV                S
                      KCal/Mol        Cal/Mol-Kelvin    Cal/Mol-Kelvin
 Total                    5.506             17.324             89.465
 Electronic               0.000              0.000              0.000
 Translational            0.889              2.981             40.884
 Rotational               0.889              2.981             28.304
 Vibrational              3.729             11.362             20.277
 Vibration     1          0.595              1.978              4.849
 Vibration     2          0.595              1.978              4.849
 Vibration     3          0.596              1.975              4.593
 Vibration     4          0.627              1.874              2.385
 Vibration     5          0.657              1.779              1.800
 Vibration     6          0.657              1.779              1.800
                       Q            Log10(Q)             Ln(Q)
 Total Bot       0.120727D+16         15.081804         34.727138
 Total V=0       0.851738D+16         15.930306         36.680885
 Vib (Bot)       0.499185D+02          1.698261          3.910391
 Vib (Bot)    1  0.420123D+01          0.623377          1.435378
 Vib (Bot)    2  0.420122D+01          0.623375          1.435374
 Vib (Bot)    3  0.368848D+01          0.566847          1.305213
 Vib (Bot)    4  0.115239D+01          0.061599          0.141838
 Vib (Bot)    5  0.815703D+00         -0.088468         -0.203704
 Vib (Bot)    6  0.815700D+00         -0.088469         -0.203708
 Vib (V=0)       0.352178D+03          2.546763          5.864138
 Vib (V=0)    1  0.473088D+01          0.674942          1.554111
 Vib (V=0)    2  0.473087D+01          0.674941          1.554108
 Vib (V=0)    3  0.422221D+01          0.625540          1.440359
 Vib (V=0)    4  0.175619D+01          0.244570          0.563144
 Vib (V=0)    5  0.145675D+01          0.163385          0.376208
 Vib (V=0)    6  0.145675D+01          0.163385          0.376207
 Electronic      0.100000D+01          0.000000          0.000000
 Translational   0.706727D+08          7.849251         18.073569
 Rotational      0.342209D+06          5.534292         12.743178
 ***** Axes restored to original set *****
 -------------------------------------------------------------------
 Center     Atomic                   Forces (Hartrees/Bohr)
 Number     Number              X              Y              Z
 -------------------------------------------------------------------
      1       15          -0.000000000    0.000000000   -0.000001187
      2       19           0.000000859   -0.000001488    0.000000396
      3       19           0.000000859    0.000001488    0.000000396
      4       19          -0.000001718   -0.000000000    0.000000396
 -------------------------------------------------------------------
 Cartesian Forces:  Max     0.000001718 RMS     0.000000946
 FormGI is forming the generalized inverse of G from B-inverse, IUseBI=4.

 GradGradGradGradGradGradGradGradGradGradGradGradGradGradGradGradGradGrad
 Berny optimization.
 Internal  Forces:  Max     0.000003877 RMS     0.000002515
 Search for a local minimum.
 Step number   1 out of a maximum of    2
 All quantities printed in internal units (Hartrees-Bohrs-Radians)
 Second derivative matrix not updated -- analytic derivatives used.
 The second derivative matrix:
                          R1        R2        R3        A1        A2
           R1           0.03307
           R2          -0.00041   0.03307
           R3          -0.00041  -0.00041   0.03307
           A1           0.00188   0.00188  -0.00204   0.01081
           A2           0.00434  -0.00114   0.00497  -0.00790   0.02897
           A3          -0.00114   0.00434   0.00497  -0.00790  -0.00209
           D1          -0.00361  -0.00361  -0.00223  -0.00508  -0.00329
                          A3        D1
           A3           0.02897
           D1          -0.00329   0.00880
 ITU=  0
     Eigenvalues ---    0.01155   0.02557   0.02665   0.03442   0.03789
     Eigenvalues ---    0.04067
 Angle between quadratic step and forces=  32.03 degrees.
 Linear search not attempted -- first point.
 Iteration  1 RMS(Cart)=  0.00025982 RMS(Int)=  0.00000003
 Iteration  2 RMS(Cart)=  0.00000003 RMS(Int)=  0.00000001
 ClnCor:  largest displacement from symmetrization is 1.24D-08 for atom     3.
 Variable       Old X    -DE/DX   Delta X   Delta X   Delta X     New X
                                 (Linear)    (Quad)   (Total)
    R1        5.52828   0.00000   0.00000  -0.00001  -0.00001   5.52827
    R2        5.52828   0.00000   0.00000  -0.00001  -0.00001   5.52827
    R3        5.52828   0.00000   0.00000  -0.00001  -0.00001   5.52827
    A1        1.86133   0.00000   0.00000   0.00013   0.00013   1.86146
    A2        1.86133   0.00000   0.00000   0.00013   0.00013   1.86146
    A3        1.86133   0.00000   0.00000   0.00013   0.00013   1.86146
    D1       -1.98392  -0.00000   0.00000  -0.00027  -0.00027  -1.98419
         Item               Value     Threshold  Converged?
 Maximum Force            0.000004     0.000450     YES
 RMS     Force            0.000003     0.000300     YES
 Maximum Displacement     0.000467     0.001800     YES
 RMS     Displacement     0.000260     0.001200     YES
 Predicted change in Energy=-1.004360D-09
 Optimization completed.
    -- Stationary point found.
                           ----------------------------
                           !   Optimized Parameters   !
                           ! (Angstroms and Degrees)  !
 --------------------------                            --------------------------
 ! Name  Definition              Value          Derivative Info.                !
 --------------------------------------------------------------------------------
 ! R1    R(1,2)                  2.9254         -DE/DX =    0.0                 !
 ! R2    R(1,3)                  2.9254         -DE/DX =    0.0                 !
 ! R3    R(1,4)                  2.9254         -DE/DX =    0.0                 !
 ! A1    A(2,1,3)              106.6463         -DE/DX =    0.0                 !
 ! A2    A(2,1,4)              106.6463         -DE/DX =    0.0                 !
 ! A3    A(3,1,4)              106.6463         -DE/DX =    0.0                 !
 ! D1    D(2,1,4,3)           -113.67           -DE/DX =    0.0                 !
 --------------------------------------------------------------------------------
 GradGradGradGradGradGradGradGradGradGradGradGradGradGradGradGradGradGrad


 ----------------------------------------------------------------------

 Electric dipole moment (input orientation):
 (Debye = 10**-18 statcoulomb cm , SI units = C m)
                  (au)            (Debye)         (10**-30 SI)
   Tot        0.157159D+01      0.399458D+01      0.133245D+02
   x          0.000000D+00      0.000000D+00      0.000000D+00
   y          0.000000D+00      0.000000D+00      0.000000D+00
   z         -0.157159D+01     -0.399458D+01     -0.133245D+02

 Dipole polarizability, Alpha (input orientation).
 (esu units = cm**3 , SI units = C**2 m**2 J**-1)
 Alpha(0;0):
               (au)            (10**-24 esu)      (10**-40 SI)
   iso        0.488097D+03      0.723285D+02      0.804763D+02
   aniso      0.267627D+03      0.396582D+02      0.441257D+02
   xx         0.577300D+03      0.855470D+02      0.951839D+02
   yx        -0.994817D-02     -0.147417D-02     -0.164023D-02
   yy         0.577311D+03      0.855487D+02      0.951858D+02
   zx         0.772725D-02      0.114506D-02      0.127405D-02
   zy        -0.133840D-01     -0.198330D-02     -0.220672D-02
   zz         0.309679D+03      0.458897D+02      0.510591D+02

 ----------------------------------------------------------------------

 Dipole orientation:
    15         21.13502604        -19.84212431        -20.77381029
    19         23.69486524        -15.40835276        -18.68796906
    19         23.69486524        -24.27589586        -18.68796906
    19         16.01534764        -19.84212431        -18.68796906

 Electric dipole moment (dipole orientation):
 (Debye = 10**-18 statcoulomb cm , SI units = C m)
                  (au)            (Debye)         (10**-30 SI)
   Tot        0.157159D+01      0.399458D+01      0.133245D+02
   x          0.000000D+00      0.000000D+00      0.000000D+00
   y          0.000000D+00      0.000000D+00      0.000000D+00
   z          0.157159D+01      0.399458D+01      0.133245D+02

 Dipole polarizability, Alpha (dipole orientation).
 (esu units = cm**3 , SI units = C**2 m**2 J**-1)
 Alpha(0;0):
               (au)            (10**-24 esu)      (10**-40 SI)
   iso        0.488097D+03      0.723285D+02      0.804763D+02
   aniso      0.267627D+03      0.396582D+02      0.441257D+02
   xx         0.577300D+03      0.855470D+02      0.951839D+02
   yx         0.994817D-02      0.147417D-02      0.164023D-02
   yy         0.577311D+03      0.855487D+02      0.951858D+02
   zx        -0.772725D-02     -0.114506D-02     -0.127405D-02
   zy        -0.133840D-01     -0.198330D-02     -0.220672D-02
   zz         0.309679D+03      0.458897D+02      0.510591D+02

 ----------------------------------------------------------------------
 Unable to Open any file for archive entry.
 1\1\GINC-TCOPT10\Freq\RPBEPBE\def2QZVPP\K3P1\HUTTER\30-Jul-2021\0\\#N 
 Geom=AllCheck Guess=TCheck SCRF=Check GenChk RPBEPBE/def2QZVPP Freq\\M
 ol job 1\\0,1\P,11.1841741326,10.5,10.9930269878\K,12.5387827,8.153749
 137,9.8892473444\K,12.5387827,12.846250863,9.8892473444\K,8.4749569979
 ,10.5,9.8892473444\\Version=ES64L-G16RevC.01\State=1-A1\HF=-2140.38384
 98\RMSD=9.258e-10\RMSF=9.458e-07\ZeroPoint=0.0018447\Thermal=0.0087746
 \ETot=-2140.3750753\HTot=-2140.3741311\GTot=-2140.4166387\Dipole=0.,0.
 ,-1.5715901\DipoleDeriv=-0.9356469,-0.0000244,0.0000223,-0.0000244,-0.
 9356187,-0.0000385,0.0000006,-0.000001,-0.7785268,0.2326308,-0.1371532
 ,0.0732137,-0.1371532,0.3910017,-0.1268099,-0.0247235,0.0428223,0.2595
 009,0.2326849,0.137165,0.0732235,0.1371484,0.3910396,0.1268284,-0.0247
 219,-0.0428211,0.2595069,0.4702321,0.0000005,-0.1464484,0.000017,0.153
 4924,0.0000008,0.0494451,-0.0000007,0.2595069\Polar=577.2998273,-0.009
 9482,577.3113145,0.0077273,-0.013384,309.6787893\Quadrupole=7.6787889,
 7.6787889,-15.3575778,0.,0.,0.\PG=C03V [C3(P1),3SGV(K1)]\NImag=0\\0.04
 202167,0.00000021,0.04202143,-0.00000011,0.00000020,0.01255150,-0.0072
 5632,0.01169256,0.00448099,0.00840043,0.01169256,-0.02075773,-0.007761
 29,-0.01206454,0.02233135,0.00567883,-0.00983601,-0.00418381,-0.005214
 74,0.00903220,0.00449245,-0.00725647,-0.01169263,0.00448102,-0.0002497
 8,0.00070809,0.00026973,0.00840043,-0.01169260,-0.02075782,0.00776125,
 -0.00070809,-0.00110909,0.00069158,0.01206454,0.02233135,0.00567884,0.
 00983596,-0.00418383,0.00026973,-0.00069158,-0.00015432,-0.00521474,-0
 .00903220,0.00449245,-0.02750858,-0.00000004,-0.00896195,-0.00089426,-
 0.00033600,-0.00073379,-0.00089426,0.00033600,-0.00073379,0.02929682,-
 0.00000007,-0.00050571,-0.00000005,0.00108018,-0.00046461,0.00011219,-
 0.00108018,-0.00046461,-0.00011219,0.,0.00143496,-0.01135761,-0.000000
 04,-0.00418383,0.00046406,-0.00057938,-0.00015432,0.00046406,0.0005793
 8,-0.00015432,0.01042949,0.,0.00449245\\0.,0.,0.00000119,-0.00000086,0
 .00000149,-0.00000040,-0.00000086,-0.00000149,-0.00000040,0.00000172,0
 .,-0.00000040\\\@
 The archive entry for this job was punched.


 CLIMB THE MOUNTAINS AND GET THEIR GOOD TIDINGS.
 NATURE'S PEACE WILL FLOW INTO YOU AS SUNSHINE FLOWS INTO TREES.
 THE WINDS WILL BLOW THEIR OWN FRESHNESS INTO YOU, 
 AND CARES WILL DROP OFF LIKE AUTUMN LEAVES.

                                         -- JOHN MUIR
 Job cpu time:       0 days  0 hours 16 minutes 59.7 seconds.
 Elapsed time:       0 days  0 hours  2 minutes  7.8 seconds.
 File lengths (MBytes):  RWF=     53 Int=      0 D2E=      0 Chk=      7 Scr=      1
 Normal termination of Gaussian 16 at Fri Jul 30 15:58:55 2021.
