 Entering Gaussian System, Link 0=g16
 Initial command:
 /sw-ng/spack/opt/spack/linux-opensuse_leap15-sandybridge/pgi-18.10/gaussian-src-16-C.01-zldqaomctopxhethwccpmxmwefdscg3m/g16/l1.exe "/data/hutter/SMG16/PBE/Gau-68698.inp" -scrdir="/data/hutter/SMG16/PBE/"
 Entering Link 1 = /sw-ng/spack/opt/spack/linux-opensuse_leap15-sandybridge/pgi-18.10/gaussian-src-16-C.01-zldqaomctopxhethwccpmxmwefdscg3m/g16/l1.exe PID=     68704.
  
 Copyright (c) 1988-2019, Gaussian, Inc.  All Rights Reserved.
  
 This is part of the Gaussian(R) 16 program.  It is based on
 the Gaussian(R) 09 system (copyright 2009, Gaussian, Inc.),
 the Gaussian(R) 03 system (copyright 2003, Gaussian, Inc.),
 the Gaussian(R) 98 system (copyright 1998, Gaussian, Inc.),
 the Gaussian(R) 94 system (copyright 1995, Gaussian, Inc.),
 the Gaussian 92(TM) system (copyright 1992, Gaussian, Inc.),
 the Gaussian 90(TM) system (copyright 1990, Gaussian, Inc.),
 the Gaussian 88(TM) system (copyright 1988, Gaussian, Inc.),
 the Gaussian 86(TM) system (copyright 1986, Carnegie Mellon
 University), and the Gaussian 82(TM) system (copyright 1983,
 Carnegie Mellon University). Gaussian is a federally registered
 trademark of Gaussian, Inc.
  
 This software contains proprietary and confidential information,
 including trade secrets, belonging to Gaussian, Inc.
  
 This software is provided under written license and may be
 used, copied, transmitted, or stored only in accord with that
 written license.
  
 The following legend is applicable only to US Government
 contracts under FAR:
  
                    RESTRICTED RIGHTS LEGEND
  
 Use, reproduction and disclosure by the US Government is
 subject to restrictions as set forth in subparagraphs (a)
 and (c) of the Commercial Computer Software - Restricted
 Rights clause in FAR 52.227-19.
  
 Gaussian, Inc.
 340 Quinnipiac St., Bldg. 40, Wallingford CT 06492
  
  
 ---------------------------------------------------------------
 Warning -- This program may not be used in any manner that
 competes with the business of Gaussian, Inc. or will provide
 assistance to any competitor of Gaussian, Inc.  The licensee
 of this program is prohibited from giving any competitor of
 Gaussian, Inc. access to this program.  By using this program,
 the user acknowledges that Gaussian, Inc. is engaged in the
 business of creating and licensing software in the field of
 computational chemistry and represents and warrants to the
 licensee that it is not a competitor of Gaussian, Inc. and that
 it will not use this program in any manner prohibited above.
 ---------------------------------------------------------------
  

 Cite this work as:
 Gaussian 16, Revision C.01,
 M. J. Frisch, G. W. Trucks, H. B. Schlegel, G. E. Scuseria, 
 M. A. Robb, J. R. Cheeseman, G. Scalmani, V. Barone, 
 G. A. Petersson, H. Nakatsuji, X. Li, M. Caricato, A. V. Marenich, 
 J. Bloino, B. G. Janesko, R. Gomperts, B. Mennucci, H. P. Hratchian, 
 J. V. Ortiz, A. F. Izmaylov, J. L. Sonnenberg, D. Williams-Young, 
 F. Ding, F. Lipparini, F. Egidi, J. Goings, B. Peng, A. Petrone, 
 T. Henderson, D. Ranasinghe, V. G. Zakrzewski, J. Gao, N. Rega, 
 G. Zheng, W. Liang, M. Hada, M. Ehara, K. Toyota, R. Fukuda, 
 J. Hasegawa, M. Ishida, T. Nakajima, Y. Honda, O. Kitao, H. Nakai, 
 T. Vreven, K. Throssell, J. A. Montgomery, Jr., J. E. Peralta, 
 F. Ogliaro, M. J. Bearpark, J. J. Heyd, E. N. Brothers, K. N. Kudin, 
 V. N. Staroverov, T. A. Keith, R. Kobayashi, J. Normand, 
 K. Raghavachari, A. P. Rendell, J. C. Burant, S. S. Iyengar, 
 J. Tomasi, M. Cossi, J. M. Millam, M. Klene, C. Adamo, R. Cammi, 
 J. W. Ochterski, R. L. Martin, K. Morokuma, O. Farkas, 
 J. B. Foresman, and D. J. Fox, Gaussian, Inc., Wallingford CT, 2019.
 
 ******************************************
 Gaussian 16:  ES64L-G16RevC.01  3-Jul-2019
                30-Jul-2021 
 ******************************************
 %mem=8GB
 %NProcShare=8
 Will use up to    8 processors via shared memory.
 -----------------------------------------------------------
 #N RPBEPBE/Def2QZVPP scf=tight Int(Grid=ultrafine) OPT FREQ
 -----------------------------------------------------------
 1/18=20,19=15,26=4,38=1/1,3;
 2/9=110,12=2,17=6,18=5,40=1/2;
 3/5=45,7=202,11=2,25=1,30=1,71=1,74=1009,75=-5,116=1/1,2,3;
 4//1;
 5/5=2,32=2,38=5/2;
 6/7=2,8=2,9=2,10=2,28=1/1;
 7//1,2,3,16;
 1/18=20,19=15,26=4/3(2);
 2/9=110/2;
 99//99;
 2/9=110/2;
 3/5=45,7=202,11=2,25=1,30=1,71=1,74=1009,75=-5,116=1/1,2,3;
 4/5=5,16=3,69=1/1;
 5/5=2,32=2,38=5/2;
 7//1,2,3,16;
 1/18=20,19=15,26=4/3(-5);
 2/9=110/2;
 6/7=2,8=2,9=2,10=2,19=2,28=1/1;
 99/9=1/99;
 ---------
 Mol job 1
 ---------
 Symbolic Z-matrix:
 Charge =  0 Multiplicity = 1
 Nb                    8.034     8.5       8.5 
 F                     7.10199   10.11428   8.5 
 F                     7.10199   6.88572   8.5 
 F                     9.89801   8.5       8.5 
 

 GradGradGradGradGradGradGradGradGradGradGradGradGradGradGradGradGradGrad
 Berny optimization.
 Initialization pass.
                           ----------------------------
                           !    Initial Parameters    !
                           ! (Angstroms and Degrees)  !
 --------------------------                            --------------------------
 ! Name  Definition              Value          Derivative Info.                !
 --------------------------------------------------------------------------------
 ! R1    R(1,2)                  1.864          estimate D2E/DX2                !
 ! R2    R(1,3)                  1.864          estimate D2E/DX2                !
 ! R3    R(1,4)                  1.864          estimate D2E/DX2                !
 ! A1    A(2,1,3)              120.0            estimate D2E/DX2                !
 ! A2    A(2,1,4)              120.0            estimate D2E/DX2                !
 ! A3    A(3,1,4)              120.0            estimate D2E/DX2                !
 ! D1    D(2,1,4,3)            180.0            estimate D2E/DX2                !
 --------------------------------------------------------------------------------
 Trust Radius=3.00D-01 FncErr=1.00D-07 GrdErr=1.00D-06 EigMax=2.50D+02 EigMin=1.00D-04
 Number of steps in this run=     20 maximum allowed number of steps=    100.
 GradGradGradGradGradGradGradGradGradGradGradGradGradGradGradGradGradGrad

                          Input orientation:                          
 ---------------------------------------------------------------------
 Center     Atomic      Atomic             Coordinates (Angstroms)
 Number     Number       Type             X           Y           Z
 ---------------------------------------------------------------------
      1         41           0        8.033997    8.500000    8.500000
      2          9           0        7.101992   10.114281    8.500000
      3          9           0        7.101992    6.885719    8.500000
      4          9           0        9.898008    8.500000    8.500000
 ---------------------------------------------------------------------
                    Distance matrix (angstroms):
                    1          2          3          4
     1  Nb   0.000000
     2  F    1.864011   0.000000
     3  F    1.864011   3.228561   0.000000
     4  F    1.864011   3.228561   3.228561   0.000000
 Stoichiometry    F3Nb
 Framework group  D3H[O(Nb),3C2(F)]
 Deg. of freedom     1
 Full point group                 D3H     NOp  12
 Largest Abelian subgroup         C2V     NOp   4
 Largest concise Abelian subgroup C2      NOp   2
                         Standard orientation:                         
 ---------------------------------------------------------------------
 Center     Atomic      Atomic             Coordinates (Angstroms)
 Number     Number       Type             X           Y           Z
 ---------------------------------------------------------------------
      1         41           0        0.000000    0.000000    0.000000
      2          9           0       -0.000000    1.864011    0.000000
      3          9           0       -1.614281   -0.932005    0.000000
      4          9           0        1.614281   -0.932005    0.000000
 ---------------------------------------------------------------------
 Rotational constants (GHZ):           5.1040161           5.1040161           2.5520081
 Standard basis: def2QZVPP (5D, 7F)
 There are   125 symmetry adapted cartesian basis functions of A1  symmetry.
 There are    45 symmetry adapted cartesian basis functions of A2  symmetry.
 There are    88 symmetry adapted cartesian basis functions of B1  symmetry.
 There are    64 symmetry adapted cartesian basis functions of B2  symmetry.
 There are    93 symmetry adapted basis functions of A1  symmetry.
 There are    38 symmetry adapted basis functions of A2  symmetry.
 There are    69 symmetry adapted basis functions of B1  symmetry.
 There are    52 symmetry adapted basis functions of B2  symmetry.
   252 basis functions,   410 primitive gaussians,   322 cartesian basis functions
    20 alpha electrons       20 beta electrons
       nuclear repulsion energy       139.4749010251 Hartrees.
 NAtoms=    4 NActive=    4 NUniq=    2 SFac= 4.00D+00 NAtFMM=   60 NAOKFM=F Big=F
 Integral buffers will be    131072 words long.
 Raffenetti 2 integral format.
 Two-electron integral symmetry is turned on.
 One-electron integrals computed using PRISM.
  12 Symmetry operations used in ECPInt.
 ECPInt:  NShTT=    2628 NPrTT=    6800 LenC2=    2473 LenP2D=    5312.
 LDataN:  DoStor=T MaxTD1= 8 Len=  415
 NBasis=   252 RedAO= T EigKep=  5.29D-04  NBF=    93    38    69    52
 NBsUse=   252 1.00D-06 EigRej= -1.00D+00 NBFU=    93    38    69    52
 Defaulting to unpruned grid for atomic number  41.
 ExpMin= 2.06D-02 ExpMax= 1.33D+05 ExpMxC= 1.27D+03 IAcc=3 IRadAn=         5 AccDes= 0.00D+00
 Harris functional with IExCor= 1009 and IRadAn=       5 diagonalized for initial guess.
 HarFok:  IExCor= 1009 AccDes= 0.00D+00 IRadAn=         5 IDoV= 1 UseB2=F ITyADJ=14
 ICtDFT=  3500011 ScaDFX=  1.000000  1.000000  1.000000  1.000000
 Defaulting to unpruned grid for atomic number  41.
 FoFCou: FMM=F IPFlag=           0 FMFlag=      100000 FMFlg1=           0
         NFxFlg=           0 DoJE=T BraDBF=F KetDBF=T FulRan=T
         wScrn=  0.000000 ICntrl=       500 IOpCl=  0 I1Cent=   200000004 NGrid=           0
         NMat0=    1 NMatS0=      1 NMatT0=    0 NMatD0=    1 NMtDS0=    0 NMtDT0=    0
 Petite list used in FoFCou.
 Initial guess orbital symmetries:
       Occupied  (A1') (E') (E') (A1') (E') (E') (A2") (A1') (E')
                 (E') (A1') (E') (E') (E") (E") (A2") (A2') (E')
                 (E') (A1')
       Virtual   (E") (E") (A2") (E') (E') (A1') (E') (E') (A2")
                 (A1') (E") (E") (E') (E') (E') (E') (A1') (A1')
                 (A2') (E') (E') (A1') (E") (E") (A2") (E') (E')
                 (A2") (E") (E") (E') (E') (E') (E') (A1') (A2")
                 (E") (E") (A2') (E') (E') (A1') (A1") (E') (E')
                 (A1') (E') (E') (E") (E") (A2") (A1') (A1') (E')
                 (E') (E') (E') (E") (E") (A2") (A2') (E") (E")
                 (E') (E') (A1') (A2') (E') (E') (E") (E") (A2")
                 (A1') (E') (E') (A1") (E") (E") (A1') (E') (E')
                 (A2") (E") (E") (A2') (E') (E') (A1') (E') (E')
                 (A1') (A2") (E") (E") (E') (E') (A1") (A1') (E')
                 (E') (A2') (E") (E") (E') (E') (A2") (A1') (E')
                 (E') (A2') (E") (E") (A1') (E') (E') (A2") (E")
                 (E") (A1') (A1") (E') (E') (E') (E') (A2") (E")
                 (E") (A2') (E") (E") (E') (E') (A1') (E') (E')
                 (A1") (A1') (E") (E") (A2") (E') (E') (A2') (A1')
                 (E') (E') (A2") (E") (E") (A2') (E') (E') (A2")
                 (E') (E') (A1') (E') (E') (A2') (E") (E") (E")
                 (E") (E') (E') (A1') (A1") (E') (E') (E") (E")
                 (A1') (A2") (E') (E') (A1") (E') (E') (E") (E")
                 (A2") (A2') (A1') (E') (E') (A2') (E") (E") (E')
                 (E') (A2") (E") (E") (A1') (E') (E') (A1") (E")
                 (E") (A2") (E') (E') (A2') (A1') (E') (E') (A1')
                 (E') (E') (E") (E") (E') (E') (A1') (A1") (E")
                 (E") (A2") (A2') (E') (E') (A1') (E') (E') (A1')
                 (A1') (E') (E') (A1') (E') (E') (A1')
 The electronic state of the initial guess is 1-A1'.
 Keep J ints in memory in symmetry-blocked form, NReq=636253166.
 Requested convergence on RMS density matrix=1.00D-08 within 128 cycles.
 Requested convergence on MAX density matrix=1.00D-06.
 Requested convergence on             energy=1.00D-06.
 No special actions if energy rises.
 Defaulting to unpruned grid for atomic number  41.
 Defaulting to unpruned grid for atomic number  41.
 Defaulting to unpruned grid for atomic number  41.
 Defaulting to unpruned grid for atomic number  41.
 Defaulting to unpruned grid for atomic number  41.
 Defaulting to unpruned grid for atomic number  41.
 Defaulting to unpruned grid for atomic number  41.
 Defaulting to unpruned grid for atomic number  41.
 SCF Done:  E(RPBE-PBE) =  -356.566023641     A.U. after   11 cycles
            NFock= 11  Conv=0.86D-09     -V/T= 2.1232

 **********************************************************************

            Population analysis using the SCF Density.

 **********************************************************************

 Orbital symmetries:
       Occupied  (A1') (E') (E') (A1') (E') (E') (A2") (A1') (E')
                 (E') (E') (E') (A1') (E") (E") (A2") (E') (E')
                 (A2') (A1')
       Virtual   (E") (E") (E') (E') (A1') (A2") (E') (E') (A2")
                 (A1') (E") (E") (E') (E') (A1') (E') (E') (A1')
                 (A1') (E') (E') (A2') (E") (E") (A2") (E') (E')
                 (A2") (E") (E") (E') (E') (A1') (A2") (E') (E')
                 (E") (E") (A2') (E') (E') (A1') (A1") (E') (E')
                 (A1') (E') (E') (E") (E") (A2") (A1') (A1') (E')
                 (E') (E") (E") (E') (E') (A2") (A2') (E") (E")
                 (E') (E') (A1') (A1') (A2') (E") (E") (E') (E')
                 (A2") (E") (E") (E') (E') (A1") (A1') (E') (E')
                 (A2") (E") (E") (A2') (E') (E') (A1') (E') (E')
                 (A1') (A2") (E") (E") (E') (E') (A1") (A1') (E')
                 (E') (A2') (E") (E") (A2") (E') (E') (A1') (E')
                 (E') (A1') (A2') (E") (E") (E') (E') (A2") (E")
                 (E") (A1') (E') (E') (A1") (E') (E') (A2") (E")
                 (E") (A2') (E') (E') (E") (E") (A1') (E') (E')
                 (A1') (A1") (E") (E") (A2") (E') (E') (A2') (A1')
                 (E') (E') (A2") (E") (E") (A2') (E') (E') (A2")
                 (E') (E') (A1') (E') (E') (E") (E") (A2') (E')
                 (E') (A1') (E") (E") (A1") (E') (E') (A2") (A1")
                 (E') (E') (E") (E") (A1') (E') (E') (E") (E")
                 (A2") (A2') (A1') (E') (E') (A2') (E") (E") (E')
                 (E') (A2") (E") (E") (A1') (E') (E') (A1") (E")
                 (E") (A2") (E') (E') (A2') (A1') (E') (E') (A1')
                 (E') (E') (E") (E") (E') (E') (A1') (A1") (E")
                 (E") (A2") (A2') (E') (E') (A1') (E') (E') (A1')
                 (A1') (E') (E') (A1') (E') (E') (A1')
 The electronic state is 1-A1'.
 Alpha  occ. eigenvalues --  -24.29192 -24.29192 -24.29192  -2.31983  -1.44257
 Alpha  occ. eigenvalues --   -1.44257  -1.39598  -1.09736  -1.07459  -1.07459
 Alpha  occ. eigenvalues --   -0.45169  -0.45169  -0.44606  -0.41736  -0.41736
 Alpha  occ. eigenvalues --   -0.40032  -0.39827  -0.39827  -0.39788  -0.17473
 Alpha virt. eigenvalues --   -0.14891  -0.14891  -0.08366  -0.08366  -0.04178
 Alpha virt. eigenvalues --   -0.02639   0.00226   0.00226   0.06128   0.06923
 Alpha virt. eigenvalues --    0.10132   0.10132   0.10441   0.10441   0.10709
 Alpha virt. eigenvalues --    0.12467   0.12467   0.30354   0.32941   0.33105
 Alpha virt. eigenvalues --    0.33105   0.33762   0.38084   0.38084   0.38882
 Alpha virt. eigenvalues --    0.44514   0.44514   0.45444   0.47806   0.47806
 Alpha virt. eigenvalues --    0.48580   0.48580   0.48929   0.52535   0.52933
 Alpha virt. eigenvalues --    0.52933   0.54559   0.54559   0.61816   0.67929
 Alpha virt. eigenvalues --    0.67929   0.73768   0.87422   0.99492   0.99492
 Alpha virt. eigenvalues --    1.04921   1.05590   1.05590   1.06725   1.06725
 Alpha virt. eigenvalues --    1.11001   1.16756   1.21377   1.23024   1.23024
 Alpha virt. eigenvalues --    1.28295   1.28295   1.28360   1.28360   1.30167
 Alpha virt. eigenvalues --    1.31399   1.44228   1.44228   1.50648   1.50648
 Alpha virt. eigenvalues --    1.53632   1.58904   1.60478   1.60951   1.60951
 Alpha virt. eigenvalues --    1.61609   1.61609   1.63929   1.70178   1.70178
 Alpha virt. eigenvalues --    1.71943   1.71943   1.73195   1.77159   1.83003
 Alpha virt. eigenvalues --    1.83003   2.01515   2.07465   2.07465   2.10389
 Alpha virt. eigenvalues --    2.18783   2.18783   2.19661   2.71160   2.71160
 Alpha virt. eigenvalues --    2.78088   3.01442   3.04461   3.04461   3.05183
 Alpha virt. eigenvalues --    3.05183   3.10789   3.12106   3.28609   3.28609
 Alpha virt. eigenvalues --    3.46106   3.48690   3.48690   3.52495   3.56942
 Alpha virt. eigenvalues --    3.56942   3.82314   3.92566   3.92566   3.98098
 Alpha virt. eigenvalues --    4.00367   4.01738   4.01738   4.05657   4.05657
 Alpha virt. eigenvalues --    4.06745   4.07126   4.07126   4.12993   4.17847
 Alpha virt. eigenvalues --    4.17847   4.18466   4.39832   4.39832   4.49290
 Alpha virt. eigenvalues --    4.50946   4.50946   4.67417   4.84136   4.84136
 Alpha virt. eigenvalues --    4.87506   4.87506   4.89892   4.95922   4.95922
 Alpha virt. eigenvalues --    5.02043   5.05467   5.30720   5.30720   5.30741
 Alpha virt. eigenvalues --    5.32887   5.32887   5.40057   5.59862   5.67823
 Alpha virt. eigenvalues --    5.67823   5.99406   6.13451   6.13451   6.22869
 Alpha virt. eigenvalues --    6.24832   6.24832   6.30012   6.92856   6.92856
 Alpha virt. eigenvalues --    6.99851   9.32208   9.32208  11.18352  11.18352
 Alpha virt. eigenvalues --   11.18737  11.18835  11.18835  11.18856  11.18994
 Alpha virt. eigenvalues --   11.18994  11.19301  11.19560  11.19560  11.19627
 Alpha virt. eigenvalues --   11.20173  11.20196  11.20196  11.20204  11.20204
 Alpha virt. eigenvalues --   11.20243  11.21951  11.21951  11.23129  11.23129
 Alpha virt. eigenvalues --   11.24785  11.25009  11.28863  11.39030  11.39030
 Alpha virt. eigenvalues --   14.31673  14.31898  14.31898  14.33631  14.33631
 Alpha virt. eigenvalues --   14.34306  14.34516  14.34516  14.37014  14.39363
 Alpha virt. eigenvalues --   14.39363  14.42669  14.50388  14.50388  14.50675
 Alpha virt. eigenvalues --   14.51346  14.51346  14.55233  14.59709  14.61729
 Alpha virt. eigenvalues --   14.61729  14.90488  15.01119  15.01119  15.55704
 Alpha virt. eigenvalues --   15.55704  15.60291  15.60291  15.62330  15.65362
 Alpha virt. eigenvalues --   15.84646  15.84646  15.87151  15.92000  15.95655
 Alpha virt. eigenvalues --   15.95655  16.08252  16.27156  16.27156  23.73269
 Alpha virt. eigenvalues --   53.62928  53.63005  53.63005  80.55245 283.99085
 Alpha virt. eigenvalues --  283.99085 283.99259
          Condensed to atoms (all electrons):
               1          2          3          4
     1  Nb  11.129268   0.286413   0.286413   0.286413
     2  F    0.286413   9.043883   0.003434   0.003434
     3  F    0.286413   0.003434   9.043883   0.003434
     4  F    0.286413   0.003434   0.003434   9.043883
 Mulliken charges:
               1
     1  Nb   1.011492
     2  F   -0.337164
     3  F   -0.337164
     4  F   -0.337164
 Sum of Mulliken charges =  -0.00000
 Mulliken charges with hydrogens summed into heavy atoms:
               1
     1  Nb   1.011492
     2  F   -0.337164
     3  F   -0.337164
     4  F   -0.337164
 Electronic spatial extent (au):  <R**2>=            423.3221
 Charge=             -0.0000 electrons
 Dipole moment (field-independent basis, Debye):
    X=              0.0000    Y=              0.0000    Z=             -0.0000  Tot=              0.0000
 Quadrupole moment (field-independent basis, Debye-Ang):
   XX=            -39.6649   YY=            -39.6649   ZZ=            -39.4524
   XY=              0.0000   XZ=              0.0000   YZ=             -0.0000
 Traceless Quadrupole moment (field-independent basis, Debye-Ang):
   XX=             -0.0708   YY=             -0.0708   ZZ=              0.1416
   XY=              0.0000   XZ=              0.0000   YZ=             -0.0000
 Octapole moment (field-independent basis, Debye-Ang**2):
  XXX=              0.0000  YYY=             -6.5946  ZZZ=             -0.0000  XYY=              0.0000
  XXY=              6.5946  XXZ=             -0.0000  XZZ=              0.0000  YZZ=              0.0000
  YYZ=              0.0000  XYZ=             -0.0000
 Hexadecapole moment (field-independent basis, Debye-Ang**3):
 XXXX=           -209.4665 YYYY=           -209.4665 ZZZZ=            -67.7115 XXXY=              0.0000
 XXXZ=              0.0000 YYYX=              0.0000 YYYZ=             -0.0000 ZZZX=              0.0000
 ZZZY=             -0.0000 XXYY=            -69.8222 XXZZ=            -42.5265 YYZZ=            -42.5265
 XXYZ=             -0.0000 YYXZ=              0.0000 ZZXY=              0.0000
 N-N= 1.394749010251D+02 E-N=-1.109248943107D+03  KE= 3.174509186910D+02
 Symmetry A1   KE= 1.915655010436D+02
 Symmetry A2   KE= 5.799856933947D+00
 Symmetry B1   KE= 1.044662312690D+02
 Symmetry B2   KE= 1.561932944440D+01
  12 Symmetry operations used in ECPInt.
 ECPInt:  NShTT=    2628 NPrTT=    6800 LenC2=    2473 LenP2D=    5312.
 LDataN:  DoStor=T MaxTD1= 9 Len=  602
 Calling FoFJK, ICntrl=      2527 FMM=F ISym2X=1 I1Cent= 0 IOpClX= 0 NMat=1 NMatS=1 NMatT=0.
 Defaulting to unpruned grid for atomic number  41.
 Defaulting to unpruned grid for atomic number  41.
 Defaulting to unpruned grid for atomic number  41.
 Defaulting to unpruned grid for atomic number  41.
 Defaulting to unpruned grid for atomic number  41.
 Defaulting to unpruned grid for atomic number  41.
 Defaulting to unpruned grid for atomic number  41.
 Defaulting to unpruned grid for atomic number  41.
 ***** Axes restored to original set *****
 -------------------------------------------------------------------
 Center     Atomic                   Forces (Hartrees/Bohr)
 Number     Number              X              Y              Z
 -------------------------------------------------------------------
      1       41           0.000000000   -0.000000000   -0.000000000
      2        9           0.005281299   -0.009147479    0.000000000
      3        9           0.005281299    0.009147479   -0.000000000
      4        9          -0.010562598    0.000000000    0.000000000
 -------------------------------------------------------------------
 Cartesian Forces:  Max     0.010562598 RMS     0.005281299

 GradGradGradGradGradGradGradGradGradGradGradGradGradGradGradGradGradGrad
 Berny optimization.
 FormGI is forming the generalized inverse of G from B-inverse, IUseBI=4.
 Internal  Forces:  Max     0.010562598 RMS     0.006914844
 Search for a local minimum.
 Step number   1 out of a maximum of   20
 All quantities printed in internal units (Hartrees-Bohrs-Radians)
 Mixed Optimization -- RFO/linear search
 Second derivative matrix not updated -- first step.
 The second derivative matrix:
                          R1        R2        R3        A1        A2
           R1           0.26621
           R2           0.00000   0.26621
           R3           0.00000   0.00000   0.26621
           A1           0.00000   0.00000   0.00000   0.25000
           A2           0.00000   0.00000   0.00000   0.00000   0.25000
           A3           0.00000   0.00000   0.00000   0.00000   0.00000
           D1           0.00000   0.00000   0.00000   0.00000   0.00000
                          A3        D1
           A3           0.25000
           D1           0.00000   0.00230
 ITU=  0
     Eigenvalues ---    0.00230   0.25000   0.25000   0.26621   0.26621
     Eigenvalues ---    0.26621
 RFO step:  Lambda=-1.25143238D-03 EMin= 2.30000000D-03
 Linear search not attempted -- first point.
 Iteration  1 RMS(Cart)=  0.02585395 RMS(Int)=  0.00000000
 Iteration  2 RMS(Cart)=  0.00000000 RMS(Int)=  0.00000000
 ClnCor:  largest displacement from symmetrization is 2.34D-12 for atom     1.
 Variable       Old X    -DE/DX   Delta X   Delta X   Delta X     New X
                                 (Linear)    (Quad)   (Total)
    R1        3.52247  -0.01056   0.00000  -0.03949  -0.03949   3.48298
    R2        3.52247  -0.01056   0.00000  -0.03949  -0.03949   3.48298
    R3        3.52247  -0.01056   0.00000  -0.03949  -0.03949   3.48298
    A1        2.09440   0.00000   0.00000   0.00000   0.00000   2.09440
    A2        2.09440  -0.00000   0.00000  -0.00000  -0.00000   2.09440
    A3        2.09440   0.00000   0.00000   0.00000   0.00000   2.09440
    D1        3.14159  -0.00000   0.00000  -0.00000   0.00000   3.14159
         Item               Value     Threshold  Converged?
 Maximum Force            0.010563     0.000450     NO 
 RMS     Force            0.006915     0.000300     NO 
 Maximum Displacement     0.039493     0.001800     NO 
 RMS     Displacement     0.025854     0.001200     NO 
 Predicted change in Energy=-6.286438D-04
 GradGradGradGradGradGradGradGradGradGradGradGradGradGradGradGradGradGrad

                          Input orientation:                          
 ---------------------------------------------------------------------
 Center     Atomic      Atomic             Coordinates (Angstroms)
 Number     Number       Type             X           Y           Z
 ---------------------------------------------------------------------
      1         41           0        8.033997    8.500000    8.500000
      2          9           0        7.112441   10.096182    8.500000
      3          9           0        7.112441    6.903818    8.500000
      4          9           0        9.877109    8.500000    8.500000
 ---------------------------------------------------------------------
                    Distance matrix (angstroms):
                    1          2          3          4
     1  Nb   0.000000
     2  F    1.843112   0.000000
     3  F    1.843112   3.192364   0.000000
     4  F    1.843112   3.192364   3.192364   0.000000
 Stoichiometry    F3Nb
 Framework group  D3H[O(Nb),3C2(F)]
 Deg. of freedom     1
 Full point group                 D3H     NOp  12
 Largest Abelian subgroup         C2V     NOp   4
 Largest concise Abelian subgroup C2      NOp   2
                         Standard orientation:                         
 ---------------------------------------------------------------------
 Center     Atomic      Atomic             Coordinates (Angstroms)
 Number     Number       Type             X           Y           Z
 ---------------------------------------------------------------------
      1         41           0        0.000000    0.000000    0.000000
      2          9           0       -0.000000    1.843112    0.000000
      3          9           0       -1.596182   -0.921556   -0.000000
      4          9           0        1.596182   -0.921556    0.000000
 ---------------------------------------------------------------------
 Rotational constants (GHZ):           5.2204185           5.2204185           2.6102093
 Standard basis: def2QZVPP (5D, 7F)
 There are   125 symmetry adapted cartesian basis functions of A1  symmetry.
 There are    45 symmetry adapted cartesian basis functions of A2  symmetry.
 There are    88 symmetry adapted cartesian basis functions of B1  symmetry.
 There are    64 symmetry adapted cartesian basis functions of B2  symmetry.
 There are    93 symmetry adapted basis functions of A1  symmetry.
 There are    38 symmetry adapted basis functions of A2  symmetry.
 There are    69 symmetry adapted basis functions of B1  symmetry.
 There are    52 symmetry adapted basis functions of B2  symmetry.
   252 basis functions,   410 primitive gaussians,   322 cartesian basis functions
    20 alpha electrons       20 beta electrons
       nuclear repulsion energy       141.0563702874 Hartrees.
 NAtoms=    4 NActive=    4 NUniq=    2 SFac= 4.00D+00 NAtFMM=   60 NAOKFM=F Big=F
 Integral buffers will be    131072 words long.
 Raffenetti 2 integral format.
 Two-electron integral symmetry is turned on.
 One-electron integrals computed using PRISM.
  12 Symmetry operations used in ECPInt.
 ECPInt:  NShTT=    2628 NPrTT=    6800 LenC2=    2479 LenP2D=    5357.
 LDataN:  DoStor=T MaxTD1= 8 Len=  415
 NBasis=   252 RedAO= T EigKep=  4.76D-04  NBF=    93    38    69    52
 NBsUse=   252 1.00D-06 EigRej= -1.00D+00 NBFU=    93    38    69    52
 Defaulting to unpruned grid for atomic number  41.
 Initial guess from the checkpoint file:  "/data/hutter/SMG16/PBE/Gau-68704.chk"
 B after Tr=     0.000000    0.000000    0.000000
         Rot=    1.000000    0.000000    0.000000   -0.000000 Ang=   0.00 deg.
 Initial guess orbital symmetries:
       Occupied  (A1') (?A) (?A) (?B) (?A) (?A) (?C) (?B) (?A)
                 (?A) (?A) (?A) (?B) (?D) (?D) (?C) (?A) (?A) (?B)
                 (?B)
       Virtual   (?D) (?D) (?A) (?A) (?B) (?C) (?A) (?A) (?C) (?B)
                 (?D) (?D) (?A) (?A) (?B) (?A) (?A) (?B) (?B) (?A)
                 (?A) (?B) (?D) (?D) (?C) (?A) (?A) (?C) (?D) (?D)
                 (?A) (?A) (?B) (?C) (?A) (?A) (?D) (?D) (?B) (?A)
                 (?A) (?B) (?C) (?A) (?A) (?B) (?A) (?A) (?D) (?D)
                 (?C) (?B) (?B) (?A) (?A) (?D) (?D) (?A) (?A) (?C)
                 (?B) (?D) (?D) (?A) (?A) (?B) (?B) (?B) (?D) (?D)
                 (?A) (?A) (?C) (?D) (?D) (?A) (?A) (?C) (?B) (?A)
                 (?A) (?C) (?D) (?D) (?B) (?A) (?A) (?B) (?A) (?A)
                 (?B) (?C) (?D) (?D) (?A) (?A) (?C) (?B) (?A) (?A)
                 (?B) (?D) (?D) (?C) (?A) (?A) (?B) (?A) (?A) (?B)
                 (?B) (?D) (?D) (?A) (?A) (?C) (?D) (?D) (?B) (?A)
                 (?A) (?C) (?A) (?A) (?C) (?D) (?D) (?B) (?A) (?A)
                 (?D) (?D) (?B) (?A) (?A) (?B) (?C) (?D) (?D) (?C)
                 (?A) (?A) (?B) (?B) (?A) (?A) (?C) (?D) (?D) (?B)
                 (?A) (?A) (?C) (?A) (?A) (?B) (?A) (?A) (?D) (?D)
                 (?B) (?A) (?A) (?B) (?D) (?D) (?C) (?A) (?A) (?C)
                 (?C) (?A) (?A) (?D) (?D) (?B) (?A) (?A) (?D) (?D)
                 (?C) (?B) (?B) (?A) (?A) (?B) (?D) (?D) (?A) (?A)
                 (?C) (?D) (?D) (?B) (?A) (?A) (?C) (?D) (?D) (?C)
                 (?A) (?A) (?B) (?B) (?A) (?A) (?B) (?A) (?A) (?D)
                 (?D) (?A) (?A) (?B) (?C) (?D) (?D) (?C) (?B) (?A)
                 (?A) (?B) (?A) (?A) (?B) (?B) (?A) (?A) (?B) (?A)
                 (?A) (?B)
 ExpMin= 2.06D-02 ExpMax= 1.33D+05 ExpMxC= 1.27D+03 IAcc=3 IRadAn=         5 AccDes= 0.00D+00
 Harris functional with IExCor= 1009 and IRadAn=       5 diagonalized for initial guess.
 HarFok:  IExCor= 1009 AccDes= 0.00D+00 IRadAn=         5 IDoV= 1 UseB2=F ITyADJ=14
 ICtDFT=  3500011 ScaDFX=  1.000000  1.000000  1.000000  1.000000
 Defaulting to unpruned grid for atomic number  41.
 FoFCou: FMM=F IPFlag=           0 FMFlag=      100000 FMFlg1=           0
         NFxFlg=           0 DoJE=T BraDBF=F KetDBF=T FulRan=T
         wScrn=  0.000000 ICntrl=       500 IOpCl=  0 I1Cent=   200000004 NGrid=           0
         NMat0=    1 NMatS0=      1 NMatT0=    0 NMatD0=    1 NMtDS0=    0 NMtDT0=    0
 Petite list used in FoFCou.
 Keep J ints in memory in symmetry-blocked form, NReq=636253166.
 Requested convergence on RMS density matrix=1.00D-08 within 128 cycles.
 Requested convergence on MAX density matrix=1.00D-06.
 Requested convergence on             energy=1.00D-06.
 No special actions if energy rises.
 Defaulting to unpruned grid for atomic number  41.
 Defaulting to unpruned grid for atomic number  41.
 Defaulting to unpruned grid for atomic number  41.
 Defaulting to unpruned grid for atomic number  41.
 Defaulting to unpruned grid for atomic number  41.
 Defaulting to unpruned grid for atomic number  41.
 Defaulting to unpruned grid for atomic number  41.
 Defaulting to unpruned grid for atomic number  41.
 SCF Done:  E(RPBE-PBE) =  -356.566568470     A.U. after    8 cycles
            NFock=  8  Conv=0.34D-08     -V/T= 2.1229
  12 Symmetry operations used in ECPInt.
 ECPInt:  NShTT=    2628 NPrTT=    6800 LenC2=    2479 LenP2D=    5357.
 LDataN:  DoStor=T MaxTD1= 9 Len=  602
 Calling FoFJK, ICntrl=      2527 FMM=F ISym2X=1 I1Cent= 0 IOpClX= 0 NMat=1 NMatS=1 NMatT=0.
 Defaulting to unpruned grid for atomic number  41.
 Defaulting to unpruned grid for atomic number  41.
 Defaulting to unpruned grid for atomic number  41.
 Defaulting to unpruned grid for atomic number  41.
 Defaulting to unpruned grid for atomic number  41.
 Defaulting to unpruned grid for atomic number  41.
 Defaulting to unpruned grid for atomic number  41.
 Defaulting to unpruned grid for atomic number  41.
 ***** Axes restored to original set *****
 -------------------------------------------------------------------
 Center     Atomic                   Forces (Hartrees/Bohr)
 Number     Number              X              Y              Z
 -------------------------------------------------------------------
      1       41           0.000000000    0.000000000    0.000000000
      2        9          -0.000795833    0.001378423    0.000000000
      3        9          -0.000795833   -0.001378423   -0.000000000
      4        9           0.001591666    0.000000000    0.000000000
 -------------------------------------------------------------------
 Cartesian Forces:  Max     0.001591666 RMS     0.000795833

 GradGradGradGradGradGradGradGradGradGradGradGradGradGradGradGradGradGrad
 Berny optimization.
 Using GEDIIS/GDIIS optimizer.
 FormGI is forming the generalized inverse of G from B-inverse, IUseBI=4.
 Internal  Forces:  Max     0.001591666 RMS     0.001041990
 Search for a local minimum.
 Step number   2 out of a maximum of   20
 All quantities printed in internal units (Hartrees-Bohrs-Radians)
 Mixed Optimization -- RFO/linear search
 Update second derivatives using D2CorX and points    1    2
 DE= -5.45D-04 DEPred=-6.29D-04 R= 8.67D-01
 TightC=F SS=  1.41D+00  RLast= 6.84D-02 DXNew= 5.0454D-01 2.0521D-01
 Trust test= 8.67D-01 RLast= 6.84D-02 DXMaxT set to 3.00D-01
 The second derivative matrix:
                          R1        R2        R3        A1        A2
           R1           0.28006
           R2           0.01385   0.28006
           R3           0.01385   0.01385   0.28006
           A1          -0.00000  -0.00000  -0.00000   0.25000
           A2           0.00000   0.00000   0.00000  -0.00000   0.25000
           A3           0.00000   0.00000   0.00000  -0.00000   0.00000
           D1           0.00000   0.00000   0.00000  -0.00000   0.00000
                          A3        D1
           A3           0.25000
           D1           0.00000   0.00230
 ITU=  1  0
 Use linear search instead of GDIIS.
     Eigenvalues ---    0.00230   0.25000   0.25000   0.26621   0.26621
     Eigenvalues ---    0.30776
 RFO step:  Lambda= 0.00000000D+00 EMin= 2.30000000D-03
 Quartic linear search produced a step of -0.12481.
 Iteration  1 RMS(Cart)=  0.00322691 RMS(Int)=  0.00000000
 Iteration  2 RMS(Cart)=  0.00000000 RMS(Int)=  0.00000000
 ClnCor:  largest displacement from symmetrization is 8.87D-12 for atom     1.
 Variable       Old X    -DE/DX   Delta X   Delta X   Delta X     New X
                                 (Linear)    (Quad)   (Total)
    R1        3.48298   0.00159   0.00493  -0.00000   0.00493   3.48791
    R2        3.48298   0.00159   0.00493   0.00000   0.00493   3.48791
    R3        3.48298   0.00159   0.00493   0.00000   0.00493   3.48791
    A1        2.09440  -0.00000  -0.00000  -0.00000   0.00000   2.09440
    A2        2.09440   0.00000   0.00000  -0.00000   0.00000   2.09440
    A3        2.09440   0.00000  -0.00000   0.00000  -0.00000   2.09440
    D1        3.14159   0.00000   0.00000   0.00000   0.00000   3.14159
         Item               Value     Threshold  Converged?
 Maximum Force            0.001592     0.000450     NO 
 RMS     Force            0.001042     0.000300     NO 
 Maximum Displacement     0.004929     0.001800     NO 
 RMS     Displacement     0.003227     0.001200     NO 
 Predicted change in Energy=-1.232042D-05
 GradGradGradGradGradGradGradGradGradGradGradGradGradGradGradGradGradGrad

                          Input orientation:                          
 ---------------------------------------------------------------------
 Center     Atomic      Atomic             Coordinates (Angstroms)
 Number     Number       Type             X           Y           Z
 ---------------------------------------------------------------------
      1         41           0        8.033997    8.500000    8.500000
      2          9           0        7.111137   10.098441    8.500000
      3          9           0        7.111137    6.901559    8.500000
      4          9           0        9.879718    8.500000    8.500000
 ---------------------------------------------------------------------
                    Distance matrix (angstroms):
                    1          2          3          4
     1  Nb   0.000000
     2  F    1.845721   0.000000
     3  F    1.845721   3.196882   0.000000
     4  F    1.845721   3.196882   3.196882   0.000000
 Stoichiometry    F3Nb
 Framework group  D3H[O(Nb),3C2(F)]
 Deg. of freedom     1
 Full point group                 D3H     NOp  12
 Largest Abelian subgroup         C2V     NOp   4
 Largest concise Abelian subgroup C2      NOp   2
                         Standard orientation:                         
 ---------------------------------------------------------------------
 Center     Atomic      Atomic             Coordinates (Angstroms)
 Number     Number       Type             X           Y           Z
 ---------------------------------------------------------------------
      1         41           0        0.000000    0.000000    0.000000
      2          9           0       -0.000000    1.845721    0.000000
      3          9           0       -1.598441   -0.922860   -0.000000
      4          9           0        1.598441   -0.922860    0.000000
 ---------------------------------------------------------------------
 Rotational constants (GHZ):           5.2056737           5.2056737           2.6028369
 Standard basis: def2QZVPP (5D, 7F)
 There are   125 symmetry adapted cartesian basis functions of A1  symmetry.
 There are    45 symmetry adapted cartesian basis functions of A2  symmetry.
 There are    88 symmetry adapted cartesian basis functions of B1  symmetry.
 There are    64 symmetry adapted cartesian basis functions of B2  symmetry.
 There are    93 symmetry adapted basis functions of A1  symmetry.
 There are    38 symmetry adapted basis functions of A2  symmetry.
 There are    69 symmetry adapted basis functions of B1  symmetry.
 There are    52 symmetry adapted basis functions of B2  symmetry.
   252 basis functions,   410 primitive gaussians,   322 cartesian basis functions
    20 alpha electrons       20 beta electrons
       nuclear repulsion energy       140.8570262428 Hartrees.
 NAtoms=    4 NActive=    4 NUniq=    2 SFac= 4.00D+00 NAtFMM=   60 NAOKFM=F Big=F
 Integral buffers will be    131072 words long.
 Raffenetti 2 integral format.
 Two-electron integral symmetry is turned on.
 One-electron integrals computed using PRISM.
  12 Symmetry operations used in ECPInt.
 ECPInt:  NShTT=    2628 NPrTT=    6800 LenC2=    2479 LenP2D=    5354.
 LDataN:  DoStor=T MaxTD1= 8 Len=  415
 NBasis=   252 RedAO= T EigKep=  4.83D-04  NBF=    93    38    69    52
 NBsUse=   252 1.00D-06 EigRej= -1.00D+00 NBFU=    93    38    69    52
 Defaulting to unpruned grid for atomic number  41.
 Initial guess from the checkpoint file:  "/data/hutter/SMG16/PBE/Gau-68704.chk"
 B after Tr=    -0.000000   -0.000000    0.000000
         Rot=    1.000000    0.000000   -0.000000    0.000000 Ang=   0.00 deg.
 Initial guess orbital symmetries:
       Occupied  (A1') (?A) (?A) (?B) (?A) (?A) (?C) (?B) (?A)
                 (?A) (?A) (?A) (?B) (?D) (?D) (?C) (?B) (?A) (?A)
                 (?B)
       Virtual   (?D) (?D) (?A) (?A) (?B) (?C) (?A) (?A) (?C) (?B)
                 (?D) (?D) (?A) (?A) (?B) (?A) (?A) (?B) (?A) (?A)
                 (?B) (?B) (?D) (?D) (?C) (?A) (?A) (?C) (?D) (?D)
                 (?A) (?A) (?B) (?C) (?A) (?A) (?D) (?D) (?B) (?A)
                 (?A) (?B) (?C) (?A) (?A) (?B) (?A) (?A) (?D) (?D)
                 (?C) (?B) (?B) (?A) (?A) (?D) (?D) (?A) (?A) (?C)
                 (?B) (?D) (?D) (?A) (?A) (?B) (?B) (?B) (?D) (?D)
                 (?A) (?A) (?C) (?D) (?D) (?A) (?A) (?C) (?B) (?A)
                 (?A) (?C) (?D) (?D) (?B) (?B) (?A) (?A) (?A) (?A)
                 (?B) (?C) (?D) (?D) (?A) (?A) (?C) (?B) (?A) (?A)
                 (?B) (?D) (?D) (?C) (?A) (?A) (?B) (?A) (?A) (?B)
                 (?B) (?D) (?D) (?A) (?A) (?C) (?D) (?D) (?B) (?A)
                 (?A) (?C) (?A) (?A) (?C) (?D) (?D) (?B) (?D) (?D)
                 (?A) (?A) (?B) (?A) (?A) (?B) (?C) (?D) (?D) (?C)
                 (?A) (?A) (?B) (?B) (?A) (?A) (?C) (?D) (?D) (?B)
                 (?A) (?A) (?C) (?A) (?A) (?B) (?A) (?A) (?D) (?D)
                 (?B) (?A) (?A) (?D) (?D) (?B) (?C) (?A) (?A) (?C)
                 (?C) (?A) (?A) (?D) (?D) (?B) (?A) (?A) (?D) (?D)
                 (?B) (?C) (?B) (?A) (?A) (?B) (?D) (?D) (?A) (?A)
                 (?C) (?D) (?D) (?B) (?A) (?A) (?C) (?D) (?D) (?C)
                 (?A) (?A) (?B) (?B) (?A) (?A) (?B) (?A) (?A) (?D)
                 (?D) (?A) (?A) (?B) (?C) (?D) (?D) (?C) (?B) (?A)
                 (?A) (?B) (?A) (?A) (?B) (?B) (?A) (?A) (?B) (?B)
                 (?A) (?A)
 Keep J ints in memory in symmetry-blocked form, NReq=636253166.
 Requested convergence on RMS density matrix=1.00D-08 within 128 cycles.
 Requested convergence on MAX density matrix=1.00D-06.
 Requested convergence on             energy=1.00D-06.
 No special actions if energy rises.
 Defaulting to unpruned grid for atomic number  41.
 Defaulting to unpruned grid for atomic number  41.
 Defaulting to unpruned grid for atomic number  41.
 Defaulting to unpruned grid for atomic number  41.
 Defaulting to unpruned grid for atomic number  41.
 Defaulting to unpruned grid for atomic number  41.
 Defaulting to unpruned grid for atomic number  41.
 Defaulting to unpruned grid for atomic number  41.
 SCF Done:  E(RPBE-PBE) =  -356.566580209     A.U. after    7 cycles
            NFock=  7  Conv=0.17D-08     -V/T= 2.1230
  12 Symmetry operations used in ECPInt.
 ECPInt:  NShTT=    2628 NPrTT=    6800 LenC2=    2479 LenP2D=    5354.
 LDataN:  DoStor=T MaxTD1= 9 Len=  602
 Calling FoFJK, ICntrl=      2527 FMM=F ISym2X=1 I1Cent= 0 IOpClX= 0 NMat=1 NMatS=1 NMatT=0.
 Defaulting to unpruned grid for atomic number  41.
 Defaulting to unpruned grid for atomic number  41.
 Defaulting to unpruned grid for atomic number  41.
 Defaulting to unpruned grid for atomic number  41.
 Defaulting to unpruned grid for atomic number  41.
 Defaulting to unpruned grid for atomic number  41.
 Defaulting to unpruned grid for atomic number  41.
 Defaulting to unpruned grid for atomic number  41.
 ***** Axes restored to original set *****
 -------------------------------------------------------------------
 Center     Atomic                   Forces (Hartrees/Bohr)
 Number     Number              X              Y              Z
 -------------------------------------------------------------------
      1       41           0.000000000   -0.000000000    0.000000000
      2        9           0.000000168   -0.000000291    0.000000000
      3        9           0.000000168    0.000000291   -0.000000000
      4        9          -0.000000336    0.000000000    0.000000000
 -------------------------------------------------------------------
 Cartesian Forces:  Max     0.000000336 RMS     0.000000168

 GradGradGradGradGradGradGradGradGradGradGradGradGradGradGradGradGradGrad
 Berny optimization.
 Using GEDIIS/GDIIS optimizer.
 FormGI is forming the generalized inverse of G from B-inverse, IUseBI=4.
 Internal  Forces:  Max     0.000000336 RMS     0.000000220
 Search for a local minimum.
 Step number   3 out of a maximum of   20
 All quantities printed in internal units (Hartrees-Bohrs-Radians)
 Mixed Optimization -- En-DIIS/RFO-DIIS
 Update second derivatives using D2CorX and points    1    2    3
 DE= -1.17D-05 DEPred=-1.23D-05 R= 9.53D-01
 TightC=F SS=  1.41D+00  RLast= 8.54D-03 DXNew= 5.0454D-01 2.5613D-02
 Trust test= 9.53D-01 RLast= 8.54D-03 DXMaxT set to 3.00D-01
 The second derivative matrix:
                          R1        R2        R3        A1        A2
           R1           0.28513
           R2           0.01892   0.28513
           R3           0.01892   0.01892   0.28513
           A1          -0.00000  -0.00000  -0.00000   0.25000
           A2          -0.00000  -0.00000  -0.00000   0.00000   0.25000
           A3           0.00000   0.00000   0.00000  -0.00000  -0.00000
           D1           0.00000   0.00000   0.00000  -0.00000  -0.00000
                          A3        D1
           A3           0.25000
           D1           0.00000   0.00230
 ITU=  1  1  0
 Use linear search instead of GDIIS.
     Eigenvalues ---    0.00230   0.25000   0.25000   0.26621   0.26621
     Eigenvalues ---    0.32297
 RFO step:  Lambda= 0.00000000D+00 EMin= 2.30000000D-03
 Quartic linear search produced a step of -0.00021.
 Iteration  1 RMS(Cart)=  0.00000069 RMS(Int)=  0.00000000
 ClnCor:  largest displacement from symmetrization is 3.65D-13 for atom     4.
 Variable       Old X    -DE/DX   Delta X   Delta X   Delta X     New X
                                 (Linear)    (Quad)   (Total)
    R1        3.48791  -0.00000  -0.00000   0.00000  -0.00000   3.48791
    R2        3.48791  -0.00000  -0.00000  -0.00000  -0.00000   3.48791
    R3        3.48791  -0.00000  -0.00000  -0.00000  -0.00000   3.48791
    A1        2.09440   0.00000   0.00000   0.00000   0.00000   2.09440
    A2        2.09440   0.00000  -0.00000   0.00000  -0.00000   2.09440
    A3        2.09440  -0.00000   0.00000  -0.00000   0.00000   2.09440
    D1        3.14159   0.00000   0.00000   0.00000   0.00000   3.14159
         Item               Value     Threshold  Converged?
 Maximum Force            0.000000     0.000450     YES
 RMS     Force            0.000000     0.000300     YES
 Maximum Displacement     0.000001     0.001800     YES
 RMS     Displacement     0.000001     0.001200     YES
 Predicted change in Energy=-5.248711D-13
 Optimization completed.
    -- Stationary point found.
                           ----------------------------
                           !   Optimized Parameters   !
                           ! (Angstroms and Degrees)  !
 --------------------------                            --------------------------
 ! Name  Definition              Value          Derivative Info.                !
 --------------------------------------------------------------------------------
 ! R1    R(1,2)                  1.8457         -DE/DX =    0.0                 !
 ! R2    R(1,3)                  1.8457         -DE/DX =    0.0                 !
 ! R3    R(1,4)                  1.8457         -DE/DX =    0.0                 !
 ! A1    A(2,1,3)              120.0            -DE/DX =    0.0                 !
 ! A2    A(2,1,4)              120.0            -DE/DX =    0.0                 !
 ! A3    A(3,1,4)              120.0            -DE/DX =    0.0                 !
 ! D1    D(2,1,4,3)            180.0            -DE/DX =    0.0                 !
 --------------------------------------------------------------------------------
 GradGradGradGradGradGradGradGradGradGradGradGradGradGradGradGradGradGrad

                          Input orientation:                          
 ---------------------------------------------------------------------
 Center     Atomic      Atomic             Coordinates (Angstroms)
 Number     Number       Type             X           Y           Z
 ---------------------------------------------------------------------
      1         41           0        8.033997    8.500000    8.500000
      2          9           0        7.111137   10.098441    8.500000
      3          9           0        7.111137    6.901559    8.500000
      4          9           0        9.879718    8.500000    8.500000
 ---------------------------------------------------------------------
                    Distance matrix (angstroms):
                    1          2          3          4
     1  Nb   0.000000
     2  F    1.845721   0.000000
     3  F    1.845721   3.196882   0.000000
     4  F    1.845721   3.196882   3.196882   0.000000
 Stoichiometry    F3Nb
 Framework group  D3H[O(Nb),3C2(F)]
 Deg. of freedom     1
 Full point group                 D3H     NOp  12
 Largest Abelian subgroup         C2V     NOp   4
 Largest concise Abelian subgroup C2      NOp   2
                         Standard orientation:                         
 ---------------------------------------------------------------------
 Center     Atomic      Atomic             Coordinates (Angstroms)
 Number     Number       Type             X           Y           Z
 ---------------------------------------------------------------------
      1         41           0        0.000000    0.000000    0.000000
      2          9           0       -0.000000    1.845721    0.000000
      3          9           0       -1.598441   -0.922860   -0.000000
      4          9           0        1.598441   -0.922860    0.000000
 ---------------------------------------------------------------------
 Rotational constants (GHZ):           5.2056737           5.2056737           2.6028369

 **********************************************************************

            Population analysis using the SCF Density.

 **********************************************************************

 Orbital symmetries:
       Occupied  (A1') (?A) (?A) (?B) (?A) (?A) (?C) (?B) (?A)
                 (?A) (?A) (?A) (?B) (?D) (?D) (?C) (?B) (?A) (?A)
                 (?B)
       Virtual   (?D) (?D) (?A) (?A) (?B) (?C) (?A) (?A) (?C) (?B)
                 (?D) (?D) (?A) (?A) (?B) (?A) (?A) (?B) (?A) (?A)
                 (?B) (?B) (?D) (?D) (?C) (?A) (?A) (?C) (?D) (?D)
                 (?A) (?A) (?B) (?C) (?A) (?A) (?D) (?D) (?B) (?A)
                 (?A) (?B) (?C) (?A) (?A) (?B) (?A) (?A) (?D) (?D)
                 (?C) (?B) (?B) (?A) (?A) (?D) (?D) (?A) (?A) (?C)
                 (?B) (?D) (?D) (?A) (?A) (?B) (?B) (?B) (?D) (?D)
                 (?A) (?A) (?C) (?D) (?D) (?A) (?A) (?C) (?B) (?A)
                 (?A) (?C) (?D) (?D) (?B) (?B) (?A) (?A) (?A) (?A)
                 (?B) (?C) (?D) (?D) (?A) (?A) (?C) (?B) (?A) (?A)
                 (?B) (?D) (?D) (?C) (?A) (?A) (?B) (?A) (?A) (?B)
                 (?B) (?D) (?D) (?A) (?A) (?C) (?D) (?D) (?B) (?A)
                 (?A) (?C) (?A) (?A) (?C) (?D) (?D) (?B) (?D) (?D)
                 (?A) (?A) (?B) (?A) (?A) (?B) (?C) (?D) (?D) (?C)
                 (?A) (?A) (?B) (?B) (?A) (?A) (?C) (?D) (?D) (?B)
                 (?A) (?A) (?C) (?A) (?A) (?B) (?A) (?A) (?D) (?D)
                 (?B) (?A) (?A) (?B) (?D) (?D) (?C) (?A) (?A) (?C)
                 (?C) (?A) (?A) (?D) (?D) (?B) (?A) (?A) (?D) (?D)
                 (?B) (?C) (?B) (?A) (?A) (?B) (?D) (?D) (?A) (?A)
                 (?C) (?D) (?D) (?B) (?A) (?A) (?C) (?D) (?D) (?C)
                 (?A) (?A) (?B) (?B) (?A) (?A) (?B) (?A) (?A) (?D)
                 (?D) (?A) (?A) (?B) (?C) (?D) (?D) (?C) (?B) (?A)
                 (?A) (?B) (?A) (?A) (?B) (?B) (?A) (?A) (?B) (?B)
                 (?A) (?A)
 Unable to determine electronic state:  an orbital has unidentified symmetry.
 Alpha  occ. eigenvalues --  -24.29338 -24.29338 -24.29338  -2.31695  -1.44231
 Alpha  occ. eigenvalues --   -1.44231  -1.39327  -1.10053  -1.07532  -1.07532
 Alpha  occ. eigenvalues --   -0.45542  -0.45542  -0.44843  -0.42101  -0.42101
 Alpha  occ. eigenvalues --   -0.40293  -0.40065  -0.39976  -0.39976  -0.17268
 Alpha virt. eigenvalues --   -0.14494  -0.14494  -0.07646  -0.07646  -0.03955
 Alpha virt. eigenvalues --   -0.02570   0.00246   0.00246   0.06190   0.07091
 Alpha virt. eigenvalues --    0.10123   0.10123   0.10520   0.10520   0.10771
 Alpha virt. eigenvalues --    0.12463   0.12463   0.30421   0.33177   0.33177
 Alpha virt. eigenvalues --    0.33224   0.33783   0.38175   0.38175   0.39007
 Alpha virt. eigenvalues --    0.44702   0.44702   0.45501   0.47762   0.47762
 Alpha virt. eigenvalues --    0.48791   0.48791   0.48942   0.52852   0.52983
 Alpha virt. eigenvalues --    0.52983   0.54925   0.54925   0.62637   0.68224
 Alpha virt. eigenvalues --    0.68224   0.73889   0.87360   0.99671   0.99671
 Alpha virt. eigenvalues --    1.05577   1.05904   1.05904   1.07247   1.07247
 Alpha virt. eigenvalues --    1.11591   1.17816   1.21452   1.23318   1.23318
 Alpha virt. eigenvalues --    1.28407   1.28407   1.29035   1.29035   1.30106
 Alpha virt. eigenvalues --    1.31077   1.44471   1.44471   1.51661   1.51661
 Alpha virt. eigenvalues --    1.53930   1.59030   1.60685   1.60800   1.60800
 Alpha virt. eigenvalues --    1.61776   1.61776   1.63859   1.70290   1.70290
 Alpha virt. eigenvalues --    1.71881   1.71881   1.74559   1.78080   1.84841
 Alpha virt. eigenvalues --    1.84841   2.02418   2.09101   2.09101   2.12099
 Alpha virt. eigenvalues --    2.19628   2.20280   2.20280   2.73199   2.73199
 Alpha virt. eigenvalues --    2.80406   3.01526   3.04528   3.04528   3.04972
 Alpha virt. eigenvalues --    3.04972   3.10289   3.11959   3.28973   3.28973
 Alpha virt. eigenvalues --    3.47929   3.49194   3.49194   3.53498   3.57366
 Alpha virt. eigenvalues --    3.57366   3.83036   3.93618   3.93618   3.98437
 Alpha virt. eigenvalues --    4.00115   4.01617   4.01617   4.05653   4.05653
 Alpha virt. eigenvalues --    4.06913   4.07636   4.07636   4.14014   4.18386
 Alpha virt. eigenvalues --    4.18386   4.19083   4.42517   4.42517   4.51355
 Alpha virt. eigenvalues --    4.53605   4.53605   4.70176   4.87753   4.87753
 Alpha virt. eigenvalues --    4.87834   4.87834   4.91544   4.96730   4.96730
 Alpha virt. eigenvalues --    5.04644   5.06531   5.32136   5.32136   5.33129
 Alpha virt. eigenvalues --    5.33630   5.33630   5.41843   5.60984   5.68504
 Alpha virt. eigenvalues --    5.68504   6.00257   6.13949   6.13949   6.23888
 Alpha virt. eigenvalues --    6.26010   6.26010   6.30290   6.90070   6.90070
 Alpha virt. eigenvalues --    6.98868   9.40214   9.40214  11.18088  11.18088
 Alpha virt. eigenvalues --   11.18397  11.18493  11.18493  11.18667  11.18679
 Alpha virt. eigenvalues --   11.18679  11.19151  11.19261  11.19261  11.19350
 Alpha virt. eigenvalues --   11.19885  11.19911  11.19911  11.19920  11.19920
 Alpha virt. eigenvalues --   11.19963  11.22044  11.22044  11.23302  11.23302
 Alpha virt. eigenvalues --   11.25260  11.25343  11.29255  11.41880  11.41880
 Alpha virt. eigenvalues --   14.31442  14.31706  14.31706  14.33536  14.33536
 Alpha virt. eigenvalues --   14.34311  14.34485  14.34485  14.37068  14.39590
 Alpha virt. eigenvalues --   14.39590  14.42821  14.51720  14.51720  14.52091
 Alpha virt. eigenvalues --   14.52328  14.52328  14.57062  14.60337  14.62349
 Alpha virt. eigenvalues --   14.62349  14.92774  15.06006  15.06006  15.55822
 Alpha virt. eigenvalues --   15.55822  15.60740  15.60740  15.62846  15.65971
 Alpha virt. eigenvalues --   15.85366  15.85366  15.87757  15.92723  15.96682
 Alpha virt. eigenvalues --   15.96682  16.07844  16.30372  16.30372  23.80950
 Alpha virt. eigenvalues --   53.64098  53.65020  53.65020  80.57782 284.00744
 Alpha virt. eigenvalues --  284.01548 284.01548
          Condensed to atoms (all electrons):
               1          2          3          4
     1  Nb  11.145344   0.284785   0.284785   0.284785
     2  F    0.284785   9.040881   0.003884   0.003884
     3  F    0.284785   0.003884   9.040881   0.003884
     4  F    0.284785   0.003884   0.003884   9.040881
 Mulliken charges:
               1
     1  Nb   1.000302
     2  F   -0.333434
     3  F   -0.333434
     4  F   -0.333434
 Sum of Mulliken charges =  -0.00000
 Mulliken charges with hydrogens summed into heavy atoms:
               1
     1  Nb   1.000302
     2  F   -0.333434
     3  F   -0.333434
     4  F   -0.333434
 Electronic spatial extent (au):  <R**2>=            416.5134
 Charge=             -0.0000 electrons
 Dipole moment (field-independent basis, Debye):
    X=              0.0000    Y=              0.0000    Z=             -0.0000  Tot=              0.0000
 Quadrupole moment (field-independent basis, Debye-Ang):
   XX=            -39.4294   YY=            -39.4294   ZZ=            -39.5650
   XY=             -0.0000   XZ=              0.0000   YZ=              0.0000
 Traceless Quadrupole moment (field-independent basis, Debye-Ang):
   XX=              0.0452   YY=              0.0452   ZZ=             -0.0904
   XY=             -0.0000   XZ=              0.0000   YZ=              0.0000
 Octapole moment (field-independent basis, Debye-Ang**2):
  XXX=              0.0000  YYY=             -6.3323  ZZZ=             -0.0000  XYY=              0.0000
  XXY=              6.3323  XXZ=             -0.0000  XZZ=             -0.0000  YZZ=              0.0000
  YYZ=             -0.0000  XYZ=             -0.0000
 Hexadecapole moment (field-independent basis, Debye-Ang**3):
 XXXX=           -205.2437 YYYY=           -205.2437 ZZZZ=            -68.6476 XXXY=             -0.0000
 XXXZ=              0.0000 YYYX=             -0.0000 YYYZ=              0.0000 ZZZX=              0.0000
 ZZZY=              0.0000 XXYY=            -68.4146 XXZZ=            -42.0899 YYZZ=            -42.0899
 XXYZ=              0.0000 YYXZ=              0.0000 ZZXY=             -0.0000
 N-N= 1.408570262428D+02 E-N=-1.112024924417D+03  KE= 3.175250965807D+02
 Symmetry A1   KE= 1.916034343556D+02
 Symmetry A2   KE= 5.794640304508D+00
 Symmetry B1   KE= 1.045072179418D+02
 Symmetry B2   KE= 1.561980397878D+01
 Unable to Open any file for archive entry.
 1\1\GINC-TCOPT10\FOpt\RPBEPBE\def2QZVPP\F3Nb1\HUTTER\30-Jul-2021\0\\#N
  RPBEPBE/Def2QZVPP scf=tight Int(Grid=ultrafine) OPT FREQ\\Mol job 1\\
 0,1\Nb,8.0339973213,8.5,8.5\F,7.1111370458,10.0984408855,8.5\F,7.11113
 70458,6.9015591145,8.5\F,9.8797178723,8.5,8.5\\Version=ES64L-G16RevC.0
 1\HF=-356.5665802\RMSD=1.730e-09\RMSF=1.681e-07\Dipole=0.,0.,0.\Quadru
 pole=0.0336211,0.0336211,-0.0672422,0.,0.,0.\PG=D03H [O(Nb1),3C2(F1)]\
 \@
 The archive entry for this job was punched.


 IF YOU PERCEIVE THAT THERE ARE FOUR POSSIBLE WAYS IN
 WHICH A PROCEDURE CAN GO WRONG AND CIRCUMVENT THESE, 
 THEN A FIFTH WAY WILL DEVELOP.

                              -- MURPHY'S TWELFTH LAW
 Job cpu time:       0 days  0 hours 10 minutes 50.2 seconds.
 Elapsed time:       0 days  0 hours  1 minutes 23.3 seconds.
 File lengths (MBytes):  RWF=     34 Int=      0 D2E=      0 Chk=      6 Scr=      1
 Normal termination of Gaussian 16 at Fri Jul 30 16:44:03 2021.
 Link1:  Proceeding to internal job step number  2.
 ----------------------------------------------------------------------
 #N Geom=AllCheck Guess=TCheck SCRF=Check GenChk RPBEPBE/def2QZVPP Freq
 ----------------------------------------------------------------------
 1/10=4,29=7,30=1,38=1,40=1/1,3;
 2/12=2,40=1/2;
 3/5=45,7=202,11=2,14=-4,25=1,30=1,70=2,71=2,74=1009,75=-5,116=1,140=1/1,2,3;
 4/5=101/1;
 5/5=2,32=2,38=6,98=1/2;
 8/6=4,10=90,11=11/1;
 11/6=1,8=1,9=11,15=111,16=1/1,2,10;
 10/6=1/2;
 6/7=2,8=2,9=2,10=2,28=1/1;
 7/8=1,10=1,25=1/1,2,3,16;
 1/10=4,30=1/3;
 99//99;
 Structure from the checkpoint file:  "/data/hutter/SMG16/PBE/Gau-68704.chk"
 ---------
 Mol job 1
 ---------
 Charge =  0 Multiplicity = 1
 Redundant internal coordinates found in file.  (old form).
 Nb,0,8.0339973213,8.5,8.5
 F,0,7.1111370458,10.0984408855,8.5
 F,0,7.1111370458,6.9015591145,8.5
 F,0,9.8797178723,8.5,8.5
 Recover connectivity data from disk.

 GradGradGradGradGradGradGradGradGradGradGradGradGradGradGradGradGradGrad
 Berny optimization.
 Initialization pass.
                           ----------------------------
                           !    Initial Parameters    !
                           ! (Angstroms and Degrees)  !
 --------------------------                            --------------------------
 ! Name  Definition              Value          Derivative Info.                !
 --------------------------------------------------------------------------------
 ! R1    R(1,2)                  1.8457         calculate D2E/DX2 analytically  !
 ! R2    R(1,3)                  1.8457         calculate D2E/DX2 analytically  !
 ! R3    R(1,4)                  1.8457         calculate D2E/DX2 analytically  !
 ! A1    A(2,1,3)              120.0            calculate D2E/DX2 analytically  !
 ! A2    A(2,1,4)              120.0            calculate D2E/DX2 analytically  !
 ! A3    A(3,1,4)              120.0            calculate D2E/DX2 analytically  !
 ! D1    D(2,1,4,3)            180.0            calculate D2E/DX2 analytically  !
 --------------------------------------------------------------------------------
 Trust Radius=3.00D-01 FncErr=1.00D-07 GrdErr=1.00D-07 EigMax=2.50D+02 EigMin=1.00D-04
 Number of steps in this run=      2 maximum allowed number of steps=      2.
 GradGradGradGradGradGradGradGradGradGradGradGradGradGradGradGradGradGrad

                          Input orientation:                          
 ---------------------------------------------------------------------
 Center     Atomic      Atomic             Coordinates (Angstroms)
 Number     Number       Type             X           Y           Z
 ---------------------------------------------------------------------
      1         41           0        8.033997    8.500000    8.500000
      2          9           0        7.111137   10.098441    8.500000
      3          9           0        7.111137    6.901559    8.500000
      4          9           0        9.879718    8.500000    8.500000
 ---------------------------------------------------------------------
                    Distance matrix (angstroms):
                    1          2          3          4
     1  Nb   0.000000
     2  F    1.845721   0.000000
     3  F    1.845721   3.196882   0.000000
     4  F    1.845721   3.196882   3.196882   0.000000
 Stoichiometry    F3Nb
 Framework group  D3H[O(Nb),3C2(F)]
 Deg. of freedom     1
 Full point group                 D3H     NOp  12
 Largest Abelian subgroup         C2V     NOp   4
 Largest concise Abelian subgroup C2      NOp   2
                         Standard orientation:                         
 ---------------------------------------------------------------------
 Center     Atomic      Atomic             Coordinates (Angstroms)
 Number     Number       Type             X           Y           Z
 ---------------------------------------------------------------------
      1         41           0        0.000000    0.000000    0.000000
      2          9           0       -0.000000    1.845721    0.000000
      3          9           0       -1.598441   -0.922860   -0.000000
      4          9           0        1.598441   -0.922860    0.000000
 ---------------------------------------------------------------------
 Rotational constants (GHZ):           5.2056737           5.2056737           2.6028369
 Standard basis: def2QZVPP (5D, 7F)
 There are   125 symmetry adapted cartesian basis functions of A1  symmetry.
 There are    45 symmetry adapted cartesian basis functions of A2  symmetry.
 There are    88 symmetry adapted cartesian basis functions of B1  symmetry.
 There are    64 symmetry adapted cartesian basis functions of B2  symmetry.
 There are    93 symmetry adapted basis functions of A1  symmetry.
 There are    38 symmetry adapted basis functions of A2  symmetry.
 There are    69 symmetry adapted basis functions of B1  symmetry.
 There are    52 symmetry adapted basis functions of B2  symmetry.
   252 basis functions,   410 primitive gaussians,   322 cartesian basis functions
    20 alpha electrons       20 beta electrons
       nuclear repulsion energy       140.8570262428 Hartrees.
 NAtoms=    4 NActive=    4 NUniq=    2 SFac= 4.00D+00 NAtFMM=   60 NAOKFM=F Big=F
 Integral buffers will be    131072 words long.
 Raffenetti 2 integral format.
 Two-electron integral symmetry is turned on.
 One-electron integrals computed using PRISM.
  12 Symmetry operations used in ECPInt.
 ECPInt:  NShTT=    2628 NPrTT=    6800 LenC2=    2479 LenP2D=    5354.
 LDataN:  DoStor=T MaxTD1= 8 Len=  415
 NBasis=   252 RedAO= T EigKep=  4.83D-04  NBF=    93    38    69    52
 NBsUse=   252 1.00D-06 EigRej= -1.00D+00 NBFU=    93    38    69    52
 Defaulting to unpruned grid for atomic number  41.
 Initial guess from the checkpoint file:  "/data/hutter/SMG16/PBE/Gau-68704.chk"
 B after Tr=     0.000000    0.000000   -0.000000
         Rot=    1.000000    0.000000   -0.000000    0.000000 Ang=   0.00 deg.
 Initial guess orbital symmetries:
       Occupied  (A1') (?A) (?A) (?B) (?A) (?A) (?C) (?B) (?A)
                 (?A) (?A) (?A) (?B) (?D) (?D) (?C) (?B) (?A) (?A)
                 (?B)
       Virtual   (?D) (?D) (?A) (?A) (?B) (?C) (?A) (?A) (?C) (?B)
                 (?D) (?D) (?A) (?A) (?B) (?A) (?A) (?B) (?A) (?A)
                 (?B) (?B) (?D) (?D) (?C) (?A) (?A) (?C) (?D) (?D)
                 (?A) (?A) (?B) (?C) (?A) (?A) (?D) (?D) (?B) (?A)
                 (?A) (?B) (?C) (?A) (?A) (?B) (?A) (?A) (?D) (?D)
                 (?C) (?B) (?B) (?A) (?A) (?D) (?D) (?A) (?A) (?C)
                 (?B) (?D) (?D) (?A) (?A) (?B) (?B) (?B) (?D) (?D)
                 (?A) (?A) (?C) (?D) (?D) (?A) (?A) (?C) (?B) (?A)
                 (?A) (?C) (?D) (?D) (?B) (?B) (?A) (?A) (?A) (?A)
                 (?B) (?C) (?D) (?D) (?A) (?A) (?C) (?B) (?A) (?A)
                 (?B) (?D) (?D) (?C) (?A) (?A) (?B) (?A) (?A) (?B)
                 (?B) (?D) (?D) (?A) (?A) (?C) (?D) (?D) (?B) (?A)
                 (?A) (?C) (?A) (?A) (?C) (?D) (?D) (?B) (?D) (?D)
                 (?A) (?A) (?B) (?A) (?A) (?B) (?C) (?D) (?D) (?C)
                 (?A) (?A) (?B) (?B) (?A) (?A) (?C) (?D) (?D) (?B)
                 (?A) (?A) (?C) (?A) (?A) (?B) (?A) (?A) (?D) (?D)
                 (?B) (?A) (?A) (?B) (?D) (?D) (?C) (?A) (?A) (?C)
                 (?C) (?A) (?A) (?D) (?D) (?B) (?A) (?A) (?D) (?D)
                 (?B) (?C) (?B) (?A) (?A) (?B) (?D) (?D) (?A) (?A)
                 (?C) (?D) (?D) (?B) (?A) (?A) (?C) (?D) (?D) (?C)
                 (?A) (?A) (?B) (?B) (?A) (?A) (?B) (?A) (?A) (?D)
                 (?D) (?A) (?A) (?B) (?C) (?D) (?D) (?C) (?B) (?A)
                 (?A) (?B) (?A) (?A) (?B) (?B) (?A) (?A) (?B) (?B)
                 (?A) (?A)
 Keep J ints in memory in symmetry-blocked form, NReq=636253166.
 Requested convergence on RMS density matrix=1.00D-08 within 128 cycles.
 Requested convergence on MAX density matrix=1.00D-06.
 Requested convergence on             energy=1.00D-06.
 No special actions if energy rises.
 Defaulting to unpruned grid for atomic number  41.
 Defaulting to unpruned grid for atomic number  41.
 Defaulting to unpruned grid for atomic number  41.
 Defaulting to unpruned grid for atomic number  41.
 Defaulting to unpruned grid for atomic number  41.
 Defaulting to unpruned grid for atomic number  41.
 Defaulting to unpruned grid for atomic number  41.
 Defaulting to unpruned grid for atomic number  41.
 SCF Done:  E(RPBE-PBE) =  -356.566580209     A.U. after    1 cycles
            NFock=  1  Conv=0.20D-09     -V/T= 2.1230
 DoSCS=F DFT=T ScalE2(SS,OS)=  1.000000  1.000000
 Range of M.O.s used for correlation:     1   252
 NBasis=   252 NAE=    20 NBE=    20 NFC=     0 NFV=     0
 NROrb=    252 NOA=    20 NOB=    20 NVA=   232 NVB=   232

 **** Warning!!: The largest alpha MO coefficient is  0.15974845D+02


 **** Warning!!: The smallest alpha delta epsilon is  0.27745922D-01

  12 Symmetry operations used in ECPInt.
 ECPInt:  NShTT=    2628 NPrTT=    6800 LenC2=    2479 LenP2D=    5354.
 LDataN:  DoStor=T MaxTD1= 9 Len=  602
 Symmetrizing basis deriv contribution to polar:
 IMax=3 JMax=2 DiffMx= 0.00D+00
 G2DrvN: will do     5 centers at a time, making    1 passes.
 Calling FoFCou, ICntrl=  3507 FMM=F I1Cent=   0 AccDes= 0.00D+00.
 Defaulting to unpruned grid for atomic number  41.
 Defaulting to unpruned grid for atomic number  41.
 Defaulting to unpruned grid for atomic number  41.
 Defaulting to unpruned grid for atomic number  41.
 Defaulting to unpruned grid for atomic number  41.
 Defaulting to unpruned grid for atomic number  41.
 Defaulting to unpruned grid for atomic number  41.
 Defaulting to unpruned grid for atomic number  41.
 End of G2Drv F.D. properties file   721 does not exist.
 End of G2Drv F.D. properties file   722 does not exist.
 End of G2Drv F.D. properties file   788 does not exist.
          IDoAtm=1111
          Differentiating once with respect to electric field.
                with respect to dipole field.
          Differentiating once with respect to nuclear coordinates.
 Defaulting to unpruned grid for atomic number  41.
 Keep J ints in memory in symmetry-blocked form, NReq=636255741.
 Defaulting to unpruned grid for atomic number  41.
 Defaulting to unpruned grid for atomic number  41.
 Defaulting to unpruned grid for atomic number  41.
 Defaulting to unpruned grid for atomic number  41.
 Defaulting to unpruned grid for atomic number  41.
 Defaulting to unpruned grid for atomic number  41.
 Defaulting to unpruned grid for atomic number  41.
 Defaulting to unpruned grid for atomic number  41.
          There are     9 degrees of freedom in the 1st order CPHF.  IDoFFX=4 NUNeed=     9.
      9 vectors produced by pass  0 Test12= 5.16D-14 1.11D-08 XBig12= 1.81D+02 1.27D+01.
 AX will form     9 AO Fock derivatives at one time.
      9 vectors produced by pass  1 Test12= 5.16D-14 1.11D-08 XBig12= 5.94D+01 3.75D+00.
      9 vectors produced by pass  2 Test12= 5.16D-14 1.11D-08 XBig12= 4.79D+00 6.94D-01.
      9 vectors produced by pass  3 Test12= 5.16D-14 1.11D-08 XBig12= 3.90D-01 2.81D-01.
      9 vectors produced by pass  4 Test12= 5.16D-14 1.11D-08 XBig12= 2.45D-02 7.18D-02.
      8 vectors produced by pass  5 Test12= 5.16D-14 1.11D-08 XBig12= 2.34D-04 4.24D-03.
      8 vectors produced by pass  6 Test12= 5.16D-14 1.11D-08 XBig12= 1.78D-06 4.11D-04.
      5 vectors produced by pass  7 Test12= 5.16D-14 1.11D-08 XBig12= 1.07D-08 2.67D-05.
      3 vectors produced by pass  8 Test12= 5.16D-14 1.11D-08 XBig12= 4.63D-12 4.58D-07.
      2 vectors produced by pass  9 Test12= 5.16D-14 1.11D-08 XBig12= 1.76D-14 4.05D-08.
 InvSVY:  IOpt=1 It=  1 EMax= 2.67D-15
 Solved reduced A of dimension    71 with     9 vectors.
 Isotropic polarizability for W=    0.000000       52.88 Bohr**3.
 End of Minotr F.D. properties file   721 does not exist.
 End of Minotr F.D. properties file   722 does not exist.
 End of Minotr F.D. properties file   788 does not exist.

 **********************************************************************

            Population analysis using the SCF Density.

 **********************************************************************

 Orbital symmetries:
       Occupied  (A1') (?A) (?A) (?B) (?A) (?A) (?C) (?B) (?A)
                 (?A) (?A) (?A) (?B) (?D) (?D) (?C) (?B) (?A) (?A)
                 (?B)
       Virtual   (?D) (?D) (?A) (?A) (?B) (?C) (?A) (?A) (?C) (?B)
                 (?D) (?D) (?A) (?A) (?B) (?A) (?A) (?B) (?A) (?A)
                 (?B) (?B) (?D) (?D) (?C) (?A) (?A) (?C) (?D) (?D)
                 (?A) (?A) (?B) (?C) (?A) (?A) (?D) (?D) (?B) (?A)
                 (?A) (?B) (?C) (?A) (?A) (?B) (?A) (?A) (?D) (?D)
                 (?C) (?B) (?B) (?A) (?A) (?D) (?D) (?A) (?A) (?C)
                 (?B) (?D) (?D) (?A) (?A) (?B) (?B) (?B) (?D) (?D)
                 (?A) (?A) (?C) (?D) (?D) (?A) (?A) (?C) (?B) (?A)
                 (?A) (?C) (?D) (?D) (?B) (?B) (?A) (?A) (?A) (?A)
                 (?B) (?C) (?D) (?D) (?A) (?A) (?C) (?B) (?A) (?A)
                 (?B) (?D) (?D) (?C) (?A) (?A) (?B) (?A) (?A) (?B)
                 (?B) (?D) (?D) (?A) (?A) (?C) (?D) (?D) (?B) (?A)
                 (?A) (?C) (?A) (?A) (?C) (?D) (?D) (?B) (?D) (?D)
                 (?A) (?A) (?B) (?A) (?A) (?B) (?C) (?D) (?D) (?C)
                 (?A) (?A) (?B) (?B) (?A) (?A) (?C) (?D) (?D) (?B)
                 (?A) (?A) (?C) (?A) (?A) (?B) (?A) (?A) (?D) (?D)
                 (?B) (?A) (?A) (?B) (?D) (?D) (?C) (?A) (?A) (?C)
                 (?C) (?A) (?A) (?D) (?D) (?B) (?A) (?A) (?D) (?D)
                 (?B) (?C) (?B) (?A) (?A) (?B) (?D) (?D) (?A) (?A)
                 (?C) (?D) (?D) (?B) (?A) (?A) (?C) (?D) (?D) (?C)
                 (?A) (?A) (?B) (?B) (?A) (?A) (?B) (?A) (?A) (?D)
                 (?D) (?A) (?A) (?B) (?C) (?D) (?D) (?C) (?B) (?A)
                 (?A) (?B) (?A) (?A) (?B) (?B) (?A) (?A) (?B) (?B)
                 (?A) (?A)
 Unable to determine electronic state:  an orbital has unidentified symmetry.
 Alpha  occ. eigenvalues --  -24.29338 -24.29338 -24.29338  -2.31695  -1.44231
 Alpha  occ. eigenvalues --   -1.44231  -1.39327  -1.10053  -1.07532  -1.07532
 Alpha  occ. eigenvalues --   -0.45542  -0.45542  -0.44843  -0.42101  -0.42101
 Alpha  occ. eigenvalues --   -0.40293  -0.40065  -0.39976  -0.39976  -0.17268
 Alpha virt. eigenvalues --   -0.14494  -0.14494  -0.07646  -0.07646  -0.03955
 Alpha virt. eigenvalues --   -0.02570   0.00246   0.00246   0.06190   0.07091
 Alpha virt. eigenvalues --    0.10123   0.10123   0.10520   0.10520   0.10771
 Alpha virt. eigenvalues --    0.12463   0.12463   0.30421   0.33177   0.33177
 Alpha virt. eigenvalues --    0.33224   0.33783   0.38175   0.38175   0.39007
 Alpha virt. eigenvalues --    0.44702   0.44702   0.45501   0.47762   0.47762
 Alpha virt. eigenvalues --    0.48791   0.48791   0.48942   0.52852   0.52983
 Alpha virt. eigenvalues --    0.52983   0.54925   0.54925   0.62637   0.68224
 Alpha virt. eigenvalues --    0.68224   0.73889   0.87360   0.99671   0.99671
 Alpha virt. eigenvalues --    1.05577   1.05904   1.05904   1.07247   1.07247
 Alpha virt. eigenvalues --    1.11591   1.17816   1.21452   1.23318   1.23318
 Alpha virt. eigenvalues --    1.28407   1.28407   1.29035   1.29035   1.30106
 Alpha virt. eigenvalues --    1.31077   1.44471   1.44471   1.51661   1.51661
 Alpha virt. eigenvalues --    1.53930   1.59030   1.60685   1.60800   1.60800
 Alpha virt. eigenvalues --    1.61776   1.61776   1.63859   1.70290   1.70290
 Alpha virt. eigenvalues --    1.71881   1.71881   1.74559   1.78080   1.84841
 Alpha virt. eigenvalues --    1.84841   2.02418   2.09101   2.09101   2.12099
 Alpha virt. eigenvalues --    2.19628   2.20280   2.20280   2.73199   2.73199
 Alpha virt. eigenvalues --    2.80406   3.01526   3.04529   3.04529   3.04972
 Alpha virt. eigenvalues --    3.04972   3.10289   3.11959   3.28973   3.28973
 Alpha virt. eigenvalues --    3.47929   3.49194   3.49194   3.53498   3.57366
 Alpha virt. eigenvalues --    3.57366   3.83036   3.93618   3.93618   3.98437
 Alpha virt. eigenvalues --    4.00115   4.01617   4.01617   4.05653   4.05653
 Alpha virt. eigenvalues --    4.06913   4.07636   4.07636   4.14014   4.18386
 Alpha virt. eigenvalues --    4.18386   4.19083   4.42517   4.42517   4.51355
 Alpha virt. eigenvalues --    4.53605   4.53605   4.70176   4.87753   4.87753
 Alpha virt. eigenvalues --    4.87834   4.87834   4.91544   4.96730   4.96730
 Alpha virt. eigenvalues --    5.04644   5.06531   5.32136   5.32136   5.33129
 Alpha virt. eigenvalues --    5.33630   5.33630   5.41843   5.60984   5.68504
 Alpha virt. eigenvalues --    5.68504   6.00257   6.13949   6.13949   6.23888
 Alpha virt. eigenvalues --    6.26010   6.26010   6.30290   6.90070   6.90070
 Alpha virt. eigenvalues --    6.98868   9.40214   9.40214  11.18088  11.18088
 Alpha virt. eigenvalues --   11.18397  11.18493  11.18493  11.18667  11.18679
 Alpha virt. eigenvalues --   11.18679  11.19151  11.19261  11.19261  11.19350
 Alpha virt. eigenvalues --   11.19885  11.19911  11.19911  11.19920  11.19920
 Alpha virt. eigenvalues --   11.19963  11.22044  11.22044  11.23302  11.23302
 Alpha virt. eigenvalues --   11.25260  11.25343  11.29255  11.41880  11.41880
 Alpha virt. eigenvalues --   14.31442  14.31706  14.31706  14.33536  14.33536
 Alpha virt. eigenvalues --   14.34311  14.34485  14.34485  14.37068  14.39590
 Alpha virt. eigenvalues --   14.39590  14.42821  14.51720  14.51720  14.52091
 Alpha virt. eigenvalues --   14.52328  14.52328  14.57062  14.60337  14.62349
 Alpha virt. eigenvalues --   14.62349  14.92774  15.06006  15.06006  15.55822
 Alpha virt. eigenvalues --   15.55822  15.60740  15.60740  15.62846  15.65971
 Alpha virt. eigenvalues --   15.85366  15.85366  15.87757  15.92723  15.96682
 Alpha virt. eigenvalues --   15.96682  16.07844  16.30372  16.30372  23.80950
 Alpha virt. eigenvalues --   53.64098  53.65020  53.65020  80.57782 284.00744
 Alpha virt. eigenvalues --  284.01548 284.01548
          Condensed to atoms (all electrons):
               1          2          3          4
     1  Nb  11.145344   0.284785   0.284785   0.284785
     2  F    0.284785   9.040881   0.003884   0.003884
     3  F    0.284785   0.003884   9.040881   0.003884
     4  F    0.284785   0.003884   0.003884   9.040881
 Mulliken charges:
               1
     1  Nb   1.000302
     2  F   -0.333434
     3  F   -0.333434
     4  F   -0.333434
 Sum of Mulliken charges =  -0.00000
 Mulliken charges with hydrogens summed into heavy atoms:
               1
     1  Nb   1.000302
     2  F   -0.333434
     3  F   -0.333434
     4  F   -0.333434
 APT charges:
               1
     1  Nb   1.488318
     2  F   -0.496106
     3  F   -0.496106
     4  F   -0.496106
 Sum of APT charges =   0.00000
 APT charges with hydrogens summed into heavy atoms:
               1
     1  Nb   1.488318
     2  F   -0.496106
     3  F   -0.496106
     4  F   -0.496106
 Electronic spatial extent (au):  <R**2>=            416.5134
 Charge=             -0.0000 electrons
 Dipole moment (field-independent basis, Debye):
    X=             -0.0000    Y=              0.0000    Z=             -0.0000  Tot=              0.0000
 Quadrupole moment (field-independent basis, Debye-Ang):
   XX=            -39.4294   YY=            -39.4294   ZZ=            -39.5650
   XY=             -0.0000   XZ=              0.0000   YZ=             -0.0000
 Traceless Quadrupole moment (field-independent basis, Debye-Ang):
   XX=              0.0452   YY=              0.0452   ZZ=             -0.0904
   XY=             -0.0000   XZ=              0.0000   YZ=             -0.0000
 Octapole moment (field-independent basis, Debye-Ang**2):
  XXX=              0.0000  YYY=             -6.3323  ZZZ=              0.0000  XYY=             -0.0000
  XXY=              6.3323  XXZ=              0.0000  XZZ=             -0.0000  YZZ=              0.0000
  YYZ=              0.0000  XYZ=             -0.0000
 Hexadecapole moment (field-independent basis, Debye-Ang**3):
 XXXX=           -205.2437 YYYY=           -205.2437 ZZZZ=            -68.6476 XXXY=             -0.0000
 XXXZ=              0.0000 YYYX=              0.0000 YYYZ=             -0.0000 ZZZX=              0.0000
 ZZZY=              0.0000 XXYY=            -68.4146 XXZZ=            -42.0899 YYZZ=            -42.0899
 XXYZ=              0.0000 YYXZ=              0.0000 ZZXY=             -0.0000
 N-N= 1.408570262428D+02 E-N=-1.112024922407D+03  KE= 3.175250956118D+02
 Symmetry A1   KE= 1.916034339745D+02
 Symmetry A2   KE= 5.794640194035D+00
 Symmetry B1   KE= 1.045072176851D+02
 Symmetry B2   KE= 1.561980375821D+01
  Exact polarizability:      45.889       0.000      45.891       0.000       0.000      66.849
 Approx polarizability:      83.664       0.000      83.664      -0.000       0.000     130.491
  12 Symmetry operations used in ECPInt.
 ECPInt:  NShTT=    2628 NPrTT=    6800 LenC2=    2479 LenP2D=    5354.
 LDataN:  DoStor=T MaxTD1=10 Len=  848
 Calling FoFJK, ICntrl=    100527 FMM=F ISym2X=1 I1Cent= 0 IOpClX= 0 NMat=1 NMatS=1 NMatT=0.
 Defaulting to unpruned grid for atomic number  41.
 Defaulting to unpruned grid for atomic number  41.
 Defaulting to unpruned grid for atomic number  41.
 Defaulting to unpruned grid for atomic number  41.
 Defaulting to unpruned grid for atomic number  41.
 Defaulting to unpruned grid for atomic number  41.
 Defaulting to unpruned grid for atomic number  41.
 Defaulting to unpruned grid for atomic number  41.
 Full mass-weighted force constant matrix:
 Low frequencies ---   -5.9132   -5.9123   -0.0118   -0.0031    0.1041   11.5950
 Low frequencies ---  126.8463  172.1321  172.1327
 Diagonal vibrational polarizability:
       12.3873351      12.3874386       0.7329501
 Harmonic frequencies (cm**-1), IR intensities (KM/Mole), Raman scattering
 activities (A**4/AMU), depolarization ratios for plane and unpolarized
 incident light, reduced masses (AMU), force constants (mDyne/A),
 and normal coordinates:
                      1                      2                      3
                     A2"                    ?A                     ?A
 Frequencies --    126.8463               172.1321               172.1327
 Red. masses --     27.2366                21.1508                21.1508
 Frc consts  --      0.2582                 0.3692                 0.3692
 IR Inten    --      0.4382                 4.5673                 4.5670
  Atom  AN      X      Y      Z        X      Y      Z        X      Y      Z
     1  41     0.00   0.00   0.33    -0.00  -0.17  -0.00    -0.17   0.00   0.00
     2   9    -0.00  -0.00  -0.54     0.00  -0.22   0.00     0.77   0.00  -0.00
     3   9     0.00   0.00  -0.54    -0.43   0.53   0.00     0.03  -0.43  -0.00
     4   9     0.00  -0.00  -0.54     0.43   0.53   0.00     0.03   0.43  -0.00
                      4                      5                      6
                     ?B                     ?A                     ?A
 Frequencies --    667.9176               712.6352               712.6372
 Red. masses --     18.9984                23.7689                23.7689
 Frc consts  --      4.9936                 7.1120                 7.1121
 IR Inten    --      0.0000               155.4828               155.4888
  Atom  AN      X      Y      Z        X      Y      Z        X      Y      Z
     1  41    -0.00  -0.00   0.00     0.00  -0.25   0.00    -0.25  -0.00  -0.00
     2   9     0.00   0.58  -0.00    -0.00   0.79  -0.00     0.04   0.00   0.00
     3   9    -0.50  -0.29   0.00     0.32   0.23  -0.00     0.60   0.32   0.00
     4   9     0.50  -0.29  -0.00    -0.32   0.23  -0.00     0.60  -0.32   0.00

 -------------------
 - Thermochemistry -
 -------------------
 Temperature   298.150 Kelvin.  Pressure   1.00000 Atm.
 Atom     1 has atomic number 41 and mass  92.90600
 Atom     2 has atomic number  9 and mass  18.99840
 Atom     3 has atomic number  9 and mass  18.99840
 Atom     4 has atomic number  9 and mass  18.99840
 Molecular mass:   149.90121 amu.
 Principal axes and moments of inertia in atomic units:
                           1         2         3
     Eigenvalues --   346.68735 346.68735 693.37469
           X           -0.00000   1.00000   0.00000
           Y            1.00000  -0.00000   0.00000
           Z           -0.00000  -0.00000   1.00000
 This molecule is an oblate symmetric top.
 Rotational symmetry number  6.
 Rotational temperatures (Kelvin)      0.24983     0.24983     0.12492
 Rotational constants (GHZ):           5.20567     5.20567     2.60284
 Zero-point vibrational energy      15337.9 (Joules/Mol)
                                    3.66585 (Kcal/Mol)
 Warning -- explicit consideration of   3 degrees of freedom as
           vibrations may cause significant error
 Vibrational temperatures:    182.50   247.66   247.66   960.98  1025.32
          (Kelvin)           1025.33
 
 Zero-point correction=                           0.005842 (Hartree/Particle)
 Thermal correction to Energy=                    0.010912
 Thermal correction to Enthalpy=                  0.011856
 Thermal correction to Gibbs Free Energy=        -0.022370
 Sum of electronic and zero-point Energies=           -356.560738
 Sum of electronic and thermal Energies=              -356.555668
 Sum of electronic and thermal Enthalpies=            -356.554724
 Sum of electronic and thermal Free Energies=         -356.588950
 
                     E (Thermal)             CV                S
                      KCal/Mol        Cal/Mol-Kelvin    Cal/Mol-Kelvin
 Total                    6.847             14.144             72.036
 Electronic               0.000              0.000              0.000
 Translational            0.889              2.981             40.925
 Rotational               0.889              2.981             22.364
 Vibrational              5.070              8.182              8.747
 Vibration     1          0.611              1.926              2.993
 Vibration     2          0.626              1.877              2.412
 Vibration     3          0.626              1.877              2.412
                       Q            Log10(Q)             Ln(Q)
 Total Bot       0.194796D+11         10.289580         23.692633
 Total V=0       0.947695D+13         12.976669         29.879884
 Vib (Bot)       0.156784D-01         -1.804698         -4.155471
 Vib (Bot)    1  0.160844D+01          0.206404          0.475264
 Vib (Bot)    2  0.116994D+01          0.068165          0.156955
 Vib (Bot)    3  0.116994D+01          0.068163          0.156951
 Vib (V=0)       0.762765D+01          0.882391          2.031780
 Vib (V=0)    1  0.218436D+01          0.339325          0.781324
 Vib (V=0)    2  0.177231D+01          0.248539          0.572283
 Vib (V=0)    3  0.177230D+01          0.248538          0.572280
 Electronic      0.100000D+01          0.000000          0.000000
 Translational   0.721376D+08          7.858162         18.094086
 Rotational      0.172233D+05          4.236116          9.754018
 ***** Axes restored to original set *****
 -------------------------------------------------------------------
 Center     Atomic                   Forces (Hartrees/Bohr)
 Number     Number              X              Y              Z
 -------------------------------------------------------------------
      1       41           0.000000000   -0.000000000    0.000000000
      2        9           0.000000171   -0.000000295    0.000000000
      3        9           0.000000171    0.000000295    0.000000000
      4        9          -0.000000341    0.000000000   -0.000000000
 -------------------------------------------------------------------
 Cartesian Forces:  Max     0.000000341 RMS     0.000000171
 FormGI is forming the generalized inverse of G from B-inverse, IUseBI=4.

 GradGradGradGradGradGradGradGradGradGradGradGradGradGradGradGradGradGrad
 Berny optimization.
 Internal  Forces:  Max     0.000000341 RMS     0.000000223
 Search for a local minimum.
 Step number   1 out of a maximum of    2
 All quantities printed in internal units (Hartrees-Bohrs-Radians)
 Second derivative matrix not updated -- analytic derivatives used.
 The second derivative matrix:
                          R1        R2        R3        A1        A2
           R1           0.28937
           R2           0.01568   0.28937
           R3           0.01568   0.01568   0.28937
           A1          -0.00591  -0.00592   0.01183   0.04839
           A2          -0.00591   0.01183  -0.00592  -0.02419   0.04839
           A3           0.01183  -0.00591  -0.00591  -0.02419  -0.02419
           D1           0.00000   0.00000  -0.00000  -0.00000  -0.00000
                          A3        D1
           A3           0.04838
           D1           0.00000   0.02180
 ITU=  0
     Eigenvalues ---    0.02180   0.07102   0.07102   0.27524   0.27524
     Eigenvalues ---    0.32074
 Angle between quadratic step and forces=   0.00 degrees.
 Linear search not attempted -- first point.
 Iteration  1 RMS(Cart)=  0.00000070 RMS(Int)=  0.00000000
 ClnCor:  largest displacement from symmetrization is 4.28D-11 for atom     4.
 Variable       Old X    -DE/DX   Delta X   Delta X   Delta X     New X
                                 (Linear)    (Quad)   (Total)
    R1        3.48791  -0.00000   0.00000  -0.00000  -0.00000   3.48791
    R2        3.48791  -0.00000   0.00000  -0.00000  -0.00000   3.48791
    R3        3.48791  -0.00000   0.00000  -0.00000  -0.00000   3.48791
    A1        2.09440   0.00000   0.00000   0.00000   0.00000   2.09440
    A2        2.09440  -0.00000   0.00000   0.00000   0.00000   2.09440
    A3        2.09440  -0.00000   0.00000  -0.00000  -0.00000   2.09440
    D1        3.14159   0.00000   0.00000   0.00000   0.00000   3.14159
         Item               Value     Threshold  Converged?
 Maximum Force            0.000000     0.000450     YES
 RMS     Force            0.000000     0.000300     YES
 Maximum Displacement     0.000001     0.001800     YES
 RMS     Displacement     0.000001     0.001200     YES
 Predicted change in Energy=-5.443381D-13
 Optimization completed.
    -- Stationary point found.
                           ----------------------------
                           !   Optimized Parameters   !
                           ! (Angstroms and Degrees)  !
 --------------------------                            --------------------------
 ! Name  Definition              Value          Derivative Info.                !
 --------------------------------------------------------------------------------
 ! R1    R(1,2)                  1.8457         -DE/DX =    0.0                 !
 ! R2    R(1,3)                  1.8457         -DE/DX =    0.0                 !
 ! R3    R(1,4)                  1.8457         -DE/DX =    0.0                 !
 ! A1    A(2,1,3)              120.0            -DE/DX =    0.0                 !
 ! A2    A(2,1,4)              120.0            -DE/DX =    0.0                 !
 ! A3    A(3,1,4)              120.0            -DE/DX =    0.0                 !
 ! D1    D(2,1,4,3)            180.0            -DE/DX =    0.0                 !
 --------------------------------------------------------------------------------
 GradGradGradGradGradGradGradGradGradGradGradGradGradGradGradGradGradGrad

 Dipole is zero, so no output in dipole orientation.

 ----------------------------------------------------------------------

 Electric dipole moment (input orientation):
 (Debye = 10**-18 statcoulomb cm , SI units = C m)
                  (au)            (Debye)         (10**-30 SI)
   Tot        0.000000D+00      0.000000D+00      0.000000D+00
   x          0.000000D+00      0.000000D+00      0.000000D+00
   y          0.000000D+00      0.000000D+00      0.000000D+00
   z          0.000000D+00      0.000000D+00      0.000000D+00

 Dipole polarizability, Alpha (input orientation).
 (esu units = cm**3 , SI units = C**2 m**2 J**-1)
 Alpha(0;0):
               (au)            (10**-24 esu)      (10**-40 SI)
   iso        0.528761D+02      0.783543D+01      0.871810D+01
   aniso      0.209597D+02      0.310591D+01      0.345579D+01
   xx         0.458891D+02      0.680006D+01      0.756609D+01
   yx        -0.814666D-03     -0.120721D-03     -0.134320D-03
   yy         0.458900D+02      0.680020D+01      0.756624D+01
   zx         0.000000D+00      0.000000D+00      0.000000D+00
   zy         0.000000D+00      0.000000D+00      0.000000D+00
   zz         0.668493D+02      0.990604D+01      0.110220D+02

 ----------------------------------------------------------------------
 Unable to Open any file for archive entry.
 1\1\GINC-TCOPT10\Freq\RPBEPBE\def2QZVPP\F3Nb1\HUTTER\30-Jul-2021\0\\#N
  Geom=AllCheck Guess=TCheck SCRF=Check GenChk RPBEPBE/def2QZVPP Freq\\
 Mol job 1\\0,1\Nb,8.0339973213,8.5,8.5\F,7.1111370458,10.0984408855,8.
 5\F,7.1111370458,6.9015591145,8.5\F,9.8797178723,8.5,8.5\\Version=ES64
 L-G16RevC.01\HF=-356.5665802\RMSD=1.973e-10\RMSF=1.706e-07\ZeroPoint=0
 .0058419\Thermal=0.010912\ETot=-356.5556682\HTot=-356.554724\GTot=-356
 .5889504\Dipole=0.,0.,0.\DipoleDeriv=2.1694993,0.0000189,0.,0.0000189,
 2.1694775,0.,0.,0.,0.1259783,-0.5018281,0.383331,0.,0.383331,-0.944460
 6,0.,0.,0.,-0.0420288,-0.5018444,-0.3833311,0.,-0.3833406,-0.944472,0.
 ,0.,0.,-0.0420018,-1.1657937,-0.0000093,0.,0.0000002,-0.2805227,0.,0.,
 0.,-0.0420018\Polar=45.8890891,-0.0008147,45.8900298,0.,0.,66.8492864\
 Quadrupole=0.0336212,0.0336212,-0.0672425,0.,0.,0.\PG=D03H [O(Nb1),3C2
 (F1)]\NImag=0\\0.46381826,0.00000473,0.46381280,0.,0.,0.02150539,-0.09
 065579,0.11075938,0.,0.08131589,0.11075938,-0.21854971,0.,-0.12012069,
 0.22001931,0.,0.,-0.00717050,0.,0.,0.00237341,-0.09065653,-0.11076153,
 0.,0.01277691,-0.00676581,0.,0.08131589,-0.11076164,-0.21855261,0.,0.0
 0676581,-0.00884176,0.,0.12012069,0.22001931,0.,0.,-0.00716897,0.,0.,0
 .00239854,0.,0.,0.00237341,-0.28250094,-0.00000022,0.,-0.00343709,0.01
 612696,0.,-0.00343709,-0.01612696,0.,0.28937102,-0.00000010,-0.0267082
 0,0.,0.00259535,0.00737224,0.,-0.00259535,0.00737224,0.,0.,0.01196418,
 0.,0.,-0.00716897,0.,0.,0.00239854,0.,0.,0.00239854,0.,0.,0.00237341\\
 0.,0.,0.,-0.00000017,0.00000030,0.,-0.00000017,-0.00000030,0.,0.000000
 34,0.,0.\\\@
 The archive entry for this job was punched.


 IF AT FIRST YOU DON'T SUCCEED, TRY, TRY AGAIN.
 THEN GIVE UP;
 THERE'S NO USE BEING A DAMN FOOL ABOUT IT.

                                 -- W. C. FIELDS
 Job cpu time:       0 days  0 hours 11 minutes 27.6 seconds.
 Elapsed time:       0 days  0 hours  1 minutes 26.3 seconds.
 File lengths (MBytes):  RWF=     34 Int=      0 D2E=      0 Chk=      6 Scr=      1
 Normal termination of Gaussian 16 at Fri Jul 30 16:45:29 2021.
