 Entering Gaussian System, Link 0=g16
 Initial command:
 /sw-ng/spack/opt/spack/linux-opensuse_leap15-sandybridge/pgi-18.10/gaussian-src-16-C.01-zldqaomctopxhethwccpmxmwefdscg3m/g16/l1.exe "/data/hutter/SMG16/PBE/Gau-51497.inp" -scrdir="/data/hutter/SMG16/PBE/"
 Entering Link 1 = /sw-ng/spack/opt/spack/linux-opensuse_leap15-sandybridge/pgi-18.10/gaussian-src-16-C.01-zldqaomctopxhethwccpmxmwefdscg3m/g16/l1.exe PID=     51498.
  
 Copyright (c) 1988-2019, Gaussian, Inc.  All Rights Reserved.
  
 This is part of the Gaussian(R) 16 program.  It is based on
 the Gaussian(R) 09 system (copyright 2009, Gaussian, Inc.),
 the Gaussian(R) 03 system (copyright 2003, Gaussian, Inc.),
 the Gaussian(R) 98 system (copyright 1998, Gaussian, Inc.),
 the Gaussian(R) 94 system (copyright 1995, Gaussian, Inc.),
 the Gaussian 92(TM) system (copyright 1992, Gaussian, Inc.),
 the Gaussian 90(TM) system (copyright 1990, Gaussian, Inc.),
 the Gaussian 88(TM) system (copyright 1988, Gaussian, Inc.),
 the Gaussian 86(TM) system (copyright 1986, Carnegie Mellon
 University), and the Gaussian 82(TM) system (copyright 1983,
 Carnegie Mellon University). Gaussian is a federally registered
 trademark of Gaussian, Inc.
  
 This software contains proprietary and confidential information,
 including trade secrets, belonging to Gaussian, Inc.
  
 This software is provided under written license and may be
 used, copied, transmitted, or stored only in accord with that
 written license.
  
 The following legend is applicable only to US Government
 contracts under FAR:
  
                    RESTRICTED RIGHTS LEGEND
  
 Use, reproduction and disclosure by the US Government is
 subject to restrictions as set forth in subparagraphs (a)
 and (c) of the Commercial Computer Software - Restricted
 Rights clause in FAR 52.227-19.
  
 Gaussian, Inc.
 340 Quinnipiac St., Bldg. 40, Wallingford CT 06492
  
  
 ---------------------------------------------------------------
 Warning -- This program may not be used in any manner that
 competes with the business of Gaussian, Inc. or will provide
 assistance to any competitor of Gaussian, Inc.  The licensee
 of this program is prohibited from giving any competitor of
 Gaussian, Inc. access to this program.  By using this program,
 the user acknowledges that Gaussian, Inc. is engaged in the
 business of creating and licensing software in the field of
 computational chemistry and represents and warrants to the
 licensee that it is not a competitor of Gaussian, Inc. and that
 it will not use this program in any manner prohibited above.
 ---------------------------------------------------------------
  

 Cite this work as:
 Gaussian 16, Revision C.01,
 M. J. Frisch, G. W. Trucks, H. B. Schlegel, G. E. Scuseria, 
 M. A. Robb, J. R. Cheeseman, G. Scalmani, V. Barone, 
 G. A. Petersson, H. Nakatsuji, X. Li, M. Caricato, A. V. Marenich, 
 J. Bloino, B. G. Janesko, R. Gomperts, B. Mennucci, H. P. Hratchian, 
 J. V. Ortiz, A. F. Izmaylov, J. L. Sonnenberg, D. Williams-Young, 
 F. Ding, F. Lipparini, F. Egidi, J. Goings, B. Peng, A. Petrone, 
 T. Henderson, D. Ranasinghe, V. G. Zakrzewski, J. Gao, N. Rega, 
 G. Zheng, W. Liang, M. Hada, M. Ehara, K. Toyota, R. Fukuda, 
 J. Hasegawa, M. Ishida, T. Nakajima, Y. Honda, O. Kitao, H. Nakai, 
 T. Vreven, K. Throssell, J. A. Montgomery, Jr., J. E. Peralta, 
 F. Ogliaro, M. J. Bearpark, J. J. Heyd, E. N. Brothers, K. N. Kudin, 
 V. N. Staroverov, T. A. Keith, R. Kobayashi, J. Normand, 
 K. Raghavachari, A. P. Rendell, J. C. Burant, S. S. Iyengar, 
 J. Tomasi, M. Cossi, J. M. Millam, M. Klene, C. Adamo, R. Cammi, 
 J. W. Ochterski, R. L. Martin, K. Morokuma, O. Farkas, 
 J. B. Foresman, and D. J. Fox, Gaussian, Inc., Wallingford CT, 2019.
 
 ******************************************
 Gaussian 16:  ES64L-G16RevC.01  3-Jul-2019
                30-Jul-2021 
 ******************************************
 %mem=8GB
 %NProcShare=8
 Will use up to    8 processors via shared memory.
 -----------------------------------------------------------
 #N RPBEPBE/Def2QZVPP scf=tight Int(Grid=ultrafine) OPT FREQ
 -----------------------------------------------------------
 1/18=20,19=15,26=4,38=1/1,3;
 2/9=110,12=2,17=6,18=5,40=1/2;
 3/5=45,7=202,11=2,25=1,30=1,71=1,74=1009,75=-5,116=1/1,2,3;
 4//1;
 5/5=2,32=2,38=5/2;
 6/7=2,8=2,9=2,10=2,28=1/1;
 7//1,2,3,16;
 1/18=20,19=15,26=4/3(2);
 2/9=110/2;
 99//99;
 2/9=110/2;
 3/5=45,7=202,11=2,25=1,30=1,71=1,74=1009,75=-5,116=1/1,2,3;
 4/5=5,16=3,69=1/1;
 5/5=2,32=2,38=5/2;
 7//1,2,3,16;
 1/18=20,19=15,26=4/3(-5);
 2/9=110/2;
 6/7=2,8=2,9=2,10=2,19=2,28=1/1;
 99/9=1/99;
 ---------
 Mol job 1
 ---------
 Symbolic Z-matrix:
 Charge =  0 Multiplicity = 1
 Ag                    8.        8.        6.84942 
 Cl                    8.        8.        9.15058 
 

 GradGradGradGradGradGradGradGradGradGradGradGradGradGradGradGradGradGrad
 Berny optimization.
 Initialization pass.
                           ----------------------------
                           !    Initial Parameters    !
                           ! (Angstroms and Degrees)  !
 --------------------------                            --------------------------
 ! Name  Definition              Value          Derivative Info.                !
 --------------------------------------------------------------------------------
 ! R1    R(1,2)                  2.3012         estimate D2E/DX2                !
 --------------------------------------------------------------------------------
 Trust Radius=3.00D-01 FncErr=1.00D-07 GrdErr=1.00D-06 EigMax=2.50D+02 EigMin=1.00D-04
 Number of steps in this run=     20 maximum allowed number of steps=    100.
 GradGradGradGradGradGradGradGradGradGradGradGradGradGradGradGradGradGrad

                          Input orientation:                          
 ---------------------------------------------------------------------
 Center     Atomic      Atomic             Coordinates (Angstroms)
 Number     Number       Type             X           Y           Z
 ---------------------------------------------------------------------
      1         47           0        8.000000    8.000000    6.849425
      2         17           0        8.000000    8.000000    9.150575
 ---------------------------------------------------------------------
 Stoichiometry    AgCl
 Framework group  C*V[C*(ClAg)]
 Deg. of freedom     1
 Full point group                 C*V     NOp   4
 Largest Abelian subgroup         C2V     NOp   4
 Largest concise Abelian subgroup C1      NOp   1
                         Standard orientation:                         
 ---------------------------------------------------------------------
 Center     Atomic      Atomic             Coordinates (Angstroms)
 Number     Number       Type             X           Y           Z
 ---------------------------------------------------------------------
      1         47           0        0.000000    0.000000    0.611243
      2         17           0        0.000000    0.000000   -1.689907
 ---------------------------------------------------------------------
 Rotational constants (GHZ):           0.0000000           3.6220128           3.6220128
 Standard basis: def2QZVPP (5D, 7F)
 There are    87 symmetry adapted cartesian basis functions of A1  symmetry.
 There are    23 symmetry adapted cartesian basis functions of A2  symmetry.
 There are    46 symmetry adapted cartesian basis functions of B1  symmetry.
 There are    46 symmetry adapted cartesian basis functions of B2  symmetry.
 There are    64 symmetry adapted basis functions of A1  symmetry.
 There are    20 symmetry adapted basis functions of A2  symmetry.
 There are    37 symmetry adapted basis functions of B1  symmetry.
 There are    37 symmetry adapted basis functions of B2  symmetry.
   158 basis functions,   267 primitive gaussians,   202 cartesian basis functions
    18 alpha electrons       18 beta electrons
       nuclear repulsion energy        74.2777283361 Hartrees.
 NAtoms=    2 NActive=    2 NUniq=    2 SFac= 1.00D+00 NAtFMM=   60 NAOKFM=F Big=F
 Integral buffers will be    131072 words long.
 Raffenetti 2 integral format.
 Two-electron integral symmetry is turned on.
 One-electron integrals computed using PRISM.
   4 Symmetry operations used in ECPInt.
 ECPInt:  NShTT=     990 NPrTT=    2723 LenC2=     979 LenP2D=    2471.
 LDataN:  DoStor=T MaxTD1= 8 Len=  415
 NBasis=   158 RedAO= T EigKep=  1.22D-03  NBF=    64    20    37    37
 NBsUse=   158 1.00D-06 EigRej= -1.00D+00 NBFU=    64    20    37    37
 Defaulting to unpruned grid for atomic number  47.
 ExpMin= 2.19D-02 ExpMax= 1.47D+06 ExpMxC= 1.67D+03 IAcc=3 IRadAn=         5 AccDes= 0.00D+00
 Harris functional with IExCor= 1009 and IRadAn=       5 diagonalized for initial guess.
 HarFok:  IExCor= 1009 AccDes= 0.00D+00 IRadAn=         5 IDoV= 1 UseB2=F ITyADJ=14
 ICtDFT=  3500011 ScaDFX=  1.000000  1.000000  1.000000  1.000000
 Defaulting to unpruned grid for atomic number  47.
 FoFCou: FMM=F IPFlag=           0 FMFlag=      100000 FMFlg1=           0
         NFxFlg=           0 DoJE=T BraDBF=F KetDBF=T FulRan=T
         wScrn=  0.000000 ICntrl=       500 IOpCl=  0 I1Cent=   200000004 NGrid=           0
         NMat0=    1 NMatS0=      1 NMatT0=    0 NMatD0=    1 NMtDS0=    0 NMtDT0=    0
 Petite list used in FoFCou.
 Initial guess orbital symmetries:
       Occupied  (SG) (SG) (SG) (PI) (PI) (SG) (SG) (PI) (PI) (SG)
                 (SG) (PI) (PI) (DLTA) (DLTA) (PI) (PI) (SG)
       Virtual   (SG) (PI) (PI) (SG) (SG) (PI) (PI) (SG) (SG) (PI)
                 (PI) (DLTA) (DLTA) (SG) (PI) (PI) (DLTA) (DLTA)
                 (SG) (PI) (PI) (SG) (PI) (PI) (PHI) (PHI) (SG)
                 (DLTA) (DLTA) (SG) (PI) (PI) (SG) (PI) (PI) (DLTA)
                 (DLTA) (PI) (PI) (SG) (DLTA) (DLTA) (SG) (PI)
                 (PI) (SG) (PHI) (PHI) (DLTA) (DLTA) (PI) (PI)
                 (PHI) (PHI) (DLTA) (DLTA) (SG) (PI) (PI) (SG)
                 (SG) (SG) (PI) (PI) (SG) (DLTA) (DLTA) (PI) (PI)
                 (PHI) (PHI) (DLTA) (DLTA) (PI) (PI) (SG) (SG)
                 (DLTA) (DLTA) (PI) (PI) (PHI) (PHI) (?A) (?A)
                 (?A) (?A) (PHI) (PHI) (SG) (DLTA) (DLTA) (PI)
                 (PI) (PI) (PI) (DLTA) (DLTA) (PHI) (PHI) (SG)
                 (PI) (PI) (DLTA) (DLTA) (SG) (PI) (PI) (SG) (SG)
                 (SG) (PHI) (PHI) (DLTA) (DLTA) (PI) (PI) (SG)
                 (?A) (?A) (PHI) (PHI) (DLTA) (DLTA) (PI) (PI)
                 (SG) (DLTA) (DLTA) (PI) (PI) (SG) (SG) (SG) (PI)
                 (PI) (SG) (SG) (SG) (SG)
 The electronic state of the initial guess is 1-SG.
 Keep J ints in memory in symmetry-blocked form, NReq=98933213.
 Requested convergence on RMS density matrix=1.00D-08 within 128 cycles.
 Requested convergence on MAX density matrix=1.00D-06.
 Requested convergence on             energy=1.00D-06.
 No special actions if energy rises.
 Defaulting to unpruned grid for atomic number  47.
 Defaulting to unpruned grid for atomic number  47.
 Defaulting to unpruned grid for atomic number  47.
 Defaulting to unpruned grid for atomic number  47.
 Defaulting to unpruned grid for atomic number  47.
 Defaulting to unpruned grid for atomic number  47.
 Defaulting to unpruned grid for atomic number  47.
 Defaulting to unpruned grid for atomic number  47.
 EnCoef did     5 forward-backward iterations
 EnCoef did     2 forward-backward iterations
 SCF Done:  E(RPBE-PBE) =  -607.076665072     A.U. after   11 cycles
            NFock= 11  Conv=0.79D-08     -V/T= 2.1773

 **********************************************************************

            Population analysis using the SCF Density.

 **********************************************************************

 Orbital symmetries:
       Occupied  (SG) (SG) (SG) (PI) (PI) (SG) (SG) (PI) (PI) (SG)
                 (SG) (PI) (PI) (DLTA) (DLTA) (SG) (PI) (PI)
       Virtual   (SG) (PI) (PI) (SG) (SG) (PI) (PI) (SG) (SG) (PI)
                 (PI) (DLTA) (DLTA) (PI) (PI) (SG) (DLTA) (DLTA)
                 (SG) (SG) (PI) (PI) (PI) (PI) (PHI) (PHI) (SG)
                 (DLTA) (DLTA) (SG) (PI) (PI) (SG) (PI) (PI) (DLTA)
                 (DLTA) (PI) (PI) (SG) (DLTA) (DLTA) (SG) (PI)
                 (PI) (SG) (PHI) (PHI) (DLTA) (DLTA) (PHI) (PHI)
                 (PI) (PI) (DLTA) (DLTA) (SG) (PI) (PI) (SG) (SG)
                 (SG) (PI) (PI) (SG) (PI) (PI) (DLTA) (DLTA) (PHI)
                 (PHI) (DLTA) (DLTA) (SG) (SG) (PI) (PI) (DLTA)
                 (DLTA) (PI) (PI) (PHI) (PHI) (?A) (?A) (SG) (PHI)
                 (PHI) (?A) (?A) (DLTA) (DLTA) (PI) (PI) (DLTA)
                 (DLTA) (PI) (PI) (SG) (PI) (PI) (PHI) (PHI) (DLTA)
                 (DLTA) (SG) (PI) (PI) (SG) (SG) (SG) (PHI) (PHI)
                 (DLTA) (DLTA) (PI) (PI) (SG) (PHI) (PHI) (?A)
                 (?A) (DLTA) (DLTA) (PI) (PI) (SG) (DLTA) (DLTA)
                 (PI) (PI) (SG) (SG) (SG) (PI) (PI) (SG) (SG) (SG)
                 (SG)
 The electronic state is 1-SG.
 Alpha  occ. eigenvalues -- -100.62347  -9.13249  -6.95431  -6.94734  -6.94734
 Alpha  occ. eigenvalues --   -3.60528  -2.23877  -2.23423  -2.23423  -0.68799
 Alpha  occ. eigenvalues --   -0.35006  -0.32287  -0.32287  -0.30840  -0.30840
 Alpha  occ. eigenvalues --   -0.25585  -0.23568  -0.23568
 Alpha virt. eigenvalues --   -0.15122  -0.02784  -0.02784   0.00705   0.04000
 Alpha virt. eigenvalues --    0.05917   0.05917   0.10233   0.19042   0.21172
 Alpha virt. eigenvalues --    0.21172   0.22053   0.22053   0.24941   0.24941
 Alpha virt. eigenvalues --    0.26184   0.32081   0.32081   0.33703   0.38889
 Alpha virt. eigenvalues --    0.39100   0.39100   0.44614   0.44614   0.45360
 Alpha virt. eigenvalues --    0.45360   0.49853   0.51169   0.51169   0.61962
 Alpha virt. eigenvalues --    0.66894   0.66894   0.80923   1.03563   1.03563
 Alpha virt. eigenvalues --    1.08067   1.08067   1.12417   1.12417   1.14556
 Alpha virt. eigenvalues --    1.15034   1.15034   1.17335   1.21155   1.21155
 Alpha virt. eigenvalues --    1.24835   1.29214   1.29214   1.31855   1.31855
 Alpha virt. eigenvalues --    1.32823   1.32823   1.33065   1.33065   1.37481
 Alpha virt. eigenvalues --    1.37481   1.39777   1.70527   1.70527   2.08639
 Alpha virt. eigenvalues --    2.21542   2.64600   2.80733   2.80733   2.94825
 Alpha virt. eigenvalues --    3.04771   3.04771   3.05379   3.05381   3.07482
 Alpha virt. eigenvalues --    3.07482   3.18386   3.18386   3.27207   3.31230
 Alpha virt. eigenvalues --    3.31283   3.31283   3.36297   3.36297   3.36671
 Alpha virt. eigenvalues --    3.36671   3.41597   3.41597   3.42345   3.42360
 Alpha virt. eigenvalues --    3.51525   3.53617   3.53617   3.54039   3.54039
 Alpha virt. eigenvalues --    3.59422   3.59422   3.70018   3.70018   3.72525
 Alpha virt. eigenvalues --    3.72533   3.82846   3.82846   3.83958   3.84284
 Alpha virt. eigenvalues --    3.84284   3.85617   3.85617   3.93262   3.93263
 Alpha virt. eigenvalues --    3.99450   4.36158   4.36158   4.47298   5.08992
 Alpha virt. eigenvalues --    8.24109   8.69576   8.69576   8.70167   8.70174
 Alpha virt. eigenvalues --    8.77597   8.77597   8.95859   9.66283   9.66283
 Alpha virt. eigenvalues --    9.66351   9.66355   9.67491   9.67492   9.76719
 Alpha virt. eigenvalues --    9.76719   9.89795  10.50418  10.50418  10.60023
 Alpha virt. eigenvalues --   10.60023  10.79625  28.38471  35.87719  41.38061
 Alpha virt. eigenvalues --   41.38061  41.40838  97.67753 113.10990 523.97622
          Condensed to atoms (all electrons):
               1          2
     1  Ag  18.276989   0.262768
     2  Cl   0.262768  17.197475
 Mulliken charges:
               1
     1  Ag   0.460243
     2  Cl  -0.460243
 Sum of Mulliken charges =  -0.00000
 Mulliken charges with hydrogens summed into heavy atoms:
               1
     1  Ag   0.460243
     2  Cl  -0.460243
 Electronic spatial extent (au):  <R**2>=            270.8087
 Charge=             -0.0000 electrons
 Dipole moment (field-independent basis, Debye):
    X=              0.0000    Y=              0.0000    Z=              4.9242  Tot=              4.9242
 Quadrupole moment (field-independent basis, Debye-Ang):
   XX=            -32.1285   YY=            -32.1285   ZZ=            -32.7053
   XY=              0.0000   XZ=              0.0000   YZ=              0.0000
 Traceless Quadrupole moment (field-independent basis, Debye-Ang):
   XX=              0.1923   YY=              0.1923   ZZ=             -0.3845
   XY=              0.0000   XZ=              0.0000   YZ=              0.0000
 Octapole moment (field-independent basis, Debye-Ang**2):
  XXX=              0.0000  YYY=              0.0000  ZZZ=             43.7089  XYY=              0.0000
  XXY=              0.0000  XXZ=             13.3183  XZZ=              0.0000  YZZ=              0.0000
  YYZ=             13.3183  XYZ=              0.0000
 Hexadecapole moment (field-independent basis, Debye-Ang**3):
 XXXX=            -37.5364 YYYY=            -37.5364 ZZZZ=           -293.3663 XXXY=              0.0000
 XXXZ=              0.0000 YYYX=              0.0000 YYYZ=              0.0000 ZZZX=              0.0000
 ZZZY=              0.0000 XXYY=            -12.5121 XXZZ=            -57.2591 YYZZ=            -57.2591
 XXYZ=              0.0000 YYXZ=              0.0000 ZZXY=              0.0000
 N-N= 7.427772833606D+01 E-N=-1.560738344880D+03  KE= 5.156337485720D+02
 Symmetry A1   KE= 3.919691765822D+02
 Symmetry A2   KE= 6.745201293320D+00
 Symmetry B1   KE= 5.845968534827D+01
 Symmetry B2   KE= 5.845968534827D+01
   4 Symmetry operations used in ECPInt.
 ECPInt:  NShTT=     990 NPrTT=    2723 LenC2=     979 LenP2D=    2471.
 LDataN:  DoStor=T MaxTD1= 9 Len=  602
 Calling FoFJK, ICntrl=      2527 FMM=F ISym2X=1 I1Cent= 0 IOpClX= 0 NMat=1 NMatS=1 NMatT=0.
 Defaulting to unpruned grid for atomic number  47.
 Defaulting to unpruned grid for atomic number  47.
 Defaulting to unpruned grid for atomic number  47.
 Defaulting to unpruned grid for atomic number  47.
 Defaulting to unpruned grid for atomic number  47.
 Defaulting to unpruned grid for atomic number  47.
 Defaulting to unpruned grid for atomic number  47.
 Defaulting to unpruned grid for atomic number  47.
 ***** Axes restored to original set *****
 -------------------------------------------------------------------
 Center     Atomic                   Forces (Hartrees/Bohr)
 Number     Number              X              Y              Z
 -------------------------------------------------------------------
      1       47          -0.000000000   -0.000000000    0.004340192
      2       17          -0.000000000   -0.000000000   -0.004340192
 -------------------------------------------------------------------
 Cartesian Forces:  Max     0.004340192 RMS     0.002505811

 GradGradGradGradGradGradGradGradGradGradGradGradGradGradGradGradGradGrad
 Berny optimization.
 FormGI is forming the generalized inverse of G from B-inverse, IUseBI=4.
 Internal  Forces:  Max     0.004340192 RMS     0.004340192
 Search for a local minimum.
 Step number   1 out of a maximum of   20
 All quantities printed in internal units (Hartrees-Bohrs-Radians)
 Mixed Optimization -- RFO/linear search
 Second derivative matrix not updated -- first step.
 The second derivative matrix:
                          R1
           R1           0.15591
 ITU=  0
     Eigenvalues ---    0.15591
 RFO step:  Lambda=-1.20725663D-04 EMin= 1.55912965D-01
 Linear search not attempted -- first point.
 Iteration  1 RMS(Cart)=  0.01966870 RMS(Int)=  0.00000000
 Iteration  2 RMS(Cart)=  0.00000000 RMS(Int)=  0.00000000
 ClnCor:  largest displacement from symmetrization is 0.00D+00 for atom     0.
 Variable       Old X    -DE/DX   Delta X   Delta X   Delta X     New X
                                 (Linear)    (Quad)   (Total)
    R1        4.34854  -0.00434   0.00000  -0.02782  -0.02782   4.32073
         Item               Value     Threshold  Converged?
 Maximum Force            0.004340     0.000450     NO 
 RMS     Force            0.004340     0.000300     NO 
 Maximum Displacement     0.013908     0.001800     NO 
 RMS     Displacement     0.019669     0.001200     NO 
 Predicted change in Energy=-6.040954D-05
 GradGradGradGradGradGradGradGradGradGradGradGradGradGradGradGradGradGrad

                          Input orientation:                          
 ---------------------------------------------------------------------
 Center     Atomic      Atomic             Coordinates (Angstroms)
 Number     Number       Type             X           Y           Z
 ---------------------------------------------------------------------
      1         47           0        8.000000    8.000000    6.856784
      2         17           0        8.000000    8.000000    9.143216
 ---------------------------------------------------------------------
 Stoichiometry    AgCl
 Framework group  C*V[C*(ClAg)]
 Deg. of freedom     1
 Full point group                 C*V     NOp   4
 Largest Abelian subgroup         C2V     NOp   4
 Largest concise Abelian subgroup C1      NOp   1
                         Standard orientation:                         
 ---------------------------------------------------------------------
 Center     Atomic      Atomic             Coordinates (Angstroms)
 Number     Number       Type             X           Y           Z
 ---------------------------------------------------------------------
      1         47           0        0.000000    0.000000    0.607333
      2         17           0        0.000000    0.000000   -1.679098
 ---------------------------------------------------------------------
 Rotational constants (GHZ):           0.0000000           3.6687981           3.6687981
 Standard basis: def2QZVPP (5D, 7F)
 There are    87 symmetry adapted cartesian basis functions of A1  symmetry.
 There are    23 symmetry adapted cartesian basis functions of A2  symmetry.
 There are    46 symmetry adapted cartesian basis functions of B1  symmetry.
 There are    46 symmetry adapted cartesian basis functions of B2  symmetry.
 There are    64 symmetry adapted basis functions of A1  symmetry.
 There are    20 symmetry adapted basis functions of A2  symmetry.
 There are    37 symmetry adapted basis functions of B1  symmetry.
 There are    37 symmetry adapted basis functions of B2  symmetry.
   158 basis functions,   267 primitive gaussians,   202 cartesian basis functions
    18 alpha electrons       18 beta electrons
       nuclear repulsion energy        74.7559092391 Hartrees.
 NAtoms=    2 NActive=    2 NUniq=    2 SFac= 1.00D+00 NAtFMM=   60 NAOKFM=F Big=F
 Integral buffers will be    131072 words long.
 Raffenetti 2 integral format.
 Two-electron integral symmetry is turned on.
 One-electron integrals computed using PRISM.
   4 Symmetry operations used in ECPInt.
 ECPInt:  NShTT=     990 NPrTT=    2723 LenC2=     979 LenP2D=    2471.
 LDataN:  DoStor=T MaxTD1= 8 Len=  415
 NBasis=   158 RedAO= T EigKep=  1.21D-03  NBF=    64    20    37    37
 NBsUse=   158 1.00D-06 EigRej= -1.00D+00 NBFU=    64    20    37    37
 Defaulting to unpruned grid for atomic number  47.
 Initial guess from the checkpoint file:  "/data/hutter/SMG16/PBE/Gau-51498.chk"
 B after Tr=     0.000000    0.000000   -0.000000
         Rot=    1.000000    0.000000    0.000000    0.000000 Ang=   0.00 deg.
 Initial guess orbital symmetries:
       Occupied  (SG) (SG) (SG) (PI) (PI) (SG) (SG) (PI) (PI) (SG)
                 (SG) (PI) (PI) (DLTA) (DLTA) (SG) (PI) (PI)
       Virtual   (SG) (PI) (PI) (SG) (SG) (PI) (PI) (SG) (SG) (PI)
                 (PI) (DLTA) (DLTA) (PI) (PI) (SG) (DLTA) (DLTA)
                 (SG) (SG) (PI) (PI) (PI) (PI) (PHI) (PHI) (SG)
                 (DLTA) (DLTA) (SG) (PI) (PI) (SG) (PI) (PI) (DLTA)
                 (DLTA) (PI) (PI) (SG) (DLTA) (DLTA) (SG) (PI)
                 (PI) (SG) (PHI) (PHI) (DLTA) (DLTA) (PHI) (PHI)
                 (PI) (PI) (DLTA) (DLTA) (SG) (PI) (PI) (SG) (SG)
                 (SG) (PI) (PI) (SG) (PI) (PI) (DLTA) (DLTA) (PHI)
                 (PHI) (DLTA) (DLTA) (SG) (SG) (PI) (PI) (DLTA)
                 (DLTA) (PI) (PI) (PHI) (PHI) (?A) (?A) (SG) (PHI)
                 (PHI) (?A) (?A) (DLTA) (DLTA) (PI) (PI) (DLTA)
                 (DLTA) (PI) (PI) (SG) (PI) (PI) (PHI) (PHI) (DLTA)
                 (DLTA) (SG) (PI) (PI) (SG) (SG) (SG) (PHI) (PHI)
                 (DLTA) (DLTA) (PI) (PI) (SG) (PHI) (PHI) (?A)
                 (?A) (DLTA) (DLTA) (PI) (PI) (SG) (DLTA) (DLTA)
                 (PI) (PI) (SG) (SG) (SG) (PI) (PI) (SG) (SG) (SG)
                 (SG)
 Keep J ints in memory in symmetry-blocked form, NReq=98933213.
 Requested convergence on RMS density matrix=1.00D-08 within 128 cycles.
 Requested convergence on MAX density matrix=1.00D-06.
 Requested convergence on             energy=1.00D-06.
 No special actions if energy rises.
 Defaulting to unpruned grid for atomic number  47.
 Defaulting to unpruned grid for atomic number  47.
 Defaulting to unpruned grid for atomic number  47.
 Defaulting to unpruned grid for atomic number  47.
 Defaulting to unpruned grid for atomic number  47.
 Defaulting to unpruned grid for atomic number  47.
 Defaulting to unpruned grid for atomic number  47.
 Defaulting to unpruned grid for atomic number  47.
 SCF Done:  E(RPBE-PBE) =  -607.076746655     A.U. after    8 cycles
            NFock=  8  Conv=0.43D-08     -V/T= 2.1773
   4 Symmetry operations used in ECPInt.
 ECPInt:  NShTT=     990 NPrTT=    2723 LenC2=     979 LenP2D=    2471.
 LDataN:  DoStor=T MaxTD1= 9 Len=  602
 Calling FoFJK, ICntrl=      2527 FMM=F ISym2X=1 I1Cent= 0 IOpClX= 0 NMat=1 NMatS=1 NMatT=0.
 Defaulting to unpruned grid for atomic number  47.
 Defaulting to unpruned grid for atomic number  47.
 Defaulting to unpruned grid for atomic number  47.
 Defaulting to unpruned grid for atomic number  47.
 Defaulting to unpruned grid for atomic number  47.
 Defaulting to unpruned grid for atomic number  47.
 Defaulting to unpruned grid for atomic number  47.
 Defaulting to unpruned grid for atomic number  47.
 ***** Axes restored to original set *****
 -------------------------------------------------------------------
 Center     Atomic                   Forces (Hartrees/Bohr)
 Number     Number              X              Y              Z
 -------------------------------------------------------------------
      1       47          -0.000000000   -0.000000000    0.001494316
      2       17          -0.000000000   -0.000000000   -0.001494316
 -------------------------------------------------------------------
 Cartesian Forces:  Max     0.001494316 RMS     0.000862744

 GradGradGradGradGradGradGradGradGradGradGradGradGradGradGradGradGradGrad
 Berny optimization.
 Using GEDIIS/GDIIS optimizer.
 Internal  Forces:  Max     0.001494316 RMS     0.001494316
 Search for a local minimum.
 Step number   2 out of a maximum of   20
 All quantities printed in internal units (Hartrees-Bohrs-Radians)
 Mixed Optimization -- RFO/linear search
 Update second derivatives using D2CorX and points    1    2
 DE= -8.16D-05 DEPred=-6.04D-05 R= 1.35D+00
 TightC=F SS=  1.41D+00  RLast= 2.78D-02 DXNew= 5.0454D-01 8.3447D-02
 Trust test= 1.35D+00 RLast= 2.78D-02 DXMaxT set to 3.00D-01
 The second derivative matrix:
                          R1
           R1           0.10231
 ITU=  1  0
 Use linear search instead of GDIIS.
     Eigenvalues ---    0.10231
 RFO step:  Lambda= 0.00000000D+00 EMin= 1.02311741D-01
 Quartic linear search produced a step of  0.49998.
 Iteration  1 RMS(Cart)=  0.00983402 RMS(Int)=  0.00000000
 Iteration  2 RMS(Cart)=  0.00000000 RMS(Int)=  0.00000000
 ClnCor:  largest displacement from symmetrization is 0.00D+00 for atom     0.
 Variable       Old X    -DE/DX   Delta X   Delta X   Delta X     New X
                                 (Linear)    (Quad)   (Total)
    R1        4.32073  -0.00149  -0.01391   0.00000  -0.01391   4.30682
         Item               Value     Threshold  Converged?
 Maximum Force            0.001494     0.000450     NO 
 RMS     Force            0.001494     0.000300     NO 
 Maximum Displacement     0.006954     0.001800     NO 
 RMS     Displacement     0.009834     0.001200     NO 
 Predicted change in Energy=-1.088770D-05
 GradGradGradGradGradGradGradGradGradGradGradGradGradGradGradGradGradGrad

                          Input orientation:                          
 ---------------------------------------------------------------------
 Center     Atomic      Atomic             Coordinates (Angstroms)
 Number     Number       Type             X           Y           Z
 ---------------------------------------------------------------------
      1         47           0        8.000000    8.000000    6.860464
      2         17           0        8.000000    8.000000    9.139536
 ---------------------------------------------------------------------
 Stoichiometry    AgCl
 Framework group  C*V[C*(ClAg)]
 Deg. of freedom     1
 Full point group                 C*V     NOp   4
 Largest Abelian subgroup         C2V     NOp   4
 Largest concise Abelian subgroup C1      NOp   1
                         Standard orientation:                         
 ---------------------------------------------------------------------
 Center     Atomic      Atomic             Coordinates (Angstroms)
 Number     Number       Type             X           Y           Z
 ---------------------------------------------------------------------
      1         47           0        0.000000    0.000000    0.605378
      2         17           0        0.000000    0.000000   -1.673693
 ---------------------------------------------------------------------
 Rotational constants (GHZ):           0.0000000           3.6925306           3.6925306
 Standard basis: def2QZVPP (5D, 7F)
 There are    87 symmetry adapted cartesian basis functions of A1  symmetry.
 There are    23 symmetry adapted cartesian basis functions of A2  symmetry.
 There are    46 symmetry adapted cartesian basis functions of B1  symmetry.
 There are    46 symmetry adapted cartesian basis functions of B2  symmetry.
 There are    64 symmetry adapted basis functions of A1  symmetry.
 There are    20 symmetry adapted basis functions of A2  symmetry.
 There are    37 symmetry adapted basis functions of B1  symmetry.
 There are    37 symmetry adapted basis functions of B2  symmetry.
   158 basis functions,   267 primitive gaussians,   202 cartesian basis functions
    18 alpha electrons       18 beta electrons
       nuclear repulsion energy        74.9973079464 Hartrees.
 NAtoms=    2 NActive=    2 NUniq=    2 SFac= 1.00D+00 NAtFMM=   60 NAOKFM=F Big=F
 Integral buffers will be    131072 words long.
 Raffenetti 2 integral format.
 Two-electron integral symmetry is turned on.
 One-electron integrals computed using PRISM.
   4 Symmetry operations used in ECPInt.
 ECPInt:  NShTT=     990 NPrTT=    2723 LenC2=     979 LenP2D=    2474.
 LDataN:  DoStor=T MaxTD1= 8 Len=  415
 NBasis=   158 RedAO= T EigKep=  1.20D-03  NBF=    64    20    37    37
 NBsUse=   158 1.00D-06 EigRej= -1.00D+00 NBFU=    64    20    37    37
 Defaulting to unpruned grid for atomic number  47.
 Initial guess from the checkpoint file:  "/data/hutter/SMG16/PBE/Gau-51498.chk"
 B after Tr=     0.000000    0.000000   -0.000000
         Rot=    1.000000    0.000000    0.000000    0.000000 Ang=   0.00 deg.
 Initial guess orbital symmetries:
       Occupied  (SG) (SG) (SG) (PI) (PI) (SG) (SG) (PI) (PI) (SG)
                 (SG) (PI) (PI) (DLTA) (DLTA) (SG) (PI) (PI)
       Virtual   (SG) (PI) (PI) (SG) (SG) (PI) (PI) (SG) (SG) (PI)
                 (PI) (DLTA) (DLTA) (PI) (PI) (SG) (DLTA) (DLTA)
                 (SG) (SG) (PI) (PI) (PI) (PI) (PHI) (PHI) (SG)
                 (DLTA) (DLTA) (SG) (PI) (PI) (SG) (PI) (PI) (DLTA)
                 (DLTA) (PI) (PI) (SG) (DLTA) (DLTA) (SG) (PI)
                 (PI) (SG) (PHI) (PHI) (DLTA) (DLTA) (PHI) (PHI)
                 (PI) (PI) (DLTA) (DLTA) (SG) (PI) (PI) (SG) (SG)
                 (SG) (PI) (PI) (SG) (PI) (PI) (DLTA) (DLTA) (PHI)
                 (PHI) (DLTA) (DLTA) (SG) (SG) (PI) (PI) (DLTA)
                 (DLTA) (PI) (PI) (PHI) (PHI) (?A) (?A) (SG) (PHI)
                 (PHI) (?A) (?A) (DLTA) (DLTA) (PI) (PI) (DLTA)
                 (DLTA) (PI) (PI) (SG) (PI) (PI) (PHI) (PHI) (DLTA)
                 (DLTA) (SG) (PI) (PI) (SG) (SG) (SG) (PHI) (PHI)
                 (DLTA) (DLTA) (PI) (PI) (SG) (PHI) (PHI) (?A)
                 (?A) (DLTA) (DLTA) (PI) (PI) (SG) (DLTA) (DLTA)
                 (PI) (PI) (SG) (SG) (SG) (PI) (PI) (SG) (SG) (SG)
                 (SG)
 Keep J ints in memory in symmetry-blocked form, NReq=98933213.
 Requested convergence on RMS density matrix=1.00D-08 within 128 cycles.
 Requested convergence on MAX density matrix=1.00D-06.
 Requested convergence on             energy=1.00D-06.
 No special actions if energy rises.
 Defaulting to unpruned grid for atomic number  47.
 Defaulting to unpruned grid for atomic number  47.
 Defaulting to unpruned grid for atomic number  47.
 Defaulting to unpruned grid for atomic number  47.
 Defaulting to unpruned grid for atomic number  47.
 Defaulting to unpruned grid for atomic number  47.
 Defaulting to unpruned grid for atomic number  47.
 Defaulting to unpruned grid for atomic number  47.
 SCF Done:  E(RPBE-PBE) =  -607.076757098     A.U. after    7 cycles
            NFock=  7  Conv=0.74D-08     -V/T= 2.1773
   4 Symmetry operations used in ECPInt.
 ECPInt:  NShTT=     990 NPrTT=    2723 LenC2=     979 LenP2D=    2474.
 LDataN:  DoStor=T MaxTD1= 9 Len=  602
 Calling FoFJK, ICntrl=      2527 FMM=F ISym2X=1 I1Cent= 0 IOpClX= 0 NMat=1 NMatS=1 NMatT=0.
 Defaulting to unpruned grid for atomic number  47.
 Defaulting to unpruned grid for atomic number  47.
 Defaulting to unpruned grid for atomic number  47.
 Defaulting to unpruned grid for atomic number  47.
 Defaulting to unpruned grid for atomic number  47.
 Defaulting to unpruned grid for atomic number  47.
 Defaulting to unpruned grid for atomic number  47.
 Defaulting to unpruned grid for atomic number  47.
 ***** Axes restored to original set *****
 -------------------------------------------------------------------
 Center     Atomic                   Forces (Hartrees/Bohr)
 Number     Number              X              Y              Z
 -------------------------------------------------------------------
      1       47          -0.000000000   -0.000000000   -0.000000653
      2       17          -0.000000000   -0.000000000    0.000000653
 -------------------------------------------------------------------
 Cartesian Forces:  Max     0.000000653 RMS     0.000000377

 GradGradGradGradGradGradGradGradGradGradGradGradGradGradGradGradGradGrad
 Berny optimization.
 Using GEDIIS/GDIIS optimizer.
 Internal  Forces:  Max     0.000000653 RMS     0.000000653
 Search for a local minimum.
 Step number   3 out of a maximum of   20
 All quantities printed in internal units (Hartrees-Bohrs-Radians)
 Mixed Optimization -- En-DIIS/RFO-DIIS
 Update second derivatives using D2CorX and points    2    3
 DE= -1.04D-05 DEPred=-1.09D-05 R= 9.59D-01
 TightC=F SS=  1.41D+00  RLast= 1.39D-02 DXNew= 5.0454D-01 4.1722D-02
 Trust test= 9.59D-01 RLast= 1.39D-02 DXMaxT set to 3.00D-01
 The second derivative matrix:
                          R1
           R1           0.10749
 ITU=  1  1
 Use linear search instead of GDIIS.
     Eigenvalues ---    0.10749
 RFO step:  Lambda= 0.00000000D+00 EMin= 1.07494424D-01
 Quartic linear search produced a step of -0.00043.
 Iteration  1 RMS(Cart)=  0.00000423 RMS(Int)=  0.00000000
 Iteration  2 RMS(Cart)=  0.00000000 RMS(Int)=  0.00000000
 ClnCor:  largest displacement from symmetrization is 0.00D+00 for atom     0.
 Variable       Old X    -DE/DX   Delta X   Delta X   Delta X     New X
                                 (Linear)    (Quad)   (Total)
    R1        4.30682   0.00000   0.00001   0.00000   0.00001   4.30683
         Item               Value     Threshold  Converged?
 Maximum Force            0.000001     0.000450     YES
 RMS     Force            0.000001     0.000300     YES
 Maximum Displacement     0.000003     0.001800     YES
 RMS     Displacement     0.000004     0.001200     YES
 Predicted change in Energy=-1.984515D-12
 Optimization completed.
    -- Stationary point found.
                           ----------------------------
                           !   Optimized Parameters   !
                           ! (Angstroms and Degrees)  !
 --------------------------                            --------------------------
 ! Name  Definition              Value          Derivative Info.                !
 --------------------------------------------------------------------------------
 ! R1    R(1,2)                  2.2791         -DE/DX =    0.0                 !
 --------------------------------------------------------------------------------
 GradGradGradGradGradGradGradGradGradGradGradGradGradGradGradGradGradGrad

                          Input orientation:                          
 ---------------------------------------------------------------------
 Center     Atomic      Atomic             Coordinates (Angstroms)
 Number     Number       Type             X           Y           Z
 ---------------------------------------------------------------------
      1         47           0        8.000000    8.000000    6.860464
      2         17           0        8.000000    8.000000    9.139536
 ---------------------------------------------------------------------
 Stoichiometry    AgCl
 Framework group  C*V[C*(ClAg)]
 Deg. of freedom     1
 Full point group                 C*V     NOp   4
 Largest Abelian subgroup         C2V     NOp   4
 Largest concise Abelian subgroup C1      NOp   1
                         Standard orientation:                         
 ---------------------------------------------------------------------
 Center     Atomic      Atomic             Coordinates (Angstroms)
 Number     Number       Type             X           Y           Z
 ---------------------------------------------------------------------
      1         47           0        0.000000    0.000000    0.605378
      2         17           0        0.000000    0.000000   -1.673693
 ---------------------------------------------------------------------
 Rotational constants (GHZ):           0.0000000           3.6925306           3.6925306

 **********************************************************************

            Population analysis using the SCF Density.

 **********************************************************************

 Orbital symmetries:
       Occupied  (SG) (SG) (SG) (PI) (PI) (SG) (SG) (PI) (PI) (SG)
                 (SG) (PI) (PI) (DLTA) (DLTA) (SG) (PI) (PI)
       Virtual   (SG) (PI) (PI) (SG) (SG) (PI) (PI) (SG) (SG) (PI)
                 (PI) (DLTA) (DLTA) (PI) (PI) (SG) (DLTA) (DLTA)
                 (SG) (SG) (PI) (PI) (PI) (PI) (PHI) (PHI) (SG)
                 (DLTA) (DLTA) (SG) (PI) (PI) (SG) (PI) (PI) (DLTA)
                 (DLTA) (PI) (PI) (SG) (DLTA) (DLTA) (SG) (PI)
                 (PI) (SG) (PHI) (PHI) (DLTA) (DLTA) (PHI) (PHI)
                 (PI) (PI) (DLTA) (DLTA) (SG) (PI) (PI) (SG) (SG)
                 (SG) (PI) (PI) (SG) (PI) (PI) (DLTA) (DLTA) (PHI)
                 (PHI) (DLTA) (DLTA) (SG) (SG) (PI) (PI) (DLTA)
                 (DLTA) (PI) (PI) (PHI) (PHI) (?A) (?A) (SG) (PHI)
                 (PHI) (?A) (?A) (DLTA) (DLTA) (PI) (PI) (DLTA)
                 (DLTA) (PI) (PI) (SG) (PI) (PI) (PHI) (PHI) (DLTA)
                 (DLTA) (SG) (PI) (PI) (SG) (SG) (SG) (PHI) (PHI)
                 (DLTA) (DLTA) (PI) (PI) (SG) (PHI) (PHI) (?A)
                 (?A) (DLTA) (DLTA) (PI) (PI) (SG) (DLTA) (DLTA)
                 (PI) (PI) (SG) (SG) (SG) (PI) (PI) (SG) (SG) (SG)
                 (SG)
 The electronic state is 1-SG.
 Alpha  occ. eigenvalues -- -100.62426  -9.13339  -6.95517  -6.94824  -6.94824
 Alpha  occ. eigenvalues --   -3.60536  -2.23916  -2.23415  -2.23415  -0.68988
 Alpha  occ. eigenvalues --   -0.35224  -0.32394  -0.32394  -0.30814  -0.30813
 Alpha  occ. eigenvalues --   -0.25540  -0.23599  -0.23599
 Alpha virt. eigenvalues --   -0.15005  -0.02730  -0.02730   0.00757   0.04012
 Alpha virt. eigenvalues --    0.05922   0.05922   0.10413   0.19054   0.21162
 Alpha virt. eigenvalues --    0.21162   0.22031   0.22031   0.25006   0.25006
 Alpha virt. eigenvalues --    0.25999   0.32045   0.32045   0.33952   0.38882
 Alpha virt. eigenvalues --    0.39154   0.39154   0.44699   0.44699   0.45388
 Alpha virt. eigenvalues --    0.45388   0.50001   0.51352   0.51352   0.62237
 Alpha virt. eigenvalues --    0.67118   0.67118   0.81282   1.03581   1.03581
 Alpha virt. eigenvalues --    1.07994   1.07995   1.12476   1.12476   1.14542
 Alpha virt. eigenvalues --    1.15026   1.15026   1.17181   1.21064   1.21064
 Alpha virt. eigenvalues --    1.25012   1.29205   1.29205   1.31654   1.31654
 Alpha virt. eigenvalues --    1.32817   1.32817   1.33411   1.33411   1.37918
 Alpha virt. eigenvalues --    1.37918   1.40985   1.71923   1.71923   2.08319
 Alpha virt. eigenvalues --    2.23403   2.64968   2.80714   2.80714   2.94936
 Alpha virt. eigenvalues --    3.04973   3.04973   3.05116   3.05117   3.07503
 Alpha virt. eigenvalues --    3.07503   3.18475   3.18475   3.27061   3.31213
 Alpha virt. eigenvalues --    3.31445   3.31445   3.35722   3.35722   3.36272
 Alpha virt. eigenvalues --    3.36272   3.41504   3.41504   3.42404   3.42418
 Alpha virt. eigenvalues --    3.51914   3.53613   3.53613   3.53929   3.53929
 Alpha virt. eigenvalues --    3.60187   3.60188   3.71258   3.71258   3.72660
 Alpha virt. eigenvalues --    3.72667   3.82837   3.82837   3.84766   3.85136
 Alpha virt. eigenvalues --    3.85136   3.85555   3.85555   3.93803   3.93804
 Alpha virt. eigenvalues --    4.01890   4.38423   4.38423   4.51320   5.08139
 Alpha virt. eigenvalues --    8.25381   8.69590   8.69590   8.70235   8.70240
 Alpha virt. eigenvalues --    8.78035   8.78035   8.96234   9.66294   9.66294
 Alpha virt. eigenvalues --    9.66368   9.66373   9.67667   9.67667   9.77596
 Alpha virt. eigenvalues --    9.77596   9.90932  10.50402  10.50402  10.60264
 Alpha virt. eigenvalues --   10.60264  10.82612  28.39599  35.88273  41.37994
 Alpha virt. eigenvalues --   41.37994  41.40730  97.68780 113.11101 523.99385
          Condensed to atoms (all electrons):
               1          2
     1  Ag  18.277070   0.267337
     2  Cl   0.267337  17.188257
 Mulliken charges:
               1
     1  Ag   0.455594
     2  Cl  -0.455594
 Sum of Mulliken charges =  -0.00000
 Mulliken charges with hydrogens summed into heavy atoms:
               1
     1  Ag   0.455594
     2  Cl  -0.455594
 Electronic spatial extent (au):  <R**2>=            266.9498
 Charge=              0.0000 electrons
 Dipole moment (field-independent basis, Debye):
    X=              0.0000    Y=              0.0000    Z=              4.8605  Tot=              4.8605
 Quadrupole moment (field-independent basis, Debye-Ang):
   XX=            -32.1438   YY=            -32.1438   ZZ=            -32.5890
   XY=              0.0000   XZ=              0.0000   YZ=              0.0000
 Traceless Quadrupole moment (field-independent basis, Debye-Ang):
   XX=              0.1484   YY=              0.1484   ZZ=             -0.2968
   XY=              0.0000   XZ=              0.0000   YZ=              0.0000
 Octapole moment (field-independent basis, Debye-Ang**2):
  XXX=              0.0000  YYY=              0.0000  ZZZ=             43.0744  XYY=              0.0000
  XXY=              0.0000  XXZ=             13.1389  XZZ=              0.0000  YZZ=              0.0000
  YYZ=             13.1389  XYZ=              0.0000
 Hexadecapole moment (field-independent basis, Debye-Ang**3):
 XXXX=            -37.5905 YYYY=            -37.5905 ZZZZ=           -287.7730 XXXY=              0.0000
 XXXZ=              0.0000 YYYX=              0.0000 YYYZ=              0.0000 ZZZX=              0.0000
 ZZZY=              0.0000 XXYY=            -12.5302 XXZZ=            -56.3453 YYZZ=            -56.3453
 XXYZ=              0.0000 YYXZ=              0.0000 ZZXY=              0.0000
 N-N= 7.499730794644D+01 E-N=-1.562160323519D+03  KE= 5.156389480860D+02
 Symmetry A1   KE= 3.919705218843D+02
 Symmetry A2   KE= 6.746056200191D+00
 Symmetry B1   KE= 5.846118500078D+01
 Symmetry B2   KE= 5.846118500078D+01
 Unable to Open any file for archive entry.
 1\1\GINC-TCOPT10\FOpt\RPBEPBE\def2QZVPP\Ag1Cl1\HUTTER\30-Jul-2021\0\\#
 N RPBEPBE/Def2QZVPP scf=tight Int(Grid=ultrafine) OPT FREQ\\Mol job 1\
 \0,1\Ag,8.,8.,6.8604641699\Cl,8.,8.,9.1395358301\\Version=ES64L-G16Rev
 C.01\State=1-SG\HF=-607.0767571\RMSD=7.409e-09\RMSF=3.772e-07\Dipole=0
 .,0.,-1.9122506\Quadrupole=0.1103494,0.1103494,-0.2206989,0.,0.,0.\PG=
 C*V [C*(Cl1Ag1)]\\@
 The archive entry for this job was punched.


 E PUR SI MUOVE    -- GALILEO GALILEI
 Job cpu time:       0 days  0 hours  4 minutes 46.4 seconds.
 Elapsed time:       0 days  0 hours  0 minutes 36.6 seconds.
 File lengths (MBytes):  RWF=     15 Int=      0 D2E=      0 Chk=      3 Scr=      1
 Normal termination of Gaussian 16 at Fri Jul 30 09:04:49 2021.
 Link1:  Proceeding to internal job step number  2.
 ----------------------------------------------------------------------
 #N Geom=AllCheck Guess=TCheck SCRF=Check GenChk RPBEPBE/def2QZVPP Freq
 ----------------------------------------------------------------------
 1/10=4,29=7,30=1,38=1,40=1/1,3;
 2/12=2,40=1/2;
 3/5=45,7=202,11=2,14=-4,25=1,30=1,70=2,71=2,74=1009,75=-5,116=1,140=1/1,2,3;
 4/5=101/1;
 5/5=2,32=2,38=6,98=1/2;
 8/6=4,10=90,11=11/1;
 11/6=1,8=1,9=11,15=111,16=1/1,2,10;
 10/6=1/2;
 6/7=2,8=2,9=2,10=2,28=1/1;
 7/8=1,10=1,25=1/1,2,3,16;
 1/10=4,30=1/3;
 99//99;
 Structure from the checkpoint file:  "/data/hutter/SMG16/PBE/Gau-51498.chk"
 ---------
 Mol job 1
 ---------
 Charge =  0 Multiplicity = 1
 Redundant internal coordinates found in file.  (old form).
 Ag,0,8.,8.,6.8604641699
 Cl,0,8.,8.,9.1395358301
 Recover connectivity data from disk.

 GradGradGradGradGradGradGradGradGradGradGradGradGradGradGradGradGradGrad
 Berny optimization.
 Initialization pass.
                           ----------------------------
                           !    Initial Parameters    !
                           ! (Angstroms and Degrees)  !
 --------------------------                            --------------------------
 ! Name  Definition              Value          Derivative Info.                !
 --------------------------------------------------------------------------------
 ! R1    R(1,2)                  2.2791         calculate D2E/DX2 analytically  !
 --------------------------------------------------------------------------------
 Trust Radius=3.00D-01 FncErr=1.00D-07 GrdErr=1.00D-07 EigMax=2.50D+02 EigMin=1.00D-04
 Number of steps in this run=      2 maximum allowed number of steps=      2.
 GradGradGradGradGradGradGradGradGradGradGradGradGradGradGradGradGradGrad

                          Input orientation:                          
 ---------------------------------------------------------------------
 Center     Atomic      Atomic             Coordinates (Angstroms)
 Number     Number       Type             X           Y           Z
 ---------------------------------------------------------------------
      1         47           0        8.000000    8.000000    6.860464
      2         17           0        8.000000    8.000000    9.139536
 ---------------------------------------------------------------------
 Stoichiometry    AgCl
 Framework group  C*V[C*(ClAg)]
 Deg. of freedom     1
 Full point group                 C*V     NOp   4
 Largest Abelian subgroup         C2V     NOp   4
 Largest concise Abelian subgroup C1      NOp   1
                         Standard orientation:                         
 ---------------------------------------------------------------------
 Center     Atomic      Atomic             Coordinates (Angstroms)
 Number     Number       Type             X           Y           Z
 ---------------------------------------------------------------------
      1         47           0        0.000000    0.000000    0.605378
      2         17           0        0.000000    0.000000   -1.673693
 ---------------------------------------------------------------------
 Rotational constants (GHZ):           0.0000000           3.6925306           3.6925306
 Standard basis: def2QZVPP (5D, 7F)
 There are    87 symmetry adapted cartesian basis functions of A1  symmetry.
 There are    23 symmetry adapted cartesian basis functions of A2  symmetry.
 There are    46 symmetry adapted cartesian basis functions of B1  symmetry.
 There are    46 symmetry adapted cartesian basis functions of B2  symmetry.
 There are    64 symmetry adapted basis functions of A1  symmetry.
 There are    20 symmetry adapted basis functions of A2  symmetry.
 There are    37 symmetry adapted basis functions of B1  symmetry.
 There are    37 symmetry adapted basis functions of B2  symmetry.
   158 basis functions,   267 primitive gaussians,   202 cartesian basis functions
    18 alpha electrons       18 beta electrons
       nuclear repulsion energy        74.9973079464 Hartrees.
 NAtoms=    2 NActive=    2 NUniq=    2 SFac= 1.00D+00 NAtFMM=   60 NAOKFM=F Big=F
 Integral buffers will be    131072 words long.
 Raffenetti 2 integral format.
 Two-electron integral symmetry is turned on.
 One-electron integrals computed using PRISM.
   4 Symmetry operations used in ECPInt.
 ECPInt:  NShTT=     990 NPrTT=    2723 LenC2=     979 LenP2D=    2474.
 LDataN:  DoStor=T MaxTD1= 8 Len=  415
 NBasis=   158 RedAO= T EigKep=  1.20D-03  NBF=    64    20    37    37
 NBsUse=   158 1.00D-06 EigRej= -1.00D+00 NBFU=    64    20    37    37
 Defaulting to unpruned grid for atomic number  47.
 Initial guess from the checkpoint file:  "/data/hutter/SMG16/PBE/Gau-51498.chk"
 B after Tr=     0.000000    0.000000    0.000000
         Rot=    1.000000    0.000000    0.000000    0.000000 Ang=   0.00 deg.
 Initial guess orbital symmetries:
       Occupied  (SG) (SG) (SG) (PI) (PI) (SG) (SG) (PI) (PI) (SG)
                 (SG) (PI) (PI) (DLTA) (DLTA) (SG) (PI) (PI)
       Virtual   (SG) (PI) (PI) (SG) (SG) (PI) (PI) (SG) (SG) (PI)
                 (PI) (DLTA) (DLTA) (PI) (PI) (SG) (DLTA) (DLTA)
                 (SG) (SG) (PI) (PI) (PI) (PI) (PHI) (PHI) (SG)
                 (DLTA) (DLTA) (SG) (PI) (PI) (SG) (PI) (PI) (DLTA)
                 (DLTA) (PI) (PI) (SG) (DLTA) (DLTA) (SG) (PI)
                 (PI) (SG) (PHI) (PHI) (DLTA) (DLTA) (PHI) (PHI)
                 (PI) (PI) (DLTA) (DLTA) (SG) (PI) (PI) (SG) (SG)
                 (SG) (PI) (PI) (SG) (PI) (PI) (DLTA) (DLTA) (PHI)
                 (PHI) (DLTA) (DLTA) (SG) (SG) (PI) (PI) (DLTA)
                 (DLTA) (PI) (PI) (PHI) (PHI) (?A) (?A) (SG) (PHI)
                 (PHI) (?A) (?A) (DLTA) (DLTA) (PI) (PI) (DLTA)
                 (DLTA) (PI) (PI) (SG) (PI) (PI) (PHI) (PHI) (DLTA)
                 (DLTA) (SG) (PI) (PI) (SG) (SG) (SG) (PHI) (PHI)
                 (DLTA) (DLTA) (PI) (PI) (SG) (PHI) (PHI) (?A)
                 (?A) (DLTA) (DLTA) (PI) (PI) (SG) (DLTA) (DLTA)
                 (PI) (PI) (SG) (SG) (SG) (PI) (PI) (SG) (SG) (SG)
                 (SG)
 Keep J ints in memory in symmetry-blocked form, NReq=98933213.
 Requested convergence on RMS density matrix=1.00D-08 within 128 cycles.
 Requested convergence on MAX density matrix=1.00D-06.
 Requested convergence on             energy=1.00D-06.
 No special actions if energy rises.
 Defaulting to unpruned grid for atomic number  47.
 Defaulting to unpruned grid for atomic number  47.
 Defaulting to unpruned grid for atomic number  47.
 Defaulting to unpruned grid for atomic number  47.
 Defaulting to unpruned grid for atomic number  47.
 Defaulting to unpruned grid for atomic number  47.
 Defaulting to unpruned grid for atomic number  47.
 Defaulting to unpruned grid for atomic number  47.
 SCF Done:  E(RPBE-PBE) =  -607.076757098     A.U. after    1 cycles
            NFock=  1  Conv=0.43D-08     -V/T= 2.1773
 DoSCS=F DFT=T ScalE2(SS,OS)=  1.000000  1.000000
 Range of M.O.s used for correlation:     1   158
 NBasis=   158 NAE=    18 NBE=    18 NFC=     0 NFV=     0
 NROrb=    158 NOA=    18 NOB=    18 NVA=   140 NVB=   140

 **** Warning!!: The largest alpha MO coefficient is  0.10284134D+02


 **** Warning!!: The smallest alpha delta epsilon is  0.85940079D-01

   4 Symmetry operations used in ECPInt.
 ECPInt:  NShTT=     990 NPrTT=    2723 LenC2=     979 LenP2D=    2474.
 LDataN:  DoStor=T MaxTD1= 9 Len=  602
 Symmetrizing basis deriv contribution to polar:
 IMax=3 JMax=2 DiffMx= 0.00D+00
 G2DrvN: will do     3 centers at a time, making    1 passes.
 Calling FoFCou, ICntrl=  3507 FMM=F I1Cent=   0 AccDes= 0.00D+00.
 Defaulting to unpruned grid for atomic number  47.
 Defaulting to unpruned grid for atomic number  47.
 Defaulting to unpruned grid for atomic number  47.
 Defaulting to unpruned grid for atomic number  47.
 Defaulting to unpruned grid for atomic number  47.
 Defaulting to unpruned grid for atomic number  47.
 Defaulting to unpruned grid for atomic number  47.
 Defaulting to unpruned grid for atomic number  47.
 End of G2Drv F.D. properties file   721 does not exist.
 End of G2Drv F.D. properties file   722 does not exist.
 End of G2Drv F.D. properties file   788 does not exist.
          IDoAtm=11
          Differentiating once with respect to electric field.
                with respect to dipole field.
          Differentiating once with respect to nuclear coordinates.
 Defaulting to unpruned grid for atomic number  47.
 Keep J ints in memory in symmetry-blocked form, NReq=98934655.
 Defaulting to unpruned grid for atomic number  47.
 Defaulting to unpruned grid for atomic number  47.
 Defaulting to unpruned grid for atomic number  47.
 Defaulting to unpruned grid for atomic number  47.
 Defaulting to unpruned grid for atomic number  47.
 Defaulting to unpruned grid for atomic number  47.
 Defaulting to unpruned grid for atomic number  47.
 Defaulting to unpruned grid for atomic number  47.
          There are     9 degrees of freedom in the 1st order CPHF.  IDoFFX=6 NUNeed=     3.
      6 vectors produced by pass  0 Test12= 2.80D-14 1.11D-08 XBig12= 1.96D+02 1.07D+01.
 AX will form     6 AO Fock derivatives at one time.
      6 vectors produced by pass  1 Test12= 2.80D-14 1.11D-08 XBig12= 5.96D+01 3.39D+00.
      6 vectors produced by pass  2 Test12= 2.80D-14 1.11D-08 XBig12= 3.63D+00 6.21D-01.
      6 vectors produced by pass  3 Test12= 2.80D-14 1.11D-08 XBig12= 4.07D-01 1.77D-01.
      6 vectors produced by pass  4 Test12= 2.80D-14 1.11D-08 XBig12= 5.98D-03 1.62D-02.
      6 vectors produced by pass  5 Test12= 2.80D-14 1.11D-08 XBig12= 7.65D-05 2.42D-03.
      4 vectors produced by pass  6 Test12= 2.80D-14 1.11D-08 XBig12= 8.54D-07 3.38D-04.
      4 vectors produced by pass  7 Test12= 2.80D-14 1.11D-08 XBig12= 7.21D-09 1.88D-05.
      4 vectors produced by pass  8 Test12= 2.80D-14 1.11D-08 XBig12= 9.77D-11 2.84D-06.
      1 vectors produced by pass  9 Test12= 2.80D-14 1.11D-08 XBig12= 3.81D-13 1.15D-07.
 InvSVY:  IOpt=1 It=  1 EMax= 2.22D-16
 Solved reduced A of dimension    49 with     6 vectors.
 Isotropic polarizability for W=    0.000000       44.36 Bohr**3.
 End of Minotr F.D. properties file   721 does not exist.
 End of Minotr F.D. properties file   722 does not exist.
 End of Minotr F.D. properties file   788 does not exist.

 **********************************************************************

            Population analysis using the SCF Density.

 **********************************************************************

 Orbital symmetries:
       Occupied  (SG) (SG) (SG) (PI) (PI) (SG) (SG) (PI) (PI) (SG)
                 (SG) (PI) (PI) (DLTA) (DLTA) (SG) (PI) (PI)
       Virtual   (SG) (PI) (PI) (SG) (SG) (PI) (PI) (SG) (SG) (PI)
                 (PI) (DLTA) (DLTA) (PI) (PI) (SG) (DLTA) (DLTA)
                 (SG) (SG) (PI) (PI) (PI) (PI) (PHI) (PHI) (SG)
                 (DLTA) (DLTA) (SG) (PI) (PI) (SG) (PI) (PI) (DLTA)
                 (DLTA) (PI) (PI) (SG) (DLTA) (DLTA) (SG) (PI)
                 (PI) (SG) (PHI) (PHI) (DLTA) (DLTA) (PHI) (PHI)
                 (PI) (PI) (DLTA) (DLTA) (SG) (PI) (PI) (SG) (SG)
                 (SG) (PI) (PI) (SG) (PI) (PI) (DLTA) (DLTA) (PHI)
                 (PHI) (DLTA) (DLTA) (SG) (SG) (PI) (PI) (DLTA)
                 (DLTA) (PI) (PI) (PHI) (PHI) (?A) (?A) (SG) (PHI)
                 (PHI) (?A) (?A) (DLTA) (DLTA) (PI) (PI) (DLTA)
                 (DLTA) (PI) (PI) (SG) (PI) (PI) (PHI) (PHI) (DLTA)
                 (DLTA) (SG) (PI) (PI) (SG) (SG) (SG) (PHI) (PHI)
                 (DLTA) (DLTA) (PI) (PI) (SG) (PHI) (PHI) (?A)
                 (?A) (DLTA) (DLTA) (PI) (PI) (SG) (DLTA) (DLTA)
                 (PI) (PI) (SG) (SG) (SG) (PI) (PI) (SG) (SG) (SG)
                 (SG)
 The electronic state is 1-SG.
 Alpha  occ. eigenvalues -- -100.62426  -9.13339  -6.95517  -6.94824  -6.94824
 Alpha  occ. eigenvalues --   -3.60536  -2.23916  -2.23415  -2.23415  -0.68988
 Alpha  occ. eigenvalues --   -0.35224  -0.32394  -0.32394  -0.30813  -0.30813
 Alpha  occ. eigenvalues --   -0.25540  -0.23599  -0.23599
 Alpha virt. eigenvalues --   -0.15005  -0.02730  -0.02730   0.00757   0.04012
 Alpha virt. eigenvalues --    0.05922   0.05922   0.10413   0.19054   0.21162
 Alpha virt. eigenvalues --    0.21162   0.22031   0.22031   0.25006   0.25006
 Alpha virt. eigenvalues --    0.25999   0.32045   0.32045   0.33952   0.38882
 Alpha virt. eigenvalues --    0.39154   0.39154   0.44699   0.44699   0.45388
 Alpha virt. eigenvalues --    0.45388   0.50001   0.51352   0.51352   0.62237
 Alpha virt. eigenvalues --    0.67118   0.67118   0.81282   1.03581   1.03581
 Alpha virt. eigenvalues --    1.07994   1.07995   1.12476   1.12476   1.14542
 Alpha virt. eigenvalues --    1.15026   1.15026   1.17181   1.21064   1.21064
 Alpha virt. eigenvalues --    1.25012   1.29205   1.29205   1.31654   1.31654
 Alpha virt. eigenvalues --    1.32817   1.32817   1.33411   1.33411   1.37918
 Alpha virt. eigenvalues --    1.37918   1.40985   1.71923   1.71923   2.08319
 Alpha virt. eigenvalues --    2.23403   2.64967   2.80714   2.80714   2.94936
 Alpha virt. eigenvalues --    3.04973   3.04973   3.05116   3.05117   3.07503
 Alpha virt. eigenvalues --    3.07503   3.18475   3.18475   3.27061   3.31213
 Alpha virt. eigenvalues --    3.31445   3.31445   3.35722   3.35722   3.36272
 Alpha virt. eigenvalues --    3.36272   3.41504   3.41504   3.42404   3.42418
 Alpha virt. eigenvalues --    3.51914   3.53613   3.53613   3.53929   3.53929
 Alpha virt. eigenvalues --    3.60187   3.60188   3.71258   3.71258   3.72660
 Alpha virt. eigenvalues --    3.72667   3.82837   3.82837   3.84766   3.85136
 Alpha virt. eigenvalues --    3.85136   3.85555   3.85555   3.93803   3.93804
 Alpha virt. eigenvalues --    4.01890   4.38423   4.38423   4.51320   5.08139
 Alpha virt. eigenvalues --    8.25381   8.69590   8.69590   8.70235   8.70240
 Alpha virt. eigenvalues --    8.78035   8.78035   8.96234   9.66294   9.66294
 Alpha virt. eigenvalues --    9.66368   9.66373   9.67667   9.67667   9.77596
 Alpha virt. eigenvalues --    9.77596   9.90932  10.50402  10.50402  10.60264
 Alpha virt. eigenvalues --   10.60264  10.82612  28.39599  35.88273  41.37994
 Alpha virt. eigenvalues --   41.37994  41.40730  97.68780 113.11101 523.99385
          Condensed to atoms (all electrons):
               1          2
     1  Ag  18.277070   0.267337
     2  Cl   0.267337  17.188256
 Mulliken charges:
               1
     1  Ag   0.455593
     2  Cl  -0.455593
 Sum of Mulliken charges =  -0.00000
 Mulliken charges with hydrogens summed into heavy atoms:
               1
     1  Ag   0.455593
     2  Cl  -0.455593
 APT charges:
               1
     1  Ag   0.496203
     2  Cl  -0.496203
 Sum of APT charges =  -0.00000
 APT charges with hydrogens summed into heavy atoms:
               1
     1  Ag   0.496203
     2  Cl  -0.496203
 Electronic spatial extent (au):  <R**2>=            266.9498
 Charge=             -0.0000 electrons
 Dipole moment (field-independent basis, Debye):
    X=              0.0000    Y=              0.0000    Z=              4.8604  Tot=              4.8604
 Quadrupole moment (field-independent basis, Debye-Ang):
   XX=            -32.1438   YY=            -32.1438   ZZ=            -32.5890
   XY=              0.0000   XZ=              0.0000   YZ=              0.0000
 Traceless Quadrupole moment (field-independent basis, Debye-Ang):
   XX=              0.1484   YY=              0.1484   ZZ=             -0.2968
   XY=              0.0000   XZ=              0.0000   YZ=              0.0000
 Octapole moment (field-independent basis, Debye-Ang**2):
  XXX=              0.0000  YYY=              0.0000  ZZZ=             43.0743  XYY=              0.0000
  XXY=              0.0000  XXZ=             13.1388  XZZ=              0.0000  YZZ=              0.0000
  YYZ=             13.1388  XYZ=              0.0000
 Hexadecapole moment (field-independent basis, Debye-Ang**3):
 XXXX=            -37.5905 YYYY=            -37.5905 ZZZZ=           -287.7729 XXXY=              0.0000
 XXXZ=              0.0000 YYYX=              0.0000 YYYZ=              0.0000 ZZZX=              0.0000
 ZZZY=              0.0000 XXYY=            -12.5302 XXZZ=            -56.3453 YYZZ=            -56.3453
 XXYZ=              0.0000 YYXZ=              0.0000 ZZXY=              0.0000
 N-N= 7.499730794644D+01 E-N=-1.562160315084D+03  KE= 5.156389453913D+02
 Symmetry A1   KE= 3.919705205476D+02
 Symmetry A2   KE= 6.746055585653D+00
 Symmetry B1   KE= 5.846118462904D+01
 Symmetry B2   KE= 5.846118462904D+01
  Exact polarizability:      35.993       0.000      35.993      -0.000       0.000      61.096
 Approx polarizability:      63.798      -0.000      63.798      -0.000      -0.000     135.377
   4 Symmetry operations used in ECPInt.
 ECPInt:  NShTT=     990 NPrTT=    2723 LenC2=     979 LenP2D=    2474.
 LDataN:  DoStor=T MaxTD1=10 Len=  848
 Calling FoFJK, ICntrl=    100527 FMM=F ISym2X=1 I1Cent= 0 IOpClX= 0 NMat=1 NMatS=1 NMatT=0.
 Defaulting to unpruned grid for atomic number  47.
 Defaulting to unpruned grid for atomic number  47.
 Defaulting to unpruned grid for atomic number  47.
 Defaulting to unpruned grid for atomic number  47.
 Defaulting to unpruned grid for atomic number  47.
 Defaulting to unpruned grid for atomic number  47.
 Defaulting to unpruned grid for atomic number  47.
 Defaulting to unpruned grid for atomic number  47.
 Full mass-weighted force constant matrix:
 Low frequencies ---    0.0032    0.0032    0.0034   12.7169   12.7169  331.0289
 Diagonal vibrational polarizability:
        0.0000000       0.0000000       3.2773617
 Harmonic frequencies (cm**-1), IR intensities (KM/Mole), Raman scattering
 activities (A**4/AMU), depolarization ratios for plane and unpolarized
 incident light, reduced masses (AMU), force constants (mDyne/A),
 and normal coordinates:
                      1
                     SG
 Frequencies --    331.0289
 Red. masses --     41.9218
 Frc consts  --      2.7066
 IR Inten    --     13.3451
  Atom  AN      X      Y      Z
     1  47    -0.00  -0.00  -0.31
     2  17    -0.00  -0.00   0.95

 -------------------
 - Thermochemistry -
 -------------------
 Temperature   298.150 Kelvin.  Pressure   1.00000 Atm.
 Atom     1 has atomic number 47 and mass 106.90509
 Atom     2 has atomic number 17 and mass  34.96885
 Molecular mass:   141.87394 amu.
 Principal axes and moments of inertia in atomic units:
                           1         2         3
     Eigenvalues --     0.00000 488.75456 488.75456
           X            0.00000  -0.00000   1.00000
           Y            0.00000   1.00000   0.00000
           Z            1.00000   0.00000   0.00000
 This molecule is a prolate symmetric top.
 Rotational symmetry number  1.
 Warning -- assumption of classical behavior for rotation
           may cause significant error
 Rotational temperature (Kelvin)      0.17721
 Rotational constant (GHZ):           3.692531
 Zero-point vibrational energy       1980.0 (Joules/Mol)
                                    0.47323 (Kcal/Mol)
 Warning -- explicit consideration of   1 degrees of freedom as
           vibrations may cause significant error
 Vibrational temperatures:    476.28
          (Kelvin)
 
 Zero-point correction=                           0.000754 (Hartree/Particle)
 Thermal correction to Energy=                    0.003497
 Thermal correction to Enthalpy=                  0.004442
 Thermal correction to Gibbs Free Energy=        -0.023479
 Sum of electronic and zero-point Energies=           -607.076003
 Sum of electronic and thermal Energies=              -607.073260
 Sum of electronic and thermal Enthalpies=            -607.072316
 Sum of electronic and thermal Free Energies=         -607.100236
 
                     E (Thermal)             CV                S
                      KCal/Mol        Cal/Mol-Kelvin    Cal/Mol-Kelvin
 Total                    2.195              6.582             58.764
 Electronic               0.000              0.000              0.000
 Translational            0.889              2.981             40.761
 Rotational               0.592              1.987             16.748
 Vibrational              0.713              1.614              1.255
 Vibration     1          0.713              1.614              1.255
                       Q            Log10(Q)             Ln(Q)
 Total Bot       0.630360D+11         10.799589         24.866972
 Total V=0       0.140110D+12         11.146468         25.665692
 Vib (Bot)       0.564083D+00         -0.248657         -0.572554
 Vib (Bot)    1  0.564083D+00         -0.248657         -0.572554
 Vib (V=0)       0.125378D+01          0.098222          0.226166
 Vib (V=0)    1  0.125378D+01          0.098222          0.226166
 Electronic      0.100000D+01          0.000000          0.000000
 Translational   0.664214D+08          7.822308         18.011529
 Rotational      0.168243D+04          3.225938          7.427997
 ***** Axes restored to original set *****
 -------------------------------------------------------------------
 Center     Atomic                   Forces (Hartrees/Bohr)
 Number     Number              X              Y              Z
 -------------------------------------------------------------------
      1       47          -0.000000000   -0.000000000   -0.000000652
      2       17          -0.000000000   -0.000000000    0.000000652
 -------------------------------------------------------------------
 Cartesian Forces:  Max     0.000000652 RMS     0.000000377
 FormGI is forming the generalized inverse of G from B-inverse, IUseBI=4.

 GradGradGradGradGradGradGradGradGradGradGradGradGradGradGradGradGradGrad
 Berny optimization.
 Internal  Forces:  Max     0.000000652 RMS     0.000000652
 Search for a local minimum.
 Step number   1 out of a maximum of    2
 All quantities printed in internal units (Hartrees-Bohrs-Radians)
 Second derivative matrix not updated -- analytic derivatives used.
 The second derivative matrix:
                          R1
           R1           0.10927
 ITU=  0
     Eigenvalues ---    0.10927
 Angle between quadratic step and forces=   0.00 degrees.
 Linear search not attempted -- first point.
 Iteration  1 RMS(Cart)=  0.00000422 RMS(Int)=  0.00000000
 Iteration  2 RMS(Cart)=  0.00000000 RMS(Int)=  0.00000000
 ClnCor:  largest displacement from symmetrization is 0.00D+00 for atom     0.
 Variable       Old X    -DE/DX   Delta X   Delta X   Delta X     New X
                                 (Linear)    (Quad)   (Total)
    R1        4.30682   0.00000   0.00000   0.00001   0.00001   4.30683
         Item               Value     Threshold  Converged?
 Maximum Force            0.000001     0.000450     YES
 RMS     Force            0.000001     0.000300     YES
 Maximum Displacement     0.000003     0.001800     YES
 RMS     Displacement     0.000004     0.001200     YES
 Predicted change in Energy=-1.947727D-12
 Optimization completed.
    -- Stationary point found.
                           ----------------------------
                           !   Optimized Parameters   !
                           ! (Angstroms and Degrees)  !
 --------------------------                            --------------------------
 ! Name  Definition              Value          Derivative Info.                !
 --------------------------------------------------------------------------------
 ! R1    R(1,2)                  2.2791         -DE/DX =    0.0                 !
 --------------------------------------------------------------------------------
 GradGradGradGradGradGradGradGradGradGradGradGradGradGradGradGradGradGrad


 ----------------------------------------------------------------------

 Electric dipole moment (input orientation):
 (Debye = 10**-18 statcoulomb cm , SI units = C m)
                  (au)            (Debye)         (10**-30 SI)
   Tot        0.191224D+01      0.486044D+01      0.162127D+02
   x          0.000000D+00      0.000000D+00      0.000000D+00
   y          0.000000D+00      0.000000D+00      0.000000D+00
   z         -0.191224D+01     -0.486044D+01     -0.162127D+02

 Dipole polarizability, Alpha (input orientation).
 (esu units = cm**3 , SI units = C**2 m**2 J**-1)
 Alpha(0;0):
               (au)            (10**-24 esu)      (10**-40 SI)
   iso        0.443608D+02      0.657359D+01      0.731411D+01
   aniso      0.251025D+02      0.371980D+01      0.413884D+01
   xx         0.359933D+02      0.533366D+01      0.593449D+01
   yx         0.000000D+00      0.000000D+00      0.000000D+00
   yy         0.359933D+02      0.533366D+01      0.593449D+01
   zx         0.000000D+00      0.000000D+00      0.000000D+00
   zy         0.000000D+00      0.000000D+00      0.000000D+00
   zz         0.610958D+02      0.905346D+01      0.100733D+02

 ----------------------------------------------------------------------

 Dipole orientation:
    47         15.11780900        -15.11780900        -12.96439837
    17         15.11780900        -15.11780900        -17.27121962

 Electric dipole moment (dipole orientation):
 (Debye = 10**-18 statcoulomb cm , SI units = C m)
                  (au)            (Debye)         (10**-30 SI)
   Tot        0.191224D+01      0.486044D+01      0.162127D+02
   x          0.000000D+00      0.000000D+00      0.000000D+00
   y          0.000000D+00      0.000000D+00      0.000000D+00
   z          0.191224D+01      0.486044D+01      0.162127D+02

 Dipole polarizability, Alpha (dipole orientation).
 (esu units = cm**3 , SI units = C**2 m**2 J**-1)
 Alpha(0;0):
               (au)            (10**-24 esu)      (10**-40 SI)
   iso        0.443608D+02      0.657359D+01      0.731411D+01
   aniso      0.251025D+02      0.371980D+01      0.413884D+01
   xx         0.359933D+02      0.533366D+01      0.593449D+01
   yx         0.000000D+00      0.000000D+00      0.000000D+00
   yy         0.359933D+02      0.533366D+01      0.593449D+01
   zx         0.000000D+00      0.000000D+00      0.000000D+00
   zy         0.000000D+00      0.000000D+00      0.000000D+00
   zz         0.610958D+02      0.905346D+01      0.100733D+02

 ----------------------------------------------------------------------
 Unable to Open any file for archive entry.
 1\1\GINC-TCOPT10\Freq\RPBEPBE\def2QZVPP\Ag1Cl1\HUTTER\30-Jul-2021\0\\#
 N Geom=AllCheck Guess=TCheck SCRF=Check GenChk RPBEPBE/def2QZVPP Freq\
 \Mol job 1\\0,1\Ag,8.,8.,6.8604641699\Cl,8.,8.,9.1395358301\\Version=E
 S64L-G16RevC.01\State=1-SG\HF=-607.0767571\RMSD=4.272e-09\RMSF=3.767e-
 07\Thermal=0.0034974\ETot=-607.0732597\HTot=-607.0723155\GTot=-607.100
 2361\Dipole=0.,0.,-1.9122433\DipoleDeriv=0.4440116,0.,0.,0.,0.4440116,
 0.,0.,0.,0.600585,-0.4440116,0.,0.,0.,-0.4440116,0.,0.,0.,-0.600585\Po
 lar=35.9932988,0.,35.9932988,0.,0.,61.0957649\Quadrupole=0.1103454,0.1
 103454,-0.2206907,0.,0.,0.\PG=C*V [C*(Cl1Ag1)]\NImag=0\\0.00016126,0.,
 0.00016126,0.,0.,0.10926986,-0.00016126,0.,0.,0.00016126,0.,-0.0001612
 6,0.,0.,0.00016126,0.,0.,-0.10926986,0.,0.,0.10926986\\0.,0.,0.0000006
 5,0.,0.,-0.00000065\\\@
 The archive entry for this job was punched.


 PICNIC:  A SNACK IN THE GRASS.
 Job cpu time:       0 days  0 hours  5 minutes 45.6 seconds.
 Elapsed time:       0 days  0 hours  0 minutes 43.6 seconds.
 File lengths (MBytes):  RWF=     15 Int=      0 D2E=      0 Chk=      3 Scr=      1
 Normal termination of Gaussian 16 at Fri Jul 30 09:05:32 2021.
