 Entering Gaussian System, Link 0=g16
 Initial command:
 /sw-ng/spack/opt/spack/linux-opensuse_leap15-sandybridge/pgi-18.10/gaussian-src-16-C.01-zldqaomctopxhethwccpmxmwefdscg3m/g16/l1.exe "/data/hutter/SMG16/PBE/Gau-92541.inp" -scrdir="/data/hutter/SMG16/PBE/"
 Entering Link 1 = /sw-ng/spack/opt/spack/linux-opensuse_leap15-sandybridge/pgi-18.10/gaussian-src-16-C.01-zldqaomctopxhethwccpmxmwefdscg3m/g16/l1.exe PID=     92555.
  
 Copyright (c) 1988-2019, Gaussian, Inc.  All Rights Reserved.
  
 This is part of the Gaussian(R) 16 program.  It is based on
 the Gaussian(R) 09 system (copyright 2009, Gaussian, Inc.),
 the Gaussian(R) 03 system (copyright 2003, Gaussian, Inc.),
 the Gaussian(R) 98 system (copyright 1998, Gaussian, Inc.),
 the Gaussian(R) 94 system (copyright 1995, Gaussian, Inc.),
 the Gaussian 92(TM) system (copyright 1992, Gaussian, Inc.),
 the Gaussian 90(TM) system (copyright 1990, Gaussian, Inc.),
 the Gaussian 88(TM) system (copyright 1988, Gaussian, Inc.),
 the Gaussian 86(TM) system (copyright 1986, Carnegie Mellon
 University), and the Gaussian 82(TM) system (copyright 1983,
 Carnegie Mellon University). Gaussian is a federally registered
 trademark of Gaussian, Inc.
  
 This software contains proprietary and confidential information,
 including trade secrets, belonging to Gaussian, Inc.
  
 This software is provided under written license and may be
 used, copied, transmitted, or stored only in accord with that
 written license.
  
 The following legend is applicable only to US Government
 contracts under FAR:
  
                    RESTRICTED RIGHTS LEGEND
  
 Use, reproduction and disclosure by the US Government is
 subject to restrictions as set forth in subparagraphs (a)
 and (c) of the Commercial Computer Software - Restricted
 Rights clause in FAR 52.227-19.
  
 Gaussian, Inc.
 340 Quinnipiac St., Bldg. 40, Wallingford CT 06492
  
  
 ---------------------------------------------------------------
 Warning -- This program may not be used in any manner that
 competes with the business of Gaussian, Inc. or will provide
 assistance to any competitor of Gaussian, Inc.  The licensee
 of this program is prohibited from giving any competitor of
 Gaussian, Inc. access to this program.  By using this program,
 the user acknowledges that Gaussian, Inc. is engaged in the
 business of creating and licensing software in the field of
 computational chemistry and represents and warrants to the
 licensee that it is not a competitor of Gaussian, Inc. and that
 it will not use this program in any manner prohibited above.
 ---------------------------------------------------------------
  

 Cite this work as:
 Gaussian 16, Revision C.01,
 M. J. Frisch, G. W. Trucks, H. B. Schlegel, G. E. Scuseria, 
 M. A. Robb, J. R. Cheeseman, G. Scalmani, V. Barone, 
 G. A. Petersson, H. Nakatsuji, X. Li, M. Caricato, A. V. Marenich, 
 J. Bloino, B. G. Janesko, R. Gomperts, B. Mennucci, H. P. Hratchian, 
 J. V. Ortiz, A. F. Izmaylov, J. L. Sonnenberg, D. Williams-Young, 
 F. Ding, F. Lipparini, F. Egidi, J. Goings, B. Peng, A. Petrone, 
 T. Henderson, D. Ranasinghe, V. G. Zakrzewski, J. Gao, N. Rega, 
 G. Zheng, W. Liang, M. Hada, M. Ehara, K. Toyota, R. Fukuda, 
 J. Hasegawa, M. Ishida, T. Nakajima, Y. Honda, O. Kitao, H. Nakai, 
 T. Vreven, K. Throssell, J. A. Montgomery, Jr., J. E. Peralta, 
 F. Ogliaro, M. J. Bearpark, J. J. Heyd, E. N. Brothers, K. N. Kudin, 
 V. N. Staroverov, T. A. Keith, R. Kobayashi, J. Normand, 
 K. Raghavachari, A. P. Rendell, J. C. Burant, S. S. Iyengar, 
 J. Tomasi, M. Cossi, J. M. Millam, M. Klene, C. Adamo, R. Cammi, 
 J. W. Ochterski, R. L. Martin, K. Morokuma, O. Farkas, 
 J. B. Foresman, and D. J. Fox, Gaussian, Inc., Wallingford CT, 2019.
 
 ******************************************
 Gaussian 16:  ES64L-G16RevC.01  3-Jul-2019
                30-Jul-2021 
 ******************************************
 %mem=8GB
 %NProcShare=8
 Will use up to    8 processors via shared memory.
 -----------------------------------------------------------
 #N RPBEPBE/Def2QZVPP scf=tight Int(Grid=ultrafine) OPT FREQ
 -----------------------------------------------------------
 1/18=20,19=15,26=4,38=1/1,3;
 2/9=110,12=2,17=6,18=5,40=1/2;
 3/5=45,7=202,11=2,25=1,30=1,71=1,74=1009,75=-5,116=1/1,2,3;
 4//1;
 5/5=2,32=2,38=5/2;
 6/7=2,8=2,9=2,10=2,28=1/1;
 7//1,2,3,16;
 1/18=20,19=15,26=4/3(2);
 2/9=110/2;
 99//99;
 2/9=110/2;
 3/5=45,7=202,11=2,25=1,30=1,71=1,74=1009,75=-5,116=1/1,2,3;
 4/5=5,16=3,69=1/1;
 5/5=2,32=2,38=5/2;
 7//1,2,3,16;
 1/18=20,19=15,26=4/3(-5);
 2/9=110/2;
 6/7=2,8=2,9=2,10=2,19=2,28=1/1;
 99/9=1/99;
 ---------
 Mol job 1
 ---------
 Symbolic Z-matrix:
 Charge =  0 Multiplicity = 1
 F                     8.5       8.5       7.28456 
 Rb                    8.5       8.5       9.71544 
 

 GradGradGradGradGradGradGradGradGradGradGradGradGradGradGradGradGradGrad
 Berny optimization.
 Initialization pass.
                           ----------------------------
                           !    Initial Parameters    !
                           ! (Angstroms and Degrees)  !
 --------------------------                            --------------------------
 ! Name  Definition              Value          Derivative Info.                !
 --------------------------------------------------------------------------------
 ! R1    R(1,2)                  2.4309         estimate D2E/DX2                !
 --------------------------------------------------------------------------------
 Trust Radius=3.00D-01 FncErr=1.00D-07 GrdErr=1.00D-06 EigMax=2.50D+02 EigMin=1.00D-04
 Number of steps in this run=     20 maximum allowed number of steps=    100.
 GradGradGradGradGradGradGradGradGradGradGradGradGradGradGradGradGradGrad

                          Input orientation:                          
 ---------------------------------------------------------------------
 Center     Atomic      Atomic             Coordinates (Angstroms)
 Number     Number       Type             X           Y           Z
 ---------------------------------------------------------------------
      1          9           0        8.500000    8.500000    7.284562
      2         37           0        8.500000    8.500000    9.715438
 ---------------------------------------------------------------------
 Stoichiometry    FRb
 Framework group  C*V[C*(FRb)]
 Deg. of freedom     1
 Full point group                 C*V     NOp   4
 Largest Abelian subgroup         C2V     NOp   4
 Largest concise Abelian subgroup C1      NOp   1
                         Standard orientation:                         
 ---------------------------------------------------------------------
 Center     Atomic      Atomic             Coordinates (Angstroms)
 Number     Number       Type             X           Y           Z
 ---------------------------------------------------------------------
      1          9           0        0.000000    0.000000   -1.955270
      2         37           0        0.000000    0.000000    0.475606
 ---------------------------------------------------------------------
 Rotational constants (GHZ):           0.0000000           5.5088982           5.5088982
 Standard basis: def2QZVPP (5D, 7F)
 There are    65 symmetry adapted cartesian basis functions of A1  symmetry.
 There are    15 symmetry adapted cartesian basis functions of A2  symmetry.
 There are    34 symmetry adapted cartesian basis functions of B1  symmetry.
 There are    34 symmetry adapted cartesian basis functions of B2  symmetry.
 There are    50 symmetry adapted basis functions of A1  symmetry.
 There are    14 symmetry adapted basis functions of A2  symmetry.
 There are    28 symmetry adapted basis functions of B1  symmetry.
 There are    28 symmetry adapted basis functions of B2  symmetry.
   120 basis functions,   184 primitive gaussians,   148 cartesian basis functions
     9 alpha electrons        9 beta electrons
       nuclear repulsion energy        17.6328842535 Hartrees.
 NAtoms=    2 NActive=    2 NUniq=    2 SFac= 1.00D+00 NAtFMM=   60 NAOKFM=F Big=F
 Integral buffers will be    131072 words long.
 Raffenetti 2 integral format.
 Two-electron integral symmetry is turned on.
 One-electron integrals computed using PRISM.
   4 Symmetry operations used in ECPInt.
 ECPInt:  NShTT=     666 NPrTT=    1478 LenC2=     664 LenP2D=    1404.
 LDataN:  DoStor=T MaxTD1= 8 Len=  415
 NBasis=   120 RedAO= T EigKep=  4.15D-03  NBF=    50    14    28    28
 NBsUse=   120 1.00D-06 EigRej= -1.00D+00 NBFU=    50    14    28    28
 Defaulting to unpruned grid for atomic number  37.
 ExpMin= 9.54D-03 ExpMax= 1.33D+05 ExpMxC= 1.27D+03 IAcc=3 IRadAn=         5 AccDes= 0.00D+00
 Harris functional with IExCor= 1009 and IRadAn=       5 diagonalized for initial guess.
 HarFok:  IExCor= 1009 AccDes= 0.00D+00 IRadAn=         5 IDoV= 1 UseB2=F ITyADJ=14
 ICtDFT=  3500011 ScaDFX=  1.000000  1.000000  1.000000  1.000000
 Defaulting to unpruned grid for atomic number  37.
 FoFCou: FMM=F IPFlag=           0 FMFlag=      100000 FMFlg1=           0
         NFxFlg=           0 DoJE=T BraDBF=F KetDBF=T FulRan=T
         wScrn=  0.000000 ICntrl=       500 IOpCl=  0 I1Cent=   200000004 NGrid=           0
         NMat0=    1 NMatS0=      1 NMatT0=    0 NMatD0=    1 NMtDS0=    0 NMtDT0=    0
 Petite list used in FoFCou.
 Initial guess orbital symmetries:
       Occupied  (SG) (SG) (SG) (SG) (PI) (PI) (PI) (PI) (SG)
       Virtual   (SG) (PI) (PI) (SG) (DLTA) (DLTA) (SG) (PI) (PI)
                 (SG) (SG) (DLTA) (DLTA) (PI) (PI) (PI) (PI) (SG)
                 (SG) (PI) (PI) (DLTA) (DLTA) (SG) (DLTA) (DLTA)
                 (PHI) (PHI) (SG) (PI) (PI) (PI) (PI) (SG) (SG)
                 (PI) (PI) (SG) (DLTA) (DLTA) (PI) (PI) (SG) (SG)
                 (SG) (PI) (PI) (DLTA) (DLTA) (PHI) (PHI) (DLTA)
                 (DLTA) (PI) (PI) (SG) (PI) (PI) (SG) (PI) (PI)
                 (SG) (PI) (PI) (DLTA) (DLTA) (PHI) (PHI) (SG)
                 (SG) (DLTA) (DLTA) (PHI) (PHI) (PI) (PI) (SG)
                 (DLTA) (DLTA) (PI) (PI) (SG) (PI) (PI) (SG) (PI)
                 (PI) (DLTA) (DLTA) (SG) (PHI) (PHI) (?A) (?A)
                 (SG) (DLTA) (DLTA) (PHI) (PHI) (PI) (PI) (SG)
                 (SG) (DLTA) (DLTA) (PI) (PI) (SG) (SG) (SG) (SG)
 The electronic state of the initial guess is 1-SG.
 Keep J ints in memory in symmetry-blocked form, NReq=35441697.
 Requested convergence on RMS density matrix=1.00D-08 within 128 cycles.
 Requested convergence on MAX density matrix=1.00D-06.
 Requested convergence on             energy=1.00D-06.
 No special actions if energy rises.
 Defaulting to unpruned grid for atomic number  37.
 Defaulting to unpruned grid for atomic number  37.
 Defaulting to unpruned grid for atomic number  37.
 Defaulting to unpruned grid for atomic number  37.
 Defaulting to unpruned grid for atomic number  37.
 Defaulting to unpruned grid for atomic number  37.
 Defaulting to unpruned grid for atomic number  37.
 Defaulting to unpruned grid for atomic number  37.
 SCF Done:  E(RPBE-PBE) =  -123.941405561     A.U. after   13 cycles
            NFock= 13  Conv=0.29D-08     -V/T= 2.1560

 **********************************************************************

            Population analysis using the SCF Density.

 **********************************************************************

 Orbital symmetries:
       Occupied  (SG) (SG) (SG) (PI) (PI) (SG) (SG) (PI) (PI)
       Virtual   (SG) (PI) (PI) (SG) (SG) (DLTA) (DLTA) (PI) (PI)
                 (SG) (PI) (PI) (SG) (DLTA) (DLTA) (PI) (PI) (SG)
                 (SG) (DLTA) (DLTA) (PI) (PI) (SG) (PHI) (PHI)
                 (DLTA) (DLTA) (PI) (PI) (SG) (PI) (PI) (SG) (SG)
                 (PI) (PI) (DLTA) (DLTA) (SG) (PI) (PI) (SG) (SG)
                 (PI) (PI) (PHI) (PHI) (DLTA) (DLTA) (SG) (PI)
                 (PI) (SG) (DLTA) (DLTA) (PI) (PI) (SG) (PI) (PI)
                 (SG) (PHI) (PHI) (DLTA) (DLTA) (PI) (PI) (SG)
                 (SG) (DLTA) (DLTA) (PHI) (PHI) (PI) (PI) (SG)
                 (DLTA) (DLTA) (PI) (PI) (SG) (PI) (PI) (SG) (PI)
                 (PI) (DLTA) (DLTA) (SG) (PHI) (PHI) (?A) (?A)
                 (SG) (DLTA) (DLTA) (PHI) (PHI) (PI) (PI) (SG)
                 (SG) (DLTA) (DLTA) (PI) (PI) (SG) (SG) (SG) (SG)
 The electronic state is 1-SG.
 Alpha  occ. eigenvalues --  -24.03802  -1.17232  -0.83451  -0.57809  -0.57809
 Alpha  occ. eigenvalues --   -0.56509  -0.16219  -0.15997  -0.15997
 Alpha virt. eigenvalues --   -0.06085  -0.00826  -0.00826  -0.00039   0.01917
 Alpha virt. eigenvalues --    0.01924   0.01924   0.02589   0.02589   0.03214
 Alpha virt. eigenvalues --    0.04224   0.04224   0.04865   0.04983   0.04983
 Alpha virt. eigenvalues --    0.07307   0.07307   0.10151   0.14056   0.15138
 Alpha virt. eigenvalues --    0.15138   0.15734   0.15734   0.17455   0.22335
 Alpha virt. eigenvalues --    0.22335   0.22722   0.22722   0.24611   0.24611
 Alpha virt. eigenvalues --    0.24961   0.28110   0.28110   0.35818   0.51463
 Alpha virt. eigenvalues --    0.54349   0.54349   0.68436   0.68436   0.70041
 Alpha virt. eigenvalues --    0.70920   0.70920   0.85401   1.00632   1.13875
 Alpha virt. eigenvalues --    1.13875   1.16175   1.16175   1.17032   1.17032
 Alpha virt. eigenvalues --    1.18052   1.36389   1.36389   1.39521   1.49001
 Alpha virt. eigenvalues --    1.49001   1.56612   1.56612   1.79651   1.84799
 Alpha virt. eigenvalues --    1.84799   1.99372   3.35246   3.35246   3.35649
 Alpha virt. eigenvalues --    3.35649   3.36305   3.36305   3.48203   4.01135
 Alpha virt. eigenvalues --    4.22820   4.22820   4.23287   4.23287   4.24917
 Alpha virt. eigenvalues --    4.24917   4.30793   5.01606   5.01607   5.08124
 Alpha virt. eigenvalues --    5.08124   5.24949   6.25274   6.25274   6.32903
 Alpha virt. eigenvalues --   11.44092  11.44092  11.44169  11.44170  11.44240
 Alpha virt. eigenvalues --   11.44422  11.44422  11.44730  11.44731  13.01499
 Alpha virt. eigenvalues --   14.56344  14.56345  14.56460  14.56460  14.56835
 Alpha virt. eigenvalues --   14.56835  14.59728  14.89226  15.74177  15.74177
 Alpha virt. eigenvalues --   15.78437  15.78437  15.89307  39.25942  53.71614
 Alpha virt. eigenvalues --  284.04448
          Condensed to atoms (all electrons):
               1          2
     1  F    9.575663   0.140357
     2  Rb   0.140357   8.143623
 Mulliken charges:
               1
     1  F   -0.716020
     2  Rb   0.716020
 Sum of Mulliken charges =  -0.00000
 Mulliken charges with hydrogens summed into heavy atoms:
               1
     1  F   -0.716020
     2  Rb   0.716020
 Electronic spatial extent (au):  <R**2>=            183.9415
 Charge=             -0.0000 electrons
 Dipole moment (field-independent basis, Debye):
    X=              0.0000    Y=              0.0000    Z=              9.1310  Tot=              9.1310
 Quadrupole moment (field-independent basis, Debye-Ang):
   XX=            -19.3287   YY=            -19.3287   ZZ=            -33.7044
   XY=              0.0000   XZ=              0.0000   YZ=              0.0000
 Traceless Quadrupole moment (field-independent basis, Debye-Ang):
   XX=              4.7919   YY=              4.7919   ZZ=             -9.5838
   XY=              0.0000   XZ=              0.0000   YZ=              0.0000
 Octapole moment (field-independent basis, Debye-Ang**2):
  XXX=              0.0000  YYY=              0.0000  ZZZ=             47.3334  XYY=              0.0000
  XXY=              0.0000  XXZ=              7.7341  XZZ=              0.0000  YZZ=              0.0000
  YYZ=              7.7341  XYZ=              0.0000
 Hexadecapole moment (field-independent basis, Debye-Ang**3):
 XXXX=            -22.2166 YYYY=            -22.2166 ZZZZ=           -243.2551 XXXY=              0.0000
 XXXZ=              0.0000 YYYX=              0.0000 YYYZ=              0.0000 ZZZX=              0.0000
 ZZZY=              0.0000 XXYY=             -7.4055 XXZZ=            -36.5846 YYZZ=            -36.5846
 XXYZ=              0.0000 YYXZ=              0.0000 ZZXY=              0.0000
 N-N= 1.763288425345D+01 E-N=-3.237944702179D+02  KE= 1.072203308381D+02
 Symmetry A1   KE= 9.165392878370D+01
 Symmetry A2   KE= 1.374325517618D-46
 Symmetry B1   KE= 7.783201027217D+00
 Symmetry B2   KE= 7.783201027217D+00
   4 Symmetry operations used in ECPInt.
 ECPInt:  NShTT=     666 NPrTT=    1478 LenC2=     664 LenP2D=    1404.
 LDataN:  DoStor=T MaxTD1= 9 Len=  602
 Calling FoFJK, ICntrl=      2527 FMM=F ISym2X=1 I1Cent= 0 IOpClX= 0 NMat=1 NMatS=1 NMatT=0.
 Defaulting to unpruned grid for atomic number  37.
 Defaulting to unpruned grid for atomic number  37.
 Defaulting to unpruned grid for atomic number  37.
 Defaulting to unpruned grid for atomic number  37.
 Defaulting to unpruned grid for atomic number  37.
 Defaulting to unpruned grid for atomic number  37.
 Defaulting to unpruned grid for atomic number  37.
 Defaulting to unpruned grid for atomic number  37.
 ***** Axes restored to original set *****
 -------------------------------------------------------------------
 Center     Atomic                   Forces (Hartrees/Bohr)
 Number     Number              X              Y              Z
 -------------------------------------------------------------------
      1        9          -0.000000000   -0.000000000    0.010624933
      2       37          -0.000000000   -0.000000000   -0.010624933
 -------------------------------------------------------------------
 Cartesian Forces:  Max     0.010624933 RMS     0.006134308

 GradGradGradGradGradGradGradGradGradGradGradGradGradGradGradGradGradGrad
 Berny optimization.
 FormGI is forming the generalized inverse of G from B-inverse, IUseBI=4.
 Internal  Forces:  Max     0.010624933 RMS     0.010624933
 Search for a local minimum.
 Step number   1 out of a maximum of   20
 All quantities printed in internal units (Hartrees-Bohrs-Radians)
 Mixed Optimization -- RFO/linear search
 Second derivative matrix not updated -- first step.
 The second derivative matrix:
                          R1
           R1           0.06832
 ITU=  0
     Eigenvalues ---    0.06832
 RFO step:  Lambda=-1.61423520D-03 EMin= 6.83193200D-02
 Linear search not attempted -- first point.
 Iteration  1 RMS(Cart)=  0.10743001 RMS(Int)=  0.00000000
 Iteration  2 RMS(Cart)=  0.00000000 RMS(Int)=  0.00000000
 ClnCor:  largest displacement from symmetrization is 0.00D+00 for atom     0.
 Variable       Old X    -DE/DX   Delta X   Delta X   Delta X     New X
                                 (Linear)    (Quad)   (Total)
    R1        4.59369  -0.01062   0.00000  -0.15193  -0.15193   4.44176
         Item               Value     Threshold  Converged?
 Maximum Force            0.010625     0.000450     NO 
 RMS     Force            0.010625     0.000300     NO 
 Maximum Displacement     0.075964     0.001800     NO 
 RMS     Displacement     0.107430     0.001200     NO 
 Predicted change in Energy=-8.257478D-04
 GradGradGradGradGradGradGradGradGradGradGradGradGradGradGradGradGradGrad

                          Input orientation:                          
 ---------------------------------------------------------------------
 Center     Atomic      Atomic             Coordinates (Angstroms)
 Number     Number       Type             X           Y           Z
 ---------------------------------------------------------------------
      1          9           0        8.500000    8.500000    7.324761
      2         37           0        8.500000    8.500000    9.675239
 ---------------------------------------------------------------------
 Stoichiometry    FRb
 Framework group  C*V[C*(FRb)]
 Deg. of freedom     1
 Full point group                 C*V     NOp   4
 Largest Abelian subgroup         C2V     NOp   4
 Largest concise Abelian subgroup C1      NOp   1
                         Standard orientation:                         
 ---------------------------------------------------------------------
 Center     Atomic      Atomic             Coordinates (Angstroms)
 Number     Number       Type             X           Y           Z
 ---------------------------------------------------------------------
      1          9           0        0.000000    0.000000   -1.890602
      2         37           0        0.000000    0.000000    0.459876
 ---------------------------------------------------------------------
 Rotational constants (GHZ):           0.0000000           5.8922035           5.8922035
 Standard basis: def2QZVPP (5D, 7F)
 There are    65 symmetry adapted cartesian basis functions of A1  symmetry.
 There are    15 symmetry adapted cartesian basis functions of A2  symmetry.
 There are    34 symmetry adapted cartesian basis functions of B1  symmetry.
 There are    34 symmetry adapted cartesian basis functions of B2  symmetry.
 There are    50 symmetry adapted basis functions of A1  symmetry.
 There are    14 symmetry adapted basis functions of A2  symmetry.
 There are    28 symmetry adapted basis functions of B1  symmetry.
 There are    28 symmetry adapted basis functions of B2  symmetry.
   120 basis functions,   184 primitive gaussians,   148 cartesian basis functions
     9 alpha electrons        9 beta electrons
       nuclear repulsion energy        18.2360112841 Hartrees.
 NAtoms=    2 NActive=    2 NUniq=    2 SFac= 1.00D+00 NAtFMM=   60 NAOKFM=F Big=F
 Integral buffers will be    131072 words long.
 Raffenetti 2 integral format.
 Two-electron integral symmetry is turned on.
 One-electron integrals computed using PRISM.
   4 Symmetry operations used in ECPInt.
 ECPInt:  NShTT=     666 NPrTT=    1478 LenC2=     664 LenP2D=    1408.
 LDataN:  DoStor=T MaxTD1= 8 Len=  415
 NBasis=   120 RedAO= T EigKep=  4.00D-03  NBF=    50    14    28    28
 NBsUse=   120 1.00D-06 EigRej= -1.00D+00 NBFU=    50    14    28    28
 Defaulting to unpruned grid for atomic number  37.
 Initial guess from the checkpoint file:  "/data/hutter/SMG16/PBE/Gau-92555.chk"
 B after Tr=     0.000000    0.000000   -0.000000
         Rot=    1.000000    0.000000    0.000000    0.000000 Ang=   0.00 deg.
 Initial guess orbital symmetries:
       Occupied  (SG) (SG) (SG) (PI) (PI) (SG) (SG) (PI) (PI)
       Virtual   (SG) (PI) (PI) (SG) (SG) (DLTA) (DLTA) (PI) (PI)
                 (SG) (PI) (PI) (SG) (DLTA) (DLTA) (PI) (PI) (SG)
                 (SG) (DLTA) (DLTA) (PI) (PI) (SG) (PHI) (PHI)
                 (DLTA) (DLTA) (PI) (PI) (SG) (PI) (PI) (SG) (SG)
                 (PI) (PI) (DLTA) (DLTA) (SG) (PI) (PI) (SG) (SG)
                 (PI) (PI) (PHI) (PHI) (DLTA) (DLTA) (SG) (PI)
                 (PI) (SG) (DLTA) (DLTA) (PI) (PI) (SG) (PI) (PI)
                 (SG) (PHI) (PHI) (DLTA) (DLTA) (PI) (PI) (SG)
                 (SG) (DLTA) (DLTA) (PHI) (PHI) (PI) (PI) (SG)
                 (DLTA) (DLTA) (PI) (PI) (SG) (PI) (PI) (SG) (PI)
                 (PI) (DLTA) (DLTA) (SG) (PHI) (PHI) (?A) (?A)
                 (SG) (DLTA) (DLTA) (PHI) (PHI) (PI) (PI) (SG)
                 (SG) (DLTA) (DLTA) (PI) (PI) (SG) (SG) (SG) (SG)
 ExpMin= 9.54D-03 ExpMax= 1.33D+05 ExpMxC= 1.27D+03 IAcc=3 IRadAn=         5 AccDes= 0.00D+00
 Harris functional with IExCor= 1009 and IRadAn=       5 diagonalized for initial guess.
 HarFok:  IExCor= 1009 AccDes= 0.00D+00 IRadAn=         5 IDoV= 1 UseB2=F ITyADJ=14
 ICtDFT=  3500011 ScaDFX=  1.000000  1.000000  1.000000  1.000000
 Defaulting to unpruned grid for atomic number  37.
 FoFCou: FMM=F IPFlag=           0 FMFlag=      100000 FMFlg1=           0
         NFxFlg=           0 DoJE=T BraDBF=F KetDBF=T FulRan=T
         wScrn=  0.000000 ICntrl=       500 IOpCl=  0 I1Cent=   200000004 NGrid=           0
         NMat0=    1 NMatS0=      1 NMatT0=    0 NMatD0=    1 NMtDS0=    0 NMtDT0=    0
 Petite list used in FoFCou.
 Keep J ints in memory in symmetry-blocked form, NReq=35441799.
 Requested convergence on RMS density matrix=1.00D-08 within 128 cycles.
 Requested convergence on MAX density matrix=1.00D-06.
 Requested convergence on             energy=1.00D-06.
 No special actions if energy rises.
 Defaulting to unpruned grid for atomic number  37.
 Defaulting to unpruned grid for atomic number  37.
 Defaulting to unpruned grid for atomic number  37.
 Defaulting to unpruned grid for atomic number  37.
 Defaulting to unpruned grid for atomic number  37.
 Defaulting to unpruned grid for atomic number  37.
 Defaulting to unpruned grid for atomic number  37.
 Defaulting to unpruned grid for atomic number  37.
 SCF Done:  E(RPBE-PBE) =  -123.942383813     A.U. after    7 cycles
            NFock=  7  Conv=0.67D-08     -V/T= 2.1556
   4 Symmetry operations used in ECPInt.
 ECPInt:  NShTT=     666 NPrTT=    1478 LenC2=     664 LenP2D=    1408.
 LDataN:  DoStor=T MaxTD1= 9 Len=  602
 Calling FoFJK, ICntrl=      2527 FMM=F ISym2X=1 I1Cent= 0 IOpClX= 0 NMat=1 NMatS=1 NMatT=0.
 Defaulting to unpruned grid for atomic number  37.
 Defaulting to unpruned grid for atomic number  37.
 Defaulting to unpruned grid for atomic number  37.
 Defaulting to unpruned grid for atomic number  37.
 Defaulting to unpruned grid for atomic number  37.
 Defaulting to unpruned grid for atomic number  37.
 Defaulting to unpruned grid for atomic number  37.
 Defaulting to unpruned grid for atomic number  37.
 ***** Axes restored to original set *****
 -------------------------------------------------------------------
 Center     Atomic                   Forces (Hartrees/Bohr)
 Number     Number              X              Y              Z
 -------------------------------------------------------------------
      1        9          -0.000000000   -0.000000000    0.001727939
      2       37          -0.000000000   -0.000000000   -0.001727939
 -------------------------------------------------------------------
 Cartesian Forces:  Max     0.001727939 RMS     0.000997626

 GradGradGradGradGradGradGradGradGradGradGradGradGradGradGradGradGradGrad
 Berny optimization.
 Using GEDIIS/GDIIS optimizer.
 Internal  Forces:  Max     0.001727939 RMS     0.001727939
 Search for a local minimum.
 Step number   2 out of a maximum of   20
 All quantities printed in internal units (Hartrees-Bohrs-Radians)
 Mixed Optimization -- RFO/linear search
 Update second derivatives using D2CorX and points    1    2
 DE= -9.78D-04 DEPred=-8.26D-04 R= 1.18D+00
 TightC=F SS=  1.41D+00  RLast= 1.52D-01 DXNew= 5.0454D-01 4.5579D-01
 Trust test= 1.18D+00 RLast= 1.52D-01 DXMaxT set to 4.56D-01
 The second derivative matrix:
                          R1
           R1           0.05856
 ITU=  1  0
 Use linear search instead of GDIIS.
     Eigenvalues ---    0.05856
 RFO step:  Lambda= 0.00000000D+00 EMin= 5.85602230D-02
 Quartic linear search produced a step of  0.16007.
 Iteration  1 RMS(Cart)=  0.01719612 RMS(Int)=  0.00000000
 Iteration  2 RMS(Cart)=  0.00000000 RMS(Int)=  0.00000000
 ClnCor:  largest displacement from symmetrization is 0.00D+00 for atom     0.
 Variable       Old X    -DE/DX   Delta X   Delta X   Delta X     New X
                                 (Linear)    (Quad)   (Total)
    R1        4.44176  -0.00173  -0.02432   0.00000  -0.02432   4.41744
         Item               Value     Threshold  Converged?
 Maximum Force            0.001728     0.000450     NO 
 RMS     Force            0.001728     0.000300     NO 
 Maximum Displacement     0.012159     0.001800     NO 
 RMS     Displacement     0.017196     0.001200     NO 
 Predicted change in Energy=-2.470508D-05
 GradGradGradGradGradGradGradGradGradGradGradGradGradGradGradGradGradGrad

                          Input orientation:                          
 ---------------------------------------------------------------------
 Center     Atomic      Atomic             Coordinates (Angstroms)
 Number     Number       Type             X           Y           Z
 ---------------------------------------------------------------------
      1          9           0        8.500000    8.500000    7.331195
      2         37           0        8.500000    8.500000    9.668805
 ---------------------------------------------------------------------
 Stoichiometry    FRb
 Framework group  C*V[C*(FRb)]
 Deg. of freedom     1
 Full point group                 C*V     NOp   4
 Largest Abelian subgroup         C2V     NOp   4
 Largest concise Abelian subgroup C1      NOp   1
                         Standard orientation:                         
 ---------------------------------------------------------------------
 Center     Atomic      Atomic             Coordinates (Angstroms)
 Number     Number       Type             X           Y           Z
 ---------------------------------------------------------------------
      1          9           0        0.000000    0.000000   -1.880251
      2         37           0        0.000000    0.000000    0.457358
 ---------------------------------------------------------------------
 Rotational constants (GHZ):           0.0000000           5.9572579           5.9572579
 Standard basis: def2QZVPP (5D, 7F)
 There are    65 symmetry adapted cartesian basis functions of A1  symmetry.
 There are    15 symmetry adapted cartesian basis functions of A2  symmetry.
 There are    34 symmetry adapted cartesian basis functions of B1  symmetry.
 There are    34 symmetry adapted cartesian basis functions of B2  symmetry.
 There are    50 symmetry adapted basis functions of A1  symmetry.
 There are    14 symmetry adapted basis functions of A2  symmetry.
 There are    28 symmetry adapted basis functions of B1  symmetry.
 There are    28 symmetry adapted basis functions of B2  symmetry.
   120 basis functions,   184 primitive gaussians,   148 cartesian basis functions
     9 alpha electrons        9 beta electrons
       nuclear repulsion energy        18.3364045449 Hartrees.
 NAtoms=    2 NActive=    2 NUniq=    2 SFac= 1.00D+00 NAtFMM=   60 NAOKFM=F Big=F
 Integral buffers will be    131072 words long.
 Raffenetti 2 integral format.
 Two-electron integral symmetry is turned on.
 One-electron integrals computed using PRISM.
   4 Symmetry operations used in ECPInt.
 ECPInt:  NShTT=     666 NPrTT=    1478 LenC2=     664 LenP2D=    1409.
 LDataN:  DoStor=T MaxTD1= 8 Len=  415
 NBasis=   120 RedAO= T EigKep=  3.97D-03  NBF=    50    14    28    28
 NBsUse=   120 1.00D-06 EigRej= -1.00D+00 NBFU=    50    14    28    28
 Defaulting to unpruned grid for atomic number  37.
 Initial guess from the checkpoint file:  "/data/hutter/SMG16/PBE/Gau-92555.chk"
 B after Tr=     0.000000    0.000000    0.000000
         Rot=    1.000000    0.000000    0.000000    0.000000 Ang=   0.00 deg.
 Initial guess orbital symmetries:
       Occupied  (SG) (SG) (SG) (PI) (PI) (SG) (PI) (PI) (SG)
       Virtual   (SG) (PI) (PI) (SG) (DLTA) (DLTA) (SG) (PI) (PI)
                 (SG) (PI) (PI) (SG) (DLTA) (DLTA) (PI) (PI) (SG)
                 (SG) (DLTA) (DLTA) (PI) (PI) (SG) (PHI) (PHI)
                 (DLTA) (DLTA) (PI) (PI) (SG) (PI) (PI) (SG) (SG)
                 (PI) (PI) (DLTA) (DLTA) (SG) (PI) (PI) (SG) (SG)
                 (PI) (PI) (PHI) (PHI) (DLTA) (DLTA) (SG) (PI)
                 (PI) (SG) (DLTA) (DLTA) (PI) (PI) (SG) (PI) (PI)
                 (SG) (PHI) (PHI) (DLTA) (DLTA) (PI) (PI) (SG)
                 (SG) (DLTA) (DLTA) (PHI) (PHI) (PI) (PI) (SG)
                 (DLTA) (DLTA) (PI) (PI) (SG) (PI) (PI) (SG) (PI)
                 (PI) (DLTA) (DLTA) (SG) (PHI) (PHI) (?A) (?A)
                 (SG) (DLTA) (DLTA) (PHI) (PHI) (PI) (PI) (SG)
                 (SG) (DLTA) (DLTA) (PI) (PI) (SG) (SG) (SG) (SG)
 Keep J ints in memory in symmetry-blocked form, NReq=35441818.
 Requested convergence on RMS density matrix=1.00D-08 within 128 cycles.
 Requested convergence on MAX density matrix=1.00D-06.
 Requested convergence on             energy=1.00D-06.
 No special actions if energy rises.
 Defaulting to unpruned grid for atomic number  37.
 Defaulting to unpruned grid for atomic number  37.
 Defaulting to unpruned grid for atomic number  37.
 Defaulting to unpruned grid for atomic number  37.
 Defaulting to unpruned grid for atomic number  37.
 Defaulting to unpruned grid for atomic number  37.
 Defaulting to unpruned grid for atomic number  37.
 Defaulting to unpruned grid for atomic number  37.
 SCF Done:  E(RPBE-PBE) =  -123.942404918     A.U. after    7 cycles
            NFock=  7  Conv=0.93D-09     -V/T= 2.1555
   4 Symmetry operations used in ECPInt.
 ECPInt:  NShTT=     666 NPrTT=    1478 LenC2=     664 LenP2D=    1409.
 LDataN:  DoStor=T MaxTD1= 9 Len=  602
 Calling FoFJK, ICntrl=      2527 FMM=F ISym2X=1 I1Cent= 0 IOpClX= 0 NMat=1 NMatS=1 NMatT=0.
 Defaulting to unpruned grid for atomic number  37.
 Defaulting to unpruned grid for atomic number  37.
 Defaulting to unpruned grid for atomic number  37.
 Defaulting to unpruned grid for atomic number  37.
 Defaulting to unpruned grid for atomic number  37.
 Defaulting to unpruned grid for atomic number  37.
 Defaulting to unpruned grid for atomic number  37.
 Defaulting to unpruned grid for atomic number  37.
 ***** Axes restored to original set *****
 -------------------------------------------------------------------
 Center     Atomic                   Forces (Hartrees/Bohr)
 Number     Number              X              Y              Z
 -------------------------------------------------------------------
      1        9          -0.000000000   -0.000000000   -0.000008059
      2       37          -0.000000000   -0.000000000    0.000008059
 -------------------------------------------------------------------
 Cartesian Forces:  Max     0.000008059 RMS     0.000004653

 GradGradGradGradGradGradGradGradGradGradGradGradGradGradGradGradGradGrad
 Berny optimization.
 Using GEDIIS/GDIIS optimizer.
 Internal  Forces:  Max     0.000008059 RMS     0.000008059
 Search for a local minimum.
 Step number   3 out of a maximum of   20
 All quantities printed in internal units (Hartrees-Bohrs-Radians)
 Mixed Optimization -- En-DIIS/RFO-DIIS
 Update second derivatives using D2CorX and points    2    3
 DE= -2.11D-05 DEPred=-2.47D-05 R= 8.54D-01
 TightC=F SS=  1.41D+00  RLast= 2.43D-02 DXNew= 7.6654D-01 7.2957D-02
 Trust test= 8.54D-01 RLast= 2.43D-02 DXMaxT set to 4.56D-01
 The second derivative matrix:
                          R1
           R1           0.07138
 ITU=  1  1
 Use linear search instead of GDIIS.
     Eigenvalues ---    0.07138
 RFO step:  Lambda= 0.00000000D+00 EMin= 7.13844344D-02
 Quartic linear search produced a step of -0.00452.
 Iteration  1 RMS(Cart)=  0.00007771 RMS(Int)=  0.00000000
 Iteration  2 RMS(Cart)=  0.00000000 RMS(Int)=  0.00000000
 ClnCor:  largest displacement from symmetrization is 0.00D+00 for atom     0.
 Variable       Old X    -DE/DX   Delta X   Delta X   Delta X     New X
                                 (Linear)    (Quad)   (Total)
    R1        4.41744   0.00001   0.00011   0.00000   0.00011   4.41755
         Item               Value     Threshold  Converged?
 Maximum Force            0.000008     0.000450     YES
 RMS     Force            0.000008     0.000300     YES
 Maximum Displacement     0.000055     0.001800     YES
 RMS     Displacement     0.000078     0.001200     YES
 Predicted change in Energy=-4.545594D-10
 Optimization completed.
    -- Stationary point found.
                           ----------------------------
                           !   Optimized Parameters   !
                           ! (Angstroms and Degrees)  !
 --------------------------                            --------------------------
 ! Name  Definition              Value          Derivative Info.                !
 --------------------------------------------------------------------------------
 ! R1    R(1,2)                  2.3376         -DE/DX =    0.0                 !
 --------------------------------------------------------------------------------
 GradGradGradGradGradGradGradGradGradGradGradGradGradGradGradGradGradGrad

                          Input orientation:                          
 ---------------------------------------------------------------------
 Center     Atomic      Atomic             Coordinates (Angstroms)
 Number     Number       Type             X           Y           Z
 ---------------------------------------------------------------------
      1          9           0        8.500000    8.500000    7.331195
      2         37           0        8.500000    8.500000    9.668805
 ---------------------------------------------------------------------
 Stoichiometry    FRb
 Framework group  C*V[C*(FRb)]
 Deg. of freedom     1
 Full point group                 C*V     NOp   4
 Largest Abelian subgroup         C2V     NOp   4
 Largest concise Abelian subgroup C1      NOp   1
                         Standard orientation:                         
 ---------------------------------------------------------------------
 Center     Atomic      Atomic             Coordinates (Angstroms)
 Number     Number       Type             X           Y           Z
 ---------------------------------------------------------------------
      1          9           0        0.000000    0.000000   -1.880251
      2         37           0        0.000000    0.000000    0.457358
 ---------------------------------------------------------------------
 Rotational constants (GHZ):           0.0000000           5.9572579           5.9572579

 **********************************************************************

            Population analysis using the SCF Density.

 **********************************************************************

 Orbital symmetries:
       Occupied  (SG) (SG) (SG) (PI) (PI) (SG) (PI) (PI) (SG)
       Virtual   (SG) (PI) (PI) (SG) (DLTA) (DLTA) (SG) (PI) (PI)
                 (SG) (PI) (PI) (SG) (DLTA) (DLTA) (PI) (PI) (SG)
                 (SG) (DLTA) (DLTA) (PI) (PI) (SG) (PHI) (PHI)
                 (DLTA) (DLTA) (PI) (PI) (SG) (PI) (PI) (SG) (SG)
                 (PI) (PI) (DLTA) (DLTA) (SG) (PI) (PI) (SG) (SG)
                 (PI) (PI) (PHI) (PHI) (DLTA) (DLTA) (SG) (PI)
                 (PI) (SG) (DLTA) (DLTA) (PI) (PI) (SG) (PI) (PI)
                 (SG) (PHI) (PHI) (DLTA) (DLTA) (PI) (PI) (SG)
                 (SG) (DLTA) (DLTA) (PHI) (PHI) (PI) (PI) (SG)
                 (DLTA) (DLTA) (PI) (PI) (SG) (PI) (PI) (SG) (PI)
                 (PI) (DLTA) (DLTA) (SG) (PHI) (PHI) (?A) (?A)
                 (SG) (DLTA) (DLTA) (PHI) (PHI) (PI) (PI) (SG)
                 (SG) (DLTA) (DLTA) (PI) (PI) (SG) (SG) (SG) (SG)
 The electronic state is 1-SG.
 Alpha  occ. eigenvalues --  -24.04208  -1.16527  -0.84239  -0.57135  -0.57135
 Alpha  occ. eigenvalues --   -0.55752  -0.16686  -0.16686  -0.16614
 Alpha virt. eigenvalues --   -0.05781  -0.00636  -0.00636   0.00117   0.02013
 Alpha virt. eigenvalues --    0.02013   0.02062   0.02624   0.02624   0.03237
 Alpha virt. eigenvalues --    0.04392   0.04392   0.04925   0.05184   0.05184
 Alpha virt. eigenvalues --    0.07500   0.07500   0.10153   0.14289   0.15460
 Alpha virt. eigenvalues --    0.15460   0.16117   0.16117   0.17992   0.22588
 Alpha virt. eigenvalues --    0.22588   0.22878   0.22878   0.24730   0.24730
 Alpha virt. eigenvalues --    0.25028   0.28579   0.28579   0.36358   0.51952
 Alpha virt. eigenvalues --    0.54841   0.54841   0.68989   0.68990   0.69449
 Alpha virt. eigenvalues --    0.71477   0.71477   0.85959   1.02999   1.12714
 Alpha virt. eigenvalues --    1.12714   1.16795   1.16795   1.17641   1.17641
 Alpha virt. eigenvalues --    1.20476   1.36736   1.36736   1.39768   1.48588
 Alpha virt. eigenvalues --    1.48588   1.59111   1.59111   1.80303   1.85033
 Alpha virt. eigenvalues --    1.85033   2.09218   3.35942   3.35942   3.36278
 Alpha virt. eigenvalues --    3.36281   3.37418   3.37418   3.51380   4.02725
 Alpha virt. eigenvalues --    4.22124   4.22124   4.22536   4.22536   4.25874
 Alpha virt. eigenvalues --    4.25874   4.32558   5.01213   5.01213   5.09360
 Alpha virt. eigenvalues --    5.09360   5.28933   6.25435   6.25435   6.36110
 Alpha virt. eigenvalues --   11.43410  11.43410  11.43420  11.43420  11.43643
 Alpha virt. eigenvalues --   11.43700  11.43700  11.44045  11.44045  13.03550
 Alpha virt. eigenvalues --   14.55758  14.55759  14.55852  14.55852  14.56758
 Alpha virt. eigenvalues --   14.56758  14.60498  14.91302  15.73804  15.73805
 Alpha virt. eigenvalues --   15.78957  15.78957  15.92404  39.27163  53.73658
 Alpha virt. eigenvalues --  284.07144
          Condensed to atoms (all electrons):
               1          2
     1  F    9.586757   0.123364
     2  Rb   0.123364   8.166514
 Mulliken charges:
               1
     1  F   -0.710121
     2  Rb   0.710121
 Sum of Mulliken charges =  -0.00000
 Mulliken charges with hydrogens summed into heavy atoms:
               1
     1  F   -0.710121
     2  Rb   0.710121
 Electronic spatial extent (au):  <R**2>=            173.3271
 Charge=             -0.0000 electrons
 Dipole moment (field-independent basis, Debye):
    X=              0.0000    Y=              0.0000    Z=              8.6298  Tot=              8.6298
 Quadrupole moment (field-independent basis, Debye-Ang):
   XX=            -19.2566   YY=            -19.2566   ZZ=            -32.7465
   XY=              0.0000   XZ=              0.0000   YZ=              0.0000
 Traceless Quadrupole moment (field-independent basis, Debye-Ang):
   XX=              4.4966   YY=              4.4966   ZZ=             -8.9932
   XY=              0.0000   XZ=              0.0000   YZ=              0.0000
 Octapole moment (field-independent basis, Debye-Ang**2):
  XXX=              0.0000  YYY=              0.0000  ZZZ=             43.1285  XYY=              0.0000
  XXY=              0.0000  XXZ=              7.2978  XZZ=              0.0000  YZZ=              0.0000
  YYZ=              7.2978  XYZ=              0.0000
 Hexadecapole moment (field-independent basis, Debye-Ang**3):
 XXXX=            -21.6674 YYYY=            -21.6674 ZZZZ=           -223.4268 XXXY=              0.0000
 XXXZ=              0.0000 YYYX=              0.0000 YYYZ=              0.0000 ZZZX=              0.0000
 ZZZY=              0.0000 XXYY=             -7.2225 XXZZ=            -34.2683 YYZZ=            -34.2683
 XXYZ=              0.0000 YYXZ=              0.0000 ZZXY=              0.0000
 N-N= 1.833640454490D+01 E-N=-3.252325204266D+02  KE= 1.072596030943D+02
 Symmetry A1   KE= 9.170852363676D+01
 Symmetry A2   KE= 6.751489370956D-47
 Symmetry B1   KE= 7.775539728791D+00
 Symmetry B2   KE= 7.775539728791D+00
 Unable to Open any file for archive entry.
 1\1\GINC-TCOPT10\FOpt\RPBEPBE\def2QZVPP\F1Rb1\HUTTER\30-Jul-2021\0\\#N
  RPBEPBE/Def2QZVPP scf=tight Int(Grid=ultrafine) OPT FREQ\\Mol job 1\\
 0,1\F,8.5,8.5,7.331195233\Rb,8.5,8.5,9.668804767\\Version=ES64L-G16Rev
 C.01\State=1-SG\HF=-123.9424049\RMSD=9.299e-10\RMSF=4.653e-06\Dipole=0
 .,0.,3.3952189\Quadrupole=3.3431298,3.3431298,-6.6862597,0.,0.,0.\PG=C
 *V [C*(F1Rb1)]\\@
 The archive entry for this job was punched.


 ANYONE WHO IS NOT SHOCKED BY QUANTUM THEORY HAS
 NOT UNDERSTOOD IT. -- NIELS BOHR(1885-1962)
 Job cpu time:       0 days  0 hours  3 minutes  7.8 seconds.
 Elapsed time:       0 days  0 hours  0 minutes 24.3 seconds.
 File lengths (MBytes):  RWF=     11 Int=      0 D2E=      0 Chk=      2 Scr=      1
 Normal termination of Gaussian 16 at Fri Jul 30 18:26:57 2021.
 Link1:  Proceeding to internal job step number  2.
 ----------------------------------------------------------------------
 #N Geom=AllCheck Guess=TCheck SCRF=Check GenChk RPBEPBE/def2QZVPP Freq
 ----------------------------------------------------------------------
 1/10=4,29=7,30=1,38=1,40=1/1,3;
 2/12=2,40=1/2;
 3/5=45,7=202,11=2,14=-4,25=1,30=1,70=2,71=2,74=1009,75=-5,116=1,140=1/1,2,3;
 4/5=101/1;
 5/5=2,32=2,38=6,98=1/2;
 8/6=4,10=90,11=11/1;
 11/6=1,8=1,9=11,15=111,16=1/1,2,10;
 10/6=1/2;
 6/7=2,8=2,9=2,10=2,28=1/1;
 7/8=1,10=1,25=1/1,2,3,16;
 1/10=4,30=1/3;
 99//99;
 Structure from the checkpoint file:  "/data/hutter/SMG16/PBE/Gau-92555.chk"
 ---------
 Mol job 1
 ---------
 Charge =  0 Multiplicity = 1
 Redundant internal coordinates found in file.  (old form).
 F,0,8.5,8.5,7.331195233
 Rb,0,8.5,8.5,9.668804767
 Recover connectivity data from disk.

 GradGradGradGradGradGradGradGradGradGradGradGradGradGradGradGradGradGrad
 Berny optimization.
 Initialization pass.
                           ----------------------------
                           !    Initial Parameters    !
                           ! (Angstroms and Degrees)  !
 --------------------------                            --------------------------
 ! Name  Definition              Value          Derivative Info.                !
 --------------------------------------------------------------------------------
 ! R1    R(1,2)                  2.3376         calculate D2E/DX2 analytically  !
 --------------------------------------------------------------------------------
 Trust Radius=3.00D-01 FncErr=1.00D-07 GrdErr=1.00D-07 EigMax=2.50D+02 EigMin=1.00D-04
 Number of steps in this run=      2 maximum allowed number of steps=      2.
 GradGradGradGradGradGradGradGradGradGradGradGradGradGradGradGradGradGrad

                          Input orientation:                          
 ---------------------------------------------------------------------
 Center     Atomic      Atomic             Coordinates (Angstroms)
 Number     Number       Type             X           Y           Z
 ---------------------------------------------------------------------
      1          9           0        8.500000    8.500000    7.331195
      2         37           0        8.500000    8.500000    9.668805
 ---------------------------------------------------------------------
 Stoichiometry    FRb
 Framework group  C*V[C*(FRb)]
 Deg. of freedom     1
 Full point group                 C*V     NOp   4
 Largest Abelian subgroup         C2V     NOp   4
 Largest concise Abelian subgroup C1      NOp   1
                         Standard orientation:                         
 ---------------------------------------------------------------------
 Center     Atomic      Atomic             Coordinates (Angstroms)
 Number     Number       Type             X           Y           Z
 ---------------------------------------------------------------------
      1          9           0        0.000000    0.000000   -1.880251
      2         37           0        0.000000    0.000000    0.457358
 ---------------------------------------------------------------------
 Rotational constants (GHZ):           0.0000000           5.9572579           5.9572579
 Standard basis: def2QZVPP (5D, 7F)
 There are    65 symmetry adapted cartesian basis functions of A1  symmetry.
 There are    15 symmetry adapted cartesian basis functions of A2  symmetry.
 There are    34 symmetry adapted cartesian basis functions of B1  symmetry.
 There are    34 symmetry adapted cartesian basis functions of B2  symmetry.
 There are    50 symmetry adapted basis functions of A1  symmetry.
 There are    14 symmetry adapted basis functions of A2  symmetry.
 There are    28 symmetry adapted basis functions of B1  symmetry.
 There are    28 symmetry adapted basis functions of B2  symmetry.
   120 basis functions,   184 primitive gaussians,   148 cartesian basis functions
     9 alpha electrons        9 beta electrons
       nuclear repulsion energy        18.3364045449 Hartrees.
 NAtoms=    2 NActive=    2 NUniq=    2 SFac= 1.00D+00 NAtFMM=   60 NAOKFM=F Big=F
 Integral buffers will be    131072 words long.
 Raffenetti 2 integral format.
 Two-electron integral symmetry is turned on.
 One-electron integrals computed using PRISM.
   4 Symmetry operations used in ECPInt.
 ECPInt:  NShTT=     666 NPrTT=    1478 LenC2=     664 LenP2D=    1409.
 LDataN:  DoStor=T MaxTD1= 8 Len=  415
 NBasis=   120 RedAO= T EigKep=  3.97D-03  NBF=    50    14    28    28
 NBsUse=   120 1.00D-06 EigRej= -1.00D+00 NBFU=    50    14    28    28
 Defaulting to unpruned grid for atomic number  37.
 Initial guess from the checkpoint file:  "/data/hutter/SMG16/PBE/Gau-92555.chk"
 B after Tr=     0.000000    0.000000    0.000000
         Rot=    1.000000    0.000000    0.000000    0.000000 Ang=   0.00 deg.
 Initial guess orbital symmetries:
       Occupied  (SG) (SG) (SG) (PI) (PI) (SG) (PI) (PI) (SG)
       Virtual   (SG) (PI) (PI) (SG) (DLTA) (DLTA) (SG) (PI) (PI)
                 (SG) (PI) (PI) (SG) (DLTA) (DLTA) (PI) (PI) (SG)
                 (SG) (DLTA) (DLTA) (PI) (PI) (SG) (PHI) (PHI)
                 (DLTA) (DLTA) (PI) (PI) (SG) (PI) (PI) (SG) (SG)
                 (PI) (PI) (DLTA) (DLTA) (SG) (PI) (PI) (SG) (SG)
                 (PI) (PI) (PHI) (PHI) (DLTA) (DLTA) (SG) (PI)
                 (PI) (SG) (DLTA) (DLTA) (PI) (PI) (SG) (PI) (PI)
                 (SG) (PHI) (PHI) (DLTA) (DLTA) (PI) (PI) (SG)
                 (SG) (DLTA) (DLTA) (PHI) (PHI) (PI) (PI) (SG)
                 (DLTA) (DLTA) (PI) (PI) (SG) (PI) (PI) (SG) (PI)
                 (PI) (DLTA) (DLTA) (SG) (PHI) (PHI) (?A) (?A)
                 (SG) (DLTA) (DLTA) (PHI) (PHI) (PI) (PI) (SG)
                 (SG) (DLTA) (DLTA) (PI) (PI) (SG) (SG) (SG) (SG)
 Keep J ints in memory in symmetry-blocked form, NReq=35441818.
 Requested convergence on RMS density matrix=1.00D-08 within 128 cycles.
 Requested convergence on MAX density matrix=1.00D-06.
 Requested convergence on             energy=1.00D-06.
 No special actions if energy rises.
 Defaulting to unpruned grid for atomic number  37.
 Defaulting to unpruned grid for atomic number  37.
 Defaulting to unpruned grid for atomic number  37.
 Defaulting to unpruned grid for atomic number  37.
 Defaulting to unpruned grid for atomic number  37.
 Defaulting to unpruned grid for atomic number  37.
 Defaulting to unpruned grid for atomic number  37.
 Defaulting to unpruned grid for atomic number  37.
 SCF Done:  E(RPBE-PBE) =  -123.942404918     A.U. after    1 cycles
            NFock=  1  Conv=0.31D-09     -V/T= 2.1555
 DoSCS=F DFT=T ScalE2(SS,OS)=  1.000000  1.000000
 Range of M.O.s used for correlation:     1   120
 NBasis=   120 NAE=     9 NBE=     9 NFC=     0 NFV=     0
 NROrb=    120 NOA=     9 NOB=     9 NVA=   111 NVB=   111
   4 Symmetry operations used in ECPInt.
 ECPInt:  NShTT=     666 NPrTT=    1478 LenC2=     664 LenP2D=    1409.
 LDataN:  DoStor=T MaxTD1= 9 Len=  602
 Symmetrizing basis deriv contribution to polar:
 IMax=3 JMax=2 DiffMx= 0.00D+00
 G2DrvN: will do     3 centers at a time, making    1 passes.
 Calling FoFCou, ICntrl=  3507 FMM=F I1Cent=   0 AccDes= 0.00D+00.
 Defaulting to unpruned grid for atomic number  37.
 Defaulting to unpruned grid for atomic number  37.
 Defaulting to unpruned grid for atomic number  37.
 Defaulting to unpruned grid for atomic number  37.
 Defaulting to unpruned grid for atomic number  37.
 Defaulting to unpruned grid for atomic number  37.
 Defaulting to unpruned grid for atomic number  37.
 Defaulting to unpruned grid for atomic number  37.
 End of G2Drv F.D. properties file   721 does not exist.
 End of G2Drv F.D. properties file   722 does not exist.
 End of G2Drv F.D. properties file   788 does not exist.
          IDoAtm=11
          Differentiating once with respect to electric field.
                with respect to dipole field.
          Differentiating once with respect to nuclear coordinates.
 Defaulting to unpruned grid for atomic number  37.
 Keep J ints in memory in symmetry-blocked form, NReq=35443160.
 Defaulting to unpruned grid for atomic number  37.
 Defaulting to unpruned grid for atomic number  37.
 Defaulting to unpruned grid for atomic number  37.
 Defaulting to unpruned grid for atomic number  37.
 Defaulting to unpruned grid for atomic number  37.
 Defaulting to unpruned grid for atomic number  37.
 Defaulting to unpruned grid for atomic number  37.
 Defaulting to unpruned grid for atomic number  37.
          There are     9 degrees of freedom in the 1st order CPHF.  IDoFFX=6 NUNeed=     3.
      6 vectors produced by pass  0 Test12= 1.11D-14 1.11D-08 XBig12= 6.73D+01 6.84D+00.
 AX will form     6 AO Fock derivatives at one time.
      6 vectors produced by pass  1 Test12= 1.11D-14 1.11D-08 XBig12= 1.97D+01 1.40D+00.
      6 vectors produced by pass  2 Test12= 1.11D-14 1.11D-08 XBig12= 3.88D-01 2.33D-01.
      6 vectors produced by pass  3 Test12= 1.11D-14 1.11D-08 XBig12= 7.76D-03 2.46D-02.
      6 vectors produced by pass  4 Test12= 1.11D-14 1.11D-08 XBig12= 1.06D-04 3.36D-03.
      4 vectors produced by pass  5 Test12= 1.11D-14 1.11D-08 XBig12= 5.21D-07 2.86D-04.
      4 vectors produced by pass  6 Test12= 1.11D-14 1.11D-08 XBig12= 7.38D-10 8.15D-06.
      1 vectors produced by pass  7 Test12= 1.11D-14 1.11D-08 XBig12= 2.47D-12 4.69D-07.
      1 vectors produced by pass  8 Test12= 1.11D-14 1.11D-08 XBig12= 2.21D-15 1.35D-08.
 InvSVY:  IOpt=1 It=  1 EMax= 4.44D-16
 Solved reduced A of dimension    40 with     6 vectors.
 Isotropic polarizability for W=    0.000000       26.47 Bohr**3.
 End of Minotr F.D. properties file   721 does not exist.
 End of Minotr F.D. properties file   722 does not exist.
 End of Minotr F.D. properties file   788 does not exist.

 **********************************************************************

            Population analysis using the SCF Density.

 **********************************************************************

 Orbital symmetries:
       Occupied  (SG) (SG) (SG) (PI) (PI) (SG) (PI) (PI) (SG)
       Virtual   (SG) (PI) (PI) (SG) (DLTA) (DLTA) (SG) (PI) (PI)
                 (SG) (PI) (PI) (SG) (DLTA) (DLTA) (PI) (PI) (SG)
                 (SG) (DLTA) (DLTA) (PI) (PI) (SG) (PHI) (PHI)
                 (DLTA) (DLTA) (PI) (PI) (SG) (PI) (PI) (SG) (SG)
                 (PI) (PI) (DLTA) (DLTA) (SG) (PI) (PI) (SG) (SG)
                 (PI) (PI) (PHI) (PHI) (DLTA) (DLTA) (SG) (PI)
                 (PI) (SG) (DLTA) (DLTA) (PI) (PI) (SG) (PI) (PI)
                 (SG) (PHI) (PHI) (DLTA) (DLTA) (PI) (PI) (SG)
                 (SG) (DLTA) (DLTA) (PHI) (PHI) (PI) (PI) (SG)
                 (DLTA) (DLTA) (PI) (PI) (SG) (PI) (PI) (SG) (PI)
                 (PI) (DLTA) (DLTA) (SG) (PHI) (PHI) (?A) (?A)
                 (SG) (DLTA) (DLTA) (PHI) (PHI) (PI) (PI) (SG)
                 (SG) (DLTA) (DLTA) (PI) (PI) (SG) (SG) (SG) (SG)
 The electronic state is 1-SG.
 Alpha  occ. eigenvalues --  -24.04208  -1.16527  -0.84239  -0.57135  -0.57135
 Alpha  occ. eigenvalues --   -0.55752  -0.16686  -0.16686  -0.16614
 Alpha virt. eigenvalues --   -0.05781  -0.00636  -0.00636   0.00117   0.02013
 Alpha virt. eigenvalues --    0.02013   0.02062   0.02624   0.02624   0.03237
 Alpha virt. eigenvalues --    0.04392   0.04392   0.04925   0.05184   0.05184
 Alpha virt. eigenvalues --    0.07500   0.07500   0.10153   0.14289   0.15460
 Alpha virt. eigenvalues --    0.15460   0.16117   0.16117   0.17992   0.22588
 Alpha virt. eigenvalues --    0.22588   0.22878   0.22878   0.24730   0.24730
 Alpha virt. eigenvalues --    0.25028   0.28579   0.28579   0.36358   0.51952
 Alpha virt. eigenvalues --    0.54841   0.54841   0.68989   0.68990   0.69449
 Alpha virt. eigenvalues --    0.71477   0.71477   0.85959   1.02999   1.12714
 Alpha virt. eigenvalues --    1.12714   1.16795   1.16795   1.17641   1.17641
 Alpha virt. eigenvalues --    1.20476   1.36736   1.36736   1.39768   1.48588
 Alpha virt. eigenvalues --    1.48588   1.59111   1.59111   1.80303   1.85033
 Alpha virt. eigenvalues --    1.85033   2.09218   3.35942   3.35942   3.36278
 Alpha virt. eigenvalues --    3.36281   3.37418   3.37418   3.51380   4.02725
 Alpha virt. eigenvalues --    4.22124   4.22124   4.22536   4.22536   4.25874
 Alpha virt. eigenvalues --    4.25874   4.32558   5.01213   5.01213   5.09360
 Alpha virt. eigenvalues --    5.09360   5.28933   6.25435   6.25435   6.36110
 Alpha virt. eigenvalues --   11.43410  11.43410  11.43420  11.43420  11.43643
 Alpha virt. eigenvalues --   11.43700  11.43700  11.44045  11.44045  13.03550
 Alpha virt. eigenvalues --   14.55758  14.55759  14.55852  14.55852  14.56758
 Alpha virt. eigenvalues --   14.56758  14.60498  14.91302  15.73804  15.73805
 Alpha virt. eigenvalues --   15.78957  15.78957  15.92404  39.27163  53.73658
 Alpha virt. eigenvalues --  284.07144
          Condensed to atoms (all electrons):
               1          2
     1  F    9.586757   0.123364
     2  Rb   0.123364   8.166514
 Mulliken charges:
               1
     1  F   -0.710121
     2  Rb   0.710121
 Sum of Mulliken charges =  -0.00000
 Mulliken charges with hydrogens summed into heavy atoms:
               1
     1  F   -0.710121
     2  Rb   0.710121
 APT charges:
               1
     1  F   -0.894692
     2  Rb   0.894692
 Sum of APT charges =  -0.00000
 APT charges with hydrogens summed into heavy atoms:
               1
     1  F   -0.894692
     2  Rb   0.894692
 Electronic spatial extent (au):  <R**2>=            173.3271
 Charge=             -0.0000 electrons
 Dipole moment (field-independent basis, Debye):
    X=              0.0000    Y=              0.0000    Z=              8.6298  Tot=              8.6298
 Quadrupole moment (field-independent basis, Debye-Ang):
   XX=            -19.2566   YY=            -19.2566   ZZ=            -32.7465
   XY=              0.0000   XZ=              0.0000   YZ=              0.0000
 Traceless Quadrupole moment (field-independent basis, Debye-Ang):
   XX=              4.4966   YY=              4.4966   ZZ=             -8.9932
   XY=              0.0000   XZ=              0.0000   YZ=              0.0000
 Octapole moment (field-independent basis, Debye-Ang**2):
  XXX=              0.0000  YYY=              0.0000  ZZZ=             43.1285  XYY=              0.0000
  XXY=              0.0000  XXZ=              7.2978  XZZ=              0.0000  YZZ=              0.0000
  YYZ=              7.2978  XYZ=              0.0000
 Hexadecapole moment (field-independent basis, Debye-Ang**3):
 XXXX=            -21.6674 YYYY=            -21.6674 ZZZZ=           -223.4268 XXXY=              0.0000
 XXXZ=              0.0000 YYYX=              0.0000 YYYZ=              0.0000 ZZZX=              0.0000
 ZZZY=              0.0000 XXYY=             -7.2225 XXZZ=            -34.2683 YYZZ=            -34.2683
 XXYZ=              0.0000 YYXZ=              0.0000 ZZXY=              0.0000
 N-N= 1.833640454490D+01 E-N=-3.252325204095D+02  KE= 1.072596030629D+02
 Symmetry A1   KE= 9.170852363055D+01
 Symmetry A2   KE= 6.750831156084D-47
 Symmetry B1   KE= 7.775539716195D+00
 Symmetry B2   KE= 7.775539716195D+00
  Exact polarizability:      20.975       0.000      20.975      -0.000       0.000      37.472
 Approx polarizability:      28.914      -0.000      28.914      -0.000      -0.000      52.630
   4 Symmetry operations used in ECPInt.
 ECPInt:  NShTT=     666 NPrTT=    1478 LenC2=     664 LenP2D=    1409.
 LDataN:  DoStor=T MaxTD1=10 Len=  848
 Calling FoFJK, ICntrl=    100527 FMM=F ISym2X=1 I1Cent= 0 IOpClX= 0 NMat=1 NMatS=1 NMatT=0.
 Defaulting to unpruned grid for atomic number  37.
 Defaulting to unpruned grid for atomic number  37.
 Defaulting to unpruned grid for atomic number  37.
 Defaulting to unpruned grid for atomic number  37.
 Defaulting to unpruned grid for atomic number  37.
 Defaulting to unpruned grid for atomic number  37.
 Defaulting to unpruned grid for atomic number  37.
 Defaulting to unpruned grid for atomic number  37.
 Full mass-weighted force constant matrix:
 Low frequencies ---   -0.0007   -0.0005   -0.0005    4.9543    4.9543  353.3372
 Diagonal vibrational polarizability:
        0.0000000       0.0000000      17.8058891
 Harmonic frequencies (cm**-1), IR intensities (KM/Mole), Raman scattering
 activities (A**4/AMU), depolarization ratios for plane and unpolarized
 incident light, reduced masses (AMU), force constants (mDyne/A),
 and normal coordinates:
                      1
                     SG
 Frequencies --    353.3372
 Red. masses --     22.1408
 Frc consts  --      1.6286
 IR Inten    --     82.6056
  Atom  AN      X      Y      Z
     1   9     0.00   0.00   0.98
     2  37     0.00   0.00  -0.22

 -------------------
 - Thermochemistry -
 -------------------
 Temperature   298.150 Kelvin.  Pressure   1.00000 Atm.
 Atom     1 has atomic number  9 and mass  18.99840
 Atom     2 has atomic number 37 and mass  84.91170
 Molecular mass:   103.91010 amu.
 Principal axes and moments of inertia in atomic units:
                           1         2         3
     Eigenvalues --     0.00000 302.94831 302.94831
           X            0.00000  -0.00000   1.00000
           Y            0.00000   1.00000   0.00000
           Z            1.00000   0.00000   0.00000
 This molecule is a prolate symmetric top.
 Rotational symmetry number  1.
 Rotational temperature (Kelvin)      0.28590
 Rotational constant (GHZ):           5.957258
 Zero-point vibrational energy       2113.4 (Joules/Mol)
                                    0.50512 (Kcal/Mol)
 Warning -- explicit consideration of   1 degrees of freedom as
           vibrations may cause significant error
 Vibrational temperatures:    508.37
          (Kelvin)
 
 Zero-point correction=                           0.000805 (Hartree/Particle)
 Thermal correction to Energy=                    0.003523
 Thermal correction to Enthalpy=                  0.004467
 Thermal correction to Gibbs Free Energy=        -0.022511
 Sum of electronic and zero-point Energies=           -123.941600
 Sum of electronic and thermal Energies=              -123.938882
 Sum of electronic and thermal Enthalpies=            -123.937938
 Sum of electronic and thermal Free Energies=         -123.964916
 
                     E (Thermal)             CV                S
                      KCal/Mol        Cal/Mol-Kelvin    Cal/Mol-Kelvin
 Total                    2.211              6.536             56.781
 Electronic               0.000              0.000              0.000
 Translational            0.889              2.981             39.832
 Rotational               0.592              1.987             15.798
 Vibrational              0.730              1.568              1.151
 Vibration     1          0.730              1.568              1.151
                       Q            Log10(Q)             Ln(Q)
 Total Bot       0.226213D+11         10.354517         23.842156
 Total V=0       0.530607D+11         10.724773         24.694703
 Vib (Bot)       0.521028D+00         -0.283139         -0.651952
 Vib (Bot)    1  0.521028D+00         -0.283139         -0.651952
 Vib (V=0)       0.122213D+01          0.087117          0.200594
 Vib (V=0)    1  0.122213D+01          0.087117          0.200594
 Electronic      0.100000D+01          0.000000          0.000000
 Translational   0.416333D+08          7.619441         17.544410
 Rotational      0.104284D+04          3.018216          6.949698
 ***** Axes restored to original set *****
 -------------------------------------------------------------------
 Center     Atomic                   Forces (Hartrees/Bohr)
 Number     Number              X              Y              Z
 -------------------------------------------------------------------
      1        9          -0.000000000   -0.000000000   -0.000008061
      2       37          -0.000000000   -0.000000000    0.000008061
 -------------------------------------------------------------------
 Cartesian Forces:  Max     0.000008061 RMS     0.000004654
 FormGI is forming the generalized inverse of G from B-inverse, IUseBI=4.

 GradGradGradGradGradGradGradGradGradGradGradGradGradGradGradGradGradGrad
 Berny optimization.
 Internal  Forces:  Max     0.000008061 RMS     0.000008061
 Search for a local minimum.
 Step number   1 out of a maximum of    2
 All quantities printed in internal units (Hartrees-Bohrs-Radians)
 Second derivative matrix not updated -- analytic derivatives used.
 The second derivative matrix:
                          R1
           R1           0.07335
 ITU=  0
     Eigenvalues ---    0.07335
 Angle between quadratic step and forces=   0.00 degrees.
 Linear search not attempted -- first point.
 Iteration  1 RMS(Cart)=  0.00007771 RMS(Int)=  0.00000000
 Iteration  2 RMS(Cart)=  0.00000000 RMS(Int)=  0.00000000
 ClnCor:  largest displacement from symmetrization is 0.00D+00 for atom     0.
 Variable       Old X    -DE/DX   Delta X   Delta X   Delta X     New X
                                 (Linear)    (Quad)   (Total)
    R1        4.41744   0.00001   0.00000   0.00011   0.00011   4.41755
         Item               Value     Threshold  Converged?
 Maximum Force            0.000008     0.000450     YES
 RMS     Force            0.000008     0.000300     YES
 Maximum Displacement     0.000055     0.001800     YES
 RMS     Displacement     0.000078     0.001200     YES
 Predicted change in Energy=-4.429382D-10
 Optimization completed.
    -- Stationary point found.
                           ----------------------------
                           !   Optimized Parameters   !
                           ! (Angstroms and Degrees)  !
 --------------------------                            --------------------------
 ! Name  Definition              Value          Derivative Info.                !
 --------------------------------------------------------------------------------
 ! R1    R(1,2)                  2.3376         -DE/DX =    0.0                 !
 --------------------------------------------------------------------------------
 GradGradGradGradGradGradGradGradGradGradGradGradGradGradGradGradGradGrad


 ----------------------------------------------------------------------

 Electric dipole moment (input orientation):
 (Debye = 10**-18 statcoulomb cm , SI units = C m)
                  (au)            (Debye)         (10**-30 SI)
   Tot        0.339522D+01      0.862979D+01      0.287859D+02
   x          0.000000D+00      0.000000D+00      0.000000D+00
   y          0.000000D+00      0.000000D+00      0.000000D+00
   z          0.339522D+01      0.862979D+01      0.287859D+02

 Dipole polarizability, Alpha (input orientation).
 (esu units = cm**3 , SI units = C**2 m**2 J**-1)
 Alpha(0;0):
               (au)            (10**-24 esu)      (10**-40 SI)
   iso        0.264741D+02      0.392305D+01      0.436498D+01
   aniso      0.164969D+02      0.244458D+01      0.271997D+01
   xx         0.209751D+02      0.310819D+01      0.345833D+01
   yx         0.000000D+00      0.000000D+00      0.000000D+00
   yy         0.209751D+02      0.310819D+01      0.345833D+01
   zx         0.000000D+00      0.000000D+00      0.000000D+00
   zy         0.000000D+00      0.000000D+00      0.000000D+00
   zz         0.374720D+02      0.555277D+01      0.617829D+01

 ----------------------------------------------------------------------

 Dipole orientation:
     9         16.06267206         16.06267206         13.85395116
    37         16.06267206         16.06267206         18.27139296

 Electric dipole moment (dipole orientation):
 (Debye = 10**-18 statcoulomb cm , SI units = C m)
                  (au)            (Debye)         (10**-30 SI)
   Tot        0.339522D+01      0.862979D+01      0.287859D+02
   x          0.000000D+00      0.000000D+00      0.000000D+00
   y          0.000000D+00      0.000000D+00      0.000000D+00
   z          0.339522D+01      0.862979D+01      0.287859D+02

 Dipole polarizability, Alpha (dipole orientation).
 (esu units = cm**3 , SI units = C**2 m**2 J**-1)
 Alpha(0;0):
               (au)            (10**-24 esu)      (10**-40 SI)
   iso        0.264741D+02      0.392305D+01      0.436498D+01
   aniso      0.164969D+02      0.244458D+01      0.271997D+01
   xx         0.209751D+02      0.310819D+01      0.345833D+01
   yx         0.000000D+00      0.000000D+00      0.000000D+00
   yy         0.209751D+02      0.310819D+01      0.345833D+01
   zx         0.000000D+00      0.000000D+00      0.000000D+00
   zy         0.000000D+00      0.000000D+00      0.000000D+00
   zz         0.374720D+02      0.555277D+01      0.617829D+01

 ----------------------------------------------------------------------
 Unable to Open any file for archive entry.
 1\1\GINC-TCOPT10\Freq\RPBEPBE\def2QZVPP\F1Rb1\HUTTER\30-Jul-2021\0\\#N
  Geom=AllCheck Guess=TCheck SCRF=Check GenChk RPBEPBE/def2QZVPP Freq\\
 Mol job 1\\0,1\F,8.5,8.5,7.331195233\Rb,8.5,8.5,9.668804767\\Version=E
 S64L-G16RevC.01\State=1-SG\HF=-123.9424049\RMSD=3.083e-10\RMSF=4.654e-
 06\Thermal=0.003523\ETot=-123.9388819\HTot=-123.9379377\GTot=-123.9649
 163\Dipole=0.,0.,3.395219\DipoleDeriv=-0.7685653,0.,0.,0.,-0.7685653,0
 .,0.,0.,-1.1469446,0.7685653,0.,0.,0.,0.7685653,0.,0.,0.,1.1469446\Pol
 ar=20.9750997,0.,20.9750997,0.,0.,37.471967\Quadrupole=3.3431299,3.343
 1299,-6.6862597,0.,0.,0.\PG=C*V [C*(F1Rb1)]\NImag=0\\0.00001442,0.,0.0
 0001442,0.,0.,0.07334948,-0.00001442,0.,0.,0.00001442,0.,-0.00001442,0
 .,0.,0.00001442,0.,0.,-0.07334948,0.,0.,0.07334948\\0.,0.,0.00000806,0
 .,0.,-0.00000806\\\@
 The archive entry for this job was punched.


 YE HAVE SOWN MUCH, AND BRING IN LITTLE.
 YE EAT, BUT YE HAVE NOT ENOUGH.
 YE DRINK, BUT YE ARE NOT FILLED WITH DRINK.
 YE CLOTHE YOU, BUT THERE IS NONE WARM.
 AND HE THAT EARNETH WAGES EARNETH WAGES TO PUT
 IT INTO A BAG WITH HOLES.
                                     HAGGAI I,6
 Job cpu time:       0 days  0 hours  3 minutes 38.3 seconds.
 Elapsed time:       0 days  0 hours  0 minutes 27.7 seconds.
 File lengths (MBytes):  RWF=     11 Int=      0 D2E=      0 Chk=      2 Scr=      1
 Normal termination of Gaussian 16 at Fri Jul 30 18:27:25 2021.
