 Entering Gaussian System, Link 0=g16
 Initial command:
 /sw-ng/spack/opt/spack/linux-opensuse_leap15-sandybridge/pgi-18.10/gaussian-src-16-C.01-zldqaomctopxhethwccpmxmwefdscg3m/g16/l1.exe "/data/hutter/SMG16/PBE/Gau-91615.inp" -scrdir="/data/hutter/SMG16/PBE/"
 Entering Link 1 = /sw-ng/spack/opt/spack/linux-opensuse_leap15-sandybridge/pgi-18.10/gaussian-src-16-C.01-zldqaomctopxhethwccpmxmwefdscg3m/g16/l1.exe PID=     91625.
  
 Copyright (c) 1988-2019, Gaussian, Inc.  All Rights Reserved.
  
 This is part of the Gaussian(R) 16 program.  It is based on
 the Gaussian(R) 09 system (copyright 2009, Gaussian, Inc.),
 the Gaussian(R) 03 system (copyright 2003, Gaussian, Inc.),
 the Gaussian(R) 98 system (copyright 1998, Gaussian, Inc.),
 the Gaussian(R) 94 system (copyright 1995, Gaussian, Inc.),
 the Gaussian 92(TM) system (copyright 1992, Gaussian, Inc.),
 the Gaussian 90(TM) system (copyright 1990, Gaussian, Inc.),
 the Gaussian 88(TM) system (copyright 1988, Gaussian, Inc.),
 the Gaussian 86(TM) system (copyright 1986, Carnegie Mellon
 University), and the Gaussian 82(TM) system (copyright 1983,
 Carnegie Mellon University). Gaussian is a federally registered
 trademark of Gaussian, Inc.
  
 This software contains proprietary and confidential information,
 including trade secrets, belonging to Gaussian, Inc.
  
 This software is provided under written license and may be
 used, copied, transmitted, or stored only in accord with that
 written license.
  
 The following legend is applicable only to US Government
 contracts under FAR:
  
                    RESTRICTED RIGHTS LEGEND
  
 Use, reproduction and disclosure by the US Government is
 subject to restrictions as set forth in subparagraphs (a)
 and (c) of the Commercial Computer Software - Restricted
 Rights clause in FAR 52.227-19.
  
 Gaussian, Inc.
 340 Quinnipiac St., Bldg. 40, Wallingford CT 06492
  
  
 ---------------------------------------------------------------
 Warning -- This program may not be used in any manner that
 competes with the business of Gaussian, Inc. or will provide
 assistance to any competitor of Gaussian, Inc.  The licensee
 of this program is prohibited from giving any competitor of
 Gaussian, Inc. access to this program.  By using this program,
 the user acknowledges that Gaussian, Inc. is engaged in the
 business of creating and licensing software in the field of
 computational chemistry and represents and warrants to the
 licensee that it is not a competitor of Gaussian, Inc. and that
 it will not use this program in any manner prohibited above.
 ---------------------------------------------------------------
  

 Cite this work as:
 Gaussian 16, Revision C.01,
 M. J. Frisch, G. W. Trucks, H. B. Schlegel, G. E. Scuseria, 
 M. A. Robb, J. R. Cheeseman, G. Scalmani, V. Barone, 
 G. A. Petersson, H. Nakatsuji, X. Li, M. Caricato, A. V. Marenich, 
 J. Bloino, B. G. Janesko, R. Gomperts, B. Mennucci, H. P. Hratchian, 
 J. V. Ortiz, A. F. Izmaylov, J. L. Sonnenberg, D. Williams-Young, 
 F. Ding, F. Lipparini, F. Egidi, J. Goings, B. Peng, A. Petrone, 
 T. Henderson, D. Ranasinghe, V. G. Zakrzewski, J. Gao, N. Rega, 
 G. Zheng, W. Liang, M. Hada, M. Ehara, K. Toyota, R. Fukuda, 
 J. Hasegawa, M. Ishida, T. Nakajima, Y. Honda, O. Kitao, H. Nakai, 
 T. Vreven, K. Throssell, J. A. Montgomery, Jr., J. E. Peralta, 
 F. Ogliaro, M. J. Bearpark, J. J. Heyd, E. N. Brothers, K. N. Kudin, 
 V. N. Staroverov, T. A. Keith, R. Kobayashi, J. Normand, 
 K. Raghavachari, A. P. Rendell, J. C. Burant, S. S. Iyengar, 
 J. Tomasi, M. Cossi, J. M. Millam, M. Klene, C. Adamo, R. Cammi, 
 J. W. Ochterski, R. L. Martin, K. Morokuma, O. Farkas, 
 J. B. Foresman, and D. J. Fox, Gaussian, Inc., Wallingford CT, 2019.
 
 ******************************************
 Gaussian 16:  ES64L-G16RevC.01  3-Jul-2019
                30-Jul-2021 
 ******************************************
 %mem=8GB
 %NProcShare=8
 Will use up to    8 processors via shared memory.
 -----------------------------------------------------------
 #N RPBEPBE/Def2QZVPP scf=tight Int(Grid=ultrafine) OPT FREQ
 -----------------------------------------------------------
 1/18=20,19=15,26=4,38=1/1,3;
 2/9=110,12=2,17=6,18=5,40=1/2;
 3/5=45,7=202,11=2,25=1,30=1,71=1,74=1009,75=-5,116=1/1,2,3;
 4//1;
 5/5=2,32=2,38=5/2;
 6/7=2,8=2,9=2,10=2,28=1/1;
 7//1,2,3,16;
 1/18=20,19=15,26=4/3(2);
 2/9=110/2;
 99//99;
 2/9=110/2;
 3/5=45,7=202,11=2,25=1,30=1,71=1,74=1009,75=-5,116=1/1,2,3;
 4/5=5,16=3,69=1/1;
 5/5=2,32=2,38=5/2;
 7//1,2,3,16;
 1/18=20,19=15,26=4/3(-5);
 2/9=110/2;
 6/7=2,8=2,9=2,10=2,19=2,28=1/1;
 99/9=1/99;
 ---------
 Mol job 1
 ---------
 Symbolic Z-matrix:
 Charge =  0 Multiplicity = 1
 Cl                    8.        8.        9.02958 
 Cl                    8.        8.        6.97042 
 

 GradGradGradGradGradGradGradGradGradGradGradGradGradGradGradGradGradGrad
 Berny optimization.
 Initialization pass.
                           ----------------------------
                           !    Initial Parameters    !
                           ! (Angstroms and Degrees)  !
 --------------------------                            --------------------------
 ! Name  Definition              Value          Derivative Info.                !
 --------------------------------------------------------------------------------
 ! R1    R(1,2)                  2.0592         estimate D2E/DX2                !
 --------------------------------------------------------------------------------
 Trust Radius=3.00D-01 FncErr=1.00D-07 GrdErr=1.00D-06 EigMax=2.50D+02 EigMin=1.00D-04
 Number of steps in this run=     20 maximum allowed number of steps=    100.
 GradGradGradGradGradGradGradGradGradGradGradGradGradGradGradGradGradGrad

                          Input orientation:                          
 ---------------------------------------------------------------------
 Center     Atomic      Atomic             Coordinates (Angstroms)
 Number     Number       Type             X           Y           Z
 ---------------------------------------------------------------------
      1         17           0        8.000000    8.000000    9.029583
      2         17           0        8.000000    8.000000    6.970417
 ---------------------------------------------------------------------
 Stoichiometry    Cl2
 Framework group  D*H[C*(Cl.Cl)]
 Deg. of freedom     1
 Full point group                 D*H     NOp   8
 Largest Abelian subgroup         D2H     NOp   8
 Largest concise Abelian subgroup C2      NOp   2
                         Standard orientation:                         
 ---------------------------------------------------------------------
 Center     Atomic      Atomic             Coordinates (Angstroms)
 Number     Number       Type             X           Y           Z
 ---------------------------------------------------------------------
      1         17           0        0.000000    0.000000    1.029583
      2         17           0        0.000000    0.000000   -1.029583
 ---------------------------------------------------------------------
 Rotational constants (GHZ):           0.0000000           6.8168428           6.8168428
 Standard basis: def2QZVPP (5D, 7F)
 There are    39 symmetry adapted cartesian basis functions of AG  symmetry.
 There are     9 symmetry adapted cartesian basis functions of B1G symmetry.
 There are    19 symmetry adapted cartesian basis functions of B2G symmetry.
 There are    19 symmetry adapted cartesian basis functions of B3G symmetry.
 There are     9 symmetry adapted cartesian basis functions of AU  symmetry.
 There are    39 symmetry adapted cartesian basis functions of B1U symmetry.
 There are    19 symmetry adapted cartesian basis functions of B2U symmetry.
 There are    19 symmetry adapted cartesian basis functions of B3U symmetry.
 There are    30 symmetry adapted basis functions of AG  symmetry.
 There are     8 symmetry adapted basis functions of B1G symmetry.
 There are    16 symmetry adapted basis functions of B2G symmetry.
 There are    16 symmetry adapted basis functions of B3G symmetry.
 There are     8 symmetry adapted basis functions of AU  symmetry.
 There are    30 symmetry adapted basis functions of B1U symmetry.
 There are    16 symmetry adapted basis functions of B2U symmetry.
 There are    16 symmetry adapted basis functions of B3U symmetry.
   140 basis functions,   242 primitive gaussians,   172 cartesian basis functions
    17 alpha electrons       17 beta electrons
       nuclear repulsion energy        74.2690228152 Hartrees.
 NAtoms=    2 NActive=    2 NUniq=    1 SFac= 4.00D+00 NAtFMM=   60 NAOKFM=F Big=F
 Integral buffers will be    131072 words long.
 Raffenetti 2 integral format.
 Two-electron integral symmetry is turned on.
 One-electron integrals computed using PRISM.
   8 Symmetry operations used in ECPInt.
 ECPInt:  NShTT=     990 NPrTT=    3557 LenC2=     959 LenP2D=    2913.
 LDataN:  DoStor=T MaxTD1= 8 Len=  415
 NBasis=   140 RedAO= T EigKep=  7.26D-04  NBF=    30     8    16    16     8    30    16    16
 NBsUse=   140 1.00D-06 EigRej= -1.00D+00 NBFU=    30     8    16    16     8    30    16    16
 ExpMin= 9.32D-02 ExpMax= 1.47D+06 ExpMxC= 1.67D+03 IAcc=3 IRadAn=         5 AccDes= 0.00D+00
 Harris functional with IExCor= 1009 and IRadAn=       5 diagonalized for initial guess.
 HarFok:  IExCor= 1009 AccDes= 0.00D+00 IRadAn=         5 IDoV= 1 UseB2=F ITyADJ=14
 ICtDFT=  3500011 ScaDFX=  1.000000  1.000000  1.000000  1.000000
 FoFCou: FMM=F IPFlag=           0 FMFlag=      100000 FMFlg1=           0
         NFxFlg=           0 DoJE=T BraDBF=F KetDBF=T FulRan=T
         wScrn=  0.000000 ICntrl=       500 IOpCl=  0 I1Cent=   200000004 NGrid=           0
         NMat0=    1 NMatS0=      1 NMatT0=    0 NMatD0=    1 NMtDS0=    0 NMtDT0=    0
 Petite list used in FoFCou.
 Initial guess orbital symmetries:
       Occupied  (SGU) (SGG) (SGG) (SGU) (SGG) (SGU) (PIU) (PIU)
                 (PIG) (PIG) (SGG) (SGU) (SGG) (PIU) (PIU) (PIG)
                 (PIG)
       Virtual   (SGU) (SGU) (SGG) (PIU) (PIU) (SGG) (PIG) (PIG)
                 (PIU) (PIU) (DLTG) (DLTG) (DLTU) (DLTU) (SGU)
                 (SGG) (PIG) (PIG) (SGU) (PIU) (PIU) (SGG) (PIU)
                 (PIU) (DLTG) (DLTG) (PIG) (PIG) (DLTU) (DLTU)
                 (SGG) (DLTG) (DLTG) (SGU) (PIG) (PIG) (PHIU) (PHIU)
                 (PHIG) (PHIG) (SGU) (PIU) (PIU) (DLTU) (DLTU)
                 (SGG) (SGU) (SGG) (PIG) (PIG) (SGU) (PIU) (PIU)
                 (SGG) (DLTG) (DLTG) (DLTU) (DLTU) (PIG) (PIG)
                 (DLTG) (DLTG) (SGG) (PIU) (PIU) (PHIU) (PHIU)
                 (SGU) (?A) (?A) (?B) (?B) (PHIG) (PHIG) (DLTU)
                 (DLTU) (PIU) (PIU) (SGU) (PIG) (PIG) (SGG) (PHIU)
                 (PHIU) (DLTG) (DLTG) (PHIG) (PHIG) (PIG) (PIG)
                 (PIU) (PIU) (DLTU) (DLTU) (SGU) (PIG) (PIG) (SGG)
                 (SGU) (SGG) (SGU) (DLTG) (DLTG) (PIU) (PIU) (DLTU)
                 (DLTU) (SGG) (PIG) (PIG) (SGU) (SGG) (SGU) (PIU)
                 (PIU) (PIG) (PIG) (SGG) (SGU) (SGG) (SGU) (SGG)
                 (SGU)
 The electronic state of the initial guess is 1-SGG.
 Keep J ints in memory in symmetry-blocked form, NReq=57846159.
 Requested convergence on RMS density matrix=1.00D-08 within 128 cycles.
 Requested convergence on MAX density matrix=1.00D-06.
 Requested convergence on             energy=1.00D-06.
 No special actions if energy rises.
 Integral accuracy reduced to 1.0D-05 until final iterations.
 Initial convergence to 1.0D-05 achieved.  Increase integral accuracy.
 SCF Done:  E(RPBE-PBE) =  -920.050231623     A.U. after    9 cycles
            NFock=  9  Conv=0.99D-08     -V/T= 2.0016

 **********************************************************************

            Population analysis using the SCF Density.

 **********************************************************************

 Orbital symmetries:
       Occupied  (SGU) (SGG) (SGG) (SGU) (SGG) (SGU) (PIU) (PIU)
                 (PIG) (PIG) (SGG) (SGU) (SGG) (PIU) (PIU) (PIG)
                 (PIG)
       Virtual   (SGU) (SGU) (SGG) (PIU) (PIU) (SGG) (PIU) (PIU)
                 (PIG) (PIG) (DLTG) (DLTG) (DLTU) (DLTU) (SGU)
                 (SGG) (PIG) (PIG) (SGU) (SGG) (PIU) (PIU) (PIU)
                 (PIU) (DLTG) (DLTG) (PIG) (PIG) (SGG) (DLTU) (DLTU)
                 (DLTG) (DLTG) (SGU) (PIG) (PIG) (PHIU) (PHIU)
                 (SGU) (PHIG) (PHIG) (PIU) (PIU) (DLTU) (DLTU)
                 (SGG) (SGU) (SGG) (PIG) (PIG) (SGU) (PIU) (PIU)
                 (SGG) (DLTG) (DLTG) (DLTU) (DLTU) (PIG) (PIG)
                 (DLTG) (DLTG) (SGG) (PIU) (PIU) (PHIU) (PHIU)
                 (SGU) (?A) (?A) (?B) (?B) (PHIG) (PHIG) (DLTU)
                 (DLTU) (SGU) (PIU) (PIU) (PIG) (PIG) (SGG) (DLTG)
                 (DLTG) (PHIU) (PHIU) (PHIG) (PHIG) (PIG) (PIG)
                 (PIU) (PIU) (DLTU) (DLTU) (SGU) (PIG) (PIG) (SGG)
                 (SGU) (SGG) (SGU) (PIU) (PIU) (DLTG) (DLTG) (DLTU)
                 (DLTU) (SGG) (PIG) (PIG) (SGU) (SGG) (SGU) (PIU)
                 (PIU) (PIG) (PIG) (SGG) (SGU) (SGG) (SGU) (SGG)
                 (SGU)
 The electronic state is 1-SGG.
 Alpha  occ. eigenvalues -- -100.72513-100.72513  -9.23162  -9.23161  -7.06015
 Alpha  occ. eigenvalues --   -7.06007  -7.04348  -7.04348  -7.04348  -7.04348
 Alpha  occ. eigenvalues --   -0.84587  -0.70920  -0.43525  -0.35945  -0.35945
 Alpha  occ. eigenvalues --   -0.27329  -0.27329
 Alpha virt. eigenvalues --   -0.17545   0.11707   0.12205   0.14728   0.14728
 Alpha virt. eigenvalues --    0.17416   0.18625   0.18625   0.19441   0.19441
 Alpha virt. eigenvalues --    0.21843   0.21843   0.31782   0.31782   0.36697
 Alpha virt. eigenvalues --    0.39666   0.46517   0.46517   0.63393   0.96205
 Alpha virt. eigenvalues --    0.97572   0.97572   1.00064   1.00064   1.02213
 Alpha virt. eigenvalues --    1.02213   1.05265   1.05265   1.07315   1.08447
 Alpha virt. eigenvalues --    1.08447   1.09659   1.09659   1.10286   1.15959
 Alpha virt. eigenvalues --    1.15959   1.18865   1.18865   1.28433   1.28854
 Alpha virt. eigenvalues --    1.28854   1.29602   1.29602   1.49981   1.49981
 Alpha virt. eigenvalues --    1.69589   1.73379   1.90734   1.93670   1.93670
 Alpha virt. eigenvalues --    2.56384   2.89012   2.89012   2.96987   3.02726
 Alpha virt. eigenvalues --    3.02728   3.10942   3.10945   3.20002   3.20002
 Alpha virt. eigenvalues --    3.24547   3.24549   3.29466   3.31285   3.31285
 Alpha virt. eigenvalues --    3.36712   3.36712   3.41127   3.45894   3.45900
 Alpha virt. eigenvalues --    3.47690   3.47695   3.53065   3.53065   3.66183
 Alpha virt. eigenvalues --    3.66183   3.70379   3.71580   3.71580   3.73283
 Alpha virt. eigenvalues --    3.73283   3.73286   3.74480   3.74480   3.75107
 Alpha virt. eigenvalues --    3.75107   3.81588   3.81588   3.88839   3.88839
 Alpha virt. eigenvalues --    4.03452   4.03452   4.07732   4.07733   4.24230
 Alpha virt. eigenvalues --    4.70954   4.70954   4.88358   5.12379   7.86185
 Alpha virt. eigenvalues --    8.49954  10.36636  10.36636  10.37599  10.37600
 Alpha virt. eigenvalues --   10.42331  10.42332  10.46538  10.55356  10.55356
 Alpha virt. eigenvalues --   11.10908  27.99798  28.57180  41.27804  41.27804
 Alpha virt. eigenvalues --   41.28288  41.28288  41.30337  41.30578  97.30698
 Alpha virt. eigenvalues --   97.83779 523.42411 524.31639
          Condensed to atoms (all electrons):
               1          2
     1  Cl  16.863109   0.136891
     2  Cl   0.136891  16.863109
 Mulliken charges:
               1
     1  Cl   0.000000
     2  Cl   0.000000
 Sum of Mulliken charges =   0.00000
 Mulliken charges with hydrogens summed into heavy atoms:
               1
     1  Cl   0.000000
     2  Cl   0.000000
 Electronic spatial extent (au):  <R**2>=            182.9117
 Charge=             -0.0000 electrons
 Dipole moment (field-independent basis, Debye):
    X=              0.0000    Y=              0.0000    Z=              0.0000  Tot=              0.0000
 Quadrupole moment (field-independent basis, Debye-Ang):
   XX=            -25.4547   YY=            -25.4547   ZZ=            -21.9989
   XY=             -0.0000   XZ=              0.0000   YZ=              0.0000
 Traceless Quadrupole moment (field-independent basis, Debye-Ang):
   XX=             -1.1519   YY=             -1.1519   ZZ=              2.3039
   XY=             -0.0000   XZ=              0.0000   YZ=              0.0000
 Octapole moment (field-independent basis, Debye-Ang**2):
  XXX=              0.0000  YYY=              0.0000  ZZZ=              0.0000  XYY=              0.0000
  XXY=              0.0000  XXZ=             -0.0000  XZZ=              0.0000  YZZ=              0.0000
  YYZ=              0.0000  XYZ=              0.0000
 Hexadecapole moment (field-independent basis, Debye-Ang**3):
 XXXX=            -29.0604 YYYY=            -29.0604 ZZZZ=           -159.7308 XXXY=             -0.0000
 XXXZ=              0.0000 YYYX=             -0.0000 YYYZ=              0.0000 ZZZX=              0.0000
 ZZZY=              0.0000 XXYY=             -9.6868 XXZZ=            -36.2437 YYZZ=            -36.2437
 XXYZ=              0.0000 YYXZ=              0.0000 ZZXY=             -0.0000
 N-N= 7.426902281518D+01 E-N=-2.336708576159D+03  KE= 9.186221075415D+02
 Symmetry AG   KE= 3.691236187637D+02
 Symmetry B1G  KE= 4.472616692589D-34
 Symmetry B2G  KE= 4.651315179705D+01
 Symmetry B3G  KE= 4.651315179705D+01
 Symmetry AU   KE= 2.137675879344D-33
 Symmetry B1U  KE= 3.651698051022D+02
 Symmetry B2U  KE= 4.565119004078D+01
 Symmetry B3U  KE= 4.565119004078D+01
   8 Symmetry operations used in ECPInt.
 ECPInt:  NShTT=     990 NPrTT=    3557 LenC2=     959 LenP2D=    2913.
 LDataN:  DoStor=T MaxTD1= 9 Len=  602
 Calling FoFJK, ICntrl=      2527 FMM=F ISym2X=1 I1Cent= 0 IOpClX= 0 NMat=1 NMatS=1 NMatT=0.
 ***** Axes restored to original set *****
 -------------------------------------------------------------------
 Center     Atomic                   Forces (Hartrees/Bohr)
 Number     Number              X              Y              Z
 -------------------------------------------------------------------
      1       17          -0.000000000   -0.000000000   -0.017537112
      2       17           0.000000000    0.000000000    0.017537112
 -------------------------------------------------------------------
 Cartesian Forces:  Max     0.017537112 RMS     0.010125056

 GradGradGradGradGradGradGradGradGradGradGradGradGradGradGradGradGradGrad
 Berny optimization.
 FormGI is forming the generalized inverse of G from B-inverse, IUseBI=4.
 Internal  Forces:  Max     0.017537112 RMS     0.017537112
 Search for a local minimum.
 Step number   1 out of a maximum of   20
 All quantities printed in internal units (Hartrees-Bohrs-Radians)
 Mixed Optimization -- RFO/linear search
 Second derivative matrix not updated -- first step.
 The second derivative matrix:
                          R1
           R1           0.28609
 ITU=  0
     Eigenvalues ---    0.28609
 RFO step:  Lambda=-1.07099970D-03 EMin= 2.86090890D-01
 Linear search not attempted -- first point.
 Iteration  1 RMS(Cart)=  0.04318334 RMS(Int)=  0.00000000
 Iteration  2 RMS(Cart)=  0.00000000 RMS(Int)=  0.00000000
 ClnCor:  largest displacement from symmetrization is 0.00D+00 for atom     0.
 Variable       Old X    -DE/DX   Delta X   Delta X   Delta X     New X
                                 (Linear)    (Quad)   (Total)
    R1        3.89126  -0.01754   0.00000  -0.06107  -0.06107   3.83019
         Item               Value     Threshold  Converged?
 Maximum Force            0.017537     0.000450     NO 
 RMS     Force            0.017537     0.000300     NO 
 Maximum Displacement     0.030535     0.001800     NO 
 RMS     Displacement     0.043183     0.001200     NO 
 Predicted change in Energy=-5.374971D-04
 GradGradGradGradGradGradGradGradGradGradGradGradGradGradGradGradGradGrad

                          Input orientation:                          
 ---------------------------------------------------------------------
 Center     Atomic      Atomic             Coordinates (Angstroms)
 Number     Number       Type             X           Y           Z
 ---------------------------------------------------------------------
      1         17           0        8.000000    8.000000    9.013424
      2         17           0        8.000000    8.000000    6.986576
 ---------------------------------------------------------------------
 Stoichiometry    Cl2
 Framework group  D*H[C*(Cl.Cl)]
 Deg. of freedom     1
 Full point group                 D*H     NOp   8
 Largest Abelian subgroup         D2H     NOp   8
 Largest concise Abelian subgroup C2      NOp   2
                         Standard orientation:                         
 ---------------------------------------------------------------------
 Center     Atomic      Atomic             Coordinates (Angstroms)
 Number     Number       Type             X           Y           Z
 ---------------------------------------------------------------------
      1         17           0        0.000000    0.000000    1.013424
      2         17           0        0.000000    0.000000   -1.013424
 ---------------------------------------------------------------------
 Rotational constants (GHZ):           0.0000000           7.0359582           7.0359582
 Standard basis: def2QZVPP (5D, 7F)
 There are    39 symmetry adapted cartesian basis functions of AG  symmetry.
 There are     9 symmetry adapted cartesian basis functions of B1G symmetry.
 There are    19 symmetry adapted cartesian basis functions of B2G symmetry.
 There are    19 symmetry adapted cartesian basis functions of B3G symmetry.
 There are     9 symmetry adapted cartesian basis functions of AU  symmetry.
 There are    39 symmetry adapted cartesian basis functions of B1U symmetry.
 There are    19 symmetry adapted cartesian basis functions of B2U symmetry.
 There are    19 symmetry adapted cartesian basis functions of B3U symmetry.
 There are    30 symmetry adapted basis functions of AG  symmetry.
 There are     8 symmetry adapted basis functions of B1G symmetry.
 There are    16 symmetry adapted basis functions of B2G symmetry.
 There are    16 symmetry adapted basis functions of B3G symmetry.
 There are     8 symmetry adapted basis functions of AU  symmetry.
 There are    30 symmetry adapted basis functions of B1U symmetry.
 There are    16 symmetry adapted basis functions of B2U symmetry.
 There are    16 symmetry adapted basis functions of B3U symmetry.
   140 basis functions,   242 primitive gaussians,   172 cartesian basis functions
    17 alpha electrons       17 beta electrons
       nuclear repulsion energy        75.4532058592 Hartrees.
 NAtoms=    2 NActive=    2 NUniq=    1 SFac= 4.00D+00 NAtFMM=   60 NAOKFM=F Big=F
 Integral buffers will be    131072 words long.
 Raffenetti 2 integral format.
 Two-electron integral symmetry is turned on.
 One-electron integrals computed using PRISM.
   8 Symmetry operations used in ECPInt.
 ECPInt:  NShTT=     990 NPrTT=    3557 LenC2=     961 LenP2D=    2917.
 LDataN:  DoStor=T MaxTD1= 8 Len=  415
 NBasis=   140 RedAO= T EigKep=  6.43D-04  NBF=    30     8    16    16     8    30    16    16
 NBsUse=   140 1.00D-06 EigRej= -1.00D+00 NBFU=    30     8    16    16     8    30    16    16
 Initial guess from the checkpoint file:  "/data/hutter/SMG16/PBE/Gau-91625.chk"
 B after Tr=     0.000000    0.000000    0.000000
         Rot=    1.000000    0.000000    0.000000    0.000000 Ang=   0.00 deg.
 Initial guess orbital symmetries:
       Occupied  (SGU) (SGG) (SGG) (SGU) (SGG) (SGU) (PIU) (PIU)
                 (PIG) (PIG) (SGG) (SGU) (SGG) (PIU) (PIU) (PIG)
                 (PIG)
       Virtual   (SGU) (SGU) (SGG) (PIU) (PIU) (SGG) (PIU) (PIU)
                 (PIG) (PIG) (DLTG) (DLTG) (DLTU) (DLTU) (SGU)
                 (SGG) (PIG) (PIG) (SGU) (SGG) (PIU) (PIU) (PIU)
                 (PIU) (DLTG) (DLTG) (PIG) (PIG) (SGG) (DLTU) (DLTU)
                 (DLTG) (DLTG) (SGU) (PIG) (PIG) (PHIU) (PHIU)
                 (SGU) (PHIG) (PHIG) (PIU) (PIU) (DLTU) (DLTU)
                 (SGG) (SGU) (SGG) (PIG) (PIG) (SGU) (PIU) (PIU)
                 (SGG) (DLTG) (DLTG) (DLTU) (DLTU) (PIG) (PIG)
                 (DLTG) (DLTG) (SGG) (PIU) (PIU) (PHIU) (PHIU)
                 (SGU) (?A) (?A) (?B) (?B) (PHIG) (PHIG) (DLTU)
                 (DLTU) (SGU) (PIU) (PIU) (PIG) (PIG) (SGG) (DLTG)
                 (DLTG) (PHIU) (PHIU) (PHIG) (PHIG) (PIG) (PIG)
                 (PIU) (PIU) (DLTU) (DLTU) (SGU) (PIG) (PIG) (SGG)
                 (SGU) (SGG) (SGU) (PIU) (PIU) (DLTG) (DLTG) (DLTU)
                 (DLTU) (SGG) (PIG) (PIG) (SGU) (SGG) (SGU) (PIU)
                 (PIU) (PIG) (PIG) (SGG) (SGU) (SGG) (SGU) (SGG)
                 (SGU)
 ExpMin= 9.32D-02 ExpMax= 1.47D+06 ExpMxC= 1.67D+03 IAcc=3 IRadAn=         5 AccDes= 0.00D+00
 Harris functional with IExCor= 1009 and IRadAn=       5 diagonalized for initial guess.
 HarFok:  IExCor= 1009 AccDes= 0.00D+00 IRadAn=         5 IDoV= 1 UseB2=F ITyADJ=14
 ICtDFT=  3500011 ScaDFX=  1.000000  1.000000  1.000000  1.000000
 FoFCou: FMM=F IPFlag=           0 FMFlag=      100000 FMFlg1=           0
         NFxFlg=           0 DoJE=T BraDBF=F KetDBF=T FulRan=T
         wScrn=  0.000000 ICntrl=       500 IOpCl=  0 I1Cent=   200000004 NGrid=           0
         NMat0=    1 NMatS0=      1 NMatT0=    0 NMatD0=    1 NMtDS0=    0 NMtDT0=    0
 Petite list used in FoFCou.
 Keep J ints in memory in symmetry-blocked form, NReq=57846292.
 Requested convergence on RMS density matrix=1.00D-08 within 128 cycles.
 Requested convergence on MAX density matrix=1.00D-06.
 Requested convergence on             energy=1.00D-06.
 No special actions if energy rises.
 Integral accuracy reduced to 1.0D-05 until final iterations.
 Initial convergence to 1.0D-05 achieved.  Increase integral accuracy.
 SCF Done:  E(RPBE-PBE) =  -920.051009827     A.U. after    9 cycles
            NFock=  9  Conv=0.58D-08     -V/T= 2.0015
   8 Symmetry operations used in ECPInt.
 ECPInt:  NShTT=     990 NPrTT=    3557 LenC2=     961 LenP2D=    2917.
 LDataN:  DoStor=T MaxTD1= 9 Len=  602
 Calling FoFJK, ICntrl=      2527 FMM=F ISym2X=1 I1Cent= 0 IOpClX= 0 NMat=1 NMatS=1 NMatT=0.
 ***** Axes restored to original set *****
 -------------------------------------------------------------------
 Center     Atomic                   Forces (Hartrees/Bohr)
 Number     Number              X              Y              Z
 -------------------------------------------------------------------
      1       17          -0.000000000   -0.000000000   -0.007687880
      2       17           0.000000000    0.000000000    0.007687880
 -------------------------------------------------------------------
 Cartesian Forces:  Max     0.007687880 RMS     0.004438600

 GradGradGradGradGradGradGradGradGradGradGradGradGradGradGradGradGradGrad
 Berny optimization.
 Using GEDIIS/GDIIS optimizer.
 Internal  Forces:  Max     0.007687880 RMS     0.007687880
 Search for a local minimum.
 Step number   2 out of a maximum of   20
 All quantities printed in internal units (Hartrees-Bohrs-Radians)
 Mixed Optimization -- RFO/linear search
 Update second derivatives using D2CorX and points    1    2
 DE= -7.78D-04 DEPred=-5.37D-04 R= 1.45D+00
 TightC=F SS=  1.41D+00  RLast= 6.11D-02 DXNew= 5.0454D-01 1.8321D-01
 Trust test= 1.45D+00 RLast= 6.11D-02 DXMaxT set to 3.00D-01
 The second derivative matrix:
                          R1
           R1           0.16128
 ITU=  1  0
 Use linear search instead of GDIIS.
     Eigenvalues ---    0.16128
 RFO step:  Lambda= 0.00000000D+00 EMin= 1.61276498D-01
 Quartic linear search produced a step of  0.68594.
 Iteration  1 RMS(Cart)=  0.02962107 RMS(Int)=  0.00000000
 Iteration  2 RMS(Cart)=  0.00000000 RMS(Int)=  0.00000000
 ClnCor:  largest displacement from symmetrization is 3.55D-15 for atom     2.
 Variable       Old X    -DE/DX   Delta X   Delta X   Delta X     New X
                                 (Linear)    (Quad)   (Total)
    R1        3.83019  -0.00769  -0.04189   0.00000  -0.04189   3.78830
         Item               Value     Threshold  Converged?
 Maximum Force            0.007688     0.000450     NO 
 RMS     Force            0.007688     0.000300     NO 
 Maximum Displacement     0.020945     0.001800     NO 
 RMS     Displacement     0.029621     0.001200     NO 
 Predicted change in Energy=-1.805440D-04
 GradGradGradGradGradGradGradGradGradGradGradGradGradGradGradGradGradGrad

                          Input orientation:                          
 ---------------------------------------------------------------------
 Center     Atomic      Atomic             Coordinates (Angstroms)
 Number     Number       Type             X           Y           Z
 ---------------------------------------------------------------------
      1         17           0        8.000000    8.000000    9.002340
      2         17           0        8.000000    8.000000    6.997660
 ---------------------------------------------------------------------
 Stoichiometry    Cl2
 Framework group  D*H[C*(Cl.Cl)]
 Deg. of freedom     1
 Full point group                 D*H     NOp   8
 Largest Abelian subgroup         D2H     NOp   8
 Largest concise Abelian subgroup C2      NOp   2
                         Standard orientation:                         
 ---------------------------------------------------------------------
 Center     Atomic      Atomic             Coordinates (Angstroms)
 Number     Number       Type             X           Y           Z
 ---------------------------------------------------------------------
      1         17           0        0.000000    0.000000    1.002340
      2         17           0        0.000000    0.000000   -1.002340
 ---------------------------------------------------------------------
 Rotational constants (GHZ):           0.0000000           7.1924241           7.1924241
 Standard basis: def2QZVPP (5D, 7F)
 There are    39 symmetry adapted cartesian basis functions of AG  symmetry.
 There are     9 symmetry adapted cartesian basis functions of B1G symmetry.
 There are    19 symmetry adapted cartesian basis functions of B2G symmetry.
 There are    19 symmetry adapted cartesian basis functions of B3G symmetry.
 There are     9 symmetry adapted cartesian basis functions of AU  symmetry.
 There are    39 symmetry adapted cartesian basis functions of B1U symmetry.
 There are    19 symmetry adapted cartesian basis functions of B2U symmetry.
 There are    19 symmetry adapted cartesian basis functions of B3U symmetry.
 There are    30 symmetry adapted basis functions of AG  symmetry.
 There are     8 symmetry adapted basis functions of B1G symmetry.
 There are    16 symmetry adapted basis functions of B2G symmetry.
 There are    16 symmetry adapted basis functions of B3G symmetry.
 There are     8 symmetry adapted basis functions of AU  symmetry.
 There are    30 symmetry adapted basis functions of B1U symmetry.
 There are    16 symmetry adapted basis functions of B2U symmetry.
 There are    16 symmetry adapted basis functions of B3U symmetry.
   140 basis functions,   242 primitive gaussians,   172 cartesian basis functions
    17 alpha electrons       17 beta electrons
       nuclear repulsion energy        76.2875579019 Hartrees.
 NAtoms=    2 NActive=    2 NUniq=    1 SFac= 4.00D+00 NAtFMM=   60 NAOKFM=F Big=F
 Integral buffers will be    131072 words long.
 Raffenetti 2 integral format.
 Two-electron integral symmetry is turned on.
 One-electron integrals computed using PRISM.
   8 Symmetry operations used in ECPInt.
 ECPInt:  NShTT=     990 NPrTT=    3557 LenC2=     965 LenP2D=    2923.
 LDataN:  DoStor=T MaxTD1= 8 Len=  415
 NBasis=   140 RedAO= T EigKep=  5.92D-04  NBF=    30     8    16    16     8    30    16    16
 NBsUse=   140 1.00D-06 EigRej= -1.00D+00 NBFU=    30     8    16    16     8    30    16    16
 Initial guess from the checkpoint file:  "/data/hutter/SMG16/PBE/Gau-91625.chk"
 B after Tr=     0.000000    0.000000    0.000000
         Rot=    1.000000    0.000000    0.000000    0.000000 Ang=   0.00 deg.
 Initial guess orbital symmetries:
       Occupied  (SGU) (SGG) (SGG) (SGU) (SGG) (SGU) (PIU) (PIU)
                 (PIG) (PIG) (SGG) (SGU) (SGG) (PIU) (PIU) (PIG)
                 (PIG)
       Virtual   (SGU) (SGU) (SGG) (PIU) (PIU) (SGG) (PIU) (PIU)
                 (PIG) (PIG) (DLTG) (DLTG) (DLTU) (DLTU) (SGU)
                 (SGG) (PIG) (PIG) (SGU) (SGG) (PIU) (PIU) (PIU)
                 (PIU) (DLTG) (DLTG) (PIG) (PIG) (SGG) (DLTU) (DLTU)
                 (DLTG) (DLTG) (SGU) (PIG) (PIG) (PHIU) (PHIU)
                 (SGU) (PHIG) (PHIG) (PIU) (PIU) (DLTU) (DLTU)
                 (SGU) (SGG) (SGG) (PIG) (PIG) (SGU) (PIU) (PIU)
                 (SGG) (DLTG) (DLTG) (DLTU) (DLTU) (PIG) (PIG)
                 (DLTG) (DLTG) (SGG) (PIU) (PIU) (PHIU) (PHIU)
                 (SGU) (?A) (?A) (?B) (?B) (PHIG) (PHIG) (DLTU)
                 (DLTU) (SGU) (PIU) (PIU) (SGG) (PIG) (PIG) (DLTG)
                 (DLTG) (PHIU) (PHIU) (PHIG) (PHIG) (PIG) (PIG)
                 (PIU) (PIU) (DLTU) (DLTU) (SGU) (PIG) (PIG) (SGG)
                 (SGU) (SGG) (SGU) (PIU) (PIU) (DLTG) (DLTG) (DLTU)
                 (DLTU) (SGG) (PIG) (PIG) (SGU) (SGG) (SGU) (PIU)
                 (PIU) (PIG) (PIG) (SGG) (SGU) (SGG) (SGU) (SGG)
                 (SGU)
 ExpMin= 9.32D-02 ExpMax= 1.47D+06 ExpMxC= 1.67D+03 IAcc=3 IRadAn=         5 AccDes= 0.00D+00
 Harris functional with IExCor= 1009 and IRadAn=       5 diagonalized for initial guess.
 HarFok:  IExCor= 1009 AccDes= 0.00D+00 IRadAn=         5 IDoV= 1 UseB2=F ITyADJ=14
 ICtDFT=  3500011 ScaDFX=  1.000000  1.000000  1.000000  1.000000
 FoFCou: FMM=F IPFlag=           0 FMFlag=      100000 FMFlg1=           0
         NFxFlg=           0 DoJE=T BraDBF=F KetDBF=T FulRan=T
         wScrn=  0.000000 ICntrl=       500 IOpCl=  0 I1Cent=   200000004 NGrid=           0
         NMat0=    1 NMatS0=      1 NMatT0=    0 NMatD0=    1 NMtDS0=    0 NMtDT0=    0
 Petite list used in FoFCou.
 Keep J ints in memory in symmetry-blocked form, NReq=57846368.
 Requested convergence on RMS density matrix=1.00D-08 within 128 cycles.
 Requested convergence on MAX density matrix=1.00D-06.
 Requested convergence on             energy=1.00D-06.
 No special actions if energy rises.
 Integral accuracy reduced to 1.0D-05 until final iterations.
 Initial convergence to 1.0D-05 achieved.  Increase integral accuracy.
 SCF Done:  E(RPBE-PBE) =  -920.051173336     A.U. after    9 cycles
            NFock=  9  Conv=0.64D-08     -V/T= 2.0015
   8 Symmetry operations used in ECPInt.
 ECPInt:  NShTT=     990 NPrTT=    3557 LenC2=     965 LenP2D=    2923.
 LDataN:  DoStor=T MaxTD1= 9 Len=  602
 Calling FoFJK, ICntrl=      2527 FMM=F ISym2X=1 I1Cent= 0 IOpClX= 0 NMat=1 NMatS=1 NMatT=0.
 ***** Axes restored to original set *****
 -------------------------------------------------------------------
 Center     Atomic                   Forces (Hartrees/Bohr)
 Number     Number              X              Y              Z
 -------------------------------------------------------------------
      1       17          -0.000000000   -0.000000000    0.000017353
      2       17           0.000000000    0.000000000   -0.000017353
 -------------------------------------------------------------------
 Cartesian Forces:  Max     0.000017353 RMS     0.000010019

 GradGradGradGradGradGradGradGradGradGradGradGradGradGradGradGradGradGrad
 Berny optimization.
 Using GEDIIS/GDIIS optimizer.
 Internal  Forces:  Max     0.000017353 RMS     0.000017353
 Search for a local minimum.
 Step number   3 out of a maximum of   20
 All quantities printed in internal units (Hartrees-Bohrs-Radians)
 Mixed Optimization -- En-DIIS/RFO-DIIS
 Update second derivatives using D2CorX and points    2    3
 DE= -1.64D-04 DEPred=-1.81D-04 R= 9.06D-01
 TightC=F SS=  1.41D+00  RLast= 4.19D-02 DXNew= 5.0454D-01 1.2567D-01
 Trust test= 9.06D-01 RLast= 4.19D-02 DXMaxT set to 3.00D-01
 The second derivative matrix:
                          R1
           R1           0.18394
 ITU=  1  1
 Use linear search instead of GDIIS.
     Eigenvalues ---    0.18394
 RFO step:  Lambda= 0.00000000D+00 EMin= 1.83937381D-01
 Quartic linear search produced a step of -0.00214.
 Iteration  1 RMS(Cart)=  0.00006333 RMS(Int)=  0.00000000
 Iteration  2 RMS(Cart)=  0.00000000 RMS(Int)=  0.00000000
 ClnCor:  largest displacement from symmetrization is 1.78D-15 for atom     2.
 Variable       Old X    -DE/DX   Delta X   Delta X   Delta X     New X
                                 (Linear)    (Quad)   (Total)
    R1        3.78830   0.00002   0.00009   0.00000   0.00009   3.78839
         Item               Value     Threshold  Converged?
 Maximum Force            0.000017     0.000450     YES
 RMS     Force            0.000017     0.000300     YES
 Maximum Displacement     0.000045     0.001800     YES
 RMS     Displacement     0.000063     0.001200     YES
 Predicted change in Energy=-8.164222D-10
 Optimization completed.
    -- Stationary point found.
                           ----------------------------
                           !   Optimized Parameters   !
                           ! (Angstroms and Degrees)  !
 --------------------------                            --------------------------
 ! Name  Definition              Value          Derivative Info.                !
 --------------------------------------------------------------------------------
 ! R1    R(1,2)                  2.0047         -DE/DX =    0.0                 !
 --------------------------------------------------------------------------------
 GradGradGradGradGradGradGradGradGradGradGradGradGradGradGradGradGradGrad

                          Input orientation:                          
 ---------------------------------------------------------------------
 Center     Atomic      Atomic             Coordinates (Angstroms)
 Number     Number       Type             X           Y           Z
 ---------------------------------------------------------------------
      1         17           0        8.000000    8.000000    9.002340
      2         17           0        8.000000    8.000000    6.997660
 ---------------------------------------------------------------------
 Stoichiometry    Cl2
 Framework group  D*H[C*(Cl.Cl)]
 Deg. of freedom     1
 Full point group                 D*H     NOp   8
 Largest Abelian subgroup         D2H     NOp   8
 Largest concise Abelian subgroup C2      NOp   2
                         Standard orientation:                         
 ---------------------------------------------------------------------
 Center     Atomic      Atomic             Coordinates (Angstroms)
 Number     Number       Type             X           Y           Z
 ---------------------------------------------------------------------
      1         17           0        0.000000    0.000000    1.002340
      2         17           0        0.000000    0.000000   -1.002340
 ---------------------------------------------------------------------
 Rotational constants (GHZ):           0.0000000           7.1924241           7.1924241

 **********************************************************************

            Population analysis using the SCF Density.

 **********************************************************************

 Orbital symmetries:
       Occupied  (SGU) (SGG) (SGG) (SGU) (SGG) (SGU) (PIU) (PIU)
                 (PIG) (PIG) (SGG) (SGU) (SGG) (PIU) (PIU) (PIG)
                 (PIG)
       Virtual   (SGU) (SGU) (SGG) (PIU) (PIU) (SGG) (PIU) (PIU)
                 (PIG) (PIG) (DLTG) (DLTG) (DLTU) (DLTU) (SGU)
                 (SGG) (PIG) (PIG) (SGU) (SGG) (PIU) (PIU) (PIU)
                 (PIU) (DLTG) (DLTG) (PIG) (PIG) (SGG) (DLTU) (DLTU)
                 (DLTG) (DLTG) (SGU) (PIG) (PIG) (PHIU) (PHIU)
                 (SGU) (PHIG) (PHIG) (PIU) (PIU) (DLTU) (DLTU)
                 (SGU) (SGG) (SGG) (PIG) (PIG) (SGU) (PIU) (PIU)
                 (DLTG) (DLTG) (SGG) (DLTU) (DLTU) (PIG) (PIG)
                 (DLTG) (DLTG) (SGG) (PIU) (PIU) (PHIU) (PHIU)
                 (SGU) (?A) (?A) (?B) (?B) (PHIG) (PHIG) (DLTU)
                 (DLTU) (SGU) (PIU) (PIU) (SGG) (PIG) (PIG) (PHIU)
                 (PHIU) (DLTG) (DLTG) (PHIG) (PHIG) (PIG) (PIG)
                 (PIU) (PIU) (DLTU) (DLTU) (SGU) (PIG) (PIG) (SGG)
                 (SGU) (SGG) (SGU) (PIU) (PIU) (DLTG) (DLTG) (DLTU)
                 (DLTU) (SGG) (PIG) (PIG) (SGU) (SGG) (SGU) (PIU)
                 (PIU) (PIG) (PIG) (SGG) (SGU) (SGG) (SGU) (SGG)
                 (SGU)
 The electronic state is 1-SGG.
 Alpha  occ. eigenvalues -- -100.72315-100.72315  -9.23022  -9.23020  -7.05851
 Alpha  occ. eigenvalues --   -7.05839  -7.04209  -7.04209  -7.04209  -7.04209
 Alpha  occ. eigenvalues --   -0.85807  -0.70367  -0.43924  -0.36511  -0.36511
 Alpha  occ. eigenvalues --   -0.26916  -0.26916
 Alpha virt. eigenvalues --   -0.15979   0.11774   0.11795   0.14434   0.14434
 Alpha virt. eigenvalues --    0.17361   0.18890   0.18890   0.19567   0.19567
 Alpha virt. eigenvalues --    0.21455   0.21455   0.32191   0.32191   0.37720
 Alpha virt. eigenvalues --    0.40755   0.47755   0.47755   0.63774   0.95496
 Alpha virt. eigenvalues --    0.97939   0.97939   0.99019   0.99019   1.02487
 Alpha virt. eigenvalues --    1.02487   1.05544   1.05544   1.07961   1.08619
 Alpha virt. eigenvalues --    1.08620   1.09303   1.09303   1.11453   1.16503
 Alpha virt. eigenvalues --    1.16503   1.18210   1.18210   1.29042   1.29433
 Alpha virt. eigenvalues --    1.29433   1.32665   1.32665   1.52119   1.52119
 Alpha virt. eigenvalues --    1.70197   1.72877   1.93188   1.96572   1.96572
 Alpha virt. eigenvalues --    2.59641   2.88772   2.88772   3.01560   3.01561
 Alpha virt. eigenvalues --    3.01901   3.11236   3.11238   3.20704   3.20704
 Alpha virt. eigenvalues --    3.23607   3.23609   3.27531   3.30259   3.30259
 Alpha virt. eigenvalues --    3.34869   3.34869   3.45117   3.45560   3.45566
 Alpha virt. eigenvalues --    3.47920   3.47926   3.54783   3.54783   3.69371
 Alpha virt. eigenvalues --    3.69371   3.71021   3.71602   3.71602   3.73068
 Alpha virt. eigenvalues --    3.73498   3.73498   3.75008   3.75008   3.75156
 Alpha virt. eigenvalues --    3.75156   3.82199   3.82199   3.94634   3.94634
 Alpha virt. eigenvalues --    4.08751   4.08751   4.11785   4.11787   4.23095
 Alpha virt. eigenvalues --    4.77733   4.77733   4.90978   5.30508   7.89295
 Alpha virt. eigenvalues --    8.54503  10.36951  10.36951  10.37524  10.37525
 Alpha virt. eigenvalues --   10.42693  10.42693  10.50922  10.58040  10.58040
 Alpha virt. eigenvalues --   11.17576  28.01730  28.62916  41.27974  41.27974
 Alpha virt. eigenvalues --   41.28459  41.28459  41.30522  41.32228  97.32437
 Alpha virt. eigenvalues --   97.89461 523.45196 524.41369
          Condensed to atoms (all electrons):
               1          2
     1  Cl  16.874220   0.125780
     2  Cl   0.125780  16.874220
 Mulliken charges:
               1
     1  Cl  -0.000000
     2  Cl  -0.000000
 Sum of Mulliken charges =  -0.00000
 Mulliken charges with hydrogens summed into heavy atoms:
               1
     1  Cl  -0.000000
     2  Cl  -0.000000
 Electronic spatial extent (au):  <R**2>=            176.2012
 Charge=             -0.0000 electrons
 Dipole moment (field-independent basis, Debye):
    X=             -0.0000    Y=             -0.0000    Z=              0.0000  Tot=              0.0000
 Quadrupole moment (field-independent basis, Debye-Ang):
   XX=            -25.3751   YY=            -25.3751   ZZ=            -22.1721
   XY=              0.0000   XZ=              0.0000   YZ=              0.0000
 Traceless Quadrupole moment (field-independent basis, Debye-Ang):
   XX=             -1.0677   YY=             -1.0677   ZZ=              2.1354
   XY=              0.0000   XZ=              0.0000   YZ=              0.0000
 Octapole moment (field-independent basis, Debye-Ang**2):
  XXX=              0.0000  YYY=              0.0000  ZZZ=             -0.0000  XYY=             -0.0000
  XXY=             -0.0000  XXZ=              0.0000  XZZ=              0.0000  YZZ=              0.0000
  YYZ=             -0.0000  XYZ=              0.0000
 Hexadecapole moment (field-independent basis, Debye-Ang**3):
 XXXX=            -28.8546 YYYY=            -28.8546 ZZZZ=           -153.1054 XXXY=              0.0000
 XXXZ=              0.0000 YYYX=              0.0000 YYYZ=              0.0000 ZZZX=              0.0000
 ZZZY=              0.0000 XXYY=             -9.6182 XXZZ=            -34.8678 YYZZ=            -34.8678
 XXYZ=              0.0000 YYXZ=              0.0000 ZZXY=              0.0000
 N-N= 7.628755790188D+01 E-N=-2.340806729217D+03  KE= 9.186900226012D+02
 Symmetry AG   KE= 3.691842042213D+02
 Symmetry B1G  KE= 5.159415907636D-34
 Symmetry B2G  KE= 4.652696930072D+01
 Symmetry B3G  KE= 4.652696930072D+01
 Symmetry AU   KE= 2.770868016629D-33
 Symmetry B1U  KE= 3.651706812811D+02
 Symmetry B2U  KE= 4.564059924869D+01
 Symmetry B3U  KE= 4.564059924869D+01
 Unable to Open any file for archive entry.
 1\1\GINC-TCOPT10\FOpt\RPBEPBE\def2QZVPP\Cl2\HUTTER\30-Jul-2021\0\\#N R
 PBEPBE/Def2QZVPP scf=tight Int(Grid=ultrafine) OPT FREQ\\Mol job 1\\0,
 1\Cl,8.,8.,9.0023404744\Cl,8.,8.,6.9976595256\\Version=ES64L-G16RevC.0
 1\State=1-SGG\HF=-920.0511733\RMSD=6.403e-09\RMSF=1.002e-05\Dipole=0.,
 0.,0.\Quadrupole=-0.7938043,-0.7938043,1.5876086,0.,0.,0.\PG=D*H [C*(C
 l1.Cl1)]\\@
 The archive entry for this job was punched.


 MARY HAD A LITTLE LAMB
      HIS FEET WERE BLACK AS SOOT,
           AND EVERYWHERE THAT MARY WENT
                HIS SOOTY FOOT HE PUT.

                    -- NONAME
 Job cpu time:       0 days  0 hours  2 minutes 23.3 seconds.
 Elapsed time:       0 days  0 hours  0 minutes 18.7 seconds.
 File lengths (MBytes):  RWF=     14 Int=      0 D2E=      0 Chk=      3 Scr=      1
 Normal termination of Gaussian 16 at Fri Jul 30 11:54:20 2021.
 Link1:  Proceeding to internal job step number  2.
 ----------------------------------------------------------------------
 #N Geom=AllCheck Guess=TCheck SCRF=Check GenChk RPBEPBE/def2QZVPP Freq
 ----------------------------------------------------------------------
 1/10=4,29=7,30=1,38=1,40=1/1,3;
 2/12=2,40=1/2;
 3/5=45,7=202,11=2,14=-4,25=1,30=1,70=2,71=2,74=1009,75=-5,116=1,140=1/1,2,3;
 4/5=101/1;
 5/5=2,32=2,38=6,98=1/2;
 8/6=4,10=90,11=11/1;
 11/6=1,8=1,9=11,15=111,16=1/1,2,10;
 10/6=1/2;
 6/7=2,8=2,9=2,10=2,28=1/1;
 7/8=1,10=1,25=1/1,2,3,16;
 1/10=4,30=1/3;
 99//99;
 Structure from the checkpoint file:  "/data/hutter/SMG16/PBE/Gau-91625.chk"
 ---------
 Mol job 1
 ---------
 Charge =  0 Multiplicity = 1
 Redundant internal coordinates found in file.  (old form).
 Cl,0,8.,8.,9.0023404744
 Cl,0,8.,8.,6.9976595256
 Recover connectivity data from disk.

 GradGradGradGradGradGradGradGradGradGradGradGradGradGradGradGradGradGrad
 Berny optimization.
 Initialization pass.
                           ----------------------------
                           !    Initial Parameters    !
                           ! (Angstroms and Degrees)  !
 --------------------------                            --------------------------
 ! Name  Definition              Value          Derivative Info.                !
 --------------------------------------------------------------------------------
 ! R1    R(1,2)                  2.0047         calculate D2E/DX2 analytically  !
 --------------------------------------------------------------------------------
 Trust Radius=3.00D-01 FncErr=1.00D-07 GrdErr=1.00D-07 EigMax=2.50D+02 EigMin=1.00D-04
 Number of steps in this run=      2 maximum allowed number of steps=      2.
 GradGradGradGradGradGradGradGradGradGradGradGradGradGradGradGradGradGrad

                          Input orientation:                          
 ---------------------------------------------------------------------
 Center     Atomic      Atomic             Coordinates (Angstroms)
 Number     Number       Type             X           Y           Z
 ---------------------------------------------------------------------
      1         17           0        8.000000    8.000000    9.002340
      2         17           0        8.000000    8.000000    6.997660
 ---------------------------------------------------------------------
 Stoichiometry    Cl2
 Framework group  D*H[C*(Cl.Cl)]
 Deg. of freedom     1
 Full point group                 D*H     NOp   8
 Largest Abelian subgroup         D2H     NOp   8
 Largest concise Abelian subgroup C2      NOp   2
                         Standard orientation:                         
 ---------------------------------------------------------------------
 Center     Atomic      Atomic             Coordinates (Angstroms)
 Number     Number       Type             X           Y           Z
 ---------------------------------------------------------------------
      1         17           0        0.000000    0.000000    1.002340
      2         17           0        0.000000    0.000000   -1.002340
 ---------------------------------------------------------------------
 Rotational constants (GHZ):           0.0000000           7.1924241           7.1924241
 Standard basis: def2QZVPP (5D, 7F)
 There are    39 symmetry adapted cartesian basis functions of AG  symmetry.
 There are     9 symmetry adapted cartesian basis functions of B1G symmetry.
 There are    19 symmetry adapted cartesian basis functions of B2G symmetry.
 There are    19 symmetry adapted cartesian basis functions of B3G symmetry.
 There are     9 symmetry adapted cartesian basis functions of AU  symmetry.
 There are    39 symmetry adapted cartesian basis functions of B1U symmetry.
 There are    19 symmetry adapted cartesian basis functions of B2U symmetry.
 There are    19 symmetry adapted cartesian basis functions of B3U symmetry.
 There are    30 symmetry adapted basis functions of AG  symmetry.
 There are     8 symmetry adapted basis functions of B1G symmetry.
 There are    16 symmetry adapted basis functions of B2G symmetry.
 There are    16 symmetry adapted basis functions of B3G symmetry.
 There are     8 symmetry adapted basis functions of AU  symmetry.
 There are    30 symmetry adapted basis functions of B1U symmetry.
 There are    16 symmetry adapted basis functions of B2U symmetry.
 There are    16 symmetry adapted basis functions of B3U symmetry.
   140 basis functions,   242 primitive gaussians,   172 cartesian basis functions
    17 alpha electrons       17 beta electrons
       nuclear repulsion energy        76.2875579019 Hartrees.
 NAtoms=    2 NActive=    2 NUniq=    1 SFac= 4.00D+00 NAtFMM=   60 NAOKFM=F Big=F
 Integral buffers will be    131072 words long.
 Raffenetti 2 integral format.
 Two-electron integral symmetry is turned on.
 One-electron integrals computed using PRISM.
   8 Symmetry operations used in ECPInt.
 ECPInt:  NShTT=     990 NPrTT=    3557 LenC2=     965 LenP2D=    2923.
 LDataN:  DoStor=T MaxTD1= 8 Len=  415
 NBasis=   140 RedAO= T EigKep=  5.92D-04  NBF=    30     8    16    16     8    30    16    16
 NBsUse=   140 1.00D-06 EigRej= -1.00D+00 NBFU=    30     8    16    16     8    30    16    16
 Initial guess from the checkpoint file:  "/data/hutter/SMG16/PBE/Gau-91625.chk"
 B after Tr=     0.000000    0.000000    0.000000
         Rot=    1.000000    0.000000    0.000000    0.000000 Ang=   0.00 deg.
 Initial guess orbital symmetries:
       Occupied  (SGU) (SGG) (SGG) (SGU) (SGG) (SGU) (PIU) (PIU)
                 (PIG) (PIG) (SGG) (SGU) (SGG) (PIU) (PIU) (PIG)
                 (PIG)
       Virtual   (SGU) (SGU) (SGG) (PIU) (PIU) (SGG) (PIU) (PIU)
                 (PIG) (PIG) (DLTG) (DLTG) (DLTU) (DLTU) (SGU)
                 (SGG) (PIG) (PIG) (SGU) (SGG) (PIU) (PIU) (PIU)
                 (PIU) (DLTG) (DLTG) (PIG) (PIG) (SGG) (DLTU) (DLTU)
                 (DLTG) (DLTG) (SGU) (PIG) (PIG) (PHIU) (PHIU)
                 (SGU) (PHIG) (PHIG) (PIU) (PIU) (DLTU) (DLTU)
                 (SGU) (SGG) (SGG) (PIG) (PIG) (SGU) (PIU) (PIU)
                 (DLTG) (DLTG) (SGG) (DLTU) (DLTU) (PIG) (PIG)
                 (DLTG) (DLTG) (SGG) (PIU) (PIU) (PHIU) (PHIU)
                 (SGU) (?A) (?A) (?B) (?B) (PHIG) (PHIG) (DLTU)
                 (DLTU) (SGU) (PIU) (PIU) (SGG) (PIG) (PIG) (PHIU)
                 (PHIU) (DLTG) (DLTG) (PHIG) (PHIG) (PIG) (PIG)
                 (PIU) (PIU) (DLTU) (DLTU) (SGU) (PIG) (PIG) (SGG)
                 (SGU) (SGG) (SGU) (PIU) (PIU) (DLTG) (DLTG) (DLTU)
                 (DLTU) (SGG) (PIG) (PIG) (SGU) (SGG) (SGU) (PIU)
                 (PIU) (PIG) (PIG) (SGG) (SGU) (SGG) (SGU) (SGG)
                 (SGU)
 Keep J ints in memory in symmetry-blocked form, NReq=57846368.
 Requested convergence on RMS density matrix=1.00D-08 within 128 cycles.
 Requested convergence on MAX density matrix=1.00D-06.
 Requested convergence on             energy=1.00D-06.
 No special actions if energy rises.
 SCF Done:  E(RPBE-PBE) =  -920.051173336     A.U. after    1 cycles
            NFock=  1  Conv=0.66D-09     -V/T= 2.0015
 DoSCS=F DFT=T ScalE2(SS,OS)=  1.000000  1.000000
 Range of M.O.s used for correlation:     1   140
 NBasis=   140 NAE=    17 NBE=    17 NFC=     0 NFV=     0
 NROrb=    140 NOA=    17 NOB=    17 NVA=   123 NVB=   123

 **** Warning!!: The largest alpha MO coefficient is  0.10429683D+02

   8 Symmetry operations used in ECPInt.
 ECPInt:  NShTT=     990 NPrTT=    3557 LenC2=     965 LenP2D=    2923.
 LDataN:  DoStor=T MaxTD1= 9 Len=  602
 Symmetrizing basis deriv contribution to polar:
 IMax=3 JMax=2 DiffMx= 0.00D+00
 G2DrvN: will do     3 centers at a time, making    1 passes.
 Calling FoFCou, ICntrl=  3507 FMM=F I1Cent=   0 AccDes= 0.00D+00.
 End of G2Drv F.D. properties file   721 does not exist.
 End of G2Drv F.D. properties file   722 does not exist.
 End of G2Drv F.D. properties file   788 does not exist.
          IDoAtm=11
          Differentiating once with respect to electric field.
                with respect to dipole field.
          Differentiating once with respect to nuclear coordinates.
 Keep J ints in memory in symmetry-blocked form, NReq=57847216.
          There are     6 degrees of freedom in the 1st order CPHF.  IDoFFX=4 NUNeed=     6.
      6 vectors produced by pass  0 Test12= 3.48D-14 1.67D-08 XBig12= 6.74D+01 7.07D+00.
 AX will form     6 AO Fock derivatives at one time.
      6 vectors produced by pass  1 Test12= 3.48D-14 1.67D-08 XBig12= 2.98D+01 2.50D+00.
      6 vectors produced by pass  2 Test12= 3.48D-14 1.67D-08 XBig12= 3.01D+00 9.49D-01.
      6 vectors produced by pass  3 Test12= 3.48D-14 1.67D-08 XBig12= 8.80D-02 8.88D-02.
      6 vectors produced by pass  4 Test12= 3.48D-14 1.67D-08 XBig12= 3.80D-04 4.91D-03.
      6 vectors produced by pass  5 Test12= 3.48D-14 1.67D-08 XBig12= 2.79D-06 3.40D-04.
      4 vectors produced by pass  6 Test12= 3.48D-14 1.67D-08 XBig12= 7.94D-08 9.51D-05.
      2 vectors produced by pass  7 Test12= 3.48D-14 1.67D-08 XBig12= 2.05D-10 3.69D-06.
      1 vectors produced by pass  8 Test12= 3.48D-14 1.67D-08 XBig12= 1.36D-12 4.82D-07.
 InvSVY:  IOpt=1 It=  1 EMax= 6.70D-16
 Solved reduced A of dimension    43 with     6 vectors.
 Isotropic polarizability for W=    0.000000       27.46 Bohr**3.
 End of Minotr F.D. properties file   721 does not exist.
 End of Minotr F.D. properties file   722 does not exist.
 End of Minotr F.D. properties file   788 does not exist.

 **********************************************************************

            Population analysis using the SCF Density.

 **********************************************************************

 Orbital symmetries:
       Occupied  (SGU) (SGG) (SGG) (SGU) (SGG) (SGU) (PIU) (PIU)
                 (PIG) (PIG) (SGG) (SGU) (SGG) (PIU) (PIU) (PIG)
                 (PIG)
       Virtual   (SGU) (SGU) (SGG) (PIU) (PIU) (SGG) (PIU) (PIU)
                 (PIG) (PIG) (DLTG) (DLTG) (DLTU) (DLTU) (SGU)
                 (SGG) (PIG) (PIG) (SGU) (SGG) (PIU) (PIU) (PIU)
                 (PIU) (DLTG) (DLTG) (PIG) (PIG) (SGG) (DLTU) (DLTU)
                 (DLTG) (DLTG) (SGU) (PIG) (PIG) (PHIU) (PHIU)
                 (SGU) (PHIG) (PHIG) (PIU) (PIU) (DLTU) (DLTU)
                 (SGU) (SGG) (SGG) (PIG) (PIG) (SGU) (PIU) (PIU)
                 (DLTG) (DLTG) (SGG) (DLTU) (DLTU) (PIG) (PIG)
                 (DLTG) (DLTG) (SGG) (PIU) (PIU) (PHIU) (PHIU)
                 (SGU) (?A) (?A) (?B) (?B) (PHIG) (PHIG) (DLTU)
                 (DLTU) (SGU) (PIU) (PIU) (SGG) (PIG) (PIG) (PHIU)
                 (PHIU) (DLTG) (DLTG) (PHIG) (PHIG) (PIG) (PIG)
                 (PIU) (PIU) (DLTU) (DLTU) (SGU) (PIG) (PIG) (SGG)
                 (SGU) (SGG) (SGU) (PIU) (PIU) (DLTG) (DLTG) (DLTU)
                 (DLTU) (SGG) (PIG) (PIG) (SGU) (SGG) (SGU) (PIU)
                 (PIU) (PIG) (PIG) (SGG) (SGU) (SGG) (SGU) (SGG)
                 (SGU)
 The electronic state is 1-SGG.
 Alpha  occ. eigenvalues -- -100.72315-100.72315  -9.23022  -9.23020  -7.05851
 Alpha  occ. eigenvalues --   -7.05839  -7.04209  -7.04209  -7.04209  -7.04209
 Alpha  occ. eigenvalues --   -0.85807  -0.70367  -0.43924  -0.36511  -0.36511
 Alpha  occ. eigenvalues --   -0.26916  -0.26916
 Alpha virt. eigenvalues --   -0.15979   0.11774   0.11795   0.14434   0.14434
 Alpha virt. eigenvalues --    0.17361   0.18890   0.18890   0.19567   0.19567
 Alpha virt. eigenvalues --    0.21455   0.21455   0.32191   0.32191   0.37720
 Alpha virt. eigenvalues --    0.40755   0.47755   0.47755   0.63774   0.95496
 Alpha virt. eigenvalues --    0.97939   0.97939   0.99019   0.99019   1.02487
 Alpha virt. eigenvalues --    1.02487   1.05544   1.05544   1.07961   1.08619
 Alpha virt. eigenvalues --    1.08620   1.09303   1.09303   1.11453   1.16503
 Alpha virt. eigenvalues --    1.16503   1.18210   1.18210   1.29042   1.29433
 Alpha virt. eigenvalues --    1.29433   1.32665   1.32665   1.52119   1.52119
 Alpha virt. eigenvalues --    1.70197   1.72877   1.93188   1.96572   1.96572
 Alpha virt. eigenvalues --    2.59641   2.88772   2.88772   3.01560   3.01561
 Alpha virt. eigenvalues --    3.01901   3.11236   3.11238   3.20704   3.20704
 Alpha virt. eigenvalues --    3.23607   3.23609   3.27531   3.30259   3.30259
 Alpha virt. eigenvalues --    3.34869   3.34869   3.45117   3.45560   3.45566
 Alpha virt. eigenvalues --    3.47920   3.47926   3.54783   3.54783   3.69371
 Alpha virt. eigenvalues --    3.69371   3.71021   3.71602   3.71602   3.73068
 Alpha virt. eigenvalues --    3.73498   3.73498   3.75008   3.75008   3.75156
 Alpha virt. eigenvalues --    3.75156   3.82199   3.82199   3.94634   3.94634
 Alpha virt. eigenvalues --    4.08751   4.08751   4.11785   4.11787   4.23095
 Alpha virt. eigenvalues --    4.77733   4.77733   4.90978   5.30508   7.89295
 Alpha virt. eigenvalues --    8.54503  10.36951  10.36951  10.37524  10.37525
 Alpha virt. eigenvalues --   10.42693  10.42693  10.50922  10.58040  10.58040
 Alpha virt. eigenvalues --   11.17576  28.01730  28.62916  41.27974  41.27974
 Alpha virt. eigenvalues --   41.28459  41.28459  41.30522  41.32228  97.32437
 Alpha virt. eigenvalues --   97.89461 523.45196 524.41369
          Condensed to atoms (all electrons):
               1          2
     1  Cl  16.874220   0.125780
     2  Cl   0.125780  16.874220
 Mulliken charges:
               1
     1  Cl   0.000000
     2  Cl   0.000000
 Sum of Mulliken charges =   0.00000
 Mulliken charges with hydrogens summed into heavy atoms:
               1
     1  Cl   0.000000
     2  Cl   0.000000
 APT charges:
               1
     1  Cl  -0.000000
     2  Cl  -0.000000
 Sum of APT charges =  -0.00000
 APT charges with hydrogens summed into heavy atoms:
               1
     1  Cl  -0.000000
     2  Cl  -0.000000
 Electronic spatial extent (au):  <R**2>=            176.2012
 Charge=              0.0000 electrons
 Dipole moment (field-independent basis, Debye):
    X=             -0.0000    Y=             -0.0000    Z=              0.0000  Tot=              0.0000
 Quadrupole moment (field-independent basis, Debye-Ang):
   XX=            -25.3751   YY=            -25.3751   ZZ=            -22.1721
   XY=             -0.0000   XZ=              0.0000   YZ=              0.0000
 Traceless Quadrupole moment (field-independent basis, Debye-Ang):
   XX=             -1.0677   YY=             -1.0677   ZZ=              2.1354
   XY=             -0.0000   XZ=              0.0000   YZ=              0.0000
 Octapole moment (field-independent basis, Debye-Ang**2):
  XXX=              0.0000  YYY=              0.0000  ZZZ=              0.0000  XYY=             -0.0000
  XXY=             -0.0000  XXZ=             -0.0000  XZZ=              0.0000  YZZ=              0.0000
  YYZ=              0.0000  XYZ=              0.0000
 Hexadecapole moment (field-independent basis, Debye-Ang**3):
 XXXX=            -28.8546 YYYY=            -28.8546 ZZZZ=           -153.1054 XXXY=             -0.0000
 XXXZ=              0.0000 YYYX=             -0.0000 YYYZ=              0.0000 ZZZX=              0.0000
 ZZZY=              0.0000 XXYY=             -9.6182 XXZZ=            -34.8678 YYZZ=            -34.8678
 XXYZ=              0.0000 YYXZ=              0.0000 ZZXY=             -0.0000
 N-N= 7.628755790188D+01 E-N=-2.340806732409D+03  KE= 9.186900237403D+02
 Symmetry AG   KE= 3.691842044547D+02
 Symmetry B1G  KE= 5.159415973399D-34
 Symmetry B2G  KE= 4.652696950784D+01
 Symmetry B3G  KE= 4.652696950784D+01
 Symmetry AU   KE= 2.770868182982D-33
 Symmetry B1U  KE= 3.651706814619D+02
 Symmetry B2U  KE= 4.564059940401D+01
 Symmetry B3U  KE= 4.564059940401D+01
  Exact polarizability:      21.259      -0.000      21.259       0.000      -0.000      39.875
 Approx polarizability:      36.059      -0.000      36.059      -0.000      -0.000      88.240
   8 Symmetry operations used in ECPInt.
 ECPInt:  NShTT=     990 NPrTT=    3557 LenC2=     965 LenP2D=    2923.
 LDataN:  DoStor=T MaxTD1=10 Len=  848
 Calling FoFJK, ICntrl=    100527 FMM=F ISym2X=1 I1Cent= 0 IOpClX= 0 NMat=1 NMatS=1 NMatT=0.
 Full mass-weighted force constant matrix:
 Low frequencies ---   -0.0050   -0.0028   -0.0027    7.6685    7.6685  541.2037
 Diagonal vibrational polarizability:
        0.0000000       0.0000000       0.0000000
 Harmonic frequencies (cm**-1), IR intensities (KM/Mole), Raman scattering
 activities (A**4/AMU), depolarization ratios for plane and unpolarized
 incident light, reduced masses (AMU), force constants (mDyne/A),
 and normal coordinates:
                      1
                     SGG
 Frequencies --    541.2037
 Red. masses --     34.9689
 Frc consts  --      6.0347
 IR Inten    --      0.0000
  Atom  AN      X      Y      Z
     1  17     0.00   0.00   0.71
     2  17     0.00   0.00  -0.71

 -------------------
 - Thermochemistry -
 -------------------
 Temperature   298.150 Kelvin.  Pressure   1.00000 Atm.
 Atom     1 has atomic number 17 and mass  34.96885
 Atom     2 has atomic number 17 and mass  34.96885
 Molecular mass:    69.93771 amu.
 Principal axes and moments of inertia in atomic units:
                           1         2         3
     Eigenvalues --     0.00000 250.92252 250.92252
           X            0.00000  -0.00000   1.00000
           Y            0.00000   1.00000   0.00000
           Z            1.00000   0.00000   0.00000
 This molecule is a prolate symmetric top.
 Rotational symmetry number  2.
 Rotational temperature (Kelvin)      0.34518
 Rotational constant (GHZ):           7.192424
 Zero-point vibrational energy       3237.1 (Joules/Mol)
                                    0.77369 (Kcal/Mol)
 Warning -- explicit consideration of   1 degrees of freedom as
           vibrations may cause significant error
 Vibrational temperatures:    778.67
          (Kelvin)
 
 Zero-point correction=                           0.001233 (Hartree/Particle)
 Thermal correction to Energy=                    0.003789
 Thermal correction to Enthalpy=                  0.004733
 Thermal correction to Gibbs Free Energy=        -0.020573
 Sum of electronic and zero-point Energies=           -920.049940
 Sum of electronic and thermal Energies=              -920.047385
 Sum of electronic and thermal Enthalpies=            -920.046440
 Sum of electronic and thermal Free Energies=         -920.071746
 
                     E (Thermal)             CV                S
                      KCal/Mol        Cal/Mol-Kelvin    Cal/Mol-Kelvin
 Total                    2.377              6.127             53.261
 Electronic               0.000              0.000              0.000
 Translational            0.889              2.981             38.652
 Rotational               0.592              1.987             14.046
 Vibrational              0.896              1.159              0.563
 Vibration     1          0.896              1.159              0.563
                       Q            Log10(Q)             Ln(Q)
 Total Bot       0.290317D+10          9.462872         21.789069
 Total V=0       0.107150D+11         10.029991         23.094907
 Vib (Bot)       0.292412D+00         -0.534005         -1.229593
 Vib (Bot)    1  0.292412D+00         -0.534005         -1.229593
 Vib (V=0)       0.107923D+01          0.033113          0.076246
 Vib (V=0)    1  0.107923D+01          0.033113          0.076246
 Electronic      0.100000D+01          0.000000          0.000000
 Translational   0.229890D+08          7.361521         16.950528
 Rotational      0.431874D+03          2.635357          6.068133
 ***** Axes restored to original set *****
 -------------------------------------------------------------------
 Center     Atomic                   Forces (Hartrees/Bohr)
 Number     Number              X              Y              Z
 -------------------------------------------------------------------
      1       17          -0.000000000   -0.000000000    0.000017378
      2       17           0.000000000    0.000000000   -0.000017378
 -------------------------------------------------------------------
 Cartesian Forces:  Max     0.000017378 RMS     0.000010033
 FormGI is forming the generalized inverse of G from B-inverse, IUseBI=4.

 GradGradGradGradGradGradGradGradGradGradGradGradGradGradGradGradGradGrad
 Berny optimization.
 Internal  Forces:  Max     0.000017378 RMS     0.000017378
 Search for a local minimum.
 Step number   1 out of a maximum of    2
 All quantities printed in internal units (Hartrees-Bohrs-Radians)
 Second derivative matrix not updated -- analytic derivatives used.
 The second derivative matrix:
                          R1
           R1           0.19380
 ITU=  0
     Eigenvalues ---    0.19380
 Angle between quadratic step and forces=   0.00 degrees.
 Linear search not attempted -- first point.
 Iteration  1 RMS(Cart)=  0.00006340 RMS(Int)=  0.00000000
 Iteration  2 RMS(Cart)=  0.00000000 RMS(Int)=  0.00000000
 ClnCor:  largest displacement from symmetrization is 1.78D-15 for atom     2.
 Variable       Old X    -DE/DX   Delta X   Delta X   Delta X     New X
                                 (Linear)    (Quad)   (Total)
    R1        3.78830   0.00002   0.00000   0.00009   0.00009   3.78839
         Item               Value     Threshold  Converged?
 Maximum Force            0.000017     0.000450     YES
 RMS     Force            0.000017     0.000300     YES
 Maximum Displacement     0.000045     0.001800     YES
 RMS     Displacement     0.000063     0.001200     YES
 Predicted change in Energy=-7.790882D-10
 Optimization completed.
    -- Stationary point found.
                           ----------------------------
                           !   Optimized Parameters   !
                           ! (Angstroms and Degrees)  !
 --------------------------                            --------------------------
 ! Name  Definition              Value          Derivative Info.                !
 --------------------------------------------------------------------------------
 ! R1    R(1,2)                  2.0047         -DE/DX =    0.0                 !
 --------------------------------------------------------------------------------
 GradGradGradGradGradGradGradGradGradGradGradGradGradGradGradGradGradGrad

 Dipole is zero, so no output in dipole orientation.

 ----------------------------------------------------------------------

 Electric dipole moment (input orientation):
 (Debye = 10**-18 statcoulomb cm , SI units = C m)
                  (au)            (Debye)         (10**-30 SI)
   Tot        0.000000D+00      0.000000D+00      0.000000D+00
   x          0.000000D+00      0.000000D+00      0.000000D+00
   y          0.000000D+00      0.000000D+00      0.000000D+00
   z          0.000000D+00      0.000000D+00      0.000000D+00

 Dipole polarizability, Alpha (input orientation).
 (esu units = cm**3 , SI units = C**2 m**2 J**-1)
 Alpha(0;0):
               (au)            (10**-24 esu)      (10**-40 SI)
   iso        0.274640D+02      0.406975D+01      0.452821D+01
   aniso      0.186162D+02      0.275863D+01      0.306939D+01
   xx         0.212587D+02      0.315021D+01      0.350508D+01
   yx         0.000000D+00      0.000000D+00      0.000000D+00
   yy         0.212587D+02      0.315021D+01      0.350508D+01
   zx         0.000000D+00      0.000000D+00      0.000000D+00
   zy         0.000000D+00      0.000000D+00      0.000000D+00
   zz         0.398748D+02      0.590884D+01      0.657447D+01

 ----------------------------------------------------------------------
 Unable to Open any file for archive entry.
 1\1\GINC-TCOPT10\Freq\RPBEPBE\def2QZVPP\Cl2\HUTTER\30-Jul-2021\0\\#N G
 eom=AllCheck Guess=TCheck SCRF=Check GenChk RPBEPBE/def2QZVPP Freq\\Mo
 l job 1\\0,1\Cl,8.,8.,9.0023404744\Cl,8.,8.,6.9976595256\\Version=ES64
 L-G16RevC.01\State=1-SGG\HF=-920.0511733\RMSD=6.601e-10\RMSF=1.003e-05
 \ZeroPoint=0.001233\Thermal=0.0037888\ETot=-920.0473846\HTot=-920.0464
 404\GTot=-920.0717462\Dipole=0.,0.,0.\DipoleDeriv=0.,0.,0.,0.,0.,0.,0.
 ,0.,0.,0.,0.,0.,0.,0.,0.,0.,0.,0.\Polar=21.2586558,0.,21.2586558,0.,0.
 ,39.8748296\Quadrupole=-0.7938047,-0.7938047,1.5876094,0.,0.,0.\PG=D*H
  [C*(Cl1.Cl1)]\NImag=0\\0.00003891,0.,0.00003891,0.,0.,0.19380474,-0.0
 0003891,0.,0.,0.00003891,0.,-0.00003891,0.,0.,0.00003891,0.,0.,-0.1938
 0474,0.,0.,0.19380474\\0.,0.,-0.00001738,0.,0.,0.00001738\\\@
 The archive entry for this job was punched.


 THOSE WHO ASPIRE NOT TO GUESS AND DIVINE,
 BUT TO DISCOVER AND KNOW, WHO PROPOSE NOT TO DEVISE 
 MIMIC AND FABULOUS WORLDS OF THEIR OWN, BUT TO 
 EXAMINE AND DISSECT THE NATURE OF THIS VERY WORLD 
 ITSELF, MUST GO TO THE FACTS THEMSELVES FOR EVERYTHING.

                               -- FRANCIS BACON, 1620
 Job cpu time:       0 days  0 hours  2 minutes 55.4 seconds.
 Elapsed time:       0 days  0 hours  0 minutes 22.4 seconds.
 File lengths (MBytes):  RWF=     14 Int=      0 D2E=      0 Chk=      3 Scr=      1
 Normal termination of Gaussian 16 at Fri Jul 30 11:54:43 2021.
