 Entering Gaussian System, Link 0=g16
 Initial command:
 /sw-ng/spack/opt/spack/linux-opensuse_leap15-sandybridge/pgi-18.10/gaussian-src-16-C.01-zldqaomctopxhethwccpmxmwefdscg3m/g16/l1.exe "/data/hutter/SMG16/PBE/Gau-27373.inp" -scrdir="/data/hutter/SMG16/PBE/"
 Entering Link 1 = /sw-ng/spack/opt/spack/linux-opensuse_leap15-sandybridge/pgi-18.10/gaussian-src-16-C.01-zldqaomctopxhethwccpmxmwefdscg3m/g16/l1.exe PID=     27379.
  
 Copyright (c) 1988-2019, Gaussian, Inc.  All Rights Reserved.
  
 This is part of the Gaussian(R) 16 program.  It is based on
 the Gaussian(R) 09 system (copyright 2009, Gaussian, Inc.),
 the Gaussian(R) 03 system (copyright 2003, Gaussian, Inc.),
 the Gaussian(R) 98 system (copyright 1998, Gaussian, Inc.),
 the Gaussian(R) 94 system (copyright 1995, Gaussian, Inc.),
 the Gaussian 92(TM) system (copyright 1992, Gaussian, Inc.),
 the Gaussian 90(TM) system (copyright 1990, Gaussian, Inc.),
 the Gaussian 88(TM) system (copyright 1988, Gaussian, Inc.),
 the Gaussian 86(TM) system (copyright 1986, Carnegie Mellon
 University), and the Gaussian 82(TM) system (copyright 1983,
 Carnegie Mellon University). Gaussian is a federally registered
 trademark of Gaussian, Inc.
  
 This software contains proprietary and confidential information,
 including trade secrets, belonging to Gaussian, Inc.
  
 This software is provided under written license and may be
 used, copied, transmitted, or stored only in accord with that
 written license.
  
 The following legend is applicable only to US Government
 contracts under FAR:
  
                    RESTRICTED RIGHTS LEGEND
  
 Use, reproduction and disclosure by the US Government is
 subject to restrictions as set forth in subparagraphs (a)
 and (c) of the Commercial Computer Software - Restricted
 Rights clause in FAR 52.227-19.
  
 Gaussian, Inc.
 340 Quinnipiac St., Bldg. 40, Wallingford CT 06492
  
  
 ---------------------------------------------------------------
 Warning -- This program may not be used in any manner that
 competes with the business of Gaussian, Inc. or will provide
 assistance to any competitor of Gaussian, Inc.  The licensee
 of this program is prohibited from giving any competitor of
 Gaussian, Inc. access to this program.  By using this program,
 the user acknowledges that Gaussian, Inc. is engaged in the
 business of creating and licensing software in the field of
 computational chemistry and represents and warrants to the
 licensee that it is not a competitor of Gaussian, Inc. and that
 it will not use this program in any manner prohibited above.
 ---------------------------------------------------------------
  

 Cite this work as:
 Gaussian 16, Revision C.01,
 M. J. Frisch, G. W. Trucks, H. B. Schlegel, G. E. Scuseria, 
 M. A. Robb, J. R. Cheeseman, G. Scalmani, V. Barone, 
 G. A. Petersson, H. Nakatsuji, X. Li, M. Caricato, A. V. Marenich, 
 J. Bloino, B. G. Janesko, R. Gomperts, B. Mennucci, H. P. Hratchian, 
 J. V. Ortiz, A. F. Izmaylov, J. L. Sonnenberg, D. Williams-Young, 
 F. Ding, F. Lipparini, F. Egidi, J. Goings, B. Peng, A. Petrone, 
 T. Henderson, D. Ranasinghe, V. G. Zakrzewski, J. Gao, N. Rega, 
 G. Zheng, W. Liang, M. Hada, M. Ehara, K. Toyota, R. Fukuda, 
 J. Hasegawa, M. Ishida, T. Nakajima, Y. Honda, O. Kitao, H. Nakai, 
 T. Vreven, K. Throssell, J. A. Montgomery, Jr., J. E. Peralta, 
 F. Ogliaro, M. J. Bearpark, J. J. Heyd, E. N. Brothers, K. N. Kudin, 
 V. N. Staroverov, T. A. Keith, R. Kobayashi, J. Normand, 
 K. Raghavachari, A. P. Rendell, J. C. Burant, S. S. Iyengar, 
 J. Tomasi, M. Cossi, J. M. Millam, M. Klene, C. Adamo, R. Cammi, 
 J. W. Ochterski, R. L. Martin, K. Morokuma, O. Farkas, 
 J. B. Foresman, and D. J. Fox, Gaussian, Inc., Wallingford CT, 2019.
 
 ******************************************
 Gaussian 16:  ES64L-G16RevC.01  3-Jul-2019
                30-Jul-2021 
 ******************************************
 %mem=8GB
 %NProcShare=8
 Will use up to    8 processors via shared memory.
 -----------------------------------------------------------
 #N RPBEPBE/Def2QZVPP scf=tight Int(Grid=ultrafine) OPT FREQ
 -----------------------------------------------------------
 1/18=20,19=15,26=4,38=1/1,3;
 2/9=110,12=2,17=6,18=5,40=1/2;
 3/5=45,7=202,11=2,25=1,30=1,71=1,74=1009,75=-5,116=1/1,2,3;
 4//1;
 5/5=2,32=2,38=5/2;
 6/7=2,8=2,9=2,10=2,28=1/1;
 7//1,2,3,16;
 1/18=20,19=15,26=4/3(2);
 2/9=110/2;
 99//99;
 2/9=110/2;
 3/5=45,7=202,11=2,25=1,30=1,71=1,74=1009,75=-5,116=1/1,2,3;
 4/5=5,16=3,69=1/1;
 5/5=2,32=2,38=5/2;
 7//1,2,3,16;
 1/18=20,19=15,26=4/3(-5);
 2/9=110/2;
 6/7=2,8=2,9=2,10=2,19=2,28=1/1;
 99/9=1/99;
 ---------
 Mol job 1
 ---------
 Symbolic Z-matrix:
 Charge =  0 Multiplicity = 1
 Tc                    8.40003   8.        7.36438 
 F                     8.40003   8.        9.22395 
 O                     9.20009   6.61426   6.77605 
 O                     9.20009   9.38574   6.77605 
 O                     6.79991   8.        6.77605 
 

 GradGradGradGradGradGradGradGradGradGradGradGradGradGradGradGradGradGrad
 Berny optimization.
 Initialization pass.
                           ----------------------------
                           !    Initial Parameters    !
                           ! (Angstroms and Degrees)  !
 --------------------------                            --------------------------
 ! Name  Definition              Value          Derivative Info.                !
 --------------------------------------------------------------------------------
 ! R1    R(1,2)                  1.8596         estimate D2E/DX2                !
 ! R2    R(1,3)                  1.7048         estimate D2E/DX2                !
 ! R3    R(1,4)                  1.7048         estimate D2E/DX2                !
 ! R4    R(1,5)                  1.7048         estimate D2E/DX2                !
 ! A1    A(2,1,3)              110.1872         estimate D2E/DX2                !
 ! A2    A(2,1,4)              110.1872         estimate D2E/DX2                !
 ! A3    A(2,1,5)              110.1872         estimate D2E/DX2                !
 ! A4    A(3,1,4)              108.7458         estimate D2E/DX2                !
 ! A5    A(3,1,5)              108.7458         estimate D2E/DX2                !
 ! A6    A(4,1,5)              108.7458         estimate D2E/DX2                !
 ! D1    D(2,1,4,3)            120.8672         estimate D2E/DX2                !
 ! D2    D(2,1,5,3)           -120.8672         estimate D2E/DX2                !
 ! D3    D(2,1,5,4)            120.8672         estimate D2E/DX2                !
 ! D4    D(3,1,5,4)           -118.2655         estimate D2E/DX2                !
 --------------------------------------------------------------------------------
 Trust Radius=3.00D-01 FncErr=1.00D-07 GrdErr=1.00D-06 EigMax=2.50D+02 EigMin=1.00D-04
 Number of steps in this run=     24 maximum allowed number of steps=    100.
 GradGradGradGradGradGradGradGradGradGradGradGradGradGradGradGradGradGrad

                          Input orientation:                          
 ---------------------------------------------------------------------
 Center     Atomic      Atomic             Coordinates (Angstroms)
 Number     Number       Type             X           Y           Z
 ---------------------------------------------------------------------
      1         43           0        8.400029    8.000000    7.364377
      2          9           0        8.400029    8.000000    9.223946
      3          8           0        9.200088    6.614258    6.776054
      4          8           0        9.200088    9.385742    6.776054
      5          8           0        6.799912    8.000000    6.776054
 ---------------------------------------------------------------------
                    Distance matrix (angstroms):
                    1          2          3          4          5
     1  Tc   0.000000
     2  F    1.859569   0.000000
     3  O    1.704845   2.924474   0.000000
     4  O    1.704845   2.924474   2.771484   0.000000
     5  O    1.704845   2.924474   2.771484   2.771484   0.000000
 Stoichiometry    FO3Tc
 Framework group  C3V[C3(FTc),3SGV(O)]
 Deg. of freedom     3
 Full point group                 C3V     NOp   6
 Largest Abelian subgroup         CS      NOp   2
 Largest concise Abelian subgroup CS      NOp   2
                         Standard orientation:                         
 ---------------------------------------------------------------------
 Center     Atomic      Atomic             Coordinates (Angstroms)
 Number     Number       Type             X           Y           Z
 ---------------------------------------------------------------------
      1         43           0        0.000000    0.000000    0.034426
      2          9           0        0.000000    0.000000   -1.825143
      3          8           0        0.000000    1.600117    0.622749
      4          8           0        1.385742   -0.800058    0.622749
      5          8           0       -1.385742   -0.800058    0.622749
 ---------------------------------------------------------------------
 Rotational constants (GHZ):           4.1134918           3.5235054           3.5235054
 Standard basis: def2QZVPP (5D, 7F)
 There are   243 symmetry adapted cartesian basis functions of A'  symmetry.
 There are   161 symmetry adapted cartesian basis functions of A"  symmetry.
 There are   186 symmetry adapted basis functions of A'  symmetry.
 There are   130 symmetry adapted basis functions of A"  symmetry.
   316 basis functions,   513 primitive gaussians,   404 cartesian basis functions
    24 alpha electrons       24 beta electrons
       nuclear repulsion energy       225.9040389722 Hartrees.
 NAtoms=    5 NActive=    5 NUniq=    3 SFac= 2.78D+00 NAtFMM=   60 NAOKFM=F Big=F
 Integral buffers will be    131072 words long.
 Raffenetti 2 integral format.
 Two-electron integral symmetry is turned on.
 One-electron integrals computed using PRISM.
   6 Symmetry operations used in ECPInt.
 ECPInt:  NShTT=    4095 NPrTT=   10902 LenC2=    3914 LenP2D=    8573.
 LDataN:  DoStor=T MaxTD1= 8 Len=  415
 NBasis=   316 RedAO= T EigKep=  2.01D-04  NBF=   186   130
 NBsUse=   316 1.00D-06 EigRej= -1.00D+00 NBFU=   186   130
 Defaulting to unpruned grid for atomic number  43.
 ExpMin= 2.15D-02 ExpMax= 1.33D+05 ExpMxC= 1.27D+03 IAcc=3 IRadAn=         5 AccDes= 0.00D+00
 Harris functional with IExCor= 1009 and IRadAn=       5 diagonalized for initial guess.
 HarFok:  IExCor= 1009 AccDes= 0.00D+00 IRadAn=         5 IDoV= 1 UseB2=F ITyADJ=14
 ICtDFT=  3500011 ScaDFX=  1.000000  1.000000  1.000000  1.000000
 Defaulting to unpruned grid for atomic number  43.
 FoFCou: FMM=F IPFlag=           0 FMFlag=      100000 FMFlg1=           0
         NFxFlg=           0 DoJE=T BraDBF=F KetDBF=T FulRan=T
         wScrn=  0.000000 ICntrl=       500 IOpCl=  0 I1Cent=   200000004 NGrid=           0
         NMat0=    1 NMatS0=      1 NMatT0=    0 NMatD0=    1 NMtDS0=    0 NMtDT0=    0
 Petite list used in FoFCou.
 Initial guess orbital symmetries:
       Occupied  (A1) (E) (E) (A1) (A1) (E) (E) (A1) (A1) (A1)
                 (E) (E) (A1) (E) (E) (E) (E) (A1) (E) (E) (A1)
                 (E) (E) (A2)
       Virtual   (E) (E) (A1) (E) (E) (A1) (A1) (E) (E) (A1) (A1)
                 (E) (E) (E) (E) (A1) (E) (E) (E) (E) (A1) (A1)
                 (E) (E) (A2) (A1) (A1) (E) (E) (A2) (E) (E) (A1)
                 (E) (E) (A1) (E) (E) (E) (E) (A1) (A1) (E) (E)
                 (E) (E) (E) (E) (A2) (E) (E) (A1) (E) (E) (A1)
                 (A2) (A1) (E) (E) (A1) (E) (E) (A1) (A1) (E) (E)
                 (A2) (E) (E) (E) (E) (A1) (E) (E) (A2) (A1) (E)
                 (E) (E) (E) (A1) (E) (E) (A1) (E) (E) (E) (E)
                 (A1) (A2) (E) (E) (A1) (E) (E) (A1) (E) (E) (A1)
                 (E) (E) (A1) (E) (E) (A2) (E) (E) (A1) (E) (E)
                 (A2) (E) (E) (A1) (E) (E) (A1) (A2) (E) (E) (E)
                 (E) (A1) (A1) (E) (E) (A1) (E) (E) (A2) (E) (E)
                 (E) (E) (A2) (A1) (E) (E) (A1) (A1) (A1) (A2)
                 (E) (E) (E) (E) (A2) (E) (E) (E) (E) (A1) (E)
                 (E) (A1) (E) (E) (A1) (E) (E) (A2) (E) (E) (A1)
                 (E) (E) (A1) (E) (E) (A1) (E) (E) (E) (E) (A1)
                 (E) (E) (A2) (E) (E) (E) (E) (A2) (A1) (A1) (E)
                 (E) (E) (E) (A1) (A1) (E) (E) (A1) (A2) (E) (E)
                 (E) (E) (A2) (E) (E) (A1) (E) (E) (A1) (A2) (A1)
                 (E) (E) (E) (E) (E) (E) (A1) (E) (E) (A2) (A1)
                 (E) (E) (A2) (E) (E) (E) (E) (A1) (A2) (E) (E)
                 (A1) (E) (E) (E) (E) (A1) (A2) (E) (E) (E) (E)
                 (A1) (E) (E) (A1) (E) (E) (A2) (A1) (E) (E) (A2)
                 (E) (E) (A1) (A2) (E) (E) (E) (E) (A1) (E) (E)
                 (A1) (E) (E) (A1) (E) (E) (A2) (A1) (E) (E) (E)
                 (E) (A1) (A1) (E) (E) (E) (E) (A1) (A1) (A1) (E)
                 (E) (A1) (A1) (A1) (E) (E) (A1)
 The electronic state of the initial guess is 1-A1.
 Requested convergence on RMS density matrix=1.00D-08 within 128 cycles.
 Requested convergence on MAX density matrix=1.00D-06.
 Requested convergence on             energy=1.00D-06.
 No special actions if energy rises.
 Defaulting to unpruned grid for atomic number  43.
 Defaulting to unpruned grid for atomic number  43.
 Defaulting to unpruned grid for atomic number  43.
 Defaulting to unpruned grid for atomic number  43.
 Defaulting to unpruned grid for atomic number  43.
 Defaulting to unpruned grid for atomic number  43.
 Defaulting to unpruned grid for atomic number  43.
 Defaulting to unpruned grid for atomic number  43.
 EnCoef did    12 forward-backward iterations
 EnCoef did   100 forward-backward iterations
 EnCoef did   100 forward-backward iterations
 EnCoef did     9 forward-backward iterations
 EnCoef did     1 forward-backward iterations
 SCF Done:  E(RPBE-PBE) =  -406.369782700     A.U. after   14 cycles
            NFock= 14  Conv=0.49D-08     -V/T= 2.1539

 **********************************************************************

            Population analysis using the SCF Density.

 **********************************************************************

 Orbital symmetries:
       Occupied  (A1) (E) (E) (A1) (A1) (E) (E) (A1) (A1) (A1)
                 (E) (E) (A1) (E) (E) (E) (E) (A1) (E) (E) (A1)
                 (E) (E) (A2)
       Virtual   (E) (E) (A1) (E) (E) (A1) (A1) (E) (E) (A1) (A1)
                 (E) (E) (A1) (E) (E) (E) (E) (E) (E) (A1) (A1)
                 (A2) (E) (E) (A1) (A1) (E) (E) (A2) (E) (E) (A1)
                 (E) (E) (A1) (E) (E) (E) (E) (A1) (A1) (E) (E)
                 (E) (E) (E) (E) (A2) (E) (E) (A1) (A1) (E) (E)
                 (A1) (A2) (E) (E) (A1) (E) (E) (A1) (A1) (E) (E)
                 (E) (E) (A2) (E) (E) (A1) (E) (E) (A1) (A2) (E)
                 (E) (E) (E) (A1) (E) (E) (A1) (A1) (E) (E) (A2)
                 (E) (E) (E) (E) (A1) (E) (E) (A1) (E) (E) (A1)
                 (E) (E) (A1) (E) (E) (A2) (E) (E) (E) (E) (A1)
                 (A1) (A2) (E) (E) (E) (E) (A1) (A2) (E) (E) (E)
                 (E) (A1) (A1) (E) (E) (A1) (E) (E) (A2) (E) (E)
                 (E) (E) (A2) (A1) (A1) (E) (E) (A1) (A1) (A2)
                 (E) (E) (E) (E) (A2) (E) (E) (E) (E) (A1) (A1)
                 (E) (E) (E) (E) (A1) (E) (E) (A2) (E) (E) (A1)
                 (A1) (E) (E) (E) (E) (A1) (E) (E) (A1) (E) (E)
                 (A2) (E) (E) (E) (E) (A2) (E) (E) (A1) (A1) (E)
                 (E) (E) (E) (A1) (A1) (A1) (E) (E) (A2) (E) (E)
                 (E) (E) (A2) (E) (E) (A1) (E) (E) (A1) (A2) (A1)
                 (E) (E) (E) (E) (E) (E) (A1) (E) (E) (A2) (A1)
                 (E) (E) (A2) (E) (E) (E) (E) (A1) (A2) (E) (E)
                 (A1) (E) (E) (E) (E) (A1) (A2) (E) (E) (E) (E)
                 (A1) (E) (E) (A1) (E) (E) (A2) (A1) (E) (E) (A2)
                 (E) (E) (A1) (E) (E) (A2) (E) (E) (A1) (E) (E)
                 (A1) (E) (E) (A1) (E) (E) (A2) (A1) (E) (E) (E)
                 (E) (A1) (A1) (E) (E) (E) (E) (A1) (A1) (A1) (E)
                 (E) (A1) (A1) (A1) (E) (E) (A1)
 The electronic state is 1-A1.
 Alpha  occ. eigenvalues --  -24.30596 -18.83620 -18.83620 -18.83620  -2.84980
 Alpha  occ. eigenvalues --   -1.82577  -1.82577  -1.82245  -1.10588  -0.90382
 Alpha  occ. eigenvalues --   -0.89547  -0.89547  -0.48760  -0.45888  -0.45888
 Alpha  occ. eigenvalues --   -0.45376  -0.45376  -0.40044  -0.38621  -0.38621
 Alpha  occ. eigenvalues --   -0.35399  -0.33111  -0.33111  -0.31744
 Alpha virt. eigenvalues --   -0.18472  -0.18472  -0.14676  -0.09663  -0.09663
 Alpha virt. eigenvalues --   -0.03832   0.01357   0.01368   0.01368   0.08569
 Alpha virt. eigenvalues --    0.13186   0.13425   0.13425   0.15612   0.15627
 Alpha virt. eigenvalues --    0.15627   0.16381   0.16381   0.23725   0.23725
 Alpha virt. eigenvalues --    0.23842   0.26007   0.26686   0.26758   0.26758
 Alpha virt. eigenvalues --    0.34871   0.38529   0.39202   0.39202   0.40406
 Alpha virt. eigenvalues --    0.42052   0.42052   0.42151   0.45528   0.45528
 Alpha virt. eigenvalues --    0.45731   0.48584   0.48584   0.55806   0.55806
 Alpha virt. eigenvalues --    0.57878   0.64325   0.64564   0.64564   0.65583
 Alpha virt. eigenvalues --    0.65583   0.73493   0.73493   0.74994   0.83432
 Alpha virt. eigenvalues --    0.83432   0.86690   0.96478   0.98482   0.98482
 Alpha virt. eigenvalues --    1.04067   1.04080   1.09342   1.09342   1.12177
 Alpha virt. eigenvalues --    1.14336   1.14336   1.21654   1.26526   1.28225
 Alpha virt. eigenvalues --    1.28225   1.34149   1.34149   1.34313   1.38671
 Alpha virt. eigenvalues --    1.38671   1.40227   1.40571   1.40571   1.49873
 Alpha virt. eigenvalues --    1.50918   1.54751   1.54751   1.57564   1.57564
 Alpha virt. eigenvalues --    1.63356   1.68377   1.68377   1.68728   1.71634
 Alpha virt. eigenvalues --    1.73510   1.73510   1.75083   1.75654   1.75654
 Alpha virt. eigenvalues --    1.76649   1.76649   1.86712   2.01950   2.01950
 Alpha virt. eigenvalues --    2.07324   2.14074   2.14074   2.17911   2.22102
 Alpha virt. eigenvalues --    2.22102   2.30059   2.30611   2.30611   2.39267
 Alpha virt. eigenvalues --    2.51972   2.51972   2.69521   2.69521   2.70405
 Alpha virt. eigenvalues --    2.95070   2.95838   2.98562   2.98562   3.02461
 Alpha virt. eigenvalues --    3.02461   3.11466   3.15552   3.24872   3.24872
 Alpha virt. eigenvalues --    3.27565   3.27565   3.29286   3.35770   3.44509
 Alpha virt. eigenvalues --    3.44509   3.56815   3.58961   3.58961   3.62424
 Alpha virt. eigenvalues --    3.63629   3.63629   3.75035   3.75035   3.76699
 Alpha virt. eigenvalues --    3.83534   3.87032   3.87071   3.87071   3.97975
 Alpha virt. eigenvalues --    4.00928   4.01710   4.02419   4.02419   4.14530
 Alpha virt. eigenvalues --    4.14530   4.17670   4.21524   4.21524   4.24008
 Alpha virt. eigenvalues --    4.24008   4.31546   4.36248   4.36952   4.36952
 Alpha virt. eigenvalues --    4.41402   4.41402   4.46564   4.87068   4.87068
 Alpha virt. eigenvalues --    4.91721   4.98527   4.98527   5.02862   5.08864
 Alpha virt. eigenvalues --    5.12255   5.12255   5.16409   5.16409   5.18322
 Alpha virt. eigenvalues --    5.22534   5.22534   5.27545   5.30089   5.30089
 Alpha virt. eigenvalues --    5.33803   5.35008   5.35008   5.39226   5.39226
 Alpha virt. eigenvalues --    5.62380   5.63990   5.63990   5.73648   5.80155
 Alpha virt. eigenvalues --    5.88366   5.88366   6.26176   6.26176   6.31593
 Alpha virt. eigenvalues --    7.03592   8.00829   8.04975   8.04975   8.63655
 Alpha virt. eigenvalues --    8.64619   8.64619   8.66016   8.66016   8.66143
 Alpha virt. eigenvalues --    8.66371   8.66371   8.66602   8.68343   8.68343
 Alpha virt. eigenvalues --    8.70201   8.72934   8.73934   8.74369   8.74369
 Alpha virt. eigenvalues --    8.78577   8.78577   8.80299   8.80299   8.88429
 Alpha virt. eigenvalues --    8.93062   8.93062   8.98822   9.38313   9.64921
 Alpha virt. eigenvalues --    9.64921  10.69275  10.71079  10.71079  10.73184
 Alpha virt. eigenvalues --   10.73184  10.76972  10.80299  10.88374  10.88374
 Alpha virt. eigenvalues --   10.93957  11.01522  11.01522  11.13748  11.13748
 Alpha virt. eigenvalues --   11.16255  11.18334  11.19030  11.19030  11.20037
 Alpha virt. eigenvalues --   11.20037  11.21284  11.21874  11.21874  11.27070
 Alpha virt. eigenvalues --   11.34063  11.34063  11.41237  11.61997  11.74987
 Alpha virt. eigenvalues --   11.74987  11.78924  11.81230  11.81230  11.85615
 Alpha virt. eigenvalues --   12.01912  12.01912  12.03468  12.06759  12.06759
 Alpha virt. eigenvalues --   12.17689  12.20081  12.20081  12.30749  12.40726
 Alpha virt. eigenvalues --   12.40726  13.00229  13.48014  13.48014  14.31964
 Alpha virt. eigenvalues --   14.33109  14.41432  14.41432  14.57661  14.57661
 Alpha virt. eigenvalues --   14.64476  15.00517  15.57473  15.57473  15.89444
 Alpha virt. eigenvalues --   15.89444  16.18170  27.47788  47.10908  47.25526
 Alpha virt. eigenvalues --   47.25526  53.70569  91.54512 251.62035 251.77711
 Alpha virt. eigenvalues --  251.77711 284.08635
          Condensed to atoms (all electrons):
               1          2          3          4          5
     1  Tc  12.107324   0.274216   0.462199   0.462199   0.462199
     2  F    0.274216   9.010913   0.004751   0.004751   0.004751
     3  O    0.462199   0.004751   7.823301   0.010288   0.010288
     4  O    0.462199   0.004751   0.010288   7.823301   0.010288
     5  O    0.462199   0.004751   0.010288   0.010288   7.823301
 Mulliken charges:
               1
     1  Tc   1.231863
     2  F   -0.299382
     3  O   -0.310827
     4  O   -0.310827
     5  O   -0.310827
 Sum of Mulliken charges =  -0.00000
 Mulliken charges with hydrogens summed into heavy atoms:
               1
     1  Tc   1.231863
     2  F   -0.299382
     3  O   -0.310827
     4  O   -0.310827
     5  O   -0.310827
 Electronic spatial extent (au):  <R**2>=            458.3838
 Charge=             -0.0000 electrons
 Dipole moment (field-independent basis, Debye):
    X=             -0.0000    Y=              0.0000    Z=             -0.6183  Tot=              0.6183
 Quadrupole moment (field-independent basis, Debye-Ang):
   XX=            -44.2920   YY=            -44.2920   ZZ=            -44.0129
   XY=             -0.0000   XZ=              0.0000   YZ=              0.0000
 Traceless Quadrupole moment (field-independent basis, Debye-Ang):
   XX=             -0.0930   YY=             -0.0930   ZZ=              0.1861
   XY=             -0.0000   XZ=              0.0000   YZ=              0.0000
 Octapole moment (field-independent basis, Debye-Ang**2):
  XXX=             -0.0000  YYY=             -3.9180  ZZZ=              0.5745  XYY=             -0.0000
  XXY=              3.9180  XXZ=             -5.1757  XZZ=             -0.0000  YZZ=             -0.0000
  YYZ=             -5.1757  XYZ=             -0.0000
 Hexadecapole moment (field-independent basis, Debye-Ang**3):
 XXXX=           -172.3376 YYYY=           -172.3376 ZZZZ=           -185.2723 XXXY=             -0.0000
 XXXZ=              0.0000 YYYX=             -0.0000 YYYZ=             -1.9079 ZZZX=             -0.0000
 ZZZY=             -0.0000 XXYY=            -57.4459 XXZZ=            -58.3885 YYZZ=            -58.3885
 XXYZ=              1.9079 YYXZ=             -0.0000 ZZXY=             -0.0000
 N-N= 2.259040389722D+02 E-N=-1.389453117689D+03  KE= 3.521558277571D+02
 Symmetry A'   KE= 2.582922805002D+02
 Symmetry A"   KE= 9.386354725690D+01
   6 Symmetry operations used in ECPInt.
 ECPInt:  NShTT=    4095 NPrTT=   10902 LenC2=    3914 LenP2D=    8573.
 LDataN:  DoStor=T MaxTD1= 9 Len=  602
 Calling FoFJK, ICntrl=      2527 FMM=F ISym2X=1 I1Cent= 0 IOpClX= 0 NMat=1 NMatS=1 NMatT=0.
 Defaulting to unpruned grid for atomic number  43.
 Defaulting to unpruned grid for atomic number  43.
 Defaulting to unpruned grid for atomic number  43.
 Defaulting to unpruned grid for atomic number  43.
 Defaulting to unpruned grid for atomic number  43.
 Defaulting to unpruned grid for atomic number  43.
 Defaulting to unpruned grid for atomic number  43.
 Defaulting to unpruned grid for atomic number  43.
 ***** Axes restored to original set *****
 -------------------------------------------------------------------
 Center     Atomic                   Forces (Hartrees/Bohr)
 Number     Number              X              Y              Z
 -------------------------------------------------------------------
      1       43          -0.000000000    0.000000000   -0.013721570
      2        9           0.000000000    0.000000000   -0.010037618
      3        8          -0.009604577    0.016635615    0.007919729
      4        8          -0.009604577   -0.016635615    0.007919729
      5        8           0.019209153   -0.000000000    0.007919729
 -------------------------------------------------------------------
 Cartesian Forces:  Max     0.019209153 RMS     0.010276758

 GradGradGradGradGradGradGradGradGradGradGradGradGradGradGradGradGradGrad
 Berny optimization.
 FormGI is forming the generalized inverse of G from B-inverse, IUseBI=4.
 Internal  Forces:  Max     0.020762145 RMS     0.009993577
 Search for a local minimum.
 Step number   1 out of a maximum of   24
 All quantities printed in internal units (Hartrees-Bohrs-Radians)
 Mixed Optimization -- RFO/linear search
 Second derivative matrix not updated -- first step.
 The second derivative matrix:
                          R1        R2        R3        R4        A1
           R1           0.26983
           R2           0.00000   0.45083
           R3           0.00000   0.00000   0.45083
           R4           0.00000   0.00000   0.00000   0.45083
           A1           0.00000   0.00000   0.00000   0.00000   0.25000
           A2           0.00000   0.00000   0.00000   0.00000   0.00000
           A3           0.00000   0.00000   0.00000   0.00000   0.00000
           A4           0.00000   0.00000   0.00000   0.00000   0.00000
           A5           0.00000   0.00000   0.00000   0.00000   0.00000
           A6           0.00000   0.00000   0.00000   0.00000   0.00000
           D1           0.00000   0.00000   0.00000   0.00000   0.00000
           D2           0.00000   0.00000   0.00000   0.00000   0.00000
           D3           0.00000   0.00000   0.00000   0.00000   0.00000
           D4           0.00000   0.00000   0.00000   0.00000   0.00000
                          A2        A3        A4        A5        A6
           A2           0.25000
           A3           0.00000   0.25000
           A4           0.00000   0.00000   0.25000
           A5           0.00000   0.00000   0.00000   0.25000
           A6           0.00000   0.00000   0.00000   0.00000   0.25000
           D1           0.00000   0.00000   0.00000   0.00000   0.00000
           D2           0.00000   0.00000   0.00000   0.00000   0.00000
           D3           0.00000   0.00000   0.00000   0.00000   0.00000
           D4           0.00000   0.00000   0.00000   0.00000   0.00000
                          D1        D2        D3        D4
           D1           0.02026
           D2           0.00000   0.02026
           D3           0.00000   0.00000   0.02026
           D4           0.00000   0.00000   0.00000   0.02026
 ITU=  0
     Eigenvalues ---    0.09103   0.10192   0.14093   0.25000   0.25000
     Eigenvalues ---    0.26983   0.45083   0.45083   0.45083
 RFO step:  Lambda=-3.25064539D-03 EMin= 9.10340636D-02
 Linear search not attempted -- first point.
 Iteration  1 RMS(Cart)=  0.02346855 RMS(Int)=  0.00007724
 Iteration  2 RMS(Cart)=  0.00007424 RMS(Int)=  0.00001502
 Iteration  3 RMS(Cart)=  0.00000000 RMS(Int)=  0.00001502
 ClnCor:  largest displacement from symmetrization is 1.00D-03 for atom     5.
 Variable       Old X    -DE/DX   Delta X   Delta X   Delta X     New X
                                 (Linear)    (Quad)   (Total)
    R1        3.51408  -0.01004   0.00000  -0.03676  -0.03676   3.47732
    R2        3.22169  -0.02076   0.00000  -0.04572  -0.04567   3.17602
    R3        3.22169  -0.02076   0.00000  -0.04572  -0.04567   3.17602
    R4        3.22169  -0.02076   0.00000  -0.04572  -0.04567   3.17602
    A1        1.92313  -0.00029   0.00000  -0.00407  -0.00420   1.91893
    A2        1.92313  -0.00046   0.00000  -0.00433  -0.00420   1.91893
    A3        1.92313  -0.00089   0.00000  -0.00463  -0.00420   1.91893
    A4        1.89797   0.00014   0.00000   0.00406   0.00429   1.90227
    A5        1.89797   0.00073   0.00000   0.00464   0.00429   1.90227
    A6        1.89797   0.00082   0.00000   0.00466   0.00429   1.90227
    D1        2.10953  -0.00056   0.00000  -0.00510  -0.00505   2.10448
    D2       -2.10953   0.00045   0.00000   0.00492   0.00505  -2.10448
    D3        2.10953  -0.00059   0.00000  -0.00523  -0.00505   2.10448
    D4       -2.06412  -0.00104   0.00000  -0.01015  -0.01010  -2.07422
         Item               Value     Threshold  Converged?
 Maximum Force            0.020762     0.000450     NO 
 RMS     Force            0.009994     0.000300     NO 
 Maximum Displacement     0.046635     0.001800     NO 
 RMS     Displacement     0.023434     0.001200     NO 
 Predicted change in Energy=-1.638171D-03
 GradGradGradGradGradGradGradGradGradGradGradGradGradGradGradGradGradGrad

                          Input orientation:                          
 ---------------------------------------------------------------------
 Center     Atomic      Atomic             Coordinates (Angstroms)
 Number     Number       Type             X           Y           Z
 ---------------------------------------------------------------------
      1         43           0        8.400029    8.000000    7.359150
      2          9           0        8.400029    8.000000    9.199267
      3          8           0        9.189956    6.631806    6.785799
      4          8           0        9.189956    9.368194    6.785799
      5          8           0        6.820175    8.000000    6.785799
 ---------------------------------------------------------------------
                    Distance matrix (angstroms):
                    1          2          3          4          5
     1  Tc   0.000000
     2  F    1.840117   0.000000
     3  O    1.680675   2.884574   0.000000
     4  O    1.680675   2.884574   2.736388   0.000000
     5  O    1.680675   2.884574   2.736388   2.736388   0.000000
 Stoichiometry    FO3Tc
 Framework group  C3V[C3(FTc),3SGV(O)]
 Deg. of freedom     3
 Full point group                 C3V     NOp   6
 Largest Abelian subgroup         CS      NOp   2
 Largest concise Abelian subgroup CS      NOp   2
                         Standard orientation:                         
 ---------------------------------------------------------------------
 Center     Atomic      Atomic             Coordinates (Angstroms)
 Number     Number       Type             X           Y           Z
 ---------------------------------------------------------------------
      1         43           0        0.000000    0.000000    0.036851
      2          9           0        0.000000    0.000000   -1.803267
      3          8           0        0.000000    1.579854    0.610201
      4          8           0        1.368194   -0.789927    0.610201
      5          8           0       -1.368194   -0.789927    0.610201
 ---------------------------------------------------------------------
 Rotational constants (GHZ):           4.2196854           3.6188341           3.6188341
 Standard basis: def2QZVPP (5D, 7F)
 There are   243 symmetry adapted cartesian basis functions of A'  symmetry.
 There are   161 symmetry adapted cartesian basis functions of A"  symmetry.
 There are   186 symmetry adapted basis functions of A'  symmetry.
 There are   130 symmetry adapted basis functions of A"  symmetry.
   316 basis functions,   513 primitive gaussians,   404 cartesian basis functions
    24 alpha electrons       24 beta electrons
       nuclear repulsion energy       228.9279169963 Hartrees.
 NAtoms=    5 NActive=    5 NUniq=    3 SFac= 2.78D+00 NAtFMM=   60 NAOKFM=F Big=F
 Integral buffers will be    131072 words long.
 Raffenetti 2 integral format.
 Two-electron integral symmetry is turned on.
 One-electron integrals computed using PRISM.
   6 Symmetry operations used in ECPInt.
 ECPInt:  NShTT=    4095 NPrTT=   10902 LenC2=    3923 LenP2D=    8618.
 LDataN:  DoStor=T MaxTD1= 8 Len=  415
 NBasis=   316 RedAO= T EigKep=  1.90D-04  NBF=   186   130
 NBsUse=   316 1.00D-06 EigRej= -1.00D+00 NBFU=   186   130
 Defaulting to unpruned grid for atomic number  43.
 Initial guess from the checkpoint file:  "/data/hutter/SMG16/PBE/Gau-27379.chk"
 B after Tr=    -0.000000   -0.000000   -0.000000
         Rot=    1.000000   -0.000000    0.000000    0.000000 Ang=   0.00 deg.
 Initial guess orbital symmetries:
       Occupied  (A1) (E) (E) (A1) (A1) (E) (E) (A1) (A1) (A1)
                 (E) (E) (A1) (E) (E) (E) (E) (A1) (E) (E) (A1)
                 (E) (E) (A2)
       Virtual   (E) (E) (A1) (E) (E) (A1) (A1) (E) (E) (A1) (A1)
                 (E) (E) (A1) (E) (E) (E) (E) (E) (E) (A1) (A1)
                 (A2) (E) (E) (A1) (A1) (E) (E) (A2) (E) (E) (A1)
                 (E) (E) (A1) (E) (E) (E) (E) (A1) (A1) (E) (E)
                 (E) (E) (E) (E) (A2) (E) (E) (A1) (A1) (E) (E)
                 (A1) (A2) (E) (E) (A1) (E) (E) (A1) (A1) (E) (E)
                 (E) (E) (A2) (E) (E) (A1) (E) (E) (A1) (A2) (E)
                 (E) (E) (E) (A1) (E) (E) (A1) (A1) (E) (E) (A2)
                 (E) (E) (E) (E) (A1) (E) (E) (A1) (E) (E) (A1)
                 (E) (E) (A1) (E) (E) (A2) (E) (E) (E) (E) (A1)
                 (A1) (A2) (E) (E) (E) (E) (A1) (A2) (E) (E) (E)
                 (E) (A1) (A1) (E) (E) (A1) (E) (E) (A2) (E) (E)
                 (E) (E) (A2) (A1) (A1) (E) (E) (A1) (A1) (A2)
                 (E) (E) (E) (E) (A2) (E) (E) (E) (E) (A1) (A1)
                 (E) (E) (E) (E) (A1) (E) (E) (A2) (E) (E) (A1)
                 (A1) (E) (E) (E) (E) (A1) (E) (E) (A1) (E) (E)
                 (A2) (E) (E) (E) (E) (A2) (E) (E) (A1) (A1) (E)
                 (E) (E) (E) (A1) (A1) (A1) (E) (E) (A2) (E) (E)
                 (E) (E) (A2) (E) (E) (A1) (E) (E) (A1) (A2) (A1)
                 (E) (E) (E) (E) (E) (E) (A1) (E) (E) (A2) (A1)
                 (E) (E) (A2) (E) (E) (E) (E) (A1) (A2) (E) (E)
                 (A1) (E) (E) (E) (E) (A1) (A2) (E) (E) (E) (E)
                 (A1) (E) (E) (A1) (E) (E) (A2) (A1) (E) (E) (A2)
                 (E) (E) (A1) (E) (E) (A2) (E) (E) (A1) (E) (E)
                 (A1) (E) (E) (A1) (E) (E) (A2) (A1) (E) (E) (E)
                 (E) (A1) (A1) (E) (E) (E) (E) (A1) (A1) (A1) (E)
                 (E) (A1) (A1) (A1) (E) (E) (A1)
 ExpMin= 2.15D-02 ExpMax= 1.33D+05 ExpMxC= 1.27D+03 IAcc=3 IRadAn=         5 AccDes= 0.00D+00
 Harris functional with IExCor= 1009 and IRadAn=       5 diagonalized for initial guess.
 HarFok:  IExCor= 1009 AccDes= 0.00D+00 IRadAn=         5 IDoV= 1 UseB2=F ITyADJ=14
 ICtDFT=  3500011 ScaDFX=  1.000000  1.000000  1.000000  1.000000
 Defaulting to unpruned grid for atomic number  43.
 FoFCou: FMM=F IPFlag=           0 FMFlag=      100000 FMFlg1=           0
         NFxFlg=           0 DoJE=T BraDBF=F KetDBF=T FulRan=T
         wScrn=  0.000000 ICntrl=       500 IOpCl=  0 I1Cent=   200000004 NGrid=           0
         NMat0=    1 NMatS0=      1 NMatT0=    0 NMatD0=    1 NMtDS0=    0 NMtDT0=    0
 Petite list used in FoFCou.
 Requested convergence on RMS density matrix=1.00D-08 within 128 cycles.
 Requested convergence on MAX density matrix=1.00D-06.
 Requested convergence on             energy=1.00D-06.
 No special actions if energy rises.
 Defaulting to unpruned grid for atomic number  43.
 Defaulting to unpruned grid for atomic number  43.
 Defaulting to unpruned grid for atomic number  43.
 Defaulting to unpruned grid for atomic number  43.
 Defaulting to unpruned grid for atomic number  43.
 Defaulting to unpruned grid for atomic number  43.
 Defaulting to unpruned grid for atomic number  43.
 Defaulting to unpruned grid for atomic number  43.
 SCF Done:  E(RPBE-PBE) =  -406.371132802     A.U. after   10 cycles
            NFock= 10  Conv=0.41D-08     -V/T= 2.1533
   6 Symmetry operations used in ECPInt.
 ECPInt:  NShTT=    4095 NPrTT=   10902 LenC2=    3923 LenP2D=    8618.
 LDataN:  DoStor=T MaxTD1= 9 Len=  602
 Calling FoFJK, ICntrl=      2527 FMM=F ISym2X=1 I1Cent= 0 IOpClX= 0 NMat=1 NMatS=1 NMatT=0.
 Defaulting to unpruned grid for atomic number  43.
 Defaulting to unpruned grid for atomic number  43.
 Defaulting to unpruned grid for atomic number  43.
 Defaulting to unpruned grid for atomic number  43.
 Defaulting to unpruned grid for atomic number  43.
 Defaulting to unpruned grid for atomic number  43.
 Defaulting to unpruned grid for atomic number  43.
 Defaulting to unpruned grid for atomic number  43.
 ***** Axes restored to original set *****
 -------------------------------------------------------------------
 Center     Atomic                   Forces (Hartrees/Bohr)
 Number     Number              X              Y              Z
 -------------------------------------------------------------------
      1       43          -0.000000000    0.000000000    0.002067245
      2        9           0.000000000   -0.000000000    0.001667569
      3        8           0.002028287   -0.003513097   -0.001244938
      4        8           0.002028287    0.003513097   -0.001244938
      5        8          -0.004056574    0.000000000   -0.001244938
 -------------------------------------------------------------------
 Cartesian Forces:  Max     0.004056574 RMS     0.002017776

 GradGradGradGradGradGradGradGradGradGradGradGradGradGradGradGradGradGrad
 Berny optimization.
 Using GEDIIS/GDIIS optimizer.
 FormGI is forming the generalized inverse of G from B-inverse, IUseBI=4.
 Internal  Forces:  Max     0.004237928 RMS     0.002016897
 Search for a local minimum.
 Step number   2 out of a maximum of   24
 All quantities printed in internal units (Hartrees-Bohrs-Radians)
 Mixed Optimization -- RFO/linear search
 Update second derivatives using D2CorX and points    1    2
 DE= -1.35D-03 DEPred=-1.64D-03 R= 8.24D-01
 TightC=F SS=  1.41D+00  RLast= 8.89D-02 DXNew= 5.0454D-01 2.6658D-01
 Trust test= 8.24D-01 RLast= 8.89D-02 DXMaxT set to 3.00D-01
 The second derivative matrix:
                          R1        R2        R3        R4        A1
           R1           0.27456
           R2           0.01193   0.48010
           R3           0.01193   0.02927   0.48010
           R4           0.01193   0.02927   0.02927   0.48010
           A1          -0.00258  -0.00532  -0.00532  -0.00532   0.24967
           A2          -0.00222  -0.00454  -0.00454  -0.00454  -0.00032
           A3          -0.00126  -0.00249  -0.00249  -0.00249  -0.00031
           A4           0.00300   0.00620   0.00620   0.00620   0.00034
           A5           0.00168   0.00340   0.00340   0.00340   0.00032
           A6           0.00148   0.00296   0.00296   0.00296   0.00032
           D1           0.00092   0.00199   0.00199   0.00199  -0.00001
           D2          -0.00068  -0.00147  -0.00147  -0.00147   0.00001
           D3           0.00100   0.00216   0.00216   0.00216  -0.00001
           D4           0.00168   0.00364   0.00364   0.00364  -0.00002
                          A2        A3        A4        A5        A6
           A2           0.24969
           A3          -0.00029   0.24977
           A4           0.00034   0.00033   0.24964
           A5           0.00030   0.00026  -0.00034   0.24972
           A6           0.00030   0.00025  -0.00034  -0.00027   0.24974
           D1           0.00000   0.00004   0.00002  -0.00002  -0.00003
           D2           0.00000  -0.00002  -0.00003   0.00001   0.00002
           D3           0.00000   0.00004   0.00002  -0.00003  -0.00003
           D4           0.00000   0.00006   0.00005  -0.00004  -0.00005
                          D1        D2        D3        D4
           D1           0.02030
           D2          -0.00003   0.02028
           D3           0.00004  -0.00003   0.02031
           D4           0.00007  -0.00006   0.00008   0.02040
 ITU=  1  0
 Use linear search instead of GDIIS.
     Eigenvalues ---    0.09097   0.10092   0.14154   0.24991   0.25000
     Eigenvalues ---    0.27296   0.45083   0.45083   0.54029
 RFO step:  Lambda=-6.54111425D-06 EMin= 9.09687851D-02
 Quartic linear search produced a step of -0.15440.
 Iteration  1 RMS(Cart)=  0.00393024 RMS(Int)=  0.00000284
 Iteration  2 RMS(Cart)=  0.00000243 RMS(Int)=  0.00000095
 Iteration  3 RMS(Cart)=  0.00000000 RMS(Int)=  0.00000095
 ClnCor:  largest displacement from symmetrization is 1.93D-04 for atom     5.
 Variable       Old X    -DE/DX   Delta X   Delta X   Delta X     New X
                                 (Linear)    (Quad)   (Total)
    R1        3.47732   0.00167   0.00568  -0.00117   0.00451   3.48182
    R2        3.17602   0.00424   0.00705   0.00033   0.00739   3.18340
    R3        3.17602   0.00424   0.00705   0.00033   0.00739   3.18340
    R4        3.17602   0.00424   0.00705   0.00033   0.00739   3.18340
    A1        1.91893  -0.00008   0.00065  -0.00181  -0.00119   1.91774
    A2        1.91893  -0.00012   0.00065  -0.00187  -0.00119   1.91774
    A3        1.91893  -0.00023   0.00065  -0.00193  -0.00119   1.91774
    A4        1.90227   0.00003  -0.00066   0.00182   0.00121   1.90348
    A5        1.90227   0.00019  -0.00066   0.00194   0.00121   1.90348
    A6        1.90227   0.00021  -0.00066   0.00194   0.00121   1.90348
    D1        2.10448  -0.00015   0.00078  -0.00224  -0.00144   2.10304
    D2       -2.10448   0.00012  -0.00078   0.00220   0.00144  -2.10304
    D3        2.10448  -0.00016   0.00078  -0.00226  -0.00144   2.10304
    D4       -2.07422  -0.00027   0.00156  -0.00446  -0.00288  -2.07711
         Item               Value     Threshold  Converged?
 Maximum Force            0.004238     0.000450     NO 
 RMS     Force            0.002017     0.000300     NO 
 Maximum Displacement     0.008238     0.001800     NO 
 RMS     Displacement     0.003923     0.001200     NO 
 Predicted change in Energy=-5.428617D-05
 GradGradGradGradGradGradGradGradGradGradGradGradGradGradGradGradGradGrad

                          Input orientation:                          
 ---------------------------------------------------------------------
 Center     Atomic      Atomic             Coordinates (Angstroms)
 Number     Number       Type             X           Y           Z
 ---------------------------------------------------------------------
      1         43           0        8.400029    8.000000    7.358313
      2          9           0        8.400029    8.000000    9.200815
      3          8           0        9.192136    6.628031    6.785520
      4          8           0        9.192136    9.371969    6.785520
      5          8           0        6.815816    8.000000    6.785520
 ---------------------------------------------------------------------
                    Distance matrix (angstroms):
                    1          2          3          4          5
     1  Tc   0.000000
     2  F    1.842502   0.000000
     3  O    1.684584   2.888492   0.000000
     4  O    1.684584   2.888492   2.743938   0.000000
     5  O    1.684584   2.888492   2.743938   2.743938   0.000000
 Stoichiometry    FO3Tc
 Framework group  C3V[C3(FTc),3SGV(O)]
 Deg. of freedom     3
 Full point group                 C3V     NOp   6
 Largest Abelian subgroup         CS      NOp   2
 Largest concise Abelian subgroup CS      NOp   2
                         Standard orientation:                         
 ---------------------------------------------------------------------
 Center     Atomic      Atomic             Coordinates (Angstroms)
 Number     Number       Type             X           Y           Z
 ---------------------------------------------------------------------
      1         43           0        0.000000    0.000000    0.037309
      2          9           0        0.000000    0.000000   -1.805193
      3          8           0        0.000000    1.584213    0.610102
      4          8           0        1.371969   -0.792107    0.610102
      5          8           0       -1.371969   -0.792107    0.610102
 ---------------------------------------------------------------------
 Rotational constants (GHZ):           4.1964946           3.6069369           3.6069369
 Standard basis: def2QZVPP (5D, 7F)
 There are   243 symmetry adapted cartesian basis functions of A'  symmetry.
 There are   161 symmetry adapted cartesian basis functions of A"  symmetry.
 There are   186 symmetry adapted basis functions of A'  symmetry.
 There are   130 symmetry adapted basis functions of A"  symmetry.
   316 basis functions,   513 primitive gaussians,   404 cartesian basis functions
    24 alpha electrons       24 beta electrons
       nuclear repulsion energy       228.4587344517 Hartrees.
 NAtoms=    5 NActive=    5 NUniq=    3 SFac= 2.78D+00 NAtFMM=   60 NAOKFM=F Big=F
 Integral buffers will be    131072 words long.
 Raffenetti 2 integral format.
 Two-electron integral symmetry is turned on.
 One-electron integrals computed using PRISM.
   6 Symmetry operations used in ECPInt.
 ECPInt:  NShTT=    4095 NPrTT=   10902 LenC2=    3920 LenP2D=    8612.
 LDataN:  DoStor=T MaxTD1= 8 Len=  415
 NBasis=   316 RedAO= T EigKep=  1.91D-04  NBF=   186   130
 NBsUse=   316 1.00D-06 EigRej= -1.00D+00 NBFU=   186   130
 Defaulting to unpruned grid for atomic number  43.
 Initial guess from the checkpoint file:  "/data/hutter/SMG16/PBE/Gau-27379.chk"
 B after Tr=    -0.000000   -0.000000    0.000000
         Rot=    1.000000    0.000000   -0.000000    0.000000 Ang=   0.00 deg.
 Initial guess orbital symmetries:
       Occupied  (A1) (E) (E) (A1) (A1) (E) (E) (A1) (A1) (A1)
                 (E) (E) (A1) (E) (E) (E) (E) (A1) (E) (E) (A1)
                 (E) (E) (A2)
       Virtual   (E) (E) (A1) (E) (E) (A1) (A1) (E) (E) (A1) (A1)
                 (E) (E) (E) (E) (A1) (E) (E) (E) (E) (A1) (A1)
                 (A2) (E) (E) (A1) (A1) (E) (E) (A2) (E) (E) (A1)
                 (A1) (E) (E) (E) (E) (E) (E) (A1) (A1) (E) (E)
                 (E) (E) (E) (E) (A2) (E) (E) (A1) (A1) (E) (E)
                 (A2) (A1) (E) (E) (A1) (E) (E) (A1) (A1) (E) (E)
                 (A2) (E) (E) (E) (E) (A1) (E) (E) (A1) (A2) (E)
                 (E) (E) (E) (A1) (E) (E) (A1) (A1) (E) (E) (A2)
                 (E) (E) (E) (E) (A1) (E) (E) (A1) (E) (E) (A1)
                 (E) (E) (A1) (E) (E) (A2) (E) (E) (E) (E) (A1)
                 (A2) (A1) (E) (E) (E) (E) (A1) (A2) (E) (E) (E)
                 (E) (A1) (A1) (E) (E) (A1) (E) (E) (A2) (E) (E)
                 (E) (E) (A2) (A1) (A1) (E) (E) (A1) (A1) (A2)
                 (E) (E) (E) (E) (A2) (E) (E) (E) (E) (A1) (E)
                 (E) (A1) (E) (E) (A1) (E) (E) (A2) (E) (E) (A1)
                 (A1) (E) (E) (E) (E) (A1) (E) (E) (E) (E) (A1)
                 (A2) (E) (E) (E) (E) (E) (E) (A2) (A1) (A1) (E)
                 (E) (E) (E) (A1) (A1) (A1) (E) (E) (A2) (E) (E)
                 (E) (E) (A2) (E) (E) (A1) (E) (E) (A1) (A2) (A1)
                 (E) (E) (E) (E) (E) (E) (A1) (E) (E) (A2) (A1)
                 (E) (E) (A2) (E) (E) (E) (E) (A1) (A2) (E) (E)
                 (A1) (E) (E) (E) (E) (A1) (A2) (E) (E) (E) (E)
                 (E) (E) (A1) (A1) (E) (E) (A2) (A1) (E) (E) (A2)
                 (E) (E) (A1) (A2) (E) (E) (E) (E) (A1) (E) (E)
                 (A1) (E) (E) (A1) (E) (E) (A2) (A1) (E) (E) (E)
                 (E) (A1) (A1) (E) (E) (E) (E) (A1) (A1) (A1) (E)
                 (E) (A1) (A1) (A1) (E) (E) (A1)
 Requested convergence on RMS density matrix=1.00D-08 within 128 cycles.
 Requested convergence on MAX density matrix=1.00D-06.
 Requested convergence on             energy=1.00D-06.
 No special actions if energy rises.
 Defaulting to unpruned grid for atomic number  43.
 Defaulting to unpruned grid for atomic number  43.
 Defaulting to unpruned grid for atomic number  43.
 Defaulting to unpruned grid for atomic number  43.
 Defaulting to unpruned grid for atomic number  43.
 Defaulting to unpruned grid for atomic number  43.
 Defaulting to unpruned grid for atomic number  43.
 Defaulting to unpruned grid for atomic number  43.
 SCF Done:  E(RPBE-PBE) =  -406.371184643     A.U. after    8 cycles
            NFock=  8  Conv=0.40D-08     -V/T= 2.1534
   6 Symmetry operations used in ECPInt.
 ECPInt:  NShTT=    4095 NPrTT=   10902 LenC2=    3920 LenP2D=    8612.
 LDataN:  DoStor=T MaxTD1= 9 Len=  602
 Calling FoFJK, ICntrl=      2527 FMM=F ISym2X=1 I1Cent= 0 IOpClX= 0 NMat=1 NMatS=1 NMatT=0.
 Defaulting to unpruned grid for atomic number  43.
 Defaulting to unpruned grid for atomic number  43.
 Defaulting to unpruned grid for atomic number  43.
 Defaulting to unpruned grid for atomic number  43.
 Defaulting to unpruned grid for atomic number  43.
 Defaulting to unpruned grid for atomic number  43.
 Defaulting to unpruned grid for atomic number  43.
 Defaulting to unpruned grid for atomic number  43.
 ***** Axes restored to original set *****
 -------------------------------------------------------------------
 Center     Atomic                   Forces (Hartrees/Bohr)
 Number     Number              X              Y              Z
 -------------------------------------------------------------------
      1       43          -0.000000000    0.000000000   -0.000107305
      2        9          -0.000000000   -0.000000000    0.000030445
      3        8          -0.000000449    0.000000778    0.000025620
      4        8          -0.000000449   -0.000000778    0.000025620
      5        8           0.000000898   -0.000000000    0.000025620
 -------------------------------------------------------------------
 Cartesian Forces:  Max     0.000107305 RMS     0.000030998

 GradGradGradGradGradGradGradGradGradGradGradGradGradGradGradGradGradGrad
 Berny optimization.
 Using GEDIIS/GDIIS optimizer.
 FormGI is forming the generalized inverse of G from B-inverse, IUseBI=4.
 Internal  Forces:  Max     0.000030622 RMS     0.000018515
 Search for a local minimum.
 Step number   3 out of a maximum of   24
 All quantities printed in internal units (Hartrees-Bohrs-Radians)
 Mixed Optimization -- En-DIIS/RFO-DIIS
 Update second derivatives using D2CorX and points    1    2    3
 DE= -5.18D-05 DEPred=-5.43D-05 R= 9.55D-01
 TightC=F SS=  1.41D+00  RLast= 1.44D-02 DXNew= 5.0454D-01 4.3189D-02
 Trust test= 9.55D-01 RLast= 1.44D-02 DXMaxT set to 3.00D-01
 The second derivative matrix:
                          R1        R2        R3        R4        A1
           R1           0.27740
           R2           0.01749   0.48919
           R3           0.01749   0.03836   0.48919
           R4           0.01749   0.03836   0.03836   0.48919
           A1           0.00244   0.00918   0.00918   0.00918   0.24716
           A2           0.00197   0.00765   0.00765   0.00765  -0.00267
           A3           0.00074   0.00362   0.00362   0.00362  -0.00223
           A4          -0.00295  -0.01087  -0.01087  -0.01087   0.00306
           A5          -0.00127  -0.00536  -0.00536  -0.00536   0.00246
           A6          -0.00101  -0.00452  -0.00452  -0.00452   0.00236
           D1          -0.00126  -0.00403  -0.00403  -0.00403   0.00026
           D2           0.00097   0.00306   0.00306   0.00306  -0.00015
           D3          -0.00138  -0.00441  -0.00441  -0.00441   0.00030
           D4          -0.00235  -0.00747  -0.00747  -0.00747   0.00046
                          A2        A3        A4        A5        A6
           A2           0.24751
           A3          -0.00201   0.24857
           A4           0.00291   0.00249   0.24673
           A5           0.00225   0.00169  -0.00271   0.24804
           A6           0.00214   0.00157  -0.00262  -0.00184   0.24828
           D1           0.00033   0.00050  -0.00021  -0.00043  -0.00047
           D2          -0.00021  -0.00035   0.00010   0.00030   0.00033
           D3           0.00037   0.00055  -0.00024  -0.00048  -0.00052
           D4           0.00058   0.00090  -0.00034  -0.00078  -0.00085
                          D1        D2        D3        D4
           D1           0.02049
           D2          -0.00019   0.02041
           D3           0.00025  -0.00020   0.02052
           D4           0.00044  -0.00036   0.00047   0.02108
 ITU=  1  1  0
 Use linear search instead of GDIIS.
     Eigenvalues ---    0.09053   0.09964   0.14169   0.24980   0.25000
     Eigenvalues ---    0.27426   0.45083   0.45083   0.56908
 RFO step:  Lambda=-3.41158979D-08 EMin= 9.05341721D-02
 Quartic linear search produced a step of  0.00192.
 Iteration  1 RMS(Cart)=  0.00012094 RMS(Int)=  0.00000002
 Iteration  2 RMS(Cart)=  0.00000001 RMS(Int)=  0.00000002
 ClnCor:  largest displacement from symmetrization is 2.50D-05 for atom     5.
 Variable       Old X    -DE/DX   Delta X   Delta X   Delta X     New X
                                 (Linear)    (Quad)   (Total)
    R1        3.48182   0.00003   0.00001   0.00010   0.00011   3.48194
    R2        3.18340  -0.00001   0.00001  -0.00003  -0.00002   3.18339
    R3        3.18340  -0.00001   0.00001  -0.00003  -0.00002   3.18339
    R4        3.18340  -0.00001   0.00001  -0.00003  -0.00002   3.18339
    A1        1.91774  -0.00001  -0.00000  -0.00012  -0.00013   1.91760
    A2        1.91774  -0.00001  -0.00000  -0.00013  -0.00013   1.91760
    A3        1.91774  -0.00003  -0.00000  -0.00014  -0.00013   1.91760
    A4        1.90348   0.00000   0.00000   0.00012   0.00013   1.90361
    A5        1.90348   0.00002   0.00000   0.00014   0.00013   1.90361
    A6        1.90348   0.00002   0.00000   0.00014   0.00013   1.90361
    D1        2.10304  -0.00002  -0.00000  -0.00016  -0.00016   2.10288
    D2       -2.10304   0.00001   0.00000   0.00015   0.00016  -2.10288
    D3        2.10304  -0.00002  -0.00000  -0.00016  -0.00016   2.10288
    D4       -2.07711  -0.00003  -0.00001  -0.00031  -0.00032  -2.07742
         Item               Value     Threshold  Converged?
 Maximum Force            0.000031     0.000450     YES
 RMS     Force            0.000019     0.000300     YES
 Maximum Displacement     0.000267     0.001800     YES
 RMS     Displacement     0.000118     0.001200     YES
 Predicted change in Energy=-1.718073D-08
 Optimization completed.
    -- Stationary point found.
                           ----------------------------
                           !   Optimized Parameters   !
                           ! (Angstroms and Degrees)  !
 --------------------------                            --------------------------
 ! Name  Definition              Value          Derivative Info.                !
 --------------------------------------------------------------------------------
 ! R1    R(1,2)                  1.8425         -DE/DX =    0.0                 !
 ! R2    R(1,3)                  1.6846         -DE/DX =    0.0                 !
 ! R3    R(1,4)                  1.6846         -DE/DX =    0.0                 !
 ! R4    R(1,5)                  1.6846         -DE/DX =    0.0                 !
 ! A1    A(2,1,3)              109.8781         -DE/DX =    0.0                 !
 ! A2    A(2,1,4)              109.8781         -DE/DX =    0.0                 !
 ! A3    A(2,1,5)              109.8781         -DE/DX =    0.0                 !
 ! A4    A(3,1,4)              109.0613         -DE/DX =    0.0                 !
 ! A5    A(3,1,5)              109.0613         -DE/DX =    0.0                 !
 ! A6    A(4,1,5)              109.0613         -DE/DX =    0.0                 !
 ! D1    D(2,1,4,3)            120.4952         -DE/DX =    0.0                 !
 ! D2    D(2,1,5,3)           -120.4952         -DE/DX =    0.0                 !
 ! D3    D(2,1,5,4)            120.4952         -DE/DX =    0.0                 !
 ! D4    D(3,1,5,4)           -119.0095         -DE/DX =    0.0                 !
 --------------------------------------------------------------------------------
 GradGradGradGradGradGradGradGradGradGradGradGradGradGradGradGradGradGrad

                          Input orientation:                          
 ---------------------------------------------------------------------
 Center     Atomic      Atomic             Coordinates (Angstroms)
 Number     Number       Type             X           Y           Z
 ---------------------------------------------------------------------
      1         43           0        8.400029    8.000000    7.358313
      2          9           0        8.400029    8.000000    9.200815
      3          8           0        9.192136    6.628031    6.785520
      4          8           0        9.192136    9.371969    6.785520
      5          8           0        6.815816    8.000000    6.785520
 ---------------------------------------------------------------------
                    Distance matrix (angstroms):
                    1          2          3          4          5
     1  Tc   0.000000
     2  F    1.842502   0.000000
     3  O    1.684584   2.888492   0.000000
     4  O    1.684584   2.888492   2.743938   0.000000
     5  O    1.684584   2.888492   2.743938   2.743938   0.000000
 Stoichiometry    FO3Tc
 Framework group  C3V[C3(FTc),3SGV(O)]
 Deg. of freedom     3
 Full point group                 C3V     NOp   6
 Largest Abelian subgroup         CS      NOp   2
 Largest concise Abelian subgroup CS      NOp   2
                         Standard orientation:                         
 ---------------------------------------------------------------------
 Center     Atomic      Atomic             Coordinates (Angstroms)
 Number     Number       Type             X           Y           Z
 ---------------------------------------------------------------------
      1         43           0        0.000000    0.000000    0.037309
      2          9           0        0.000000    0.000000   -1.805193
      3          8           0        0.000000    1.584213    0.610102
      4          8           0        1.371969   -0.792107    0.610102
      5          8           0       -1.371969   -0.792107    0.610102
 ---------------------------------------------------------------------
 Rotational constants (GHZ):           4.1964946           3.6069369           3.6069369

 **********************************************************************

            Population analysis using the SCF Density.

 **********************************************************************

 Orbital symmetries:
       Occupied  (A1) (E) (E) (A1) (A1) (E) (E) (A1) (A1) (A1)
                 (E) (E) (A1) (E) (E) (E) (E) (A1) (E) (E) (A1)
                 (E) (E) (A2)
       Virtual   (E) (E) (A1) (E) (E) (A1) (A1) (E) (E) (A1) (A1)
                 (E) (E) (E) (E) (A1) (E) (E) (E) (E) (A1) (A1)
                 (A2) (E) (E) (A1) (A1) (E) (E) (A2) (E) (E) (A1)
                 (A1) (E) (E) (E) (E) (E) (E) (A1) (A1) (E) (E)
                 (E) (E) (E) (E) (A2) (E) (E) (A1) (A1) (E) (E)
                 (A2) (A1) (E) (E) (A1) (E) (E) (A1) (A1) (E) (E)
                 (A2) (E) (E) (E) (E) (A1) (E) (E) (A1) (A2) (E)
                 (E) (E) (E) (A1) (E) (E) (A1) (A1) (E) (E) (A2)
                 (E) (E) (E) (E) (A1) (E) (E) (A1) (E) (E) (A1)
                 (E) (E) (A1) (E) (E) (A2) (E) (E) (E) (E) (A1)
                 (A2) (A1) (E) (E) (E) (E) (A1) (A2) (E) (E) (E)
                 (E) (A1) (A1) (E) (E) (A1) (E) (E) (A2) (E) (E)
                 (E) (E) (A2) (A1) (A1) (E) (E) (A1) (A1) (A2)
                 (E) (E) (E) (E) (A2) (E) (E) (E) (E) (A1) (E)
                 (E) (A1) (E) (E) (A1) (E) (E) (A2) (E) (E) (A1)
                 (A1) (E) (E) (E) (E) (A1) (E) (E) (E) (E) (A1)
                 (A2) (E) (E) (E) (E) (E) (E) (A2) (A1) (A1) (E)
                 (E) (E) (E) (A1) (A1) (A1) (E) (E) (A2) (E) (E)
                 (E) (E) (A2) (E) (E) (A1) (E) (E) (A1) (A2) (A1)
                 (E) (E) (E) (E) (E) (E) (A1) (E) (E) (A2) (A1)
                 (E) (E) (A2) (E) (E) (E) (E) (A1) (A2) (E) (E)
                 (A1) (E) (E) (E) (E) (A1) (A2) (E) (E) (E) (E)
                 (E) (E) (A1) (A1) (E) (E) (A2) (A1) (E) (E) (A2)
                 (E) (E) (A1) (A2) (E) (E) (E) (E) (A1) (E) (E)
                 (A1) (E) (E) (A1) (E) (E) (A2) (A1) (E) (E) (E)
                 (E) (A1) (A1) (E) (E) (E) (E) (A1) (A1) (A1) (E)
                 (E) (A1) (A1) (A1) (E) (E) (A1)
 The electronic state is 1-A1.
 Alpha  occ. eigenvalues --  -24.30610 -18.83331 -18.83331 -18.83331  -2.84816
 Alpha  occ. eigenvalues --   -1.82609  -1.82609  -1.82145  -1.10788  -0.90510
 Alpha  occ. eigenvalues --   -0.89609  -0.89609  -0.49059  -0.46272  -0.46272
 Alpha  occ. eigenvalues --   -0.45784  -0.45784  -0.40087  -0.38691  -0.38691
 Alpha  occ. eigenvalues --   -0.35310  -0.33098  -0.33098  -0.31797
 Alpha virt. eigenvalues --   -0.17784  -0.17784  -0.13865  -0.08586  -0.08586
 Alpha virt. eigenvalues --   -0.03654   0.01375   0.01409   0.01409   0.08751
 Alpha virt. eigenvalues --    0.13244   0.13594   0.13594   0.15638   0.15638
 Alpha virt. eigenvalues --    0.15639   0.16364   0.16364   0.23670   0.23670
 Alpha virt. eigenvalues --    0.23818   0.26033   0.26620   0.26655   0.26655
 Alpha virt. eigenvalues --    0.35269   0.38748   0.39501   0.39501   0.40768
 Alpha virt. eigenvalues --    0.42335   0.42335   0.42356   0.45765   0.45801
 Alpha virt. eigenvalues --    0.45801   0.48902   0.48902   0.56202   0.56202
 Alpha virt. eigenvalues --    0.58535   0.64275   0.64492   0.64492   0.65721
 Alpha virt. eigenvalues --    0.65721   0.74101   0.74101   0.75683   0.83319
 Alpha virt. eigenvalues --    0.83319   0.86459   0.97279   0.98969   0.98969
 Alpha virt. eigenvalues --    1.04413   1.04591   1.09877   1.09877   1.13731
 Alpha virt. eigenvalues --    1.15716   1.15716   1.21357   1.26777   1.28467
 Alpha virt. eigenvalues --    1.28467   1.34524   1.34661   1.34661   1.38975
 Alpha virt. eigenvalues --    1.38975   1.40687   1.40946   1.40946   1.49824
 Alpha virt. eigenvalues --    1.52302   1.55482   1.55482   1.58713   1.58713
 Alpha virt. eigenvalues --    1.63434   1.69510   1.69510   1.69688   1.72104
 Alpha virt. eigenvalues --    1.73968   1.73968   1.75525   1.76248   1.76248
 Alpha virt. eigenvalues --    1.78448   1.78448   1.86119   2.01848   2.01848
 Alpha virt. eigenvalues --    2.09237   2.15316   2.15316   2.18934   2.23845
 Alpha virt. eigenvalues --    2.23845   2.30748   2.32935   2.32935   2.39179
 Alpha virt. eigenvalues --    2.52709   2.52709   2.70367   2.70367   2.73631
 Alpha virt. eigenvalues --    2.95778   2.95966   2.98621   2.98621   3.03130
 Alpha virt. eigenvalues --    3.03130   3.13236   3.16873   3.25730   3.25730
 Alpha virt. eigenvalues --    3.28755   3.28755   3.29988   3.35369   3.46332
 Alpha virt. eigenvalues --    3.46332   3.57934   3.60457   3.60457   3.62110
 Alpha virt. eigenvalues --    3.65019   3.65019   3.76132   3.76132   3.77970
 Alpha virt. eigenvalues --    3.85712   3.88174   3.89361   3.89361   3.97795
 Alpha virt. eigenvalues --    4.01299   4.01594   4.03319   4.03319   4.16058
 Alpha virt. eigenvalues --    4.16058   4.17636   4.21263   4.21263   4.24957
 Alpha virt. eigenvalues --    4.24957   4.31567   4.37606   4.37606   4.39099
 Alpha virt. eigenvalues --    4.41787   4.41787   4.48822   4.87359   4.87359
 Alpha virt. eigenvalues --    4.92481   4.99056   4.99056   5.04651   5.08404
 Alpha virt. eigenvalues --    5.11722   5.11722   5.16924   5.16924   5.17965
 Alpha virt. eigenvalues --    5.24541   5.24541   5.28968   5.28968   5.29634
 Alpha virt. eigenvalues --    5.33732   5.35036   5.35036   5.40334   5.40334
 Alpha virt. eigenvalues --    5.67851   5.67851   5.68260   5.71014   5.83448
 Alpha virt. eigenvalues --    5.93355   5.93355   6.27197   6.27197   6.39549
 Alpha virt. eigenvalues --    7.05046   8.01390   8.11320   8.11320   8.63459
 Alpha virt. eigenvalues --    8.64585   8.64585   8.65912   8.65912   8.66040
 Alpha virt. eigenvalues --    8.66315   8.66315   8.66616   8.68639   8.68639
 Alpha virt. eigenvalues --    8.70344   8.73564   8.74692   8.74866   8.74866
 Alpha virt. eigenvalues --    8.79260   8.79260   8.81620   8.81620   8.92190
 Alpha virt. eigenvalues --    8.96368   8.96368   9.03108   9.43590   9.73634
 Alpha virt. eigenvalues --    9.73634  10.69348  10.71342  10.71342  10.73629
 Alpha virt. eigenvalues --   10.73629  10.77754  10.81185  10.89350  10.89350
 Alpha virt. eigenvalues --   10.95340  11.03382  11.03382  11.15895  11.15895
 Alpha virt. eigenvalues --   11.17023  11.18275  11.19148  11.19148  11.20803
 Alpha virt. eigenvalues --   11.20803  11.22563  11.22563  11.23034  11.28140
 Alpha virt. eigenvalues --   11.36466  11.36466  11.43503  11.66120  11.75439
 Alpha virt. eigenvalues --   11.75439  11.80099  11.81958  11.81958  11.86276
 Alpha virt. eigenvalues --   12.03769  12.05780  12.05780  12.10550  12.10550
 Alpha virt. eigenvalues --   12.19300  12.21063  12.21063  12.32386  12.43181
 Alpha virt. eigenvalues --   12.43181  13.01979  13.62218  13.62218  14.31995
 Alpha virt. eigenvalues --   14.33268  14.42153  14.42153  14.58536  14.58536
 Alpha virt. eigenvalues --   14.66355  15.03462  15.57968  15.57968  15.90520
 Alpha virt. eigenvalues --   15.90520  16.19474  27.59428  47.11647  47.28922
 Alpha virt. eigenvalues --   47.28922  53.72200  91.58649 251.62790 251.81714
 Alpha virt. eigenvalues --  251.81714 284.10660
          Condensed to atoms (all electrons):
               1          2          3          4          5
     1  Tc  12.101383   0.272648   0.455041   0.455041   0.455041
     2  F    0.272648   9.008790   0.005547   0.005547   0.005547
     3  O    0.455041   0.005547   7.834940   0.012697   0.012697
     4  O    0.455041   0.005547   0.012697   7.834940   0.012697
     5  O    0.455041   0.005547   0.012697   0.012697   7.834940
 Mulliken charges:
               1
     1  Tc   1.260846
     2  F   -0.298078
     3  O   -0.320923
     4  O   -0.320923
     5  O   -0.320923
 Sum of Mulliken charges =  -0.00000
 Mulliken charges with hydrogens summed into heavy atoms:
               1
     1  Tc   1.260846
     2  F   -0.298078
     3  O   -0.320923
     4  O   -0.320923
     5  O   -0.320923
 Electronic spatial extent (au):  <R**2>=            450.0997
 Charge=             -0.0000 electrons
 Dipole moment (field-independent basis, Debye):
    X=              0.0000    Y=             -0.0000    Z=             -0.6144  Tot=              0.6144
 Quadrupole moment (field-independent basis, Debye-Ang):
   XX=            -44.2083   YY=            -44.2083   ZZ=            -43.7888
   XY=              0.0000   XZ=              0.0000   YZ=             -0.0000
 Traceless Quadrupole moment (field-independent basis, Debye-Ang):
   XX=             -0.1399   YY=             -0.1399   ZZ=              0.2797
   XY=              0.0000   XZ=              0.0000   YZ=             -0.0000
 Octapole moment (field-independent basis, Debye-Ang**2):
  XXX=              0.0000  YYY=             -3.9414  ZZZ=              0.5818  XYY=              0.0000
  XXY=              3.9414  XXZ=             -5.1156  XZZ=              0.0000  YZZ=             -0.0000
  YYZ=             -5.1156  XYZ=              0.0000
 Hexadecapole moment (field-independent basis, Debye-Ang**3):
 XXXX=           -169.5661 YYYY=           -169.5661 ZZZZ=           -180.7492 XXXY=              0.0000
 XXXZ=              0.0000 YYYX=              0.0000 YYYZ=             -1.9270 ZZZX=              0.0000
 ZZZY=             -0.0000 XXYY=            -56.5220 XXZZ=            -57.2035 YYZZ=            -57.2035
 XXYZ=              1.9270 YYXZ=              0.0000 ZZXY=              0.0000
 N-N= 2.284587344517D+02 E-N=-1.394674501572D+03  KE= 3.523229098553D+02
 Symmetry A'   KE= 2.584105192812D+02
 Symmetry A"   KE= 9.391239057402D+01
 Unable to Open any file for archive entry.
 1\1\GINC-TCOPT10\FOpt\RPBEPBE\def2QZVPP\F1O3Tc1\HUTTER\30-Jul-2021\0\\
 #N RPBEPBE/Def2QZVPP scf=tight Int(Grid=ultrafine) OPT FREQ\\Mol job 1
 \\0,1\Tc,8.4000292011,8.,7.3583127211\F,8.4000292011,8.,9.2008150216\O
 ,9.1921358876,6.628030974,6.7855195027\O,9.1921358876,9.371969026,6.78
 55195027\O,6.8158158281,8.,6.7855195027\\Version=ES64L-G16RevC.01\Stat
 e=1-A1\HF=-406.3711846\RMSD=3.998e-09\RMSF=3.100e-05\Dipole=0.,0.,0.24
 1737\Quadrupole=-0.1039766,-0.1039766,0.2079531,0.,0.,0.\PG=C03V [C3(F
 1Tc1),3SGV(O1)]\\@
 The archive entry for this job was punched.


 THERE IS NOTHING NOBLE IN BEING SUPERIOR TO SOME OTHER MAN.
 TRUE NOBILITY IS BEING SUPERIOR TO YOUR FORMER SELF.

                                                   -- HINDU PROVERB
 Job cpu time:       0 days  0 hours 25 minutes  3.0 seconds.
 Elapsed time:       0 days  0 hours  3 minutes  9.0 seconds.
 File lengths (MBytes):  RWF=     65 Int=      0 D2E=      0 Chk=      8 Scr=      1
 Normal termination of Gaussian 16 at Fri Jul 30 20:41:10 2021.
 Link1:  Proceeding to internal job step number  2.
 ----------------------------------------------------------------------
 #N Geom=AllCheck Guess=TCheck SCRF=Check GenChk RPBEPBE/def2QZVPP Freq
 ----------------------------------------------------------------------
 1/10=4,29=7,30=1,38=1,40=1/1,3;
 2/12=2,40=1/2;
 3/5=45,7=202,11=2,14=-4,25=1,30=1,70=2,71=2,74=1009,75=-5,116=1,140=1/1,2,3;
 4/5=101/1;
 5/5=2,32=2,38=6,98=1/2;
 8/6=4,10=90,11=11/1;
 11/6=1,8=1,9=11,15=111,16=1/1,2,10;
 10/6=1/2;
 6/7=2,8=2,9=2,10=2,28=1/1;
 7/8=1,10=1,25=1/1,2,3,16;
 1/10=4,30=1/3;
 99//99;
 Structure from the checkpoint file:  "/data/hutter/SMG16/PBE/Gau-27379.chk"
 ---------
 Mol job 1
 ---------
 Charge =  0 Multiplicity = 1
 Redundant internal coordinates found in file.  (old form).
 Tc,0,8.4000292011,8.,7.3583127211
 F,0,8.4000292011,8.,9.2008150216
 O,0,9.1921358876,6.628030974,6.7855195027
 O,0,9.1921358876,9.371969026,6.7855195027
 O,0,6.8158158281,8.,6.7855195027
 Recover connectivity data from disk.

 GradGradGradGradGradGradGradGradGradGradGradGradGradGradGradGradGradGrad
 Berny optimization.
 Initialization pass.
                           ----------------------------
                           !    Initial Parameters    !
                           ! (Angstroms and Degrees)  !
 --------------------------                            --------------------------
 ! Name  Definition              Value          Derivative Info.                !
 --------------------------------------------------------------------------------
 ! R1    R(1,2)                  1.8425         calculate D2E/DX2 analytically  !
 ! R2    R(1,3)                  1.6846         calculate D2E/DX2 analytically  !
 ! R3    R(1,4)                  1.6846         calculate D2E/DX2 analytically  !
 ! R4    R(1,5)                  1.6846         calculate D2E/DX2 analytically  !
 ! A1    A(2,1,3)              109.8781         calculate D2E/DX2 analytically  !
 ! A2    A(2,1,4)              109.8781         calculate D2E/DX2 analytically  !
 ! A3    A(2,1,5)              109.8781         calculate D2E/DX2 analytically  !
 ! A4    A(3,1,4)              109.0613         calculate D2E/DX2 analytically  !
 ! A5    A(3,1,5)              109.0613         calculate D2E/DX2 analytically  !
 ! A6    A(4,1,5)              109.0613         calculate D2E/DX2 analytically  !
 ! D1    D(2,1,4,3)            120.4952         calculate D2E/DX2 analytically  !
 ! D2    D(2,1,5,3)           -120.4952         calculate D2E/DX2 analytically  !
 ! D3    D(2,1,5,4)            120.4952         calculate D2E/DX2 analytically  !
 ! D4    D(3,1,5,4)           -119.0095         calculate D2E/DX2 analytically  !
 --------------------------------------------------------------------------------
 Trust Radius=3.00D-01 FncErr=1.00D-07 GrdErr=1.00D-07 EigMax=2.50D+02 EigMin=1.00D-04
 Number of steps in this run=      2 maximum allowed number of steps=      2.
 GradGradGradGradGradGradGradGradGradGradGradGradGradGradGradGradGradGrad

                          Input orientation:                          
 ---------------------------------------------------------------------
 Center     Atomic      Atomic             Coordinates (Angstroms)
 Number     Number       Type             X           Y           Z
 ---------------------------------------------------------------------
      1         43           0        8.400029    8.000000    7.358313
      2          9           0        8.400029    8.000000    9.200815
      3          8           0        9.192136    6.628031    6.785520
      4          8           0        9.192136    9.371969    6.785520
      5          8           0        6.815816    8.000000    6.785520
 ---------------------------------------------------------------------
                    Distance matrix (angstroms):
                    1          2          3          4          5
     1  Tc   0.000000
     2  F    1.842502   0.000000
     3  O    1.684584   2.888492   0.000000
     4  O    1.684584   2.888492   2.743938   0.000000
     5  O    1.684584   2.888492   2.743938   2.743938   0.000000
 Stoichiometry    FO3Tc
 Framework group  C3V[C3(FTc),3SGV(O)]
 Deg. of freedom     3
 Full point group                 C3V     NOp   6
 Largest Abelian subgroup         CS      NOp   2
 Largest concise Abelian subgroup CS      NOp   2
                         Standard orientation:                         
 ---------------------------------------------------------------------
 Center     Atomic      Atomic             Coordinates (Angstroms)
 Number     Number       Type             X           Y           Z
 ---------------------------------------------------------------------
      1         43           0        0.000000    0.000000    0.037309
      2          9           0        0.000000    0.000000   -1.805193
      3          8           0        0.000000    1.584213    0.610102
      4          8           0        1.371969   -0.792107    0.610102
      5          8           0       -1.371969   -0.792107    0.610102
 ---------------------------------------------------------------------
 Rotational constants (GHZ):           4.1964946           3.6069369           3.6069369
 Standard basis: def2QZVPP (5D, 7F)
 There are   243 symmetry adapted cartesian basis functions of A'  symmetry.
 There are   161 symmetry adapted cartesian basis functions of A"  symmetry.
 There are   186 symmetry adapted basis functions of A'  symmetry.
 There are   130 symmetry adapted basis functions of A"  symmetry.
   316 basis functions,   513 primitive gaussians,   404 cartesian basis functions
    24 alpha electrons       24 beta electrons
       nuclear repulsion energy       228.4587344517 Hartrees.
 NAtoms=    5 NActive=    5 NUniq=    3 SFac= 2.78D+00 NAtFMM=   60 NAOKFM=F Big=F
 Integral buffers will be    131072 words long.
 Raffenetti 2 integral format.
 Two-electron integral symmetry is turned on.
 One-electron integrals computed using PRISM.
   6 Symmetry operations used in ECPInt.
 ECPInt:  NShTT=    4095 NPrTT=   10902 LenC2=    3920 LenP2D=    8612.
 LDataN:  DoStor=T MaxTD1= 8 Len=  415
 NBasis=   316 RedAO= T EigKep=  1.91D-04  NBF=   186   130
 NBsUse=   316 1.00D-06 EigRej= -1.00D+00 NBFU=   186   130
 Defaulting to unpruned grid for atomic number  43.
 Initial guess from the checkpoint file:  "/data/hutter/SMG16/PBE/Gau-27379.chk"
 B after Tr=     0.000000   -0.000000    0.000000
         Rot=    1.000000    0.000000   -0.000000    0.000000 Ang=   0.00 deg.
 Initial guess orbital symmetries:
       Occupied  (A1) (E) (E) (A1) (A1) (E) (E) (A1) (A1) (A1)
                 (E) (E) (A1) (E) (E) (E) (E) (A1) (E) (E) (A1)
                 (E) (E) (A2)
       Virtual   (E) (E) (A1) (E) (E) (A1) (A1) (E) (E) (A1) (A1)
                 (E) (E) (E) (E) (A1) (E) (E) (E) (E) (A1) (A1)
                 (A2) (E) (E) (A1) (A1) (E) (E) (A2) (E) (E) (A1)
                 (A1) (E) (E) (E) (E) (E) (E) (A1) (A1) (E) (E)
                 (E) (E) (E) (E) (A2) (E) (E) (A1) (A1) (E) (E)
                 (A2) (A1) (E) (E) (A1) (E) (E) (A1) (A1) (E) (E)
                 (A2) (E) (E) (E) (E) (A1) (E) (E) (A1) (A2) (E)
                 (E) (E) (E) (A1) (E) (E) (A1) (A1) (E) (E) (A2)
                 (E) (E) (E) (E) (A1) (E) (E) (A1) (E) (E) (A1)
                 (E) (E) (A1) (E) (E) (A2) (E) (E) (E) (E) (A1)
                 (A2) (A1) (E) (E) (E) (E) (A1) (A2) (E) (E) (E)
                 (E) (A1) (A1) (E) (E) (A1) (E) (E) (A2) (E) (E)
                 (E) (E) (A2) (A1) (A1) (E) (E) (A1) (A1) (A2)
                 (E) (E) (E) (E) (A2) (E) (E) (E) (E) (A1) (E)
                 (E) (A1) (E) (E) (A1) (E) (E) (A2) (E) (E) (A1)
                 (A1) (E) (E) (E) (E) (A1) (E) (E) (E) (E) (A1)
                 (A2) (E) (E) (E) (E) (E) (E) (A2) (A1) (A1) (E)
                 (E) (E) (E) (A1) (A1) (A1) (E) (E) (A2) (E) (E)
                 (E) (E) (A2) (E) (E) (A1) (E) (E) (A1) (A2) (A1)
                 (E) (E) (E) (E) (E) (E) (A1) (E) (E) (A2) (A1)
                 (E) (E) (A2) (E) (E) (E) (E) (A1) (A2) (E) (E)
                 (A1) (E) (E) (E) (E) (A1) (A2) (E) (E) (E) (E)
                 (E) (E) (A1) (A1) (E) (E) (A2) (A1) (E) (E) (A2)
                 (E) (E) (A1) (A2) (E) (E) (E) (E) (A1) (E) (E)
                 (A1) (E) (E) (A1) (E) (E) (A2) (A1) (E) (E) (E)
                 (E) (A1) (A1) (E) (E) (E) (E) (A1) (A1) (A1) (E)
                 (E) (A1) (A1) (A1) (E) (E) (A1)
 Requested convergence on RMS density matrix=1.00D-08 within 128 cycles.
 Requested convergence on MAX density matrix=1.00D-06.
 Requested convergence on             energy=1.00D-06.
 No special actions if energy rises.
 Defaulting to unpruned grid for atomic number  43.
 Defaulting to unpruned grid for atomic number  43.
 Defaulting to unpruned grid for atomic number  43.
 Defaulting to unpruned grid for atomic number  43.
 Defaulting to unpruned grid for atomic number  43.
 Defaulting to unpruned grid for atomic number  43.
 Defaulting to unpruned grid for atomic number  43.
 Defaulting to unpruned grid for atomic number  43.
 SCF Done:  E(RPBE-PBE) =  -406.371184643     A.U. after    1 cycles
            NFock=  1  Conv=0.30D-08     -V/T= 2.1534
 DoSCS=F DFT=T ScalE2(SS,OS)=  1.000000  1.000000
 Range of M.O.s used for correlation:     1   316
 NBasis=   316 NAE=    24 NBE=    24 NFC=     0 NFV=     0
 NROrb=    316 NOA=    24 NOB=    24 NVA=   292 NVB=   292

 **** Warning!!: The largest alpha MO coefficient is  0.26282154D+02

   6 Symmetry operations used in ECPInt.
 ECPInt:  NShTT=    4095 NPrTT=   10902 LenC2=    3920 LenP2D=    8612.
 LDataN:  DoStor=T MaxTD1= 9 Len=  602
 Symmetrizing basis deriv contribution to polar:
 IMax=3 JMax=2 DiffMx= 0.00D+00
 G2DrvN: will do     6 centers at a time, making    1 passes.
 Calling FoFCou, ICntrl=  3507 FMM=F I1Cent=   0 AccDes= 0.00D+00.
 Defaulting to unpruned grid for atomic number  43.
 Defaulting to unpruned grid for atomic number  43.
 Defaulting to unpruned grid for atomic number  43.
 Defaulting to unpruned grid for atomic number  43.
 Defaulting to unpruned grid for atomic number  43.
 Defaulting to unpruned grid for atomic number  43.
 Defaulting to unpruned grid for atomic number  43.
 Defaulting to unpruned grid for atomic number  43.
 End of G2Drv F.D. properties file   721 does not exist.
 End of G2Drv F.D. properties file   722 does not exist.
 End of G2Drv F.D. properties file   788 does not exist.
          IDoAtm=11111
          Differentiating once with respect to electric field.
                with respect to dipole field.
          Differentiating once with respect to nuclear coordinates.
 Defaulting to unpruned grid for atomic number  43.
 CalDSu exits because no D1Ps are significant.
 Defaulting to unpruned grid for atomic number  43.
 Defaulting to unpruned grid for atomic number  43.
 Defaulting to unpruned grid for atomic number  43.
 Defaulting to unpruned grid for atomic number  43.
 Defaulting to unpruned grid for atomic number  43.
 Defaulting to unpruned grid for atomic number  43.
 Defaulting to unpruned grid for atomic number  43.
 Defaulting to unpruned grid for atomic number  43.
          There are    12 degrees of freedom in the 1st order CPHF.  IDoFFX=4 NUNeed=    12.
     12 vectors produced by pass  0 Test12= 5.84D-14 8.33D-09 XBig12= 1.88D+02 5.79D+00.
 AX will form    12 AO Fock derivatives at one time.
     12 vectors produced by pass  1 Test12= 5.84D-14 8.33D-09 XBig12= 3.67D+02 5.30D+00.
     12 vectors produced by pass  2 Test12= 5.84D-14 8.33D-09 XBig12= 3.08D+01 1.35D+00.
     12 vectors produced by pass  3 Test12= 5.84D-14 8.33D-09 XBig12= 6.51D-01 1.71D-01.
     12 vectors produced by pass  4 Test12= 5.84D-14 8.33D-09 XBig12= 7.19D-03 2.10D-02.
     12 vectors produced by pass  5 Test12= 5.84D-14 8.33D-09 XBig12= 1.86D-04 2.53D-03.
     12 vectors produced by pass  6 Test12= 5.84D-14 8.33D-09 XBig12= 6.92D-07 1.70D-04.
      4 vectors produced by pass  7 Test12= 5.84D-14 8.33D-09 XBig12= 1.92D-09 1.05D-05.
      3 vectors produced by pass  8 Test12= 5.84D-14 8.33D-09 XBig12= 1.04D-11 7.18D-07.
      2 vectors produced by pass  9 Test12= 5.84D-14 8.33D-09 XBig12= 2.43D-14 2.81D-08.
 InvSVY:  IOpt=1 It=  1 EMax= 7.11D-15
 Solved reduced A of dimension    93 with    12 vectors.
 Isotropic polarizability for W=    0.000000       46.44 Bohr**3.
 End of Minotr F.D. properties file   721 does not exist.
 End of Minotr F.D. properties file   722 does not exist.
 End of Minotr F.D. properties file   788 does not exist.

 **********************************************************************

            Population analysis using the SCF Density.

 **********************************************************************

 Orbital symmetries:
       Occupied  (A1) (E) (E) (A1) (A1) (E) (E) (A1) (A1) (A1)
                 (E) (E) (A1) (E) (E) (E) (E) (A1) (E) (E) (A1)
                 (E) (E) (A2)
       Virtual   (E) (E) (A1) (E) (E) (A1) (A1) (E) (E) (A1) (A1)
                 (E) (E) (E) (E) (A1) (E) (E) (E) (E) (A1) (A1)
                 (A2) (E) (E) (A1) (A1) (E) (E) (A2) (E) (E) (A1)
                 (A1) (E) (E) (E) (E) (E) (E) (A1) (A1) (E) (E)
                 (E) (E) (E) (E) (A2) (E) (E) (A1) (A1) (E) (E)
                 (A2) (A1) (E) (E) (A1) (E) (E) (A1) (A1) (E) (E)
                 (A2) (E) (E) (E) (E) (A1) (E) (E) (A1) (A2) (E)
                 (E) (E) (E) (A1) (E) (E) (A1) (A1) (E) (E) (A2)
                 (E) (E) (E) (E) (A1) (E) (E) (A1) (E) (E) (A1)
                 (E) (E) (A1) (E) (E) (A2) (E) (E) (E) (E) (A1)
                 (A2) (A1) (E) (E) (E) (E) (A1) (A2) (E) (E) (E)
                 (E) (A1) (A1) (E) (E) (A1) (E) (E) (A2) (E) (E)
                 (E) (E) (A2) (A1) (A1) (E) (E) (A1) (A1) (A2)
                 (E) (E) (E) (E) (A2) (E) (E) (E) (E) (A1) (E)
                 (E) (A1) (E) (E) (A1) (E) (E) (A2) (E) (E) (A1)
                 (A1) (E) (E) (E) (E) (A1) (E) (E) (E) (E) (A1)
                 (A2) (E) (E) (E) (E) (E) (E) (A2) (A1) (A1) (E)
                 (E) (E) (E) (A1) (A1) (A1) (E) (E) (A2) (E) (E)
                 (E) (E) (A2) (E) (E) (A1) (E) (E) (A1) (A2) (A1)
                 (E) (E) (E) (E) (E) (E) (A1) (E) (E) (A2) (A1)
                 (E) (E) (A2) (E) (E) (E) (E) (A1) (A2) (E) (E)
                 (A1) (E) (E) (E) (E) (A1) (A2) (E) (E) (E) (E)
                 (E) (E) (A1) (A1) (E) (E) (A2) (A1) (E) (E) (A2)
                 (E) (E) (A1) (A2) (E) (E) (E) (E) (A1) (E) (E)
                 (A1) (E) (E) (A1) (E) (E) (A2) (A1) (E) (E) (E)
                 (E) (A1) (A1) (E) (E) (E) (E) (A1) (A1) (A1) (E)
                 (E) (A1) (A1) (A1) (E) (E) (A1)
 The electronic state is 1-A1.
 Alpha  occ. eigenvalues --  -24.30610 -18.83331 -18.83331 -18.83331  -2.84816
 Alpha  occ. eigenvalues --   -1.82609  -1.82609  -1.82145  -1.10788  -0.90510
 Alpha  occ. eigenvalues --   -0.89609  -0.89609  -0.49059  -0.46272  -0.46272
 Alpha  occ. eigenvalues --   -0.45784  -0.45784  -0.40087  -0.38691  -0.38691
 Alpha  occ. eigenvalues --   -0.35310  -0.33098  -0.33098  -0.31797
 Alpha virt. eigenvalues --   -0.17784  -0.17784  -0.13865  -0.08586  -0.08586
 Alpha virt. eigenvalues --   -0.03653   0.01375   0.01409   0.01409   0.08751
 Alpha virt. eigenvalues --    0.13244   0.13594   0.13594   0.15638   0.15638
 Alpha virt. eigenvalues --    0.15639   0.16364   0.16364   0.23670   0.23670
 Alpha virt. eigenvalues --    0.23818   0.26033   0.26620   0.26655   0.26655
 Alpha virt. eigenvalues --    0.35269   0.38748   0.39501   0.39501   0.40768
 Alpha virt. eigenvalues --    0.42335   0.42335   0.42356   0.45765   0.45801
 Alpha virt. eigenvalues --    0.45801   0.48902   0.48902   0.56202   0.56202
 Alpha virt. eigenvalues --    0.58535   0.64275   0.64492   0.64492   0.65721
 Alpha virt. eigenvalues --    0.65721   0.74101   0.74101   0.75683   0.83319
 Alpha virt. eigenvalues --    0.83319   0.86459   0.97279   0.98969   0.98969
 Alpha virt. eigenvalues --    1.04413   1.04591   1.09877   1.09877   1.13731
 Alpha virt. eigenvalues --    1.15716   1.15716   1.21357   1.26777   1.28467
 Alpha virt. eigenvalues --    1.28467   1.34524   1.34661   1.34661   1.38975
 Alpha virt. eigenvalues --    1.38975   1.40687   1.40946   1.40946   1.49824
 Alpha virt. eigenvalues --    1.52302   1.55482   1.55482   1.58713   1.58713
 Alpha virt. eigenvalues --    1.63434   1.69510   1.69510   1.69688   1.72104
 Alpha virt. eigenvalues --    1.73968   1.73968   1.75525   1.76248   1.76248
 Alpha virt. eigenvalues --    1.78448   1.78448   1.86119   2.01848   2.01848
 Alpha virt. eigenvalues --    2.09237   2.15316   2.15316   2.18934   2.23845
 Alpha virt. eigenvalues --    2.23845   2.30748   2.32935   2.32935   2.39179
 Alpha virt. eigenvalues --    2.52709   2.52709   2.70367   2.70367   2.73631
 Alpha virt. eigenvalues --    2.95778   2.95966   2.98621   2.98621   3.03130
 Alpha virt. eigenvalues --    3.03130   3.13236   3.16873   3.25730   3.25730
 Alpha virt. eigenvalues --    3.28755   3.28755   3.29988   3.35369   3.46332
 Alpha virt. eigenvalues --    3.46332   3.57934   3.60457   3.60457   3.62110
 Alpha virt. eigenvalues --    3.65019   3.65019   3.76132   3.76132   3.77970
 Alpha virt. eigenvalues --    3.85712   3.88174   3.89361   3.89361   3.97795
 Alpha virt. eigenvalues --    4.01299   4.01594   4.03319   4.03319   4.16058
 Alpha virt. eigenvalues --    4.16058   4.17636   4.21263   4.21263   4.24957
 Alpha virt. eigenvalues --    4.24957   4.31567   4.37606   4.37606   4.39099
 Alpha virt. eigenvalues --    4.41787   4.41787   4.48822   4.87359   4.87359
 Alpha virt. eigenvalues --    4.92481   4.99056   4.99056   5.04651   5.08404
 Alpha virt. eigenvalues --    5.11722   5.11722   5.16924   5.16924   5.17965
 Alpha virt. eigenvalues --    5.24541   5.24541   5.28968   5.28968   5.29634
 Alpha virt. eigenvalues --    5.33732   5.35036   5.35036   5.40334   5.40334
 Alpha virt. eigenvalues --    5.67851   5.67851   5.68260   5.71014   5.83448
 Alpha virt. eigenvalues --    5.93355   5.93355   6.27197   6.27197   6.39549
 Alpha virt. eigenvalues --    7.05046   8.01390   8.11320   8.11320   8.63459
 Alpha virt. eigenvalues --    8.64585   8.64585   8.65912   8.65912   8.66040
 Alpha virt. eigenvalues --    8.66315   8.66315   8.66616   8.68639   8.68639
 Alpha virt. eigenvalues --    8.70344   8.73564   8.74692   8.74866   8.74866
 Alpha virt. eigenvalues --    8.79260   8.79260   8.81620   8.81620   8.92190
 Alpha virt. eigenvalues --    8.96368   8.96368   9.03108   9.43590   9.73634
 Alpha virt. eigenvalues --    9.73634  10.69348  10.71342  10.71342  10.73629
 Alpha virt. eigenvalues --   10.73629  10.77754  10.81185  10.89350  10.89350
 Alpha virt. eigenvalues --   10.95340  11.03382  11.03382  11.15895  11.15895
 Alpha virt. eigenvalues --   11.17023  11.18275  11.19148  11.19148  11.20803
 Alpha virt. eigenvalues --   11.20803  11.22563  11.22563  11.23034  11.28140
 Alpha virt. eigenvalues --   11.36466  11.36466  11.43503  11.66120  11.75439
 Alpha virt. eigenvalues --   11.75439  11.80099  11.81958  11.81958  11.86276
 Alpha virt. eigenvalues --   12.03769  12.05780  12.05780  12.10550  12.10550
 Alpha virt. eigenvalues --   12.19300  12.21063  12.21063  12.32386  12.43181
 Alpha virt. eigenvalues --   12.43181  13.01979  13.62218  13.62218  14.31995
 Alpha virt. eigenvalues --   14.33268  14.42153  14.42153  14.58536  14.58536
 Alpha virt. eigenvalues --   14.66355  15.03462  15.57968  15.57968  15.90520
 Alpha virt. eigenvalues --   15.90520  16.19474  27.59428  47.11647  47.28922
 Alpha virt. eigenvalues --   47.28922  53.72200  91.58649 251.62790 251.81714
 Alpha virt. eigenvalues --  251.81714 284.10660
          Condensed to atoms (all electrons):
               1          2          3          4          5
     1  Tc  12.101378   0.272648   0.455041   0.455041   0.455041
     2  F    0.272648   9.008792   0.005547   0.005547   0.005547
     3  O    0.455041   0.005547   7.834941   0.012697   0.012697
     4  O    0.455041   0.005547   0.012697   7.834941   0.012697
     5  O    0.455041   0.005547   0.012697   0.012697   7.834941
 Mulliken charges:
               1
     1  Tc   1.260850
     2  F   -0.298079
     3  O   -0.320924
     4  O   -0.320924
     5  O   -0.320924
 Sum of Mulliken charges =  -0.00000
 Mulliken charges with hydrogens summed into heavy atoms:
               1
     1  Tc   1.260850
     2  F   -0.298079
     3  O   -0.320924
     4  O   -0.320924
     5  O   -0.320924
 APT charges:
               1
     1  Tc   2.023479
     2  F   -0.504468
     3  O   -0.506321
     4  O   -0.506333
     5  O   -0.506333
 Sum of APT charges =   0.00002
 APT charges with hydrogens summed into heavy atoms:
               1
     1  Tc   2.023479
     2  F   -0.504468
     3  O   -0.506321
     4  O   -0.506333
     5  O   -0.506333
 Electronic spatial extent (au):  <R**2>=            450.0998
 Charge=             -0.0000 electrons
 Dipole moment (field-independent basis, Debye):
    X=             -0.0000    Y=              0.0000    Z=             -0.6144  Tot=              0.6144
 Quadrupole moment (field-independent basis, Debye-Ang):
   XX=            -44.2083   YY=            -44.2083   ZZ=            -43.7888
   XY=              0.0000   XZ=              0.0000   YZ=              0.0000
 Traceless Quadrupole moment (field-independent basis, Debye-Ang):
   XX=             -0.1399   YY=             -0.1399   ZZ=              0.2797
   XY=              0.0000   XZ=              0.0000   YZ=              0.0000
 Octapole moment (field-independent basis, Debye-Ang**2):
  XXX=              0.0000  YYY=             -3.9415  ZZZ=              0.5818  XYY=              0.0000
  XXY=              3.9415  XXZ=             -5.1156  XZZ=              0.0000  YZZ=              0.0000
  YYZ=             -5.1156  XYZ=              0.0000
 Hexadecapole moment (field-independent basis, Debye-Ang**3):
 XXXX=           -169.5661 YYYY=           -169.5661 ZZZZ=           -180.7493 XXXY=              0.0000
 XXXZ=              0.0000 YYYX=              0.0000 YYYZ=             -1.9270 ZZZX=              0.0000
 ZZZY=              0.0000 XXYY=            -56.5220 XXZZ=            -57.2035 YYZZ=            -57.2035
 XXYZ=              1.9270 YYXZ=             -0.0000 ZZXY=              0.0000
 N-N= 2.284587344517D+02 E-N=-1.394674499059D+03  KE= 3.523229158436D+02
 Symmetry A'   KE= 2.584105235199D+02
 Symmetry A"   KE= 9.391239232365D+01
  Exact polarizability:      48.698      -0.000      48.698       0.000      -0.000      41.923
 Approx polarizability:     166.902      -0.000     166.902       0.000      -0.000      96.288
   6 Symmetry operations used in ECPInt.
 ECPInt:  NShTT=    4095 NPrTT=   10902 LenC2=    3920 LenP2D=    8612.
 LDataN:  DoStor=T MaxTD1=10 Len=  848
 Calling FoFJK, ICntrl=    100527 FMM=F ISym2X=1 I1Cent= 0 IOpClX= 0 NMat=1 NMatS=1 NMatT=0.
 Defaulting to unpruned grid for atomic number  43.
 Defaulting to unpruned grid for atomic number  43.
 Defaulting to unpruned grid for atomic number  43.
 Defaulting to unpruned grid for atomic number  43.
 Defaulting to unpruned grid for atomic number  43.
 Defaulting to unpruned grid for atomic number  43.
 Defaulting to unpruned grid for atomic number  43.
 Defaulting to unpruned grid for atomic number  43.
 Full mass-weighted force constant matrix:
 Low frequencies ---   -2.9462   -0.0427   -0.0020    0.1207    3.6001    3.6161
 Low frequencies ---  236.0785  236.0791  325.8162
 Diagonal vibrational polarizability:
        6.4077041       6.4077225       7.8889910
 Harmonic frequencies (cm**-1), IR intensities (KM/Mole), Raman scattering
 activities (A**4/AMU), depolarization ratios for plane and unpolarized
 incident light, reduced masses (AMU), force constants (mDyne/A),
 and normal coordinates:
                      1                      2                      3
                      E                      E                     A1
 Frequencies --    236.0784               236.0790               325.8162
 Red. masses --     19.0641                19.0641                18.8995
 Frc consts  --      0.6260                 0.6260                 1.1821
 IR Inten    --      4.2755                 4.2759                 7.0036
  Atom  AN      X      Y      Z        X      Y      Z        X      Y      Z
     1  43    -0.14   0.00  -0.00    -0.00  -0.14  -0.00     0.00   0.00  -0.18
     2   9     0.67  -0.00   0.00     0.00   0.67  -0.00    -0.00  -0.00  -0.28
     3   8     0.01  -0.00   0.00     0.00   0.06  -0.59    -0.00  -0.25   0.48
     4   8     0.04  -0.02  -0.51    -0.02   0.02   0.30    -0.22   0.13   0.48
     5   8     0.04   0.02   0.51     0.02   0.02   0.30     0.22   0.13   0.48
                      4                      5                      6
                      E                      E                     A1
 Frequencies --    351.0000               351.0000               692.7976
 Red. masses --     17.4851                17.4851                22.0083
 Frc consts  --      1.2692                 1.2692                 6.2237
 IR Inten    --      1.1398                 1.1398                97.7687
  Atom  AN      X      Y      Z        X      Y      Z        X      Y      Z
     1  43    -0.13   0.00   0.00    -0.00  -0.13  -0.00     0.00   0.00  -0.20
     2   9     0.04  -0.00  -0.00     0.00   0.04   0.00    -0.00   0.00   0.97
     3   8     0.76   0.00  -0.00     0.00  -0.23   0.16    -0.00  -0.09   0.02
     4   8     0.01   0.43   0.14     0.43   0.51  -0.08    -0.08   0.05   0.02
     5   8     0.01  -0.43  -0.14    -0.43   0.51  -0.08     0.08   0.05   0.02
                      7                      8                      9
                      E                      E                     A1
 Frequencies --    982.2501               982.2503               989.8592
 Red. masses --     19.0825                19.0825                16.8643
 Frc consts  --     10.8475                10.8475                 9.7357
 IR Inten    --    146.7811               146.7876                23.0028
  Atom  AN      X      Y      Z        X      Y      Z        X      Y      Z
     1  43    -0.00  -0.19   0.00    -0.19   0.00   0.00    -0.00  -0.00  -0.10
     2   9     0.00   0.01  -0.00     0.01  -0.00  -0.00     0.00   0.00   0.01
     3   8     0.00   0.75   0.27     0.04  -0.00  -0.00     0.00   0.54   0.21
     4   8    -0.31   0.21  -0.14     0.57  -0.31   0.24     0.46  -0.27   0.21
     5   8     0.31   0.21  -0.14     0.57   0.31  -0.24    -0.46  -0.27   0.21

 -------------------
 - Thermochemistry -
 -------------------
 Temperature   298.150 Kelvin.  Pressure   1.00000 Atm.
 Atom     1 has atomic number 43 and mass  98.90630
 Atom     2 has atomic number  9 and mass  18.99840
 Atom     3 has atomic number  8 and mass  15.99491
 Atom     4 has atomic number  8 and mass  15.99491
 Atom     5 has atomic number  8 and mass  15.99491
 Molecular mass:   165.88945 amu.
 Principal axes and moments of inertia in atomic units:
                           1         2         3
     Eigenvalues --   430.05922 500.35286 500.35286
           X            0.00000  -0.38981   0.92090
           Y            0.00000   0.92090   0.38981
           Z            1.00000  -0.00000  -0.00000
 This molecule is a prolate symmetric top.
 Rotational symmetry number  3.
 Rotational temperatures (Kelvin)      0.20140     0.17311     0.17311
 Rotational constants (GHZ):           4.19649     3.60694     3.60694
 Zero-point vibrational energy      30786.7 (Joules/Mol)
                                    7.35819 (Kcal/Mol)
 Warning -- explicit consideration of   5 degrees of freedom as
           vibrations may cause significant error
 Vibrational temperatures:    339.66   339.67   468.78   505.01   505.01
          (Kelvin)            996.78  1413.24  1413.24  1424.19
 
 Zero-point correction=                           0.011726 (Hartree/Particle)
 Thermal correction to Energy=                    0.016913
 Thermal correction to Enthalpy=                  0.017857
 Thermal correction to Gibbs Free Energy=        -0.016877
 Sum of electronic and zero-point Energies=           -406.359459
 Sum of electronic and thermal Energies=              -406.354271
 Sum of electronic and thermal Enthalpies=            -406.353327
 Sum of electronic and thermal Free Energies=         -406.388061
 
                     E (Thermal)             CV                S
                      KCal/Mol        Cal/Mol-Kelvin    Cal/Mol-Kelvin
 Total                   10.613             16.329             73.104
 Electronic               0.000              0.000              0.000
 Translational            0.889              2.981             41.227
 Rotational               0.889              2.981             23.996
 Vibrational              8.836             10.367              7.882
 Vibration     1          0.655              1.786              1.832
 Vibration     2          0.655              1.786              1.832
 Vibration     3          0.710              1.624              1.281
 Vibration     4          0.728              1.573              1.162
 Vibration     5          0.728              1.573              1.162
                       Q            Log10(Q)             Ln(Q)
 Total Bot       0.579155D+08          7.762795         17.874496
 Total V=0       0.143347D+14         13.156388         30.293702
 Vib (Bot)       0.176136D-04         -4.754152        -10.946840
 Vib (Bot)    1  0.832048D+00         -0.079852         -0.183865
 Vib (Bot)    2  0.832045D+00         -0.079853         -0.183868
 Vib (Bot)    3  0.574939D+00         -0.240378         -0.553491
 Vib (Bot)    4  0.525298D+00         -0.279595         -0.643790
 Vib (Bot)    5  0.525298D+00         -0.279595         -0.643790
 Vib (V=0)       0.435954D+01          0.639441          1.472367
 Vib (V=0)    1  0.147072D+01          0.167531          0.385754
 Vib (V=0)    2  0.147072D+01          0.167530          0.385753
 Vib (V=0)    3  0.126194D+01          0.101039          0.232652
 Vib (V=0)    4  0.122522D+01          0.088213          0.203117
 Vib (V=0)    5  0.122522D+01          0.088212          0.203117
 Electronic      0.100000D+01          0.000000          0.000000
 Translational   0.839812D+08          7.924182         18.246103
 Rotational      0.391530D+05          4.592765         10.575232
 ***** Axes restored to original set *****
 -------------------------------------------------------------------
 Center     Atomic                   Forces (Hartrees/Bohr)
 Number     Number              X              Y              Z
 -------------------------------------------------------------------
      1       43           0.000000000    0.000000000   -0.000107514
      2        9           0.000000000   -0.000000000    0.000030363
      3        8          -0.000000611    0.000001059    0.000025717
      4        8          -0.000000611   -0.000001059    0.000025717
      5        8           0.000001223   -0.000000000    0.000025717
 -------------------------------------------------------------------
 Cartesian Forces:  Max     0.000107514 RMS     0.000031059
 FormGI is forming the generalized inverse of G from B-inverse, IUseBI=4.

 GradGradGradGradGradGradGradGradGradGradGradGradGradGradGradGradGradGrad
 Berny optimization.
 Internal  Forces:  Max     0.000030597 RMS     0.000018532
 Search for a local minimum.
 Step number   1 out of a maximum of    2
 All quantities printed in internal units (Hartrees-Bohrs-Radians)
 Second derivative matrix not updated -- analytic derivatives used.
 The second derivative matrix:
                          R1        R2        R3        R4        A1
           R1           0.28405
           R2           0.01381   0.50322
           R3           0.01381   0.02909   0.50322
           R4           0.01381   0.02909   0.02909   0.50322
           A1          -0.00121   0.00117  -0.00063   0.00021   0.02420
           A2          -0.00189  -0.00148   0.00091   0.00175  -0.01025
           A3          -0.00368   0.00054   0.00025   0.00150  -0.01140
           A4           0.00053  -0.00339  -0.00319   0.00624  -0.01134
           A5           0.00299  -0.00495   0.00755  -0.00446  -0.02365
           A6           0.00336   0.00810  -0.00489  -0.00531   0.03240
           D1          -0.00231  -0.00158  -0.00221   0.00523   0.01636
           D2           0.00188   0.00131  -0.00408   0.00159  -0.00798
           D3          -0.00248   0.00356  -0.00178  -0.00023   0.00061
           D4          -0.00437   0.00225   0.00230  -0.00182   0.00859
                          A2        A3        A4        A5        A6
           A2           0.04680
           A3          -0.01942   0.09074
           A4           0.00237   0.03243   0.07160
           A5           0.03032  -0.05182  -0.04192   0.13854
           A6          -0.05007  -0.04141  -0.05349  -0.05080   0.16426
           D1           0.01762  -0.00572   0.03214  -0.03655  -0.02429
           D2           0.00562  -0.00942   0.02014  -0.02547   0.01729
           D3           0.01434   0.00605  -0.01051  -0.02623   0.01544
           D4           0.00872   0.01547  -0.03065  -0.00077  -0.00185
                          D1        D2        D3        D4
           D1           0.05094
           D2           0.00619   0.03145
           D3           0.00300   0.01189   0.03094
           D4          -0.00320  -0.01956   0.01905   0.03861
 ITU=  0
     Eigenvalues ---    0.05096   0.08103   0.10353   0.21170   0.23880
     Eigenvalues ---    0.28264   0.47473   0.47494   0.56346
 Angle between quadratic step and forces=  28.49 degrees.
 Linear search not attempted -- first point.
 Iteration  1 RMS(Cart)=  0.00013708 RMS(Int)=  0.00000002
 Iteration  2 RMS(Cart)=  0.00000002 RMS(Int)=  0.00000002
 ClnCor:  largest displacement from symmetrization is 1.10D-08 for atom     5.
 Variable       Old X    -DE/DX   Delta X   Delta X   Delta X     New X
                                 (Linear)    (Quad)   (Total)
    R1        3.48182   0.00003   0.00000   0.00009   0.00009   3.48192
    R2        3.18340  -0.00001   0.00000  -0.00002  -0.00002   3.18338
    R3        3.18340  -0.00001   0.00000  -0.00002  -0.00002   3.18338
    R4        3.18340  -0.00001   0.00000  -0.00002  -0.00002   3.18338
    A1        1.91774  -0.00001   0.00000  -0.00015  -0.00015   1.91759
    A2        1.91774  -0.00001   0.00000  -0.00015  -0.00015   1.91759
    A3        1.91774  -0.00003   0.00000  -0.00015  -0.00015   1.91759
    A4        1.90348   0.00000   0.00000   0.00015   0.00015   1.90363
    A5        1.90348   0.00002   0.00000   0.00015   0.00015   1.90363
    A6        1.90348   0.00002   0.00000   0.00015   0.00015   1.90363
    D1        2.10304  -0.00002   0.00000  -0.00018  -0.00018   2.10286
    D2       -2.10304   0.00001   0.00000   0.00018   0.00018  -2.10286
    D3        2.10304  -0.00002   0.00000  -0.00018  -0.00018   2.10286
    D4       -2.07711  -0.00003   0.00000  -0.00036  -0.00036  -2.07747
         Item               Value     Threshold  Converged?
 Maximum Force            0.000031     0.000450     YES
 RMS     Force            0.000019     0.000300     YES
 Maximum Displacement     0.000289     0.001800     YES
 RMS     Displacement     0.000137     0.001200     YES
 Predicted change in Energy=-1.854638D-08
 Optimization completed.
    -- Stationary point found.
                           ----------------------------
                           !   Optimized Parameters   !
                           ! (Angstroms and Degrees)  !
 --------------------------                            --------------------------
 ! Name  Definition              Value          Derivative Info.                !
 --------------------------------------------------------------------------------
 ! R1    R(1,2)                  1.8425         -DE/DX =    0.0                 !
 ! R2    R(1,3)                  1.6846         -DE/DX =    0.0                 !
 ! R3    R(1,4)                  1.6846         -DE/DX =    0.0                 !
 ! R4    R(1,5)                  1.6846         -DE/DX =    0.0                 !
 ! A1    A(2,1,3)              109.8781         -DE/DX =    0.0                 !
 ! A2    A(2,1,4)              109.8781         -DE/DX =    0.0                 !
 ! A3    A(2,1,5)              109.8781         -DE/DX =    0.0                 !
 ! A4    A(3,1,4)              109.0613         -DE/DX =    0.0                 !
 ! A5    A(3,1,5)              109.0613         -DE/DX =    0.0                 !
 ! A6    A(4,1,5)              109.0613         -DE/DX =    0.0                 !
 ! D1    D(2,1,4,3)            120.4952         -DE/DX =    0.0                 !
 ! D2    D(2,1,5,3)           -120.4952         -DE/DX =    0.0                 !
 ! D3    D(2,1,5,4)            120.4952         -DE/DX =    0.0                 !
 ! D4    D(3,1,5,4)           -119.0095         -DE/DX =    0.0                 !
 --------------------------------------------------------------------------------
 GradGradGradGradGradGradGradGradGradGradGradGradGradGradGradGradGradGrad


 ----------------------------------------------------------------------

 Electric dipole moment (input orientation):
 (Debye = 10**-18 statcoulomb cm , SI units = C m)
                  (au)            (Debye)         (10**-30 SI)
   Tot        0.241736D+00      0.614431D+00      0.204952D+01
   x          0.000000D+00      0.000000D+00      0.000000D+00
   y          0.000000D+00      0.000000D+00      0.000000D+00
   z          0.241736D+00      0.614431D+00      0.204952D+01

 Dipole polarizability, Alpha (input orientation).
 (esu units = cm**3 , SI units = C**2 m**2 J**-1)
 Alpha(0;0):
               (au)            (10**-24 esu)      (10**-40 SI)
   iso        0.464397D+02      0.688165D+01      0.765686D+01
   aniso      0.677481D+01      0.100392D+01      0.111702D+01
   xx         0.486980D+02      0.721630D+01      0.802922D+01
   yx         0.163718D-03      0.242605D-04      0.269934D-04
   yy         0.486978D+02      0.721627D+01      0.802919D+01
   zx         0.000000D+00      0.000000D+00      0.000000D+00
   zy         0.000000D+00      0.000000D+00      0.000000D+00
   zz         0.419231D+02      0.621236D+01      0.691219D+01

 ----------------------------------------------------------------------

 Dipole orientation:
    43         15.87375463         15.11780900         13.90519578
     9         15.87375463         15.11780900         17.38702051
     8         17.37061933         12.52516329         12.82277347
     8         17.37061933         17.71045471         12.82277347
     8         12.88002523         15.11780900         12.82277347

 Electric dipole moment (dipole orientation):
 (Debye = 10**-18 statcoulomb cm , SI units = C m)
                  (au)            (Debye)         (10**-30 SI)
   Tot        0.241736D+00      0.614431D+00      0.204952D+01
   x          0.000000D+00      0.000000D+00      0.000000D+00
   y          0.000000D+00      0.000000D+00      0.000000D+00
   z          0.241736D+00      0.614431D+00      0.204952D+01

 Dipole polarizability, Alpha (dipole orientation).
 (esu units = cm**3 , SI units = C**2 m**2 J**-1)
 Alpha(0;0):
               (au)            (10**-24 esu)      (10**-40 SI)
   iso        0.464397D+02      0.688165D+01      0.765686D+01
   aniso      0.677481D+01      0.100392D+01      0.111702D+01
   xx         0.486980D+02      0.721630D+01      0.802922D+01
   yx         0.163718D-03      0.242605D-04      0.269934D-04
   yy         0.486978D+02      0.721627D+01      0.802919D+01
   zx         0.000000D+00      0.000000D+00      0.000000D+00
   zy         0.000000D+00      0.000000D+00      0.000000D+00
   zz         0.419231D+02      0.621236D+01      0.691219D+01

 ----------------------------------------------------------------------
 Unable to Open any file for archive entry.
 1\1\GINC-TCOPT10\Freq\RPBEPBE\def2QZVPP\F1O3Tc1\HUTTER\30-Jul-2021\0\\
 #N Geom=AllCheck Guess=TCheck SCRF=Check GenChk RPBEPBE/def2QZVPP Freq
 \\Mol job 1\\0,1\Tc,8.4000292011,8.,7.3583127211\F,8.4000292011,8.,9.2
 008150216\O,9.1921358876,6.628030974,6.7855195027\O,9.1921358876,9.371
 969026,6.7855195027\O,6.8158158281,8.,6.7855195027\\Version=ES64L-G16R
 evC.01\State=1-A1\HF=-406.3711846\RMSD=2.992e-09\RMSF=3.106e-05\ZeroPo
 int=0.011726\Thermal=0.0169133\ETot=-406.3542714\HTot=-406.3533272\GTo
 t=-406.3880615\Dipole=0.,0.,0.2417357\DipoleDeriv=2.0159084,0.0000199,
 0.0000067,0.0000199,2.0158854,-0.0000116,0.0000099,-0.0000172,2.038642
 ,-0.185598,0.0000055,-0.0000008,0.0000055,-0.1856044,0.0000013,0.00000
 83,-0.0000143,-1.1422007,-0.3851156,0.3896437,0.0695588,0.3896437,-0.8
 350374,-0.1204794,0.1217088,-0.2108058,-0.298809,-0.3851265,-0.3896565
 ,0.0695639,-0.3896543,-0.8350596,0.1204858,0.1217215,0.2108236,-0.2988
 126,-1.0600278,0.0000002,-0.1391257,-0.0000021,-0.1601583,-0.0000012,-
 0.2434393,-0.0000021,-0.2988126\Polar=48.6980186,0.0001637,48.6978296,
 0.0000027,-0.0000047,41.9231112\Quadrupole=-0.1039773,-0.1039773,0.207
 9546,0.,0.,0.\PG=C03V [C3(F1Tc1),3SGV(O1)]\NImag=0\\0.76622871,0.00000
 073,0.76622788,-0.00000039,0.00000067,0.60506357,-0.03005990,0.0000002
 6,-0.00000030,0.01810859,0.00000026,-0.03006020,0.00000053,-0.00000007
 ,0.01810867,-0.00000006,0.00000011,-0.27953023,0.00000014,-0.00000025,
 0.28404663,-0.15443995,0.15752929,0.07558666,0.00330572,-0.00117444,0.
 00707181,0.14171321,0.15752929,-0.33633911,-0.13091993,-0.00117444,0.0
 0466185,-0.01224874,-0.17653120,0.34555389,0.07708496,-0.13351508,-0.1
 0851131,0.00556503,-0.00963892,-0.00150612,-0.07633815,0.13222155,0.08
 513532,-0.15443957,-0.15752953,0.07558620,0.00330575,0.00117444,0.0070
 7175,0.02218324,-0.00328066,-0.01263165,0.14171321,-0.15753006,-0.3363
 3932,0.13091927,0.00117430,0.00466185,0.01224875,0.00328066,-0.0244110
 5,-0.00000472,0.17653120,0.34555389,0.07708484,0.13351474,-0.10851116,
 0.00556496,0.00963878,-0.00150563,-0.01263165,0.00000472,0.01244105,-0
 .07633815,-0.13222155,0.08513532,-0.42728919,-0.00000026,-0.15117251,0
 .00533986,-0.00000009,-0.01414360,-0.01276248,0.02345657,0.00631991,-0
 .01276248,-0.02345657,0.00631991,0.44747423,0.00000027,-0.06348970,0.0
 0000007,0.00000004,0.00262774,0.00000006,0.01689526,0.01053467,0.01093
 697,-0.01689526,0.01053467,-0.01093697,0.,0.03979287,-0.15416958,-0.00
 000006,-0.10851116,-0.01112991,0.,-0.00150563,0.00631174,0.01094169,0.
 01244105,0.00631174,-0.01094169,0.01244105,0.15267629,0.,0.08513532\\0
 .,0.,0.00010751,0.,0.,-0.00003036,0.00000061,-0.00000106,-0.00002572,0
 .00000061,0.00000106,-0.00002572,-0.00000122,0.,-0.00002572\\\@
 The archive entry for this job was punched.


 IT IS BY LOGIC THAT WE PROVE, BUT BY INTUITION THAT WE DISCOVER.
     -- J.H.POINCARE (1854-1912)
 Job cpu time:       0 days  0 hours 31 minutes 17.8 seconds.
 Elapsed time:       0 days  0 hours  3 minutes 55.1 seconds.
 File lengths (MBytes):  RWF=     65 Int=      0 D2E=      0 Chk=      9 Scr=      1
 Normal termination of Gaussian 16 at Fri Jul 30 20:45:05 2021.
