 Entering Gaussian System, Link 0=g16
 Initial command:
 /sw-ng/spack/opt/spack/linux-opensuse_leap15-sandybridge/pgi-18.10/gaussian-src-16-C.01-zldqaomctopxhethwccpmxmwefdscg3m/g16/l1.exe "/data/hutter/SMG16/PBE/Gau-67328.inp" -scrdir="/data/hutter/SMG16/PBE/"
 Entering Link 1 = /sw-ng/spack/opt/spack/linux-opensuse_leap15-sandybridge/pgi-18.10/gaussian-src-16-C.01-zldqaomctopxhethwccpmxmwefdscg3m/g16/l1.exe PID=     67330.
  
 Copyright (c) 1988-2019, Gaussian, Inc.  All Rights Reserved.
  
 This is part of the Gaussian(R) 16 program.  It is based on
 the Gaussian(R) 09 system (copyright 2009, Gaussian, Inc.),
 the Gaussian(R) 03 system (copyright 2003, Gaussian, Inc.),
 the Gaussian(R) 98 system (copyright 1998, Gaussian, Inc.),
 the Gaussian(R) 94 system (copyright 1995, Gaussian, Inc.),
 the Gaussian 92(TM) system (copyright 1992, Gaussian, Inc.),
 the Gaussian 90(TM) system (copyright 1990, Gaussian, Inc.),
 the Gaussian 88(TM) system (copyright 1988, Gaussian, Inc.),
 the Gaussian 86(TM) system (copyright 1986, Carnegie Mellon
 University), and the Gaussian 82(TM) system (copyright 1983,
 Carnegie Mellon University). Gaussian is a federally registered
 trademark of Gaussian, Inc.
  
 This software contains proprietary and confidential information,
 including trade secrets, belonging to Gaussian, Inc.
  
 This software is provided under written license and may be
 used, copied, transmitted, or stored only in accord with that
 written license.
  
 The following legend is applicable only to US Government
 contracts under FAR:
  
                    RESTRICTED RIGHTS LEGEND
  
 Use, reproduction and disclosure by the US Government is
 subject to restrictions as set forth in subparagraphs (a)
 and (c) of the Commercial Computer Software - Restricted
 Rights clause in FAR 52.227-19.
  
 Gaussian, Inc.
 340 Quinnipiac St., Bldg. 40, Wallingford CT 06492
  
  
 ---------------------------------------------------------------
 Warning -- This program may not be used in any manner that
 competes with the business of Gaussian, Inc. or will provide
 assistance to any competitor of Gaussian, Inc.  The licensee
 of this program is prohibited from giving any competitor of
 Gaussian, Inc. access to this program.  By using this program,
 the user acknowledges that Gaussian, Inc. is engaged in the
 business of creating and licensing software in the field of
 computational chemistry and represents and warrants to the
 licensee that it is not a competitor of Gaussian, Inc. and that
 it will not use this program in any manner prohibited above.
 ---------------------------------------------------------------
  

 Cite this work as:
 Gaussian 16, Revision C.01,
 M. J. Frisch, G. W. Trucks, H. B. Schlegel, G. E. Scuseria, 
 M. A. Robb, J. R. Cheeseman, G. Scalmani, V. Barone, 
 G. A. Petersson, H. Nakatsuji, X. Li, M. Caricato, A. V. Marenich, 
 J. Bloino, B. G. Janesko, R. Gomperts, B. Mennucci, H. P. Hratchian, 
 J. V. Ortiz, A. F. Izmaylov, J. L. Sonnenberg, D. Williams-Young, 
 F. Ding, F. Lipparini, F. Egidi, J. Goings, B. Peng, A. Petrone, 
 T. Henderson, D. Ranasinghe, V. G. Zakrzewski, J. Gao, N. Rega, 
 G. Zheng, W. Liang, M. Hada, M. Ehara, K. Toyota, R. Fukuda, 
 J. Hasegawa, M. Ishida, T. Nakajima, Y. Honda, O. Kitao, H. Nakai, 
 T. Vreven, K. Throssell, J. A. Montgomery, Jr., J. E. Peralta, 
 F. Ogliaro, M. J. Bearpark, J. J. Heyd, E. N. Brothers, K. N. Kudin, 
 V. N. Staroverov, T. A. Keith, R. Kobayashi, J. Normand, 
 K. Raghavachari, A. P. Rendell, J. C. Burant, S. S. Iyengar, 
 J. Tomasi, M. Cossi, J. M. Millam, M. Klene, C. Adamo, R. Cammi, 
 J. W. Ochterski, R. L. Martin, K. Morokuma, O. Farkas, 
 J. B. Foresman, and D. J. Fox, Gaussian, Inc., Wallingford CT, 2019.
 
 ******************************************
 Gaussian 16:  ES64L-G16RevC.01  3-Jul-2019
                30-Jul-2021 
 ******************************************
 %mem=8GB
 %NProcShare=8
 Will use up to    8 processors via shared memory.
 -----------------------------------------------------------
 #N UPBEPBE/Def2QZVPP scf=tight Int(Grid=ultrafine) OPT FREQ
 -----------------------------------------------------------
 1/18=20,19=15,26=4,38=1/1,3;
 2/9=110,12=2,17=6,18=5,40=1/2;
 3/5=45,7=202,11=2,25=1,30=1,71=1,74=1009,75=-5,116=2/1,2,3;
 4//1;
 5/5=2,32=2,38=5/2;
 6/7=2,8=2,9=2,10=2,28=1/1;
 7//1,2,3,16;
 1/18=20,19=15,26=4/3(2);
 2/9=110/2;
 99//99;
 2/9=110/2;
 3/5=45,7=202,11=2,25=1,30=1,71=1,74=1009,75=-5,116=2/1,2,3;
 4/5=5,16=3,69=1/1;
 5/5=2,32=2,38=5/2;
 7//1,2,3,16;
 1/18=20,19=15,26=4/3(-5);
 2/9=110/2;
 6/7=2,8=2,9=2,10=2,19=2,28=1/1;
 99/9=1/99;
 ---------
 Mol job 1
 ---------
 Symbolic Z-matrix:
 Charge =  0 Multiplicity = 2
 Ba                    8.5       8.5       7.40423 
 F                     8.5       8.5       9.59577 
 

 GradGradGradGradGradGradGradGradGradGradGradGradGradGradGradGradGradGrad
 Berny optimization.
 Initialization pass.
                           ----------------------------
                           !    Initial Parameters    !
                           ! (Angstroms and Degrees)  !
 --------------------------                            --------------------------
 ! Name  Definition              Value          Derivative Info.                !
 --------------------------------------------------------------------------------
 ! R1    R(1,2)                  2.1915         estimate D2E/DX2                !
 --------------------------------------------------------------------------------
 Trust Radius=3.00D-01 FncErr=1.00D-07 GrdErr=1.00D-06 EigMax=2.50D+02 EigMin=1.00D-04
 Number of steps in this run=     20 maximum allowed number of steps=    100.
 GradGradGradGradGradGradGradGradGradGradGradGradGradGradGradGradGradGrad

                          Input orientation:                          
 ---------------------------------------------------------------------
 Center     Atomic      Atomic             Coordinates (Angstroms)
 Number     Number       Type             X           Y           Z
 ---------------------------------------------------------------------
      1         56           0        8.500000    8.500000    7.404233
      2          9           0        8.500000    8.500000    9.595767
 ---------------------------------------------------------------------
 Stoichiometry    BaF(2)
 Framework group  C*V[C*(FBa)]
 Deg. of freedom     1
 Full point group                 C*V     NOp   4
 Largest Abelian subgroup         C2V     NOp   4
 Largest concise Abelian subgroup C1      NOp   1
                         Standard orientation:                         
 ---------------------------------------------------------------------
 Center     Atomic      Atomic             Coordinates (Angstroms)
 Number     Number       Type             X           Y           Z
 ---------------------------------------------------------------------
      1         56           0        0.000000    0.000000    0.303443
      2          9           0        0.000000    0.000000   -1.888090
 ---------------------------------------------------------------------
 Rotational constants (GHZ):           0.0000000           6.3016790           6.3016790
 Standard basis: def2QZVPP (5D, 7F)
 There are    62 symmetry adapted cartesian basis functions of A1  symmetry.
 There are    14 symmetry adapted cartesian basis functions of A2  symmetry.
 There are    33 symmetry adapted cartesian basis functions of B1  symmetry.
 There are    33 symmetry adapted cartesian basis functions of B2  symmetry.
 There are    48 symmetry adapted basis functions of A1  symmetry.
 There are    13 symmetry adapted basis functions of A2  symmetry.
 There are    27 symmetry adapted basis functions of B1  symmetry.
 There are    27 symmetry adapted basis functions of B2  symmetry.
   115 basis functions,   184 primitive gaussians,   142 cartesian basis functions
    10 alpha electrons        9 beta electrons
       nuclear repulsion energy        21.7317928406 Hartrees.
 NAtoms=    2 NActive=    2 NUniq=    2 SFac= 1.00D+00 NAtFMM=   60 NAOKFM=F Big=F
 Integral buffers will be    131072 words long.
 Raffenetti 2 integral format.
 Two-electron integral symmetry is turned on.
 One-electron integrals computed using PRISM.
   4 Symmetry operations used in ECPInt.
 ECPInt:  NShTT=     630 NPrTT=    1480 LenC2=     629 LenP2D=    1427.
 LDataN:  DoStor=T MaxTD1= 8 Len=  415
 NBasis=   115 RedAO= T EigKep=  2.85D-03  NBF=    48    13    27    27
 NBsUse=   115 1.00D-06 EigRej= -1.00D+00 NBFU=    48    13    27    27
 Defaulting to unpruned grid for atomic number  56.
 ExpMin= 1.62D-02 ExpMax= 1.33D+05 ExpMxC= 1.27D+03 IAcc=3 IRadAn=         5 AccDes= 0.00D+00
 Harris functional with IExCor= 1009 and IRadAn=       5 diagonalized for initial guess.
 HarFok:  IExCor= 1009 AccDes= 0.00D+00 IRadAn=         5 IDoV= 1 UseB2=F ITyADJ=14
 ICtDFT=  3500011 ScaDFX=  1.000000  1.000000  1.000000  1.000000
 Defaulting to unpruned grid for atomic number  56.
 FoFCou: FMM=F IPFlag=           0 FMFlag=      100000 FMFlg1=           0
         NFxFlg=           0 DoJE=T BraDBF=F KetDBF=T FulRan=T
         wScrn=  0.000000 ICntrl=       500 IOpCl=  0 I1Cent=   200000004 NGrid=           0
         NMat0=    1 NMatS0=      1 NMatT0=    0 NMatD0=    1 NMtDS0=    0 NMtDT0=    0
 Petite list used in FoFCou.
 Initial guess orbital symmetries:
 Alpha Orbitals:
       Occupied  (SG) (SG) (SG) (SG) (PI) (PI) (PI) (PI) (SG) (SG)
       Virtual   (DLTA) (DLTA) (PI) (PI) (SG) (PI) (PI) (SG) (SG)
                 (PI) (PI) (SG) (PI) (PI) (DLTA) (DLTA) (SG) (DLTA)
                 (DLTA) (SG) (PHI) (PHI) (PI) (PI) (SG) (PI) (PI)
                 (SG) (SG) (PI) (PI) (PI) (PI) (DLTA) (DLTA) (PHI)
                 (PHI) (SG) (SG) (DLTA) (DLTA) (PI) (PI) (SG) (SG)
                 (DLTA) (DLTA) (PI) (PI) (SG) (PI) (PI) (SG) (DLTA)
                 (DLTA) (PHI) (PHI) (PI) (PI) (SG) (SG) (DLTA)
                 (DLTA) (PHI) (PHI) (PI) (PI) (SG) (DLTA) (DLTA)
                 (PI) (PI) (SG) (PI) (PI) (SG) (SG) (PI) (PI) (DLTA)
                 (DLTA) (PHI) (PHI) (?A) (?A) (DLTA) (DLTA) (PHI)
                 (PHI) (PI) (PI) (SG) (SG) (DLTA) (DLTA) (PI) (PI)
                 (SG) (SG) (PI) (PI) (SG) (SG) (SG) (SG)
 Beta  Orbitals:
       Occupied  (SG) (SG) (SG) (SG) (PI) (PI) (PI) (PI) (SG)
       Virtual   (SG) (DLTA) (DLTA) (PI) (PI) (SG) (PI) (PI) (SG)
                 (SG) (PI) (PI) (SG) (PI) (PI) (DLTA) (DLTA) (SG)
                 (DLTA) (DLTA) (SG) (PHI) (PHI) (PI) (PI) (SG)
                 (PI) (PI) (SG) (SG) (PI) (PI) (PI) (PI) (DLTA)
                 (DLTA) (PHI) (PHI) (SG) (SG) (DLTA) (DLTA) (PI)
                 (PI) (SG) (SG) (DLTA) (DLTA) (PI) (PI) (SG) (PI)
                 (PI) (SG) (DLTA) (DLTA) (PHI) (PHI) (PI) (PI)
                 (SG) (SG) (DLTA) (DLTA) (PHI) (PHI) (PI) (PI)
                 (SG) (DLTA) (DLTA) (PI) (PI) (SG) (PI) (PI) (SG)
                 (SG) (PI) (PI) (DLTA) (DLTA) (PHI) (PHI) (?A)
                 (?A) (DLTA) (DLTA) (PHI) (PHI) (PI) (PI) (SG)
                 (SG) (DLTA) (DLTA) (PI) (PI) (SG) (SG) (PI) (PI)
                 (SG) (SG) (SG) (SG)
 The electronic state of the initial guess is 2-SG.
 Initial guess <Sx>= 0.0000 <Sy>= 0.0000 <Sz>= 0.5000 <S**2>= 0.7500 S= 0.5000
 Keep J ints in memory in symmetry-blocked form, NReq=31330564.
 Requested convergence on RMS density matrix=1.00D-08 within 128 cycles.
 Requested convergence on MAX density matrix=1.00D-06.
 Requested convergence on             energy=1.00D-06.
 No special actions if energy rises.
 Defaulting to unpruned grid for atomic number  56.
 Defaulting to unpruned grid for atomic number  56.
 Defaulting to unpruned grid for atomic number  56.
 Defaulting to unpruned grid for atomic number  56.
 Defaulting to unpruned grid for atomic number  56.
 Defaulting to unpruned grid for atomic number  56.
 Defaulting to unpruned grid for atomic number  56.
 Defaulting to unpruned grid for atomic number  56.
 SCF Done:  E(UPBE-PBE) =  -125.371598997     A.U. after   13 cycles
            NFock= 13  Conv=0.52D-08     -V/T= 2.1702
 <Sx>= 0.0000 <Sy>= 0.0000 <Sz>= 0.5000 <S**2>= 0.7503 S= 0.5001
 <L.S>=  0.00000000000    
 Annihilation of the first spin contaminant:
 S**2 before annihilation     0.7503,   after     0.7500

 **********************************************************************

            Population analysis using the SCF Density.

 **********************************************************************

 Orbital symmetries:
 Alpha Orbitals:
       Occupied  (SG) (SG) (SG) (PI) (PI) (SG) (PI) (PI) (SG) (SG)
       Virtual   (DLTA) (DLTA) (PI) (PI) (SG) (PI) (PI) (SG) (SG)
                 (PI) (PI) (SG) (DLTA) (DLTA) (PI) (PI) (SG) (PHI)
                 (PHI) (DLTA) (DLTA) (SG) (PI) (PI) (SG) (PI) (PI)
                 (SG) (SG) (PI) (PI) (PI) (PI) (PHI) (PHI) (DLTA)
                 (DLTA) (SG) (DLTA) (DLTA) (SG) (PI) (PI) (SG)
                 (SG) (DLTA) (DLTA) (PI) (PI) (SG) (PI) (PI) (PHI)
                 (PHI) (DLTA) (DLTA) (SG) (PI) (PI) (SG) (SG) (DLTA)
                 (DLTA) (PHI) (PHI) (PI) (PI) (SG) (DLTA) (DLTA)
                 (PI) (PI) (SG) (PI) (PI) (SG) (SG) (PI) (PI) (DLTA)
                 (DLTA) (PHI) (PHI) (?A) (?A) (PHI) (PHI) (DLTA)
                 (DLTA) (PI) (PI) (SG) (SG) (DLTA) (DLTA) (PI)
                 (PI) (SG) (SG) (PI) (PI) (SG) (SG) (SG) (SG)
 Beta  Orbitals:
       Occupied  (SG) (SG) (SG) (PI) (PI) (SG) (PI) (PI) (SG)
       Virtual   (SG) (DLTA) (DLTA) (PI) (PI) (SG) (PI) (PI) (SG)
                 (SG) (PI) (PI) (SG) (PI) (PI) (DLTA) (DLTA) (SG)
                 (DLTA) (DLTA) (PHI) (PHI) (SG) (PI) (PI) (SG)
                 (PI) (PI) (SG) (SG) (PI) (PI) (PI) (PI) (PHI)
                 (PHI) (DLTA) (DLTA) (SG) (DLTA) (DLTA) (SG) (PI)
                 (PI) (SG) (SG) (DLTA) (DLTA) (PI) (PI) (SG) (PI)
                 (PI) (PHI) (PHI) (DLTA) (DLTA) (SG) (PI) (PI)
                 (SG) (SG) (DLTA) (DLTA) (PHI) (PHI) (PI) (PI)
                 (SG) (DLTA) (DLTA) (PI) (PI) (SG) (PI) (PI) (SG)
                 (SG) (PI) (PI) (DLTA) (DLTA) (PHI) (PHI) (?A)
                 (?A) (PHI) (PHI) (DLTA) (DLTA) (PI) (PI) (SG)
                 (SG) (DLTA) (DLTA) (PI) (PI) (SG) (SG) (PI) (PI)
                 (SG) (SG) (SG) (SG)
 The electronic state is 2-SG.
 Alpha  occ. eigenvalues --  -24.15368  -1.24005  -0.96459  -0.67839  -0.67839
 Alpha  occ. eigenvalues --   -0.65917  -0.27990  -0.27990  -0.27712  -0.10946
 Alpha virt. eigenvalues --   -0.05996  -0.05996  -0.05483  -0.05483  -0.04038
 Alpha virt. eigenvalues --   -0.01598  -0.01598   0.00729   0.01513   0.03734
 Alpha virt. eigenvalues --    0.03734   0.07076   0.08288   0.08288   0.09010
 Alpha virt. eigenvalues --    0.09010   0.11510   0.16755   0.16755   0.17884
 Alpha virt. eigenvalues --    0.17884   0.17887   0.20828   0.20828   0.21576
 Alpha virt. eigenvalues --    0.29384   0.29384   0.35544   0.47147   0.48697
 Alpha virt. eigenvalues --    0.48697   0.62177   0.62177   0.62657   0.62657
 Alpha virt. eigenvalues --    0.63438   0.63438   0.67112   0.79917   0.79918
 Alpha virt. eigenvalues --    0.80813   0.84439   0.84439   0.85977   1.13655
 Alpha virt. eigenvalues --    1.38998   1.38998   1.45030   1.45030   1.71531
 Alpha virt. eigenvalues --    1.75783   1.75783   1.81506   1.81506   1.82473
 Alpha virt. eigenvalues --    1.82474   1.86982   1.96736   1.96736   2.03270
 Alpha virt. eigenvalues --    3.94471   4.11305   4.11305   4.11668   4.11668
 Alpha virt. eigenvalues --    4.15694   4.15694   4.16910   4.90979   4.90979
 Alpha virt. eigenvalues --    5.03611   5.03611   5.20613   6.15651   6.15651
 Alpha virt. eigenvalues --    6.26144  11.31480  11.31545  11.31545  11.31595
 Alpha virt. eigenvalues --   11.31595  11.32107  11.32107  11.32830  11.32831
 Alpha virt. eigenvalues --   14.44599  14.44599  14.44638  14.44638  14.47059
 Alpha virt. eigenvalues --   14.47059  14.48350  14.82144  15.63127  15.63128
 Alpha virt. eigenvalues --   15.72123  15.72123  15.84008  26.27881  27.29269
 Alpha virt. eigenvalues --   27.29269  31.31801  53.65932 257.35991 284.00219
  Beta  occ. eigenvalues --  -24.15386  -1.23718  -0.96471  -0.67405  -0.67405
  Beta  occ. eigenvalues --   -0.65595  -0.27985  -0.27985  -0.27680
  Beta virt. eigenvalues --   -0.07987  -0.03888  -0.03888  -0.02475  -0.02475
  Beta virt. eigenvalues --   -0.01571   0.00383   0.00383   0.02528   0.03792
  Beta virt. eigenvalues --    0.06070   0.06070   0.08563   0.11363   0.11363
  Beta virt. eigenvalues --    0.11797   0.11797   0.13866   0.19800   0.19800
  Beta virt. eigenvalues --    0.19903   0.19903   0.20304   0.22787   0.22787
  Beta virt. eigenvalues --    0.23351   0.31706   0.31706   0.36852   0.47679
  Beta virt. eigenvalues --    0.49262   0.49262   0.62919   0.62919   0.63687
  Beta virt. eigenvalues --    0.63687   0.64098   0.64098   0.67658   0.81238
  Beta virt. eigenvalues --    0.81239   0.81607   0.85246   0.85246   0.87412
  Beta virt. eigenvalues --    1.14188   1.39088   1.39088   1.45219   1.45219
  Beta virt. eigenvalues --    1.71594   1.75859   1.75859   1.82514   1.82514
  Beta virt. eigenvalues --    1.83221   1.83222   1.87219   1.97436   1.97436
  Beta virt. eigenvalues --    2.04023   3.94536   4.11295   4.11295   4.11657
  Beta virt. eigenvalues --    4.11657   4.15698   4.15698   4.16911   4.90967
  Beta virt. eigenvalues --    4.90967   5.03609   5.03609   5.20609   6.15644
  Beta virt. eigenvalues --    6.15644   6.26138  11.31444  11.31508  11.31508
  Beta virt. eigenvalues --   11.31557  11.31557  11.32068  11.32068  11.32791
  Beta virt. eigenvalues --   11.32792  14.44548  14.44548  14.44587  14.44587
  Beta virt. eigenvalues --   14.47009  14.47009  14.48302  14.82111  15.63070
  Beta virt. eigenvalues --   15.63070  15.72064  15.72064  15.83953  26.28193
  Beta virt. eigenvalues --   27.30176  27.30176  31.32289  53.65902 257.36122
  Beta virt. eigenvalues --  284.00212
          Condensed to atoms (all electrons):
               1          2
     1  Ba   9.314118   0.103557
     2  F    0.103557   9.478767
          Atomic-Atomic Spin Densities.
               1          2
     1  Ba   1.008268   0.000825
     2  F    0.000825  -0.009919
 Mulliken charges and spin densities:
               1          2
     1  Ba   0.582324   1.009093
     2  F   -0.582324  -0.009093
 Sum of Mulliken charges =  -0.00000   1.00000
 Mulliken charges and spin densities with hydrogens summed into heavy atoms:
               1          2
     1  Ba   0.582324   1.009093
     2  F   -0.582324  -0.009093
 Electronic spatial extent (au):  <R**2>=            203.8321
 Charge=              0.0000 electrons
 Dipole moment (field-independent basis, Debye):
    X=              0.0000    Y=              0.0000    Z=              3.2486  Tot=              3.2486
 Quadrupole moment (field-independent basis, Debye-Ang):
   XX=            -35.4040   YY=            -35.4040   ZZ=            -44.8247
   XY=              0.0000   XZ=              0.0000   YZ=              0.0000
 Traceless Quadrupole moment (field-independent basis, Debye-Ang):
   XX=              3.1402   YY=              3.1402   ZZ=             -6.2805
   XY=              0.0000   XZ=              0.0000   YZ=              0.0000
 Octapole moment (field-independent basis, Debye-Ang**2):
  XXX=              0.0000  YYY=              0.0000  ZZZ=              7.7155  XYY=              0.0000
  XXY=              0.0000  XXZ=             -5.2052  XZZ=              0.0000  YZZ=              0.0000
  YYZ=             -5.2052  XYZ=              0.0000
 Hexadecapole moment (field-independent basis, Debye-Ang**3):
 XXXX=           -125.9204 YYYY=           -125.9204 ZZZZ=           -296.3921 XXXY=              0.0000
 XXXZ=              0.0000 YYYX=              0.0000 YYYZ=              0.0000 ZZZX=              0.0000
 ZZZY=              0.0000 XXYY=            -41.9735 XXZZ=            -66.5469 YYZZ=            -66.5469
 XXYZ=              0.0000 YYXZ=              0.0000 ZZXY=              0.0000
 N-N= 2.173179284061D+01 E-N=-3.328017862315D+02  KE= 1.071354140598D+02
 Symmetry A1   KE= 9.189954168761D+01
 Symmetry A2   KE= 1.162476990680D-47
 Symmetry B1   KE= 7.617936186091D+00
 Symmetry B2   KE= 7.617936186091D+00
 Symmetry A1   SP= 1.000000000000D+00
 Symmetry A2   SP=-9.391992710067D-51
 Symmetry B1   SP=-7.702992161230D-15
 Symmetry B2   SP=-7.249368748526D-15
                          Isotropic Fermi Contact Couplings
        Atom                 a.u.       MegaHertz       Gauss      10(-4) cm-1
     1  Ba(135             0.00000       0.00068       0.00024       0.00023
     2  F(19)              0.01373      57.75731      20.60924      19.26576
 --------------------------------------------------------
       Center         ----  Spin Dipole Couplings  ----
                      3XX-RR        3YY-RR        3ZZ-RR
 --------------------------------------------------------
     1   Atom       -0.001964     -0.001964      0.003928
     2   Atom        0.000168      0.000168     -0.000336
 --------------------------------------------------------
                        XY            XZ            YZ
 --------------------------------------------------------
     1   Atom        0.000000      0.000000      0.000000
     2   Atom        0.000000      0.000000      0.000000
 --------------------------------------------------------


 ---------------------------------------------------------------------------------
              Anisotropic Spin Dipole Couplings in Principal Axis System
 ---------------------------------------------------------------------------------

       Atom             a.u.   MegaHertz   Gauss  10(-4) cm-1        Axes

              Baa    -0.0020    -0.105    -0.037    -0.035  1.0000  0.0000  0.0000
     1 Ba(135 Bbb    -0.0020    -0.105    -0.037    -0.035 -0.0000  1.0000  0.0000
              Bcc     0.0039     0.210     0.075     0.070  0.0000  0.0000  1.0000
 
              Baa    -0.0003    -0.169    -0.060    -0.056  0.0000  0.0000  1.0000
     2 F(19)  Bbb     0.0002     0.084     0.030     0.028 -0.0000  1.0000  0.0000
              Bcc     0.0002     0.084     0.030     0.028  1.0000  0.0000  0.0000
 

 ---------------------------------------------------------------------------------

   4 Symmetry operations used in ECPInt.
 ECPInt:  NShTT=     630 NPrTT=    1480 LenC2=     629 LenP2D=    1427.
 LDataN:  DoStor=T MaxTD1= 9 Len=  602
 Calling FoFJK, ICntrl=      2527 FMM=F ISym2X=1 I1Cent= 0 IOpClX= 0 NMat=1 NMatS=1 NMatT=0.
 Defaulting to unpruned grid for atomic number  56.
 Defaulting to unpruned grid for atomic number  56.
 Defaulting to unpruned grid for atomic number  56.
 Defaulting to unpruned grid for atomic number  56.
 Defaulting to unpruned grid for atomic number  56.
 Defaulting to unpruned grid for atomic number  56.
 Defaulting to unpruned grid for atomic number  56.
 Defaulting to unpruned grid for atomic number  56.
 ***** Axes restored to original set *****
 -------------------------------------------------------------------
 Center     Atomic                   Forces (Hartrees/Bohr)
 Number     Number              X              Y              Z
 -------------------------------------------------------------------
      1       56          -0.000000000   -0.000000000    0.003478250
      2        9          -0.000000000   -0.000000000   -0.003478250
 -------------------------------------------------------------------
 Cartesian Forces:  Max     0.003478250 RMS     0.002008169

 GradGradGradGradGradGradGradGradGradGradGradGradGradGradGradGradGradGrad
 Berny optimization.
 FormGI is forming the generalized inverse of G from B-inverse, IUseBI=4.
 Internal  Forces:  Max     0.003478250 RMS     0.003478250
 Search for a local minimum.
 Step number   1 out of a maximum of   20
 All quantities printed in internal units (Hartrees-Bohrs-Radians)
 Mixed Optimization -- RFO/linear search
 Second derivative matrix not updated -- first step.
 The second derivative matrix:
                          R1
           R1           0.12199
 ITU=  0
     Eigenvalues ---    0.12199
 RFO step:  Lambda=-9.90960231D-05 EMin= 1.21986755D-01
 Linear search not attempted -- first point.
 Iteration  1 RMS(Cart)=  0.02014561 RMS(Int)=  0.00000000
 Iteration  2 RMS(Cart)=  0.00000000 RMS(Int)=  0.00000000
 ClnCor:  largest displacement from symmetrization is 0.00D+00 for atom     0.
 Variable       Old X    -DE/DX   Delta X   Delta X   Delta X     New X
                                 (Linear)    (Quad)   (Total)
    R1        4.14140  -0.00348   0.00000  -0.02849  -0.02849   4.11291
         Item               Value     Threshold  Converged?
 Maximum Force            0.003478     0.000450     NO 
 RMS     Force            0.003478     0.000300     NO 
 Maximum Displacement     0.014245     0.001800     NO 
 RMS     Displacement     0.020146     0.001200     NO 
 Predicted change in Energy=-4.958823D-05
 GradGradGradGradGradGradGradGradGradGradGradGradGradGradGradGradGradGrad

                          Input orientation:                          
 ---------------------------------------------------------------------
 Center     Atomic      Atomic             Coordinates (Angstroms)
 Number     Number       Type             X           Y           Z
 ---------------------------------------------------------------------
      1         56           0        8.500000    8.500000    7.411772
      2          9           0        8.500000    8.500000    9.588228
 ---------------------------------------------------------------------
 Stoichiometry    BaF(2)
 Framework group  C*V[C*(FBa)]
 Deg. of freedom     1
 Full point group                 C*V     NOp   4
 Largest Abelian subgroup         C2V     NOp   4
 Largest concise Abelian subgroup C1      NOp   1
                         Standard orientation:                         
 ---------------------------------------------------------------------
 Center     Atomic      Atomic             Coordinates (Angstroms)
 Number     Number       Type             X           Y           Z
 ---------------------------------------------------------------------
      1         56           0        0.000000    0.000000    0.301356
      2          9           0        0.000000    0.000000   -1.875101
 ---------------------------------------------------------------------
 Rotational constants (GHZ):           0.0000000           6.3892851           6.3892851
 Standard basis: def2QZVPP (5D, 7F)
 There are    62 symmetry adapted cartesian basis functions of A1  symmetry.
 There are    14 symmetry adapted cartesian basis functions of A2  symmetry.
 There are    33 symmetry adapted cartesian basis functions of B1  symmetry.
 There are    33 symmetry adapted cartesian basis functions of B2  symmetry.
 There are    48 symmetry adapted basis functions of A1  symmetry.
 There are    13 symmetry adapted basis functions of A2  symmetry.
 There are    27 symmetry adapted basis functions of B1  symmetry.
 There are    27 symmetry adapted basis functions of B2  symmetry.
   115 basis functions,   184 primitive gaussians,   142 cartesian basis functions
    10 alpha electrons        9 beta electrons
       nuclear repulsion energy        21.8823294201 Hartrees.
 NAtoms=    2 NActive=    2 NUniq=    2 SFac= 1.00D+00 NAtFMM=   60 NAOKFM=F Big=F
 Integral buffers will be    131072 words long.
 Raffenetti 2 integral format.
 Two-electron integral symmetry is turned on.
 One-electron integrals computed using PRISM.
   4 Symmetry operations used in ECPInt.
 ECPInt:  NShTT=     630 NPrTT=    1480 LenC2=     629 LenP2D=    1427.
 LDataN:  DoStor=T MaxTD1= 8 Len=  415
 NBasis=   115 RedAO= T EigKep=  2.83D-03  NBF=    48    13    27    27
 NBsUse=   115 1.00D-06 EigRej= -1.00D+00 NBFU=    48    13    27    27
 Defaulting to unpruned grid for atomic number  56.
 Initial guess from the checkpoint file:  "/data/hutter/SMG16/PBE/Gau-67330.chk"
 B after Tr=     0.000000    0.000000    0.000000
         Rot=    1.000000    0.000000    0.000000    0.000000 Ang=   0.00 deg.
 Initial guess orbital symmetries:
 Alpha Orbitals:
       Occupied  (SG) (SG) (SG) (PI) (PI) (SG) (PI) (PI) (SG) (SG)
       Virtual   (DLTA) (DLTA) (PI) (PI) (SG) (PI) (PI) (SG) (SG)
                 (PI) (PI) (SG) (DLTA) (DLTA) (PI) (PI) (SG) (PHI)
                 (PHI) (DLTA) (DLTA) (SG) (PI) (PI) (SG) (PI) (PI)
                 (SG) (SG) (PI) (PI) (PI) (PI) (PHI) (PHI) (DLTA)
                 (DLTA) (SG) (DLTA) (DLTA) (SG) (PI) (PI) (SG)
                 (SG) (DLTA) (DLTA) (PI) (PI) (SG) (PI) (PI) (PHI)
                 (PHI) (DLTA) (DLTA) (SG) (PI) (PI) (SG) (SG) (DLTA)
                 (DLTA) (PHI) (PHI) (PI) (PI) (SG) (DLTA) (DLTA)
                 (PI) (PI) (SG) (PI) (PI) (SG) (SG) (PI) (PI) (DLTA)
                 (DLTA) (PHI) (PHI) (?A) (?A) (PHI) (PHI) (DLTA)
                 (DLTA) (PI) (PI) (SG) (SG) (DLTA) (DLTA) (PI)
                 (PI) (SG) (SG) (PI) (PI) (SG) (SG) (SG) (SG)
 Beta  Orbitals:
       Occupied  (SG) (SG) (SG) (PI) (PI) (SG) (PI) (PI) (SG)
       Virtual   (SG) (DLTA) (DLTA) (PI) (PI) (SG) (PI) (PI) (SG)
                 (SG) (PI) (PI) (SG) (PI) (PI) (DLTA) (DLTA) (SG)
                 (DLTA) (DLTA) (PHI) (PHI) (SG) (PI) (PI) (SG)
                 (PI) (PI) (SG) (SG) (PI) (PI) (PI) (PI) (PHI)
                 (PHI) (DLTA) (DLTA) (SG) (DLTA) (DLTA) (SG) (PI)
                 (PI) (SG) (SG) (DLTA) (DLTA) (PI) (PI) (SG) (PI)
                 (PI) (PHI) (PHI) (DLTA) (DLTA) (SG) (PI) (PI)
                 (SG) (SG) (DLTA) (DLTA) (PHI) (PHI) (PI) (PI)
                 (SG) (DLTA) (DLTA) (PI) (PI) (SG) (PI) (PI) (SG)
                 (SG) (PI) (PI) (DLTA) (DLTA) (PHI) (PHI) (?A)
                 (?A) (PHI) (PHI) (DLTA) (DLTA) (PI) (PI) (SG)
                 (SG) (DLTA) (DLTA) (PI) (PI) (SG) (SG) (PI) (PI)
                 (SG) (SG) (SG) (SG)
 Initial guess <Sx>= 0.0000 <Sy>= 0.0000 <Sz>= 0.5000 <S**2>= 0.7503 S= 0.5001
 Keep J ints in memory in symmetry-blocked form, NReq=31330602.
 Requested convergence on RMS density matrix=1.00D-08 within 128 cycles.
 Requested convergence on MAX density matrix=1.00D-06.
 Requested convergence on             energy=1.00D-06.
 No special actions if energy rises.
 Defaulting to unpruned grid for atomic number  56.
 Defaulting to unpruned grid for atomic number  56.
 Defaulting to unpruned grid for atomic number  56.
 Defaulting to unpruned grid for atomic number  56.
 Defaulting to unpruned grid for atomic number  56.
 Defaulting to unpruned grid for atomic number  56.
 Defaulting to unpruned grid for atomic number  56.
 Defaulting to unpruned grid for atomic number  56.
 SCF Done:  E(UPBE-PBE) =  -125.371645198     A.U. after   10 cycles
            NFock= 10  Conv=0.29D-08     -V/T= 2.1701
 <Sx>= 0.0000 <Sy>= 0.0000 <Sz>= 0.5000 <S**2>= 0.7503 S= 0.5001
 <L.S>=  0.00000000000    
 Annihilation of the first spin contaminant:
 S**2 before annihilation     0.7503,   after     0.7500
   4 Symmetry operations used in ECPInt.
 ECPInt:  NShTT=     630 NPrTT=    1480 LenC2=     629 LenP2D=    1427.
 LDataN:  DoStor=T MaxTD1= 9 Len=  602
 Calling FoFJK, ICntrl=      2527 FMM=F ISym2X=1 I1Cent= 0 IOpClX= 0 NMat=1 NMatS=1 NMatT=0.
 Defaulting to unpruned grid for atomic number  56.
 Defaulting to unpruned grid for atomic number  56.
 Defaulting to unpruned grid for atomic number  56.
 Defaulting to unpruned grid for atomic number  56.
 Defaulting to unpruned grid for atomic number  56.
 Defaulting to unpruned grid for atomic number  56.
 Defaulting to unpruned grid for atomic number  56.
 Defaulting to unpruned grid for atomic number  56.
 ***** Axes restored to original set *****
 -------------------------------------------------------------------
 Center     Atomic                   Forces (Hartrees/Bohr)
 Number     Number              X              Y              Z
 -------------------------------------------------------------------
      1       56          -0.000000000   -0.000000000   -0.000277074
      2        9          -0.000000000   -0.000000000    0.000277074
 -------------------------------------------------------------------
 Cartesian Forces:  Max     0.000277074 RMS     0.000159969

 GradGradGradGradGradGradGradGradGradGradGradGradGradGradGradGradGradGrad
 Berny optimization.
 Using GEDIIS/GDIIS optimizer.
 Internal  Forces:  Max     0.000277074 RMS     0.000277074
 Search for a local minimum.
 Step number   2 out of a maximum of   20
 All quantities printed in internal units (Hartrees-Bohrs-Radians)
 Mixed Optimization -- En-DIIS/RFO-DIIS
 Update second derivatives using D2CorX and points    1    2
 DE= -4.62D-05 DEPred=-4.96D-05 R= 9.32D-01
 TightC=F SS=  1.41D+00  RLast= 2.85D-02 DXNew= 5.0454D-01 8.5471D-02
 Trust test= 9.32D-01 RLast= 2.85D-02 DXMaxT set to 3.00D-01
 The second derivative matrix:
                          R1
           R1           0.13181
 ITU=  1  0
 Use linear search instead of GDIIS.
     Eigenvalues ---    0.13181
 RFO step:  Lambda= 0.00000000D+00 EMin= 1.31811084D-01
 Quartic linear search produced a step of -0.07154.
 Iteration  1 RMS(Cart)=  0.00144116 RMS(Int)=  0.00000000
 Iteration  2 RMS(Cart)=  0.00000000 RMS(Int)=  0.00000000
 ClnCor:  largest displacement from symmetrization is 0.00D+00 for atom     0.
 Variable       Old X    -DE/DX   Delta X   Delta X   Delta X     New X
                                 (Linear)    (Quad)   (Total)
    R1        4.11291   0.00028   0.00204   0.00000   0.00204   4.11495
         Item               Value     Threshold  Converged?
 Maximum Force            0.000277     0.000450     YES
 RMS     Force            0.000277     0.000300     YES
 Maximum Displacement     0.001019     0.001800     YES
 RMS     Displacement     0.001441     0.001200     NO 
 Predicted change in Energy=-2.909423D-07
 GradGradGradGradGradGradGradGradGradGradGradGradGradGradGradGradGradGrad

                          Input orientation:                          
 ---------------------------------------------------------------------
 Center     Atomic      Atomic             Coordinates (Angstroms)
 Number     Number       Type             X           Y           Z
 ---------------------------------------------------------------------
      1         56           0        8.500000    8.500000    7.411232
      2          9           0        8.500000    8.500000    9.588768
 ---------------------------------------------------------------------
 Stoichiometry    BaF(2)
 Framework group  C*V[C*(FBa)]
 Deg. of freedom     1
 Full point group                 C*V     NOp   4
 Largest Abelian subgroup         C2V     NOp   4
 Largest concise Abelian subgroup C1      NOp   1
                         Standard orientation:                         
 ---------------------------------------------------------------------
 Center     Atomic      Atomic             Coordinates (Angstroms)
 Number     Number       Type             X           Y           Z
 ---------------------------------------------------------------------
      1         56           0        0.000000    0.000000    0.301505
      2          9           0        0.000000    0.000000   -1.876031
 ---------------------------------------------------------------------
 Rotational constants (GHZ):           0.0000000           6.3829575           6.3829575
 Standard basis: def2QZVPP (5D, 7F)
 There are    62 symmetry adapted cartesian basis functions of A1  symmetry.
 There are    14 symmetry adapted cartesian basis functions of A2  symmetry.
 There are    33 symmetry adapted cartesian basis functions of B1  symmetry.
 There are    33 symmetry adapted cartesian basis functions of B2  symmetry.
 There are    48 symmetry adapted basis functions of A1  symmetry.
 There are    13 symmetry adapted basis functions of A2  symmetry.
 There are    27 symmetry adapted basis functions of B1  symmetry.
 There are    27 symmetry adapted basis functions of B2  symmetry.
   115 basis functions,   184 primitive gaussians,   142 cartesian basis functions
    10 alpha electrons        9 beta electrons
       nuclear repulsion energy        21.8714912181 Hartrees.
 NAtoms=    2 NActive=    2 NUniq=    2 SFac= 1.00D+00 NAtFMM=   60 NAOKFM=F Big=F
 Integral buffers will be    131072 words long.
 Raffenetti 2 integral format.
 Two-electron integral symmetry is turned on.
 One-electron integrals computed using PRISM.
   4 Symmetry operations used in ECPInt.
 ECPInt:  NShTT=     630 NPrTT=    1480 LenC2=     629 LenP2D=    1427.
 LDataN:  DoStor=T MaxTD1= 8 Len=  415
 NBasis=   115 RedAO= T EigKep=  2.83D-03  NBF=    48    13    27    27
 NBsUse=   115 1.00D-06 EigRej= -1.00D+00 NBFU=    48    13    27    27
 Defaulting to unpruned grid for atomic number  56.
 Initial guess from the checkpoint file:  "/data/hutter/SMG16/PBE/Gau-67330.chk"
 B after Tr=     0.000000    0.000000   -0.000000
         Rot=    1.000000    0.000000    0.000000    0.000000 Ang=   0.00 deg.
 Initial guess orbital symmetries:
 Alpha Orbitals:
       Occupied  (SG) (SG) (SG) (PI) (PI) (SG) (PI) (PI) (SG) (SG)
       Virtual   (DLTA) (DLTA) (PI) (PI) (SG) (PI) (PI) (SG) (SG)
                 (PI) (PI) (SG) (DLTA) (DLTA) (PI) (PI) (SG) (PHI)
                 (PHI) (DLTA) (DLTA) (SG) (PI) (PI) (SG) (PI) (PI)
                 (SG) (SG) (PI) (PI) (PI) (PI) (PHI) (PHI) (DLTA)
                 (DLTA) (SG) (DLTA) (DLTA) (SG) (PI) (PI) (SG)
                 (SG) (DLTA) (DLTA) (PI) (PI) (SG) (PI) (PI) (PHI)
                 (PHI) (DLTA) (DLTA) (SG) (PI) (PI) (SG) (SG) (DLTA)
                 (DLTA) (PHI) (PHI) (PI) (PI) (SG) (DLTA) (DLTA)
                 (PI) (PI) (SG) (PI) (PI) (SG) (SG) (PI) (PI) (DLTA)
                 (DLTA) (PHI) (PHI) (?A) (?A) (PHI) (PHI) (DLTA)
                 (DLTA) (PI) (PI) (SG) (SG) (DLTA) (DLTA) (PI)
                 (PI) (SG) (SG) (PI) (PI) (SG) (SG) (SG) (SG)
 Beta  Orbitals:
       Occupied  (SG) (SG) (SG) (PI) (PI) (SG) (PI) (PI) (SG)
       Virtual   (SG) (DLTA) (DLTA) (PI) (PI) (SG) (PI) (PI) (SG)
                 (SG) (PI) (PI) (SG) (PI) (PI) (DLTA) (DLTA) (SG)
                 (DLTA) (DLTA) (PHI) (PHI) (SG) (PI) (PI) (SG)
                 (PI) (PI) (SG) (SG) (PI) (PI) (PI) (PI) (PHI)
                 (PHI) (DLTA) (DLTA) (SG) (DLTA) (DLTA) (SG) (PI)
                 (PI) (SG) (SG) (DLTA) (DLTA) (PI) (PI) (SG) (PI)
                 (PI) (PHI) (PHI) (DLTA) (DLTA) (SG) (PI) (PI)
                 (SG) (SG) (DLTA) (DLTA) (PHI) (PHI) (PI) (PI)
                 (SG) (DLTA) (DLTA) (PI) (PI) (SG) (PI) (PI) (SG)
                 (SG) (PI) (PI) (DLTA) (DLTA) (PHI) (PHI) (?A)
                 (?A) (PHI) (PHI) (DLTA) (DLTA) (PI) (PI) (SG)
                 (SG) (DLTA) (DLTA) (PI) (PI) (SG) (SG) (PI) (PI)
                 (SG) (SG) (SG) (SG)
 Initial guess <Sx>= 0.0000 <Sy>= 0.0000 <Sz>= 0.5000 <S**2>= 0.7503 S= 0.5001
 Keep J ints in memory in symmetry-blocked form, NReq=31330602.
 Requested convergence on RMS density matrix=1.00D-08 within 128 cycles.
 Requested convergence on MAX density matrix=1.00D-06.
 Requested convergence on             energy=1.00D-06.
 No special actions if energy rises.
 Defaulting to unpruned grid for atomic number  56.
 Defaulting to unpruned grid for atomic number  56.
 Defaulting to unpruned grid for atomic number  56.
 Defaulting to unpruned grid for atomic number  56.
 Defaulting to unpruned grid for atomic number  56.
 Defaulting to unpruned grid for atomic number  56.
 Defaulting to unpruned grid for atomic number  56.
 Defaulting to unpruned grid for atomic number  56.
 SCF Done:  E(UPBE-PBE) =  -125.371645480     A.U. after    8 cycles
            NFock=  8  Conv=0.40D-08     -V/T= 2.1701
 <Sx>= 0.0000 <Sy>= 0.0000 <Sz>= 0.5000 <S**2>= 0.7503 S= 0.5001
 <L.S>=  0.00000000000    
 Annihilation of the first spin contaminant:
 S**2 before annihilation     0.7503,   after     0.7500
   4 Symmetry operations used in ECPInt.
 ECPInt:  NShTT=     630 NPrTT=    1480 LenC2=     629 LenP2D=    1427.
 LDataN:  DoStor=T MaxTD1= 9 Len=  602
 Calling FoFJK, ICntrl=      2527 FMM=F ISym2X=1 I1Cent= 0 IOpClX= 0 NMat=1 NMatS=1 NMatT=0.
 Defaulting to unpruned grid for atomic number  56.
 Defaulting to unpruned grid for atomic number  56.
 Defaulting to unpruned grid for atomic number  56.
 Defaulting to unpruned grid for atomic number  56.
 Defaulting to unpruned grid for atomic number  56.
 Defaulting to unpruned grid for atomic number  56.
 Defaulting to unpruned grid for atomic number  56.
 Defaulting to unpruned grid for atomic number  56.
 ***** Axes restored to original set *****
 -------------------------------------------------------------------
 Center     Atomic                   Forces (Hartrees/Bohr)
 Number     Number              X              Y              Z
 -------------------------------------------------------------------
      1       56          -0.000000000   -0.000000000    0.000000038
      2        9          -0.000000000   -0.000000000   -0.000000038
 -------------------------------------------------------------------
 Cartesian Forces:  Max     0.000000038 RMS     0.000000022

 GradGradGradGradGradGradGradGradGradGradGradGradGradGradGradGradGradGrad
 Berny optimization.
 Using GEDIIS/GDIIS optimizer.
 Internal  Forces:  Max     0.000000038 RMS     0.000000038
 Search for a local minimum.
 Step number   3 out of a maximum of   20
 All quantities printed in internal units (Hartrees-Bohrs-Radians)
 Mixed Optimization -- En-DIIS/RFO-DIIS
 Swapping is turned off.
 Update second derivatives using D2CorX and points    2    3
 DE= -2.82D-07 DEPred=-2.91D-07 R= 9.70D-01
 Trust test= 9.70D-01 RLast= 2.04D-03 DXMaxT set to 3.00D-01
 The second derivative matrix:
                          R1
           R1           0.13596
 ITU=  0  1
     Eigenvalues ---    0.13596
 En-DIIS/RFO-DIIS/Sim-DIIS IScMMF=       -3 using points:     3    2
 RFO step:  Lambda=-1.03528297D-14.
 DidBck=F Rises=F RFO-DIIS coefs:    0.99986    0.00014
 Iteration  1 RMS(Cart)=  0.00000020 RMS(Int)=  0.00000000
 ClnCor:  largest displacement from symmetrization is 0.00D+00 for atom     0.
 Variable       Old X    -DE/DX   Delta X   Delta X   Delta X     New X
                                 (Linear)    (Quad)   (Total)
    R1        4.11495  -0.00000  -0.00000   0.00000  -0.00000   4.11495
         Item               Value     Threshold  Converged?
 Maximum Force            0.000000     0.000450     YES
 RMS     Force            0.000000     0.000300     YES
 Maximum Displacement     0.000000     0.001800     YES
 RMS     Displacement     0.000000     0.001200     YES
 Predicted change in Energy=-5.180626D-15
 Optimization completed.
    -- Stationary point found.
                           ----------------------------
                           !   Optimized Parameters   !
                           ! (Angstroms and Degrees)  !
 --------------------------                            --------------------------
 ! Name  Definition              Value          Derivative Info.                !
 --------------------------------------------------------------------------------
 ! R1    R(1,2)                  2.1775         -DE/DX =    0.0                 !
 --------------------------------------------------------------------------------
 GradGradGradGradGradGradGradGradGradGradGradGradGradGradGradGradGradGrad

                          Input orientation:                          
 ---------------------------------------------------------------------
 Center     Atomic      Atomic             Coordinates (Angstroms)
 Number     Number       Type             X           Y           Z
 ---------------------------------------------------------------------
      1         56           0        8.500000    8.500000    7.411232
      2          9           0        8.500000    8.500000    9.588768
 ---------------------------------------------------------------------
 Stoichiometry    BaF(2)
 Framework group  C*V[C*(FBa)]
 Deg. of freedom     1
 Full point group                 C*V     NOp   4
 Largest Abelian subgroup         C2V     NOp   4
 Largest concise Abelian subgroup C1      NOp   1
                         Standard orientation:                         
 ---------------------------------------------------------------------
 Center     Atomic      Atomic             Coordinates (Angstroms)
 Number     Number       Type             X           Y           Z
 ---------------------------------------------------------------------
      1         56           0        0.000000    0.000000    0.301505
      2          9           0        0.000000    0.000000   -1.876031
 ---------------------------------------------------------------------
 Rotational constants (GHZ):           0.0000000           6.3829575           6.3829575

 **********************************************************************

            Population analysis using the SCF Density.

 **********************************************************************

 Orbital symmetries:
 Alpha Orbitals:
       Occupied  (SG) (SG) (SG) (PI) (PI) (SG) (PI) (PI) (SG) (SG)
       Virtual   (DLTA) (DLTA) (PI) (PI) (SG) (PI) (PI) (SG) (SG)
                 (PI) (PI) (SG) (DLTA) (DLTA) (PI) (PI) (SG) (PHI)
                 (PHI) (DLTA) (DLTA) (SG) (PI) (PI) (SG) (PI) (PI)
                 (SG) (SG) (PI) (PI) (PI) (PI) (PHI) (PHI) (DLTA)
                 (DLTA) (SG) (DLTA) (DLTA) (SG) (PI) (PI) (SG)
                 (SG) (DLTA) (DLTA) (PI) (PI) (SG) (PI) (PI) (PHI)
                 (PHI) (DLTA) (DLTA) (SG) (PI) (PI) (SG) (SG) (DLTA)
                 (DLTA) (PHI) (PHI) (PI) (PI) (SG) (DLTA) (DLTA)
                 (PI) (PI) (SG) (PI) (PI) (SG) (SG) (PI) (PI) (DLTA)
                 (DLTA) (PHI) (PHI) (?A) (?A) (PHI) (PHI) (DLTA)
                 (DLTA) (PI) (PI) (SG) (SG) (DLTA) (DLTA) (PI)
                 (PI) (SG) (SG) (PI) (PI) (SG) (SG) (SG) (SG)
 Beta  Orbitals:
       Occupied  (SG) (SG) (SG) (PI) (PI) (SG) (PI) (PI) (SG)
       Virtual   (SG) (DLTA) (DLTA) (PI) (PI) (SG) (PI) (PI) (SG)
                 (SG) (PI) (PI) (SG) (PI) (PI) (DLTA) (DLTA) (SG)
                 (DLTA) (DLTA) (PHI) (PHI) (SG) (PI) (PI) (SG)
                 (PI) (PI) (SG) (SG) (PI) (PI) (PI) (PI) (PHI)
                 (PHI) (DLTA) (DLTA) (SG) (DLTA) (DLTA) (SG) (PI)
                 (PI) (SG) (SG) (DLTA) (DLTA) (PI) (PI) (SG) (PI)
                 (PI) (PHI) (PHI) (DLTA) (DLTA) (SG) (PI) (PI)
                 (SG) (SG) (DLTA) (DLTA) (PHI) (PHI) (PI) (PI)
                 (SG) (DLTA) (DLTA) (PI) (PI) (SG) (PI) (PI) (SG)
                 (SG) (PI) (PI) (DLTA) (DLTA) (PHI) (PHI) (?A)
                 (?A) (PHI) (PHI) (DLTA) (DLTA) (PI) (PI) (SG)
                 (SG) (DLTA) (DLTA) (PI) (PI) (SG) (SG) (PI) (PI)
                 (SG) (SG) (SG) (SG)
 The electronic state is 2-SG.
 Alpha  occ. eigenvalues --  -24.15558  -1.23911  -0.96755  -0.67729  -0.67729
 Alpha  occ. eigenvalues --   -0.65791  -0.28245  -0.28245  -0.27865  -0.10899
 Alpha virt. eigenvalues --   -0.05932  -0.05932  -0.05428  -0.05428  -0.03965
 Alpha virt. eigenvalues --   -0.01538  -0.01538   0.00738   0.01539   0.03747
 Alpha virt. eigenvalues --    0.03747   0.07060   0.08322   0.08322   0.09041
 Alpha virt. eigenvalues --    0.09041   0.11611   0.16793   0.16793   0.17907
 Alpha virt. eigenvalues --    0.17907   0.17930   0.20871   0.20871   0.21611
 Alpha virt. eigenvalues --    0.29447   0.29447   0.35517   0.47207   0.48694
 Alpha virt. eigenvalues --    0.48694   0.62235   0.62235   0.62758   0.62758
 Alpha virt. eigenvalues --    0.63529   0.63529   0.67513   0.79997   0.79998
 Alpha virt. eigenvalues --    0.80710   0.84558   0.84558   0.86118   1.13746
 Alpha virt. eigenvalues --    1.38813   1.38813   1.45342   1.45342   1.71675
 Alpha virt. eigenvalues --    1.75728   1.75728   1.81616   1.81616   1.82614
 Alpha virt. eigenvalues --    1.82614   1.88551   1.96991   1.96991   2.02346
 Alpha virt. eigenvalues --    3.94721   4.11090   4.11090   4.11407   4.11407
 Alpha virt. eigenvalues --    4.15579   4.15579   4.16831   4.90806   4.90806
 Alpha virt. eigenvalues --    5.03731   5.03731   5.21045   6.15553   6.15553
 Alpha virt. eigenvalues --    6.26604  11.31192  11.31259  11.31259  11.31311
 Alpha virt. eigenvalues --   11.31312  11.31833  11.31833  11.32576  11.32577
 Alpha virt. eigenvalues --   14.44362  14.44362  14.44427  14.44427  14.46941
 Alpha virt. eigenvalues --   14.46941  14.48348  14.82385  15.62952  15.62952
 Alpha virt. eigenvalues --   15.72161  15.72161  15.84291  26.28024  27.30297
 Alpha virt. eigenvalues --   27.30297  31.44450  53.66184 257.36107 284.00587
  Beta  occ. eigenvalues --  -24.15576  -1.23625  -0.96767  -0.67296  -0.67296
  Beta  occ. eigenvalues --   -0.65472  -0.28239  -0.28239  -0.27832
  Beta virt. eigenvalues --   -0.07943  -0.03821  -0.03821  -0.02395  -0.02395
  Beta virt. eigenvalues --   -0.01487   0.00431   0.00431   0.02541   0.03827
  Beta virt. eigenvalues --    0.06091   0.06091   0.08558   0.11390   0.11390
  Beta virt. eigenvalues --    0.11835   0.11835   0.13963   0.19825   0.19825
  Beta virt. eigenvalues --    0.19940   0.19940   0.20335   0.22835   0.22835
  Beta virt. eigenvalues --    0.23394   0.31771   0.31771   0.36834   0.47752
  Beta virt. eigenvalues --    0.49265   0.49265   0.62972   0.62972   0.63786
  Beta virt. eigenvalues --    0.63786   0.64187   0.64188   0.68049   0.81317
  Beta virt. eigenvalues --    0.81318   0.81513   0.85368   0.85368   0.87550
  Beta virt. eigenvalues --    1.14275   1.38906   1.38906   1.45530   1.45530
  Beta virt. eigenvalues --    1.71738   1.75805   1.75805   1.82622   1.82622
  Beta virt. eigenvalues --    1.83360   1.83361   1.88799   1.97695   1.97695
  Beta virt. eigenvalues --    2.03093   3.94787   4.11080   4.11080   4.11396
  Beta virt. eigenvalues --    4.11396   4.15583   4.15583   4.16831   4.90795
  Beta virt. eigenvalues --    4.90795   5.03730   5.03730   5.21040   6.15547
  Beta virt. eigenvalues --    6.15547   6.26599  11.31157  11.31222  11.31222
  Beta virt. eigenvalues --   11.31273  11.31273  11.31793  11.31793  11.32537
  Beta virt. eigenvalues --   11.32538  14.44311  14.44311  14.44375  14.44375
  Beta virt. eigenvalues --   14.46890  14.46890  14.48299  14.82351  15.62894
  Beta virt. eigenvalues --   15.62894  15.72102  15.72102  15.84236  26.28333
  Beta virt. eigenvalues --   27.31204  27.31204  31.44939  53.66154 257.36146
  Beta virt. eigenvalues --  284.00580
          Condensed to atoms (all electrons):
               1          2
     1  Ba   9.322815   0.097513
     2  F    0.097513   9.482159
          Atomic-Atomic Spin Densities.
               1          2
     1  Ba   1.008049   0.001023
     2  F    0.001023  -0.010094
 Mulliken charges and spin densities:
               1          2
     1  Ba   0.579672   1.009071
     2  F   -0.579672  -0.009071
 Sum of Mulliken charges =  -0.00000   1.00000
 Mulliken charges and spin densities with hydrogens summed into heavy atoms:
               1          2
     1  Ba   0.579672   1.009071
     2  F   -0.579672  -0.009071
 Electronic spatial extent (au):  <R**2>=            202.2367
 Charge=             -0.0000 electrons
 Dipole moment (field-independent basis, Debye):
    X=              0.0000    Y=              0.0000    Z=              3.1653  Tot=              3.1653
 Quadrupole moment (field-independent basis, Debye-Ang):
   XX=            -35.4352   YY=            -35.4352   ZZ=            -44.6349
   XY=              0.0000   XZ=              0.0000   YZ=              0.0000
 Traceless Quadrupole moment (field-independent basis, Debye-Ang):
   XX=              3.0666   YY=              3.0666   ZZ=             -6.1331
   XY=              0.0000   XZ=              0.0000   YZ=              0.0000
 Octapole moment (field-independent basis, Debye-Ang**2):
  XXX=              0.0000  YYY=              0.0000  ZZZ=              7.1422  XYY=              0.0000
  XXY=              0.0000  XXZ=             -5.2551  XZZ=              0.0000  YZZ=              0.0000
  YYZ=             -5.2551  XYZ=              0.0000
 Hexadecapole moment (field-independent basis, Debye-Ang**3):
 XXXX=           -126.4835 YYYY=           -126.4835 ZZZZ=           -293.3503 XXXY=              0.0000
 XXXZ=              0.0000 YYYX=              0.0000 YYYZ=              0.0000 ZZZX=              0.0000
 ZZZY=              0.0000 XXYY=            -42.1612 XXZZ=            -66.2559 YYZZ=            -66.2559
 XXYZ=              0.0000 YYXZ=              0.0000 ZZXY=              0.0000
 N-N= 2.187149121815D+01 E-N=-3.330781516803D+02  KE= 1.071479518871D+02
 Symmetry A1   KE= 9.191123923408D+01
 Symmetry A2   KE= 1.177608324879D-47
 Symmetry B1   KE= 7.618356326520D+00
 Symmetry B2   KE= 7.618356326520D+00
 Symmetry A1   SP= 1.000000000000D+00
 Symmetry A2   SP=-3.338125712562D-50
 Symmetry B1   SP= 3.307223201895D-16
 Symmetry B2   SP= 1.518547115310D-15
                          Isotropic Fermi Contact Couplings
        Atom                 a.u.       MegaHertz       Gauss      10(-4) cm-1
     1  Ba(135             0.00000       0.00068       0.00024       0.00023
     2  F(19)              0.01394      58.64089      20.92453      19.56050
 --------------------------------------------------------
       Center         ----  Spin Dipole Couplings  ----
                      3XX-RR        3YY-RR        3ZZ-RR
 --------------------------------------------------------
     1   Atom       -0.001937     -0.001937      0.003874
     2   Atom        0.000361      0.000361     -0.000723
 --------------------------------------------------------
                        XY            XZ            YZ
 --------------------------------------------------------
     1   Atom        0.000000      0.000000      0.000000
     2   Atom        0.000000      0.000000      0.000000
 --------------------------------------------------------


 ---------------------------------------------------------------------------------
              Anisotropic Spin Dipole Couplings in Principal Axis System
 ---------------------------------------------------------------------------------

       Atom             a.u.   MegaHertz   Gauss  10(-4) cm-1        Axes

              Baa    -0.0019    -0.103    -0.037    -0.034 -0.0000  1.0000  0.0000
     1 Ba(135 Bbb    -0.0019    -0.103    -0.037    -0.034  1.0000  0.0000  0.0000
              Bcc     0.0039     0.207     0.074     0.069  0.0000  0.0000  1.0000
 
              Baa    -0.0007    -0.363    -0.130    -0.121  0.0000  0.0000  1.0000
     2 F(19)  Bbb     0.0004     0.182     0.065     0.061  1.0000  0.0000  0.0000
              Bcc     0.0004     0.182     0.065     0.061 -0.0000  1.0000  0.0000
 

 ---------------------------------------------------------------------------------

 Unable to Open any file for archive entry.
 1\1\GINC-TCOPT10\FOpt\UPBEPBE\def2QZVPP\Ba1F1(2)\HUTTER\30-Jul-2021\0\
 \#N UPBEPBE/Def2QZVPP scf=tight Int(Grid=ultrafine) OPT FREQ\\Mol job 
 1\\0,2\Ba,8.5,8.5,7.4112322405\F,8.5,8.5,9.5887677595\\Version=ES64L-G
 16RevC.01\State=2-SG\HF=-125.3716455\S2=0.750273\S2-1=0.\S2A=0.75\RMSD
 =3.959e-09\RMSF=2.167e-08\Dipole=0.,0.,-1.2453154\Quadrupole=2.2799199
 ,2.2799199,-4.5598398,0.,0.,0.\PG=C*V [C*(F1Ba1)]\\@
 The archive entry for this job was punched.


 "ANNA, YOU MUSN'T SPEAK OF OXIDIZED MURIATIC ACID
 ANYMORE, FROM NOW ON YOU MUST SAY CHLORINE."
   -- JENS JACOB BERZELIUS, IN 1820, TO HIS COOK, WHO HAD
 COMPLAINED OF THE SMELL OF THE FLASK SHE WAS CLEANING.
 Job cpu time:       0 days  0 hours  2 minutes 51.0 seconds.
 Elapsed time:       0 days  0 hours  0 minutes 22.0 seconds.
 File lengths (MBytes):  RWF=     14 Int=      0 D2E=      0 Chk=      2 Scr=      1
 Normal termination of Gaussian 16 at Fri Jul 30 10:26:01 2021.
 Link1:  Proceeding to internal job step number  2.
 ----------------------------------------------------------------------
 #N Geom=AllCheck Guess=TCheck SCRF=Check GenChk UPBEPBE/def2QZVPP Freq
 ----------------------------------------------------------------------
 1/10=4,29=7,30=1,38=1,40=1/1,3;
 2/12=2,40=1/2;
 3/5=45,7=202,11=2,14=-4,25=1,30=1,70=2,71=2,74=1009,75=-5,116=2,140=1/1,2,3;
 4/5=101/1;
 5/5=2,32=2,38=6,98=1/2;
 8/6=4,10=90,11=11/1;
 11/6=1,8=1,9=11,15=111,16=1/1,2,10;
 10/6=1/2;
 6/7=2,8=2,9=2,10=2,28=1/1;
 7/8=1,10=1,25=1/1,2,3,16;
 1/10=4,30=1/3;
 99//99;
 Structure from the checkpoint file:  "/data/hutter/SMG16/PBE/Gau-67330.chk"
 ---------
 Mol job 1
 ---------
 Charge =  0 Multiplicity = 2
 Redundant internal coordinates found in file.  (old form).
 Ba,0,8.5,8.5,7.4112322405
 F,0,8.5,8.5,9.5887677595
 Recover connectivity data from disk.

 GradGradGradGradGradGradGradGradGradGradGradGradGradGradGradGradGradGrad
 Berny optimization.
 Initialization pass.
                           ----------------------------
                           !    Initial Parameters    !
                           ! (Angstroms and Degrees)  !
 --------------------------                            --------------------------
 ! Name  Definition              Value          Derivative Info.                !
 --------------------------------------------------------------------------------
 ! R1    R(1,2)                  2.1775         calculate D2E/DX2 analytically  !
 --------------------------------------------------------------------------------
 Trust Radius=3.00D-01 FncErr=1.00D-07 GrdErr=1.00D-07 EigMax=2.50D+02 EigMin=1.00D-04
 Number of steps in this run=      2 maximum allowed number of steps=      2.
 GradGradGradGradGradGradGradGradGradGradGradGradGradGradGradGradGradGrad

                          Input orientation:                          
 ---------------------------------------------------------------------
 Center     Atomic      Atomic             Coordinates (Angstroms)
 Number     Number       Type             X           Y           Z
 ---------------------------------------------------------------------
      1         56           0        8.500000    8.500000    7.411232
      2          9           0        8.500000    8.500000    9.588768
 ---------------------------------------------------------------------
 Stoichiometry    BaF(2)
 Framework group  C*V[C*(FBa)]
 Deg. of freedom     1
 Full point group                 C*V     NOp   4
 Largest Abelian subgroup         C2V     NOp   4
 Largest concise Abelian subgroup C1      NOp   1
                         Standard orientation:                         
 ---------------------------------------------------------------------
 Center     Atomic      Atomic             Coordinates (Angstroms)
 Number     Number       Type             X           Y           Z
 ---------------------------------------------------------------------
      1         56           0        0.000000    0.000000    0.301505
      2          9           0        0.000000    0.000000   -1.876031
 ---------------------------------------------------------------------
 Rotational constants (GHZ):           0.0000000           6.3829575           6.3829575
 Standard basis: def2QZVPP (5D, 7F)
 There are    62 symmetry adapted cartesian basis functions of A1  symmetry.
 There are    14 symmetry adapted cartesian basis functions of A2  symmetry.
 There are    33 symmetry adapted cartesian basis functions of B1  symmetry.
 There are    33 symmetry adapted cartesian basis functions of B2  symmetry.
 There are    48 symmetry adapted basis functions of A1  symmetry.
 There are    13 symmetry adapted basis functions of A2  symmetry.
 There are    27 symmetry adapted basis functions of B1  symmetry.
 There are    27 symmetry adapted basis functions of B2  symmetry.
   115 basis functions,   184 primitive gaussians,   142 cartesian basis functions
    10 alpha electrons        9 beta electrons
       nuclear repulsion energy        21.8714912181 Hartrees.
 NAtoms=    2 NActive=    2 NUniq=    2 SFac= 1.00D+00 NAtFMM=   60 NAOKFM=F Big=F
 Integral buffers will be    131072 words long.
 Raffenetti 2 integral format.
 Two-electron integral symmetry is turned on.
 One-electron integrals computed using PRISM.
   4 Symmetry operations used in ECPInt.
 ECPInt:  NShTT=     630 NPrTT=    1480 LenC2=     629 LenP2D=    1427.
 LDataN:  DoStor=T MaxTD1= 8 Len=  415
 NBasis=   115 RedAO= T EigKep=  2.83D-03  NBF=    48    13    27    27
 NBsUse=   115 1.00D-06 EigRej= -1.00D+00 NBFU=    48    13    27    27
 Defaulting to unpruned grid for atomic number  56.
 Initial guess from the checkpoint file:  "/data/hutter/SMG16/PBE/Gau-67330.chk"
 B after Tr=     0.000000    0.000000    0.000000
         Rot=    1.000000    0.000000    0.000000    0.000000 Ang=   0.00 deg.
 Initial guess orbital symmetries:
 Alpha Orbitals:
       Occupied  (SG) (SG) (SG) (PI) (PI) (SG) (PI) (PI) (SG) (SG)
       Virtual   (DLTA) (DLTA) (PI) (PI) (SG) (PI) (PI) (SG) (SG)
                 (PI) (PI) (SG) (DLTA) (DLTA) (PI) (PI) (SG) (PHI)
                 (PHI) (DLTA) (DLTA) (SG) (PI) (PI) (SG) (PI) (PI)
                 (SG) (SG) (PI) (PI) (PI) (PI) (PHI) (PHI) (DLTA)
                 (DLTA) (SG) (DLTA) (DLTA) (SG) (PI) (PI) (SG)
                 (SG) (DLTA) (DLTA) (PI) (PI) (SG) (PI) (PI) (PHI)
                 (PHI) (DLTA) (DLTA) (SG) (PI) (PI) (SG) (SG) (DLTA)
                 (DLTA) (PHI) (PHI) (PI) (PI) (SG) (DLTA) (DLTA)
                 (PI) (PI) (SG) (PI) (PI) (SG) (SG) (PI) (PI) (DLTA)
                 (DLTA) (PHI) (PHI) (?A) (?A) (PHI) (PHI) (DLTA)
                 (DLTA) (PI) (PI) (SG) (SG) (DLTA) (DLTA) (PI)
                 (PI) (SG) (SG) (PI) (PI) (SG) (SG) (SG) (SG)
 Beta  Orbitals:
       Occupied  (SG) (SG) (SG) (PI) (PI) (SG) (PI) (PI) (SG)
       Virtual   (SG) (DLTA) (DLTA) (PI) (PI) (SG) (PI) (PI) (SG)
                 (SG) (PI) (PI) (SG) (PI) (PI) (DLTA) (DLTA) (SG)
                 (DLTA) (DLTA) (PHI) (PHI) (SG) (PI) (PI) (SG)
                 (PI) (PI) (SG) (SG) (PI) (PI) (PI) (PI) (PHI)
                 (PHI) (DLTA) (DLTA) (SG) (DLTA) (DLTA) (SG) (PI)
                 (PI) (SG) (SG) (DLTA) (DLTA) (PI) (PI) (SG) (PI)
                 (PI) (PHI) (PHI) (DLTA) (DLTA) (SG) (PI) (PI)
                 (SG) (SG) (DLTA) (DLTA) (PHI) (PHI) (PI) (PI)
                 (SG) (DLTA) (DLTA) (PI) (PI) (SG) (PI) (PI) (SG)
                 (SG) (PI) (PI) (DLTA) (DLTA) (PHI) (PHI) (?A)
                 (?A) (PHI) (PHI) (DLTA) (DLTA) (PI) (PI) (SG)
                 (SG) (DLTA) (DLTA) (PI) (PI) (SG) (SG) (PI) (PI)
                 (SG) (SG) (SG) (SG)
 Initial guess <Sx>= 0.0000 <Sy>= 0.0000 <Sz>= 0.5000 <S**2>= 0.7503 S= 0.5001
 Keep J ints in memory in symmetry-blocked form, NReq=31330602.
 Requested convergence on RMS density matrix=1.00D-08 within 128 cycles.
 Requested convergence on MAX density matrix=1.00D-06.
 Requested convergence on             energy=1.00D-06.
 No special actions if energy rises.
 Defaulting to unpruned grid for atomic number  56.
 Defaulting to unpruned grid for atomic number  56.
 Defaulting to unpruned grid for atomic number  56.
 Defaulting to unpruned grid for atomic number  56.
 Defaulting to unpruned grid for atomic number  56.
 Defaulting to unpruned grid for atomic number  56.
 Defaulting to unpruned grid for atomic number  56.
 Defaulting to unpruned grid for atomic number  56.
 SCF Done:  E(UPBE-PBE) =  -125.371645480     A.U. after    1 cycles
            NFock=  1  Conv=0.95D-09     -V/T= 2.1701
 <Sx>= 0.0000 <Sy>= 0.0000 <Sz>= 0.5000 <S**2>= 0.7503 S= 0.5001
 <L.S>=  0.00000000000    
 Annihilation of the first spin contaminant:
 S**2 before annihilation     0.7503,   after     0.7500
 DoSCS=F DFT=T ScalE2(SS,OS)=  1.000000  1.000000
 Range of M.O.s used for correlation:     1   115
 NBasis=   115 NAE=    10 NBE=     9 NFC=     0 NFV=     0
 NROrb=    115 NOA=    10 NOB=     9 NVA=   105 NVB=   106

 **** Warning!!: The smallest alpha delta epsilon is  0.49675204D-01

   4 Symmetry operations used in ECPInt.
 ECPInt:  NShTT=     630 NPrTT=    1480 LenC2=     629 LenP2D=    1427.
 LDataN:  DoStor=T MaxTD1= 9 Len=  602
 Symmetrizing basis deriv contribution to polar:
 IMax=3 JMax=2 DiffMx= 0.00D+00
 G2DrvN: will do     3 centers at a time, making    1 passes.
 Calling FoFCou, ICntrl=  3507 FMM=F I1Cent=   0 AccDes= 0.00D+00.
 Defaulting to unpruned grid for atomic number  56.
 Defaulting to unpruned grid for atomic number  56.
 Defaulting to unpruned grid for atomic number  56.
 Defaulting to unpruned grid for atomic number  56.
 Defaulting to unpruned grid for atomic number  56.
 Defaulting to unpruned grid for atomic number  56.
 Defaulting to unpruned grid for atomic number  56.
 Defaulting to unpruned grid for atomic number  56.
 End of G2Drv F.D. properties file   721 does not exist.
 End of G2Drv F.D. properties file   722 does not exist.
 End of G2Drv F.D. properties file   788 does not exist.
          IDoAtm=11
          Differentiating once with respect to electric field.
                with respect to dipole field.
          Differentiating once with respect to nuclear coordinates.
 Defaulting to unpruned grid for atomic number  56.
 Keep J ints in memory in symmetry-blocked form, NReq=31332030.
 Defaulting to unpruned grid for atomic number  56.
 Defaulting to unpruned grid for atomic number  56.
 Defaulting to unpruned grid for atomic number  56.
 Defaulting to unpruned grid for atomic number  56.
 Defaulting to unpruned grid for atomic number  56.
 Defaulting to unpruned grid for atomic number  56.
 Defaulting to unpruned grid for atomic number  56.
 Defaulting to unpruned grid for atomic number  56.
          There are     9 degrees of freedom in the 1st order CPHF.  IDoFFX=6 NUNeed=     3.
      6 vectors produced by pass  0 Test12= 2.23D-14 1.11D-08 XBig12= 2.79D+03 5.01D+01.
 AX will form     6 AO Fock derivatives at one time.
      6 vectors produced by pass  1 Test12= 2.23D-14 1.11D-08 XBig12= 2.19D+02 4.69D+00.
      6 vectors produced by pass  2 Test12= 2.23D-14 1.11D-08 XBig12= 2.10D+01 2.60D+00.
      6 vectors produced by pass  3 Test12= 2.23D-14 1.11D-08 XBig12= 4.01D-01 2.85D-01.
      6 vectors produced by pass  4 Test12= 2.23D-14 1.11D-08 XBig12= 9.71D-03 5.93D-02.
      6 vectors produced by pass  5 Test12= 2.23D-14 1.11D-08 XBig12= 3.39D-04 6.34D-03.
      6 vectors produced by pass  6 Test12= 2.23D-14 1.11D-08 XBig12= 4.47D-06 5.07D-04.
      6 vectors produced by pass  7 Test12= 2.23D-14 1.11D-08 XBig12= 4.09D-08 6.26D-05.
      4 vectors produced by pass  8 Test12= 2.23D-14 1.11D-08 XBig12= 5.30D-10 6.68D-06.
      3 vectors produced by pass  9 Test12= 2.23D-14 1.11D-08 XBig12= 5.72D-12 8.53D-07.
      1 vectors produced by pass 10 Test12= 2.23D-14 1.11D-08 XBig12= 3.06D-14 4.86D-08.
 InvSVY:  IOpt=1 It=  1 EMax= 4.44D-16
 Solved reduced A of dimension    56 with     6 vectors.
 Isotropic polarizability for W=    0.000000      258.35 Bohr**3.
 End of Minotr F.D. properties file   721 does not exist.
 End of Minotr F.D. properties file   722 does not exist.
 End of Minotr F.D. properties file   788 does not exist.

 **********************************************************************

            Population analysis using the SCF Density.

 **********************************************************************

 Orbital symmetries:
 Alpha Orbitals:
       Occupied  (SG) (SG) (SG) (PI) (PI) (SG) (PI) (PI) (SG) (SG)
       Virtual   (DLTA) (DLTA) (PI) (PI) (SG) (PI) (PI) (SG) (SG)
                 (PI) (PI) (SG) (DLTA) (DLTA) (PI) (PI) (SG) (PHI)
                 (PHI) (DLTA) (DLTA) (SG) (PI) (PI) (SG) (PI) (PI)
                 (SG) (SG) (PI) (PI) (PI) (PI) (PHI) (PHI) (DLTA)
                 (DLTA) (SG) (DLTA) (DLTA) (SG) (PI) (PI) (SG)
                 (SG) (DLTA) (DLTA) (PI) (PI) (SG) (PI) (PI) (PHI)
                 (PHI) (DLTA) (DLTA) (SG) (PI) (PI) (SG) (SG) (DLTA)
                 (DLTA) (PHI) (PHI) (PI) (PI) (SG) (DLTA) (DLTA)
                 (PI) (PI) (SG) (PI) (PI) (SG) (SG) (PI) (PI) (DLTA)
                 (DLTA) (PHI) (PHI) (?A) (?A) (PHI) (PHI) (DLTA)
                 (DLTA) (PI) (PI) (SG) (SG) (DLTA) (DLTA) (PI)
                 (PI) (SG) (SG) (PI) (PI) (SG) (SG) (SG) (SG)
 Beta  Orbitals:
       Occupied  (SG) (SG) (SG) (PI) (PI) (SG) (PI) (PI) (SG)
       Virtual   (SG) (DLTA) (DLTA) (PI) (PI) (SG) (PI) (PI) (SG)
                 (SG) (PI) (PI) (SG) (PI) (PI) (DLTA) (DLTA) (SG)
                 (DLTA) (DLTA) (PHI) (PHI) (SG) (PI) (PI) (SG)
                 (PI) (PI) (SG) (SG) (PI) (PI) (PI) (PI) (PHI)
                 (PHI) (DLTA) (DLTA) (SG) (DLTA) (DLTA) (SG) (PI)
                 (PI) (SG) (SG) (DLTA) (DLTA) (PI) (PI) (SG) (PI)
                 (PI) (PHI) (PHI) (DLTA) (DLTA) (SG) (PI) (PI)
                 (SG) (SG) (DLTA) (DLTA) (PHI) (PHI) (PI) (PI)
                 (SG) (DLTA) (DLTA) (PI) (PI) (SG) (PI) (PI) (SG)
                 (SG) (PI) (PI) (DLTA) (DLTA) (PHI) (PHI) (?A)
                 (?A) (PHI) (PHI) (DLTA) (DLTA) (PI) (PI) (SG)
                 (SG) (DLTA) (DLTA) (PI) (PI) (SG) (SG) (PI) (PI)
                 (SG) (SG) (SG) (SG)
 The electronic state is 2-SG.
 Alpha  occ. eigenvalues --  -24.15558  -1.23911  -0.96755  -0.67729  -0.67729
 Alpha  occ. eigenvalues --   -0.65791  -0.28245  -0.28245  -0.27865  -0.10899
 Alpha virt. eigenvalues --   -0.05932  -0.05932  -0.05428  -0.05428  -0.03965
 Alpha virt. eigenvalues --   -0.01538  -0.01538   0.00738   0.01539   0.03747
 Alpha virt. eigenvalues --    0.03747   0.07060   0.08322   0.08322   0.09041
 Alpha virt. eigenvalues --    0.09041   0.11611   0.16793   0.16793   0.17907
 Alpha virt. eigenvalues --    0.17907   0.17930   0.20871   0.20871   0.21611
 Alpha virt. eigenvalues --    0.29447   0.29447   0.35517   0.47207   0.48694
 Alpha virt. eigenvalues --    0.48694   0.62235   0.62235   0.62758   0.62758
 Alpha virt. eigenvalues --    0.63529   0.63529   0.67513   0.79997   0.79998
 Alpha virt. eigenvalues --    0.80710   0.84558   0.84558   0.86118   1.13746
 Alpha virt. eigenvalues --    1.38813   1.38813   1.45342   1.45342   1.71675
 Alpha virt. eigenvalues --    1.75728   1.75728   1.81616   1.81616   1.82614
 Alpha virt. eigenvalues --    1.82614   1.88551   1.96991   1.96991   2.02346
 Alpha virt. eigenvalues --    3.94721   4.11090   4.11090   4.11407   4.11407
 Alpha virt. eigenvalues --    4.15579   4.15579   4.16831   4.90806   4.90806
 Alpha virt. eigenvalues --    5.03731   5.03731   5.21045   6.15553   6.15553
 Alpha virt. eigenvalues --    6.26604  11.31192  11.31259  11.31259  11.31311
 Alpha virt. eigenvalues --   11.31312  11.31833  11.31833  11.32576  11.32577
 Alpha virt. eigenvalues --   14.44362  14.44362  14.44427  14.44427  14.46941
 Alpha virt. eigenvalues --   14.46941  14.48348  14.82385  15.62952  15.62952
 Alpha virt. eigenvalues --   15.72161  15.72161  15.84291  26.28024  27.30297
 Alpha virt. eigenvalues --   27.30297  31.44450  53.66184 257.36107 284.00587
  Beta  occ. eigenvalues --  -24.15576  -1.23625  -0.96767  -0.67296  -0.67296
  Beta  occ. eigenvalues --   -0.65472  -0.28239  -0.28239  -0.27832
  Beta virt. eigenvalues --   -0.07943  -0.03821  -0.03821  -0.02395  -0.02395
  Beta virt. eigenvalues --   -0.01487   0.00431   0.00431   0.02541   0.03827
  Beta virt. eigenvalues --    0.06091   0.06091   0.08558   0.11390   0.11390
  Beta virt. eigenvalues --    0.11835   0.11835   0.13963   0.19825   0.19825
  Beta virt. eigenvalues --    0.19940   0.19940   0.20335   0.22835   0.22835
  Beta virt. eigenvalues --    0.23394   0.31771   0.31771   0.36834   0.47752
  Beta virt. eigenvalues --    0.49265   0.49265   0.62972   0.62972   0.63786
  Beta virt. eigenvalues --    0.63786   0.64187   0.64188   0.68049   0.81317
  Beta virt. eigenvalues --    0.81318   0.81513   0.85368   0.85368   0.87550
  Beta virt. eigenvalues --    1.14275   1.38906   1.38906   1.45530   1.45530
  Beta virt. eigenvalues --    1.71738   1.75805   1.75805   1.82622   1.82622
  Beta virt. eigenvalues --    1.83360   1.83361   1.88799   1.97695   1.97695
  Beta virt. eigenvalues --    2.03093   3.94787   4.11080   4.11080   4.11396
  Beta virt. eigenvalues --    4.11396   4.15583   4.15583   4.16831   4.90795
  Beta virt. eigenvalues --    4.90795   5.03730   5.03730   5.21040   6.15547
  Beta virt. eigenvalues --    6.15547   6.26599  11.31157  11.31222  11.31222
  Beta virt. eigenvalues --   11.31273  11.31273  11.31793  11.31793  11.32537
  Beta virt. eigenvalues --   11.32538  14.44311  14.44311  14.44375  14.44375
  Beta virt. eigenvalues --   14.46890  14.46890  14.48299  14.82351  15.62894
  Beta virt. eigenvalues --   15.62894  15.72102  15.72102  15.84236  26.28333
  Beta virt. eigenvalues --   27.31204  27.31204  31.44939  53.66154 257.36146
  Beta virt. eigenvalues --  284.00580
          Condensed to atoms (all electrons):
               1          2
     1  Ba   9.322815   0.097513
     2  F    0.097513   9.482159
          Atomic-Atomic Spin Densities.
               1          2
     1  Ba   1.008049   0.001023
     2  F    0.001023  -0.010094
 Mulliken charges and spin densities:
               1          2
     1  Ba   0.579672   1.009071
     2  F   -0.579672  -0.009071
 Sum of Mulliken charges =  -0.00000   1.00000
 Mulliken charges and spin densities with hydrogens summed into heavy atoms:
               1          2
     1  Ba   0.579672   1.009071
     2  F   -0.579672  -0.009071
 APT charges:
               1
     1  Ba   0.615916
     2  F   -0.615916
 Sum of APT charges =   0.00000
 APT charges with hydrogens summed into heavy atoms:
               1
     1  Ba   0.615916
     2  F   -0.615916
 Electronic spatial extent (au):  <R**2>=            202.2367
 Charge=             -0.0000 electrons
 Dipole moment (field-independent basis, Debye):
    X=              0.0000    Y=              0.0000    Z=              3.1653  Tot=              3.1653
 Quadrupole moment (field-independent basis, Debye-Ang):
   XX=            -35.4352   YY=            -35.4352   ZZ=            -44.6349
   XY=              0.0000   XZ=              0.0000   YZ=              0.0000
 Traceless Quadrupole moment (field-independent basis, Debye-Ang):
   XX=              3.0666   YY=              3.0666   ZZ=             -6.1331
   XY=              0.0000   XZ=              0.0000   YZ=              0.0000
 Octapole moment (field-independent basis, Debye-Ang**2):
  XXX=              0.0000  YYY=              0.0000  ZZZ=              7.1422  XYY=              0.0000
  XXY=              0.0000  XXZ=             -5.2551  XZZ=              0.0000  YZZ=              0.0000
  YYZ=             -5.2551  XYZ=              0.0000
 Hexadecapole moment (field-independent basis, Debye-Ang**3):
 XXXX=           -126.4835 YYYY=           -126.4835 ZZZZ=           -293.3503 XXXY=              0.0000
 XXXZ=              0.0000 YYYX=              0.0000 YYYZ=              0.0000 ZZZX=              0.0000
 ZZZY=              0.0000 XXYY=            -42.1612 XXZZ=            -66.2559 YYZZ=            -66.2559
 XXYZ=              0.0000 YYXZ=              0.0000 ZZXY=              0.0000
 N-N= 2.187149121815D+01 E-N=-3.330781522848D+02  KE= 1.071479521646D+02
 Symmetry A1   KE= 9.191123934371D+01
 Symmetry A2   KE= 1.178214564784D-47
 Symmetry B1   KE= 7.618356410424D+00
 Symmetry B2   KE= 7.618356410424D+00
 Symmetry A1   SP= 1.000000000000D+00
 Symmetry A2   SP=-1.462433156641D-50
 Symmetry B1   SP= 4.655835179196D-16
 Symmetry B2   SP=-2.264261369546D-15
  Exact polarizability:     294.783      -0.000     294.783       0.000      -0.000     185.479
 Approx polarizability:     352.661      -0.000     352.661      -0.000      -0.000     205.746
                          Isotropic Fermi Contact Couplings
        Atom                 a.u.       MegaHertz       Gauss      10(-4) cm-1
     1  Ba(135             0.00000       0.00068       0.00024       0.00023
     2  F(19)              0.01394      58.64091      20.92453      19.56050
 --------------------------------------------------------
       Center         ----  Spin Dipole Couplings  ----
                      3XX-RR        3YY-RR        3ZZ-RR
 --------------------------------------------------------
     1   Atom       -0.001937     -0.001937      0.003874
     2   Atom        0.000361      0.000361     -0.000723
 --------------------------------------------------------
                        XY            XZ            YZ
 --------------------------------------------------------
     1   Atom        0.000000      0.000000      0.000000
     2   Atom        0.000000      0.000000      0.000000
 --------------------------------------------------------


 ---------------------------------------------------------------------------------
              Anisotropic Spin Dipole Couplings in Principal Axis System
 ---------------------------------------------------------------------------------

       Atom             a.u.   MegaHertz   Gauss  10(-4) cm-1        Axes

              Baa    -0.0019    -0.103    -0.037    -0.034 -0.0000  1.0000  0.0000
     1 Ba(135 Bbb    -0.0019    -0.103    -0.037    -0.034  1.0000  0.0000  0.0000
              Bcc     0.0039     0.207     0.074     0.069  0.0000  0.0000  1.0000
 
              Baa    -0.0007    -0.363    -0.130    -0.121  0.0000  0.0000  1.0000
     2 F(19)  Bbb     0.0004     0.182     0.065     0.061 -0.0000  1.0000  0.0000
              Bcc     0.0004     0.182     0.065     0.061  1.0000  0.0000  0.0000
 

 ---------------------------------------------------------------------------------

   4 Symmetry operations used in ECPInt.
 ECPInt:  NShTT=     630 NPrTT=    1480 LenC2=     629 LenP2D=    1427.
 LDataN:  DoStor=T MaxTD1=10 Len=  848
 Calling FoFJK, ICntrl=    100527 FMM=F ISym2X=1 I1Cent= 0 IOpClX= 0 NMat=1 NMatS=1 NMatT=0.
 Defaulting to unpruned grid for atomic number  56.
 Defaulting to unpruned grid for atomic number  56.
 Defaulting to unpruned grid for atomic number  56.
 Defaulting to unpruned grid for atomic number  56.
 Defaulting to unpruned grid for atomic number  56.
 Defaulting to unpruned grid for atomic number  56.
 Defaulting to unpruned grid for atomic number  56.
 Defaulting to unpruned grid for atomic number  56.
 Full mass-weighted force constant matrix:
 Low frequencies ---  -18.3875  -18.3875   -0.0006   -0.0002   -0.0002  463.3021
 Diagonal vibrational polarizability:
        0.0000000       0.0000000      11.2844381
 Harmonic frequencies (cm**-1), IR intensities (KM/Mole), Raman scattering
 activities (A**4/AMU), depolarization ratios for plane and unpolarized
 incident light, reduced masses (AMU), force constants (mDyne/A),
 and normal coordinates:
                      1
                     SG
 Frequencies --    463.3021
 Red. masses --     21.2131
 Frc consts  --      2.6828
 IR Inten    --     90.0068
  Atom  AN      X      Y      Z
     1  56    -0.00  -0.00  -0.14
     2   9    -0.00  -0.00   0.99

 -------------------
 - Thermochemistry -
 -------------------
 Temperature   298.150 Kelvin.  Pressure   1.00000 Atm.
 Atom     1 has atomic number 56 and mass 137.90500
 Atom     2 has atomic number  9 and mass  18.99840
 Molecular mass:   156.90340 amu.
 Principal axes and moments of inertia in atomic units:
                           1         2         3
     Eigenvalues --     0.00000 282.74373 282.74373
           X            0.00000  -0.00000   1.00000
           Y            0.00000   1.00000   0.00000
           Z            1.00000   0.00000   0.00000
 This molecule is a prolate symmetric top.
 Rotational symmetry number  1.
 Rotational temperature (Kelvin)      0.30633
 Rotational constant (GHZ):           6.382958
 Zero-point vibrational energy       2771.2 (Joules/Mol)
                                    0.66232 (Kcal/Mol)
 Warning -- explicit consideration of   1 degrees of freedom as
           vibrations may cause significant error
 Vibrational temperatures:    666.59
          (Kelvin)
 
 Zero-point correction=                           0.001055 (Hartree/Particle)
 Thermal correction to Energy=                    0.003669
 Thermal correction to Enthalpy=                  0.004613
 Thermal correction to Gibbs Free Energy=        -0.023351
 Sum of electronic and zero-point Energies=           -125.370590
 Sum of electronic and thermal Energies=              -125.367977
 Sum of electronic and thermal Enthalpies=            -125.367033
 Sum of electronic and thermal Free Energies=         -125.394997
 
                     E (Thermal)             CV                S
                      KCal/Mol        Cal/Mol-Kelvin    Cal/Mol-Kelvin
 Total                    2.302              6.299             58.855
 Electronic               0.000              0.000              1.377
 Translational            0.889              2.981             41.061
 Rotational               0.592              1.987             15.661
 Vibrational              0.821              1.331              0.757
 Vibration     1          0.821              1.331              0.757
                       Q            Log10(Q)             Ln(Q)
 Total Bot       0.550544D+11         10.740792         24.731587
 Total V=0       0.168375D+12         11.226278         25.849461
 Vib (Bot)       0.366116D+00         -0.436381         -1.004804
 Vib (Bot)    1  0.366116D+00         -0.436381         -1.004804
 Vib (V=0)       0.111971D+01          0.049106          0.113070
 Vib (V=0)    1  0.111971D+01          0.049106          0.113070
 Electronic      0.200000D+01          0.301030          0.693147
 Translational   0.772507D+08          7.887902         18.162567
 Rotational      0.973285D+03          2.988240          6.880677
 ***** Axes restored to original set *****
 -------------------------------------------------------------------
 Center     Atomic                   Forces (Hartrees/Bohr)
 Number     Number              X              Y              Z
 -------------------------------------------------------------------
      1       56          -0.000000000   -0.000000000    0.000000034
      2        9          -0.000000000   -0.000000000   -0.000000034
 -------------------------------------------------------------------
 Cartesian Forces:  Max     0.000000034 RMS     0.000000019
 FormGI is forming the generalized inverse of G from B-inverse, IUseBI=4.

 GradGradGradGradGradGradGradGradGradGradGradGradGradGradGradGradGradGrad
 Berny optimization.
 Internal  Forces:  Max     0.000000034 RMS     0.000000034
 Search for a local minimum.
 Step number   1 out of a maximum of    2
 All quantities printed in internal units (Hartrees-Bohrs-Radians)
 Second derivative matrix not updated -- analytic derivatives used.
 The second derivative matrix:
                          R1
           R1           0.13564
 ITU=  0
     Eigenvalues ---    0.13564
 Angle between quadratic step and forces=  90.00 degrees.
 Linear search not attempted -- first point.
 Iteration  1 RMS(Cart)=  0.00000017 RMS(Int)=  0.00000000
 ClnCor:  largest displacement from symmetrization is 0.00D+00 for atom     0.
 Variable       Old X    -DE/DX   Delta X   Delta X   Delta X     New X
                                 (Linear)    (Quad)   (Total)
    R1        4.11495  -0.00000   0.00000  -0.00000  -0.00000   4.11495
         Item               Value     Threshold  Converged?
 Maximum Force            0.000000     0.000450     YES
 RMS     Force            0.000000     0.000300     YES
 Maximum Displacement     0.000000     0.001800     YES
 RMS     Displacement     0.000000     0.001200     YES
 Predicted change in Energy=-4.141667D-15
 Optimization completed.
    -- Stationary point found.
                           ----------------------------
                           !   Optimized Parameters   !
                           ! (Angstroms and Degrees)  !
 --------------------------                            --------------------------
 ! Name  Definition              Value          Derivative Info.                !
 --------------------------------------------------------------------------------
 ! R1    R(1,2)                  2.1775         -DE/DX =    0.0                 !
 --------------------------------------------------------------------------------
 GradGradGradGradGradGradGradGradGradGradGradGradGradGradGradGradGradGrad


 ----------------------------------------------------------------------

 Electric dipole moment (input orientation):
 (Debye = 10**-18 statcoulomb cm , SI units = C m)
                  (au)            (Debye)         (10**-30 SI)
   Tot        0.124532D+01      0.316528D+01      0.105582D+02
   x          0.000000D+00      0.000000D+00      0.000000D+00
   y          0.000000D+00      0.000000D+00      0.000000D+00
   z         -0.124532D+01     -0.316528D+01     -0.105582D+02

 Dipole polarizability, Alpha (input orientation).
 (esu units = cm**3 , SI units = C**2 m**2 J**-1)
 Alpha(0;0):
               (au)            (10**-24 esu)      (10**-40 SI)
   iso        0.258348D+03      0.382832D+02      0.425959D+02
   aniso      0.109304D+03      0.161971D+02      0.180217D+02
   xx         0.294783D+03      0.436823D+02      0.486031D+02
   yx         0.000000D+00      0.000000D+00      0.000000D+00
   yy         0.294783D+03      0.436823D+02      0.486031D+02
   zx         0.000000D+00      0.000000D+00      0.000000D+00
   zy         0.000000D+00      0.000000D+00      0.000000D+00
   zz         0.185479D+03      0.274852D+02      0.305814D+02

 ----------------------------------------------------------------------

 Dipole orientation:
    56         16.06267206        -16.06267206        -14.00519918
     9         16.06267206        -16.06267206        -18.12014494

 Electric dipole moment (dipole orientation):
 (Debye = 10**-18 statcoulomb cm , SI units = C m)
                  (au)            (Debye)         (10**-30 SI)
   Tot        0.124532D+01      0.316528D+01      0.105582D+02
   x          0.000000D+00      0.000000D+00      0.000000D+00
   y          0.000000D+00      0.000000D+00      0.000000D+00
   z          0.124532D+01      0.316528D+01      0.105582D+02

 Dipole polarizability, Alpha (dipole orientation).
 (esu units = cm**3 , SI units = C**2 m**2 J**-1)
 Alpha(0;0):
               (au)            (10**-24 esu)      (10**-40 SI)
   iso        0.258348D+03      0.382832D+02      0.425959D+02
   aniso      0.109304D+03      0.161971D+02      0.180217D+02
   xx         0.294783D+03      0.436823D+02      0.486031D+02
   yx         0.000000D+00      0.000000D+00      0.000000D+00
   yy         0.294783D+03      0.436823D+02      0.486031D+02
   zx         0.000000D+00      0.000000D+00      0.000000D+00
   zy         0.000000D+00      0.000000D+00      0.000000D+00
   zz         0.185479D+03      0.274852D+02      0.305814D+02

 ----------------------------------------------------------------------
 Unable to Open any file for archive entry.
 1\1\GINC-TCOPT10\Freq\UPBEPBE\def2QZVPP\Ba1F1(2)\HUTTER\30-Jul-2021\0\
 \#N Geom=AllCheck Guess=TCheck SCRF=Check GenChk UPBEPBE/def2QZVPP Fre
 q\\Mol job 1\\0,2\Ba,8.5,8.5,7.4112322405\F,8.5,8.5,9.5887677595\\Vers
 ion=ES64L-G16RevC.01\State=2-SG\HF=-125.3716455\S2=0.750273\S2-1=0.\S2
 A=0.75\RMSD=9.499e-10\RMSF=1.935e-08\ZeroPoint=0.0010555\Thermal=0.003
 6686\ETot=-125.3679768\HTot=-125.3670326\GTot=-125.3949967\Dipole=0.,0
 .,-1.2453154\DipoleDeriv=0.3030553,0.,0.,0.,0.3030553,0.,0.,0.,1.24163
 63,-0.3030553,0.,0.,0.,-0.3030553,0.,0.,0.,-1.2416363\Polar=294.782700
 2,0.,294.7827002,0.,0.,185.479027\Quadrupole=2.2799204,2.2799204,-4.55
 98408,0.,0.,0.\PG=C*V [C*(F1Ba1)]\NImag=0\\-0.00021365,0.,-0.00021365,
 0.,0.,0.13563903,0.00021365,0.,0.,-0.00021365,0.,0.00021365,0.,0.,-0.0
 0021365,0.,0.,-0.13563903,0.,0.,0.13563903\\0.,0.,-0.00000003,0.,0.,0.
 00000003\\\@
 The archive entry for this job was punched.


 "WHERE SHALL I START, PLEASE YOUR MAJESTY?" HE ASKED.
 "BEGIN AT THE BEGINNING," THE KING SAID GRAVELY,
 "AND GO ON TILL YOU COME TO THE END: THEN STOP." 

                                      -- LEWIS CARROLL
 Job cpu time:       0 days  0 hours  3 minutes 33.6 seconds.
 Elapsed time:       0 days  0 hours  0 minutes 27.0 seconds.
 File lengths (MBytes):  RWF=     14 Int=      0 D2E=      0 Chk=      3 Scr=      1
 Normal termination of Gaussian 16 at Fri Jul 30 10:26:29 2021.
