 Entering Gaussian System, Link 0=g16
 Initial command:
 /sw-ng/spack/opt/spack/linux-opensuse_leap15-sandybridge/pgi-18.10/gaussian-src-16-C.01-zldqaomctopxhethwccpmxmwefdscg3m/g16/l1.exe "/data/hutter/SMG16/PBE/Gau-12961.inp" -scrdir="/data/hutter/SMG16/PBE/"
 Entering Link 1 = /sw-ng/spack/opt/spack/linux-opensuse_leap15-sandybridge/pgi-18.10/gaussian-src-16-C.01-zldqaomctopxhethwccpmxmwefdscg3m/g16/l1.exe PID=     12962.
  
 Copyright (c) 1988-2019, Gaussian, Inc.  All Rights Reserved.
  
 This is part of the Gaussian(R) 16 program.  It is based on
 the Gaussian(R) 09 system (copyright 2009, Gaussian, Inc.),
 the Gaussian(R) 03 system (copyright 2003, Gaussian, Inc.),
 the Gaussian(R) 98 system (copyright 1998, Gaussian, Inc.),
 the Gaussian(R) 94 system (copyright 1995, Gaussian, Inc.),
 the Gaussian 92(TM) system (copyright 1992, Gaussian, Inc.),
 the Gaussian 90(TM) system (copyright 1990, Gaussian, Inc.),
 the Gaussian 88(TM) system (copyright 1988, Gaussian, Inc.),
 the Gaussian 86(TM) system (copyright 1986, Carnegie Mellon
 University), and the Gaussian 82(TM) system (copyright 1983,
 Carnegie Mellon University). Gaussian is a federally registered
 trademark of Gaussian, Inc.
  
 This software contains proprietary and confidential information,
 including trade secrets, belonging to Gaussian, Inc.
  
 This software is provided under written license and may be
 used, copied, transmitted, or stored only in accord with that
 written license.
  
 The following legend is applicable only to US Government
 contracts under FAR:
  
                    RESTRICTED RIGHTS LEGEND
  
 Use, reproduction and disclosure by the US Government is
 subject to restrictions as set forth in subparagraphs (a)
 and (c) of the Commercial Computer Software - Restricted
 Rights clause in FAR 52.227-19.
  
 Gaussian, Inc.
 340 Quinnipiac St., Bldg. 40, Wallingford CT 06492
  
  
 ---------------------------------------------------------------
 Warning -- This program may not be used in any manner that
 competes with the business of Gaussian, Inc. or will provide
 assistance to any competitor of Gaussian, Inc.  The licensee
 of this program is prohibited from giving any competitor of
 Gaussian, Inc. access to this program.  By using this program,
 the user acknowledges that Gaussian, Inc. is engaged in the
 business of creating and licensing software in the field of
 computational chemistry and represents and warrants to the
 licensee that it is not a competitor of Gaussian, Inc. and that
 it will not use this program in any manner prohibited above.
 ---------------------------------------------------------------
  

 Cite this work as:
 Gaussian 16, Revision C.01,
 M. J. Frisch, G. W. Trucks, H. B. Schlegel, G. E. Scuseria, 
 M. A. Robb, J. R. Cheeseman, G. Scalmani, V. Barone, 
 G. A. Petersson, H. Nakatsuji, X. Li, M. Caricato, A. V. Marenich, 
 J. Bloino, B. G. Janesko, R. Gomperts, B. Mennucci, H. P. Hratchian, 
 J. V. Ortiz, A. F. Izmaylov, J. L. Sonnenberg, D. Williams-Young, 
 F. Ding, F. Lipparini, F. Egidi, J. Goings, B. Peng, A. Petrone, 
 T. Henderson, D. Ranasinghe, V. G. Zakrzewski, J. Gao, N. Rega, 
 G. Zheng, W. Liang, M. Hada, M. Ehara, K. Toyota, R. Fukuda, 
 J. Hasegawa, M. Ishida, T. Nakajima, Y. Honda, O. Kitao, H. Nakai, 
 T. Vreven, K. Throssell, J. A. Montgomery, Jr., J. E. Peralta, 
 F. Ogliaro, M. J. Bearpark, J. J. Heyd, E. N. Brothers, K. N. Kudin, 
 V. N. Staroverov, T. A. Keith, R. Kobayashi, J. Normand, 
 K. Raghavachari, A. P. Rendell, J. C. Burant, S. S. Iyengar, 
 J. Tomasi, M. Cossi, J. M. Millam, M. Klene, C. Adamo, R. Cammi, 
 J. W. Ochterski, R. L. Martin, K. Morokuma, O. Farkas, 
 J. B. Foresman, and D. J. Fox, Gaussian, Inc., Wallingford CT, 2019.
 
 ******************************************
 Gaussian 16:  ES64L-G16RevC.01  3-Jul-2019
                30-Jul-2021 
 ******************************************
 %mem=8GB
 %NProcShare=8
 Will use up to    8 processors via shared memory.
 -----------------------------------------------------------
 #N RPBEPBE/Def2QZVPP scf=tight Int(Grid=ultrafine) OPT FREQ
 -----------------------------------------------------------
 1/18=20,19=15,26=4,38=1/1,3;
 2/9=110,12=2,17=6,18=5,40=1/2;
 3/5=45,7=202,11=2,25=1,30=1,71=1,74=1009,75=-5,116=1/1,2,3;
 4//1;
 5/5=2,32=2,38=5/2;
 6/7=2,8=2,9=2,10=2,28=1/1;
 7//1,2,3,16;
 1/18=20,19=15,26=4/3(2);
 2/9=110/2;
 99//99;
 2/9=110/2;
 3/5=45,7=202,11=2,25=1,30=1,71=1,74=1009,75=-5,116=1/1,2,3;
 4/5=5,16=3,69=1/1;
 5/5=2,32=2,38=5/2;
 7//1,2,3,16;
 1/18=20,19=15,26=4/3(-5);
 2/9=110/2;
 6/7=2,8=2,9=2,10=2,19=2,28=1/1;
 99/9=1/99;
 ---------
 Mol job 1
 ---------
 Symbolic Z-matrix:
 Charge =  0 Multiplicity = 1
 Sc                    8.95827   8.5       8.5 
 F                     9.87482   6.9125    8.5 
 F                     9.87482   10.0875   8.5 
 F                     7.12518   8.5       8.5 
 

 GradGradGradGradGradGradGradGradGradGradGradGradGradGradGradGradGradGrad
 Berny optimization.
 Initialization pass.
                           ----------------------------
                           !    Initial Parameters    !
                           ! (Angstroms and Degrees)  !
 --------------------------                            --------------------------
 ! Name  Definition              Value          Derivative Info.                !
 --------------------------------------------------------------------------------
 ! R1    R(1,2)                  1.8331         estimate D2E/DX2                !
 ! R2    R(1,3)                  1.8331         estimate D2E/DX2                !
 ! R3    R(1,4)                  1.8331         estimate D2E/DX2                !
 ! A1    A(2,1,3)              120.0            estimate D2E/DX2                !
 ! A2    A(2,1,4)              120.0            estimate D2E/DX2                !
 ! A3    A(3,1,4)              120.0            estimate D2E/DX2                !
 ! D1    D(2,1,4,3)            180.0            estimate D2E/DX2                !
 --------------------------------------------------------------------------------
 Trust Radius=3.00D-01 FncErr=1.00D-07 GrdErr=1.00D-06 EigMax=2.50D+02 EigMin=1.00D-04
 Number of steps in this run=     20 maximum allowed number of steps=    100.
 GradGradGradGradGradGradGradGradGradGradGradGradGradGradGradGradGradGrad

                          Input orientation:                          
 ---------------------------------------------------------------------
 Center     Atomic      Atomic             Coordinates (Angstroms)
 Number     Number       Type             X           Y           Z
 ---------------------------------------------------------------------
      1         21           0        8.958273    8.500000    8.500000
      2          9           0        9.874819    6.912496    8.500000
      3          9           0        9.874819   10.087504    8.500000
      4          9           0        7.125181    8.500000    8.500000
 ---------------------------------------------------------------------
                    Distance matrix (angstroms):
                    1          2          3          4
     1  Sc   0.000000
     2  F    1.833092   0.000000
     3  F    1.833092   3.175008   0.000000
     4  F    1.833092   3.175008   3.175008   0.000000
 Stoichiometry    F3Sc
 Framework group  D3H[O(Sc),3C2(F)]
 Deg. of freedom     1
 Full point group                 D3H     NOp  12
 Largest Abelian subgroup         C2V     NOp   4
 Largest concise Abelian subgroup C2      NOp   2
                         Standard orientation:                         
 ---------------------------------------------------------------------
 Center     Atomic      Atomic             Coordinates (Angstroms)
 Number     Number       Type             X           Y           Z
 ---------------------------------------------------------------------
      1         21           0        0.000000    0.000000    0.000000
      2          9           0       -0.000000    1.833092    0.000000
      3          9           0        1.587504   -0.916546    0.000000
      4          9           0       -1.587504   -0.916546   -0.000000
 ---------------------------------------------------------------------
 Rotational constants (GHZ):           5.2776490           5.2776490           2.6388245
 Standard basis: def2QZVPP (5D, 7F)
 There are   133 symmetry adapted cartesian basis functions of A1  symmetry.
 There are    46 symmetry adapted cartesian basis functions of A2  symmetry.
 There are    90 symmetry adapted cartesian basis functions of B1  symmetry.
 There are    66 symmetry adapted cartesian basis functions of B2  symmetry.
 There are   100 symmetry adapted basis functions of A1  symmetry.
 There are    39 symmetry adapted basis functions of A2  symmetry.
 There are    71 symmetry adapted basis functions of B1  symmetry.
 There are    54 symmetry adapted basis functions of B2  symmetry.
   264 basis functions,   468 primitive gaussians,   335 cartesian basis functions
    24 alpha electrons       24 beta electrons
       nuclear repulsion energy       204.1823679694 Hartrees.
 NAtoms=    4 NActive=    4 NUniq=    2 SFac= 4.00D+00 NAtFMM=   60 NAOKFM=F Big=F
 Integral buffers will be    131072 words long.
 Raffenetti 2 integral format.
 Two-electron integral symmetry is turned on.
 One-electron integrals computed using PRISM.
  12 Symmetry operations used in ECPInt.
 ECPInt:  NShTT=    3081 NPrTT=   10530 LenC2=    2908 LenP2D=    7929.
 LDataN:  DoStor=T MaxTD1= 8 Len=  415
 NBasis=   264 RedAO= T EigKep=  7.86D-04  NBF=   100    39    71    54
 NBsUse=   264 1.00D-06 EigRej= -1.00D+00 NBFU=   100    39    71    54
 ExpMin= 2.30D-02 ExpMax= 2.86D+06 ExpMxC= 3.22D+03 IAcc=3 IRadAn=         5 AccDes= 0.00D+00
 Harris functional with IExCor= 1009 and IRadAn=       5 diagonalized for initial guess.
 HarFok:  IExCor= 1009 AccDes= 0.00D+00 IRadAn=         5 IDoV= 1 UseB2=F ITyADJ=14
 ICtDFT=  3500011 ScaDFX=  1.000000  1.000000  1.000000  1.000000
 FoFCou: FMM=F IPFlag=           0 FMFlag=      100000 FMFlg1=           0
         NFxFlg=           0 DoJE=T BraDBF=F KetDBF=T FulRan=T
         wScrn=  0.000000 ICntrl=       500 IOpCl=  0 I1Cent=   200000004 NGrid=           0
         NMat0=    1 NMatS0=      1 NMatT0=    0 NMatD0=    1 NMtDS0=    0 NMtDT0=    0
 Petite list used in FoFCou.
 Initial guess orbital symmetries:
       Occupied  (A1') (E') (E') (A1') (A1') (E') (E') (A2") (A1')
                 (E') (E') (A2") (A1') (E') (E') (A1') (E') (E')
                 (E") (E") (A2") (A2') (E') (E')
       Virtual   (A1') (E") (E") (E') (E') (A1') (A2") (E') (E')
                 (E") (E") (A1') (E') (E') (A2") (A1') (E') (E')
                 (A1') (E") (E") (A2") (E') (E') (E') (E') (A1')
                 (E") (E") (A1') (A2") (E') (E') (A2') (E') (E')
                 (A2") (A1") (A1') (E") (E") (E') (E') (A2') (E')
                 (E') (E") (E") (A1') (A2") (E') (E') (E') (E')
                 (E") (E") (A1') (A2") (E') (E') (A2') (E") (E")
                 (A2") (A1') (E') (E') (A1') (E') (E') (E") (E")
                 (A1') (A1") (A1') (E') (E') (E') (E') (A2') (A2")
                 (E") (E") (E') (E') (E') (E') (A2") (A1') (E")
                 (E") (A2') (A1") (A1') (E') (E') (A1') (E") (E")
                 (A2") (E') (E') (E") (E") (E') (E') (A1') (E')
                 (E') (E") (E") (E') (E') (A2') (A1') (E") (E")
                 (E') (E') (A2") (E') (E') (A2") (A1') (A2') (E")
                 (E") (E') (E') (A1") (A1') (E") (E") (E') (E')
                 (A1') (A2") (A2') (E') (E') (E") (E") (A1') (E')
                 (E') (A1") (E") (E") (A2") (E') (E') (A1') (A2')
                 (E') (E') (A2") (E") (E") (E') (E') (A2') (A1')
                 (E') (E') (A1') (E") (E") (A2') (A2") (E') (E')
                 (E") (E") (E') (E') (A1") (E') (E') (E") (E")
                 (A1') (A1') (A2') (E") (E") (A1") (E') (E') (A2")
                 (A1') (E') (E') (A2') (E") (E") (E') (E') (A2")
                 (E") (E") (E') (E') (A1') (A1") (E") (E") (E')
                 (E') (A2') (A2") (A1') (E') (E') (A1') (E') (E')
                 (E") (E") (A1') (E') (E') (A1") (A2") (E") (E")
                 (E') (E') (A2') (A1') (E') (E') (A1') (A1') (E')
                 (E') (A1') (A1') (E') (E') (A1')
 The electronic state of the initial guess is 1-A1'.
 Keep J ints in memory in symmetry-blocked form, NReq=766283983.
 Requested convergence on RMS density matrix=1.00D-08 within 128 cycles.
 Requested convergence on MAX density matrix=1.00D-06.
 Requested convergence on             energy=1.00D-06.
 No special actions if energy rises.
 SCF Done:  E(RPBE-PBE) =  -1060.17394812     A.U. after   11 cycles
            NFock= 11  Conv=0.39D-08     -V/T= 2.0022

 **********************************************************************

            Population analysis using the SCF Density.

 **********************************************************************

 Orbital symmetries:
       Occupied  (A1') (E') (E') (A1') (A1') (A2") (E') (E') (A1')
                 (E') (E') (A2") (A1') (E') (E') (E') (E') (A1')
                 (E") (E") (A2") (E') (E') (A2')
       Virtual   (A1') (E") (E") (E') (E') (A1') (A2") (E') (E')
                 (E") (E") (A2") (A1') (E') (E') (A1') (E') (E')
                 (A2") (A1') (E") (E") (E') (E') (E') (E') (A1')
                 (A1') (E") (E") (A2") (E') (E') (A2') (E') (E')
                 (A2") (A1") (A1') (E") (E") (E') (E') (A2') (E')
                 (E') (E") (E") (A1') (A2") (E') (E') (E") (E")
                 (E') (E') (A2") (A1') (E') (E') (E") (E") (A2")
                 (A2') (A1') (E') (E') (A1') (E') (E') (A1') (E")
                 (E") (A1") (A1') (E') (E') (E') (E') (A2') (A2")
                 (E") (E") (E') (E') (E') (E') (A2") (A1') (E")
                 (E") (A2') (A1") (A1') (E') (E') (A1') (E") (E")
                 (E') (E') (A2") (E") (E") (E') (E') (A1') (E')
                 (E') (E") (E") (E') (E') (A2") (A1') (A2') (E")
                 (E") (A2') (E') (E') (E') (E') (A2") (A1') (E")
                 (E") (E') (E') (A1") (A1') (E") (E") (E') (E')
                 (A1') (A2') (A2") (E') (E') (E") (E") (A1') (E')
                 (E') (A1") (E") (E") (A2") (E') (E') (A1') (A2')
                 (E') (E') (A2") (E") (E") (E') (E') (A2') (A1')
                 (E') (E') (A1') (E") (E") (A2') (A2") (E') (E')
                 (E") (E") (E') (E') (A1") (E") (E") (E') (E')
                 (A1') (A1') (A2') (E") (E") (A1") (E') (E') (A2")
                 (A1') (E') (E') (A2') (E") (E") (E') (E') (A2")
                 (E") (E") (E') (E') (A1') (A1") (E") (E") (E')
                 (E') (A2') (A2") (A1') (E') (E') (A1') (E') (E')
                 (E") (E") (A1') (E') (E') (A1") (A2") (E") (E")
                 (E') (E') (A2') (A1') (E') (E') (A1') (A1') (E')
                 (E') (A1') (A1') (E') (E') (A1')
 The electronic state is 1-A1'.
 Alpha  occ. eigenvalues -- -160.64649 -24.22657 -24.22657 -24.22657 -17.26256
 Alpha  occ. eigenvalues --  -14.25840 -14.25492 -14.25492  -1.99958  -1.25460
 Alpha  occ. eigenvalues --   -1.25460  -1.24236  -1.03318  -1.00627  -1.00627
 Alpha  occ. eigenvalues --   -0.37663  -0.37663  -0.37534  -0.36023  -0.36023
 Alpha  occ. eigenvalues --   -0.34970  -0.34160  -0.34160  -0.33892
 Alpha virt. eigenvalues --   -0.12783  -0.08892  -0.08892  -0.02263  -0.02263
 Alpha virt. eigenvalues --   -0.01938  -0.01306   0.01343   0.01343   0.06437
 Alpha virt. eigenvalues --    0.06437   0.06759   0.06807   0.07304   0.07304
 Alpha virt. eigenvalues --    0.08552   0.10952   0.10952   0.24739   0.24995
 Alpha virt. eigenvalues --    0.25323   0.25323   0.28724   0.28724   0.30037
 Alpha virt. eigenvalues --    0.30037   0.31178   0.33189   0.33254   0.33254
 Alpha virt. eigenvalues --    0.34873   0.34918   0.34918   0.38442   0.47878
 Alpha virt. eigenvalues --    0.47878   0.49191   0.50078   0.50348   0.50757
 Alpha virt. eigenvalues --    0.50757   0.50960   0.50960   0.62568   0.62651
 Alpha virt. eigenvalues --    0.62651   0.67247   0.67247   0.69668   0.70668
 Alpha virt. eigenvalues --    0.75845   0.75845   0.81731   0.81731   0.83197
 Alpha virt. eigenvalues --    0.83197   0.84076   0.85063   0.93475   0.93475
 Alpha virt. eigenvalues --    1.03831   1.03831   1.03971   1.05452   1.13646
 Alpha virt. eigenvalues --    1.15117   1.15117   1.24022   1.36955   1.36955
 Alpha virt. eigenvalues --    1.45048   1.45748   1.45748   1.58069   1.60580
 Alpha virt. eigenvalues --    1.62073   1.62073   1.70871   1.70871   1.71421
 Alpha virt. eigenvalues --    1.71818   1.74348   1.74348   1.75487   1.75487
 Alpha virt. eigenvalues --    1.79893   1.79893   1.79956   1.80887   1.85449
 Alpha virt. eigenvalues --    1.85449   2.21605   2.26740   2.29941   2.33597
 Alpha virt. eigenvalues --    2.33597   2.45840   2.49979   2.49979   2.61078
 Alpha virt. eigenvalues --    2.61078   2.62370   2.62392   2.62392   2.73090
 Alpha virt. eigenvalues --    2.73090   2.92525   3.19680   3.19680   3.90530
 Alpha virt. eigenvalues --    3.90530   3.94348   3.94348   3.96528   4.00554
 Alpha virt. eigenvalues --    4.03674   4.06041   4.06041   4.07137   4.09113
 Alpha virt. eigenvalues --    4.09113   4.09285   4.09285   4.10148   4.10381
 Alpha virt. eigenvalues --    4.20321   4.20321   4.24354   4.24354   4.30849
 Alpha virt. eigenvalues --    4.37836   4.46424   4.46424   4.49209   4.49209
 Alpha virt. eigenvalues --    4.56166   4.58576   4.60134   4.87121   4.87121
 Alpha virt. eigenvalues --    4.93213   4.93213   5.02100   5.05311   5.05311
 Alpha virt. eigenvalues --    5.09640   5.39634   5.39634   5.42434   5.44051
 Alpha virt. eigenvalues --    5.44051   5.48739   5.55911   5.64839   5.64839
 Alpha virt. eigenvalues --    6.16837   6.19827   6.19827   6.22612   6.22612
 Alpha virt. eigenvalues --    6.22663   6.58931   7.09012   7.09012   7.40564
 Alpha virt. eigenvalues --   11.24370  11.24370  11.24416  11.24690  11.24810
 Alpha virt. eigenvalues --   11.24810  11.25060  11.25060  11.25211  11.25211
 Alpha virt. eigenvalues --   11.25570  11.25600  11.25600  11.25601  11.25601
 Alpha virt. eigenvalues --   11.25608  11.26416  11.26675  11.27884  11.27884
 Alpha virt. eigenvalues --   11.28589  11.29335  11.29335  11.30300  11.32191
 Alpha virt. eigenvalues --   11.37283  11.37283  14.37597  14.37914  14.37914
 Alpha virt. eigenvalues --   14.39352  14.39352  14.39829  14.41719  14.41719
 Alpha virt. eigenvalues --   14.42011  14.42011  14.44462  14.47252  14.58984
 Alpha virt. eigenvalues --   14.58984  14.59228  14.59228  14.65618  14.66278
 Alpha virt. eigenvalues --   14.70577  14.70789  14.70789  15.03861  15.08228
 Alpha virt. eigenvalues --   15.08228  15.61879  15.61879  15.67397  15.70280
 Alpha virt. eigenvalues --   15.70280  15.72779  15.90570  15.91213  15.91213
 Alpha virt. eigenvalues --   15.93490  15.93490  15.99616  16.09660  16.22607
 Alpha virt. eigenvalues --   16.22607  22.64465  53.79220  53.80876  53.80876
 Alpha virt. eigenvalues --   75.62924 284.18181 284.20240 284.20240 475.45217
          Condensed to atoms (all electrons):
               1          2          3          4
     1  Sc  18.805802   0.289152   0.289152   0.289152
     2  F    0.289152   9.150394   0.001351   0.001351
     3  F    0.289152   0.001351   9.150394   0.001351
     4  F    0.289152   0.001351   0.001351   9.150394
 Mulliken charges:
               1
     1  Sc   1.326741
     2  F   -0.442247
     3  F   -0.442247
     4  F   -0.442247
 Sum of Mulliken charges =   0.00000
 Mulliken charges with hydrogens summed into heavy atoms:
               1
     1  Sc   1.326741
     2  F   -0.442247
     3  F   -0.442247
     4  F   -0.442247
 Electronic spatial extent (au):  <R**2>=            399.7426
 Charge=              0.0000 electrons
 Dipole moment (field-independent basis, Debye):
    X=              0.0000    Y=             -0.0000    Z=              0.0000  Tot=              0.0000
 Quadrupole moment (field-independent basis, Debye-Ang):
   XX=            -38.2511   YY=            -38.2511   ZZ=            -25.3893
   XY=              0.0000   XZ=              0.0000   YZ=              0.0000
 Traceless Quadrupole moment (field-independent basis, Debye-Ang):
   XX=             -4.2873   YY=             -4.2873   ZZ=              8.5745
   XY=              0.0000   XZ=              0.0000   YZ=              0.0000
 Octapole moment (field-independent basis, Debye-Ang**2):
  XXX=              0.0000  YYY=             -9.3485  ZZZ=             -0.0000  XYY=             -0.0000
  XXY=              9.3485  XXZ=             -0.0000  XZZ=              0.0000  YZZ=              0.0000
  YYZ=              0.0000  XYZ=             -0.0000
 Hexadecapole moment (field-independent basis, Debye-Ang**3):
 XXXX=           -214.4797 YYYY=           -214.4797 ZZZZ=            -19.6065 XXXY=             -0.0000
 XXXZ=              0.0000 YYYX=              0.0000 YYYZ=              0.0000 ZZZX=              0.0000
 ZZZY=              0.0000 XXYY=            -71.4932 XXZZ=            -35.6054 YYZZ=            -35.6054
 XXYZ=              0.0000 YYXZ=              0.0000 ZZXY=             -0.0000
 N-N= 2.041823679694D+02 E-N=-2.926180274553D+03  KE= 1.057825094737D+03
 Symmetry A1   KE= 7.740623452728D+02
 Symmetry A2   KE= 5.910588586890D+00
 Symmetry B1   KE= 1.836501507885D+02
 Symmetry B2   KE= 9.420201008916D+01
  12 Symmetry operations used in ECPInt.
 ECPInt:  NShTT=    3081 NPrTT=   10530 LenC2=    2908 LenP2D=    7929.
 LDataN:  DoStor=T MaxTD1= 9 Len=  602
 Calling FoFJK, ICntrl=      2527 FMM=F ISym2X=1 I1Cent= 0 IOpClX= 0 NMat=1 NMatS=1 NMatT=0.
 ***** Axes restored to original set *****
 -------------------------------------------------------------------
 Center     Atomic                   Forces (Hartrees/Bohr)
 Number     Number              X              Y              Z
 -------------------------------------------------------------------
      1       21          -0.000000000    0.000000000    0.000000000
      2        9           0.004770266   -0.008262342    0.000000000
      3        9           0.004770266    0.008262342   -0.000000000
      4        9          -0.009540531   -0.000000000    0.000000000
 -------------------------------------------------------------------
 Cartesian Forces:  Max     0.009540531 RMS     0.004770266

 GradGradGradGradGradGradGradGradGradGradGradGradGradGradGradGradGradGrad
 Berny optimization.
 FormGI is forming the generalized inverse of G from B-inverse, IUseBI=4.
 Internal  Forces:  Max     0.009540531 RMS     0.006245744
 Search for a local minimum.
 Step number   1 out of a maximum of   20
 All quantities printed in internal units (Hartrees-Bohrs-Radians)
 Mixed Optimization -- RFO/linear search
 Second derivative matrix not updated -- first step.
 The second derivative matrix:
                          R1        R2        R3        A1        A2
           R1           0.21952
           R2           0.00000   0.21952
           R3           0.00000   0.00000   0.21952
           A1           0.00000   0.00000   0.00000   0.25000
           A2           0.00000   0.00000   0.00000   0.00000   0.25000
           A3           0.00000   0.00000   0.00000   0.00000   0.00000
           D1           0.00000   0.00000   0.00000   0.00000   0.00000
                          A3        D1
           A3           0.25000
           D1           0.00000   0.04035
 ITU=  0
     Eigenvalues ---    0.04035   0.21952   0.21952   0.21952   0.25000
     Eigenvalues ---    0.25000
 RFO step:  Lambda=-1.23692954D-03 EMin= 4.03464233D-02
 Linear search not attempted -- first point.
 Iteration  1 RMS(Cart)=  0.02829194 RMS(Int)=  0.00000000
 Iteration  2 RMS(Cart)=  0.00000000 RMS(Int)=  0.00000000
 ClnCor:  largest displacement from symmetrization is 4.68D-13 for atom     3.
 Variable       Old X    -DE/DX   Delta X   Delta X   Delta X     New X
                                 (Linear)    (Quad)   (Total)
    R1        3.46404   0.00954   0.00000   0.04322   0.04322   3.50726
    R2        3.46404   0.00954   0.00000   0.04322   0.04322   3.50726
    R3        3.46404   0.00954   0.00000   0.04322   0.04322   3.50726
    A1        2.09440  -0.00000   0.00000  -0.00000   0.00000   2.09440
    A2        2.09440   0.00000   0.00000   0.00000   0.00000   2.09440
    A3        2.09440   0.00000   0.00000   0.00000   0.00000   2.09440
    D1        3.14159   0.00000   0.00000   0.00000   0.00000   3.14159
         Item               Value     Threshold  Converged?
 Maximum Force            0.009541     0.000450     NO 
 RMS     Force            0.006246     0.000300     NO 
 Maximum Displacement     0.043217     0.001800     NO 
 RMS     Displacement     0.028292     0.001200     NO 
 Predicted change in Energy=-6.219299D-04
 GradGradGradGradGradGradGradGradGradGradGradGradGradGradGradGradGradGrad

                          Input orientation:                          
 ---------------------------------------------------------------------
 Center     Atomic      Atomic             Coordinates (Angstroms)
 Number     Number       Type             X           Y           Z
 ---------------------------------------------------------------------
      1         21           0        8.958273    8.500000    8.500000
      2          9           0        9.886253    6.892691    8.500000
      3          9           0        9.886253   10.107309    8.500000
      4          9           0        7.102312    8.500000    8.500000
 ---------------------------------------------------------------------
                    Distance matrix (angstroms):
                    1          2          3          4
     1  Sc   0.000000
     2  F    1.855961   0.000000
     3  F    1.855961   3.214619   0.000000
     4  F    1.855961   3.214619   3.214619   0.000000
 Stoichiometry    F3Sc
 Framework group  D3H[O(Sc),3C2(F)]
 Deg. of freedom     1
 Full point group                 D3H     NOp  12
 Largest Abelian subgroup         C2V     NOp   4
 Largest concise Abelian subgroup C2      NOp   2
                         Standard orientation:                         
 ---------------------------------------------------------------------
 Center     Atomic      Atomic             Coordinates (Angstroms)
 Number     Number       Type             X           Y           Z
 ---------------------------------------------------------------------
      1         21           0        0.000000    0.000000    0.000000
      2          9           0       -0.000000    1.855961    0.000000
      3          9           0        1.607309   -0.927980    0.000000
      4          9           0       -1.607309   -0.927980   -0.000000
 ---------------------------------------------------------------------
 Rotational constants (GHZ):           5.1483872           5.1483872           2.5741936
 Standard basis: def2QZVPP (5D, 7F)
 There are   133 symmetry adapted cartesian basis functions of A1  symmetry.
 There are    46 symmetry adapted cartesian basis functions of A2  symmetry.
 There are    90 symmetry adapted cartesian basis functions of B1  symmetry.
 There are    66 symmetry adapted cartesian basis functions of B2  symmetry.
 There are   100 symmetry adapted basis functions of A1  symmetry.
 There are    39 symmetry adapted basis functions of A2  symmetry.
 There are    71 symmetry adapted basis functions of B1  symmetry.
 There are    54 symmetry adapted basis functions of B2  symmetry.
   264 basis functions,   468 primitive gaussians,   335 cartesian basis functions
    24 alpha electrons       24 beta electrons
       nuclear repulsion energy       201.6664201644 Hartrees.
 NAtoms=    4 NActive=    4 NUniq=    2 SFac= 4.00D+00 NAtFMM=   60 NAOKFM=F Big=F
 Integral buffers will be    131072 words long.
 Raffenetti 2 integral format.
 Two-electron integral symmetry is turned on.
 One-electron integrals computed using PRISM.
  12 Symmetry operations used in ECPInt.
 ECPInt:  NShTT=    3081 NPrTT=   10530 LenC2=    2899 LenP2D=    7884.
 LDataN:  DoStor=T MaxTD1= 8 Len=  415
 NBasis=   264 RedAO= T EigKep=  8.59D-04  NBF=   100    39    71    54
 NBsUse=   264 1.00D-06 EigRej= -1.00D+00 NBFU=   100    39    71    54
 Initial guess from the checkpoint file:  "/data/hutter/SMG16/PBE/Gau-12962.chk"
 B after Tr=    -0.000000    0.000000   -0.000000
         Rot=    1.000000    0.000000   -0.000000   -0.000000 Ang=   0.00 deg.
 Initial guess orbital symmetries:
       Occupied  (A1') (E') (E') (A1') (A1') (A2") (E') (E') (A1')
                 (E') (E') (A2") (A1') (E') (E') (E') (E') (A1')
                 (E") (E") (A2") (E') (E') (A2')
       Virtual   (A1') (E") (E") (E') (E') (A1') (A2") (E') (E')
                 (E") (E") (A2") (A1') (E') (E') (A1') (E') (E')
                 (A2") (A1') (E") (E") (E') (E') (E') (E') (A1')
                 (A1') (E") (E") (A2") (E') (E') (A2') (E') (E')
                 (A2") (A1") (A1') (E") (E") (E') (E') (A2') (E')
                 (E') (E") (E") (A1') (A2") (E') (E') (E") (E")
                 (E') (E') (A2") (A1') (E') (E') (E") (E") (A2")
                 (A2') (A1') (E') (E') (A1') (E') (E') (A1') (E")
                 (E") (A1") (A1') (E') (E') (E') (E') (A2') (A2")
                 (E") (E") (E') (E') (E') (E') (A2") (A1') (E")
                 (E") (A2') (A1") (A1') (E') (E') (A1') (E") (E")
                 (E') (E') (A2") (E") (E") (E') (E') (A1') (E')
                 (E') (E") (E") (E') (E') (A2") (A1') (A2') (E")
                 (E") (A2') (E') (E') (E') (E') (A2") (A1') (E")
                 (E") (E') (E') (A1") (A1') (E") (E") (E') (E')
                 (A1') (A2') (A2") (E') (E') (E") (E") (A1') (E')
                 (E') (A1") (E") (E") (A2") (E') (E') (A1') (A2')
                 (E') (E') (A2") (E") (E") (E') (E') (A2') (A1')
                 (E') (E') (A1') (E") (E") (A2') (A2") (E') (E')
                 (E") (E") (E') (E') (A1") (E") (E") (E') (E')
                 (A1') (A1') (A2') (E") (E") (A1") (E') (E') (A2")
                 (A1') (E') (E') (A2') (E") (E") (E') (E') (A2")
                 (E") (E") (E') (E') (A1') (A1") (E") (E") (E')
                 (E') (A2') (A2") (A1') (E') (E') (A1') (E') (E')
                 (E") (E") (A1') (E') (E') (A1") (A2") (E") (E")
                 (E') (E') (A2') (A1') (E') (E') (A1') (A1') (E')
                 (E') (A1') (A1') (E') (E') (A1')
 ExpMin= 2.30D-02 ExpMax= 2.86D+06 ExpMxC= 3.22D+03 IAcc=3 IRadAn=         5 AccDes= 0.00D+00
 Harris functional with IExCor= 1009 and IRadAn=       5 diagonalized for initial guess.
 HarFok:  IExCor= 1009 AccDes= 0.00D+00 IRadAn=         5 IDoV= 1 UseB2=F ITyADJ=14
 ICtDFT=  3500011 ScaDFX=  1.000000  1.000000  1.000000  1.000000
 FoFCou: FMM=F IPFlag=           0 FMFlag=      100000 FMFlg1=           0
         NFxFlg=           0 DoJE=T BraDBF=F KetDBF=T FulRan=T
         wScrn=  0.000000 ICntrl=       500 IOpCl=  0 I1Cent=   200000004 NGrid=           0
         NMat0=    1 NMatS0=      1 NMatT0=    0 NMatD0=    1 NMtDS0=    0 NMtDT0=    0
 Petite list used in FoFCou.
 Keep J ints in memory in symmetry-blocked form, NReq=766283983.
 Requested convergence on RMS density matrix=1.00D-08 within 128 cycles.
 Requested convergence on MAX density matrix=1.00D-06.
 Requested convergence on             energy=1.00D-06.
 No special actions if energy rises.
 SCF Done:  E(RPBE-PBE) =  -1060.17441646     A.U. after    7 cycles
            NFock=  7  Conv=0.28D-08     -V/T= 2.0023
  12 Symmetry operations used in ECPInt.
 ECPInt:  NShTT=    3081 NPrTT=   10530 LenC2=    2899 LenP2D=    7884.
 LDataN:  DoStor=T MaxTD1= 9 Len=  602
 Calling FoFJK, ICntrl=      2527 FMM=F ISym2X=1 I1Cent= 0 IOpClX= 0 NMat=1 NMatS=1 NMatT=0.
 ***** Axes restored to original set *****
 -------------------------------------------------------------------
 Center     Atomic                   Forces (Hartrees/Bohr)
 Number     Number              X              Y              Z
 -------------------------------------------------------------------
      1       21          -0.000000000    0.000000000    0.000000000
      2        9          -0.001049205    0.001817277    0.000000000
      3        9          -0.001049205   -0.001817277   -0.000000000
      4        9           0.002098410   -0.000000000    0.000000000
 -------------------------------------------------------------------
 Cartesian Forces:  Max     0.002098410 RMS     0.001049205

 GradGradGradGradGradGradGradGradGradGradGradGradGradGradGradGradGradGrad
 Berny optimization.
 Using GEDIIS/GDIIS optimizer.
 FormGI is forming the generalized inverse of G from B-inverse, IUseBI=4.
 Internal  Forces:  Max     0.002098410 RMS     0.001373732
 Search for a local minimum.
 Step number   2 out of a maximum of   20
 All quantities printed in internal units (Hartrees-Bohrs-Radians)
 Mixed Optimization -- RFO/linear search
 Update second derivatives using D2CorX and points    1    2
 DE= -4.68D-04 DEPred=-6.22D-04 R= 7.53D-01
 TightC=F SS=  1.41D+00  RLast= 7.49D-02 DXNew= 5.0454D-01 2.2456D-01
 Trust test= 7.53D-01 RLast= 7.49D-02 DXMaxT set to 3.00D-01
 The second derivative matrix:
                          R1        R2        R3        A1        A2
           R1           0.23612
           R2           0.01660   0.23612
           R3           0.01660   0.01660   0.23612
           A1           0.00000   0.00000   0.00000   0.25000
           A2           0.00000   0.00000   0.00000   0.00000   0.25000
           A3          -0.00000  -0.00000  -0.00000  -0.00000  -0.00000
           D1           0.00000   0.00000   0.00000   0.00000   0.00000
                          A3        D1
           A3           0.25000
           D1          -0.00000   0.04035
 ITU=  1  0
 Use linear search instead of GDIIS.
     Eigenvalues ---    0.04035   0.21952   0.21952   0.25000   0.25000
     Eigenvalues ---    0.26932
 RFO step:  Lambda= 0.00000000D+00 EMin= 4.03464233D-02
 Quartic linear search produced a step of -0.18883.
 Iteration  1 RMS(Cart)=  0.00534230 RMS(Int)=  0.00000000
 Iteration  2 RMS(Cart)=  0.00000000 RMS(Int)=  0.00000000
 ClnCor:  largest displacement from symmetrization is 1.07D-12 for atom     4.
 Variable       Old X    -DE/DX   Delta X   Delta X   Delta X     New X
                                 (Linear)    (Quad)   (Total)
    R1        3.50726  -0.00210  -0.00816  -0.00000  -0.00816   3.49910
    R2        3.50726  -0.00210  -0.00816  -0.00000  -0.00816   3.49910
    R3        3.50726  -0.00210  -0.00816   0.00000  -0.00816   3.49910
    A1        2.09440  -0.00000   0.00000  -0.00000   0.00000   2.09440
    A2        2.09440  -0.00000   0.00000  -0.00000   0.00000   2.09440
    A3        2.09440   0.00000   0.00000   0.00000   0.00000   2.09440
    D1        3.14159   0.00000   0.00000   0.00000   0.00000   3.14159
         Item               Value     Threshold  Converged?
 Maximum Force            0.002098     0.000450     NO 
 RMS     Force            0.001374     0.000300     NO 
 Maximum Displacement     0.008160     0.001800     NO 
 RMS     Displacement     0.005342     0.001200     NO 
 Predicted change in Energy=-2.447007D-05
 GradGradGradGradGradGradGradGradGradGradGradGradGradGradGradGradGradGrad

                          Input orientation:                          
 ---------------------------------------------------------------------
 Center     Atomic      Atomic             Coordinates (Angstroms)
 Number     Number       Type             X           Y           Z
 ---------------------------------------------------------------------
      1         21           0        8.958273    8.500000    8.500000
      2          9           0        9.884094    6.896431    8.500000
      3          9           0        9.884094   10.103569    8.500000
      4          9           0        7.106630    8.500000    8.500000
 ---------------------------------------------------------------------
                    Distance matrix (angstroms):
                    1          2          3          4
     1  Sc   0.000000
     2  F    1.851643   0.000000
     3  F    1.851643   3.207139   0.000000
     4  F    1.851643   3.207139   3.207139   0.000000
 Stoichiometry    F3Sc
 Framework group  D3H[O(Sc),3C2(F)]
 Deg. of freedom     1
 Full point group                 D3H     NOp  12
 Largest Abelian subgroup         C2V     NOp   4
 Largest concise Abelian subgroup C2      NOp   2
                         Standard orientation:                         
 ---------------------------------------------------------------------
 Center     Atomic      Atomic             Coordinates (Angstroms)
 Number     Number       Type             X           Y           Z
 ---------------------------------------------------------------------
      1         21           0        0.000000    0.000000    0.000000
      2          9           0       -0.000000    1.851643    0.000000
      3          9           0        1.603569   -0.925821    0.000000
      4          9           0       -1.603569   -0.925821   -0.000000
 ---------------------------------------------------------------------
 Rotational constants (GHZ):           5.1724291           5.1724291           2.5862145
 Standard basis: def2QZVPP (5D, 7F)
 There are   133 symmetry adapted cartesian basis functions of A1  symmetry.
 There are    46 symmetry adapted cartesian basis functions of A2  symmetry.
 There are    90 symmetry adapted cartesian basis functions of B1  symmetry.
 There are    66 symmetry adapted cartesian basis functions of B2  symmetry.
 There are   100 symmetry adapted basis functions of A1  symmetry.
 There are    39 symmetry adapted basis functions of A2  symmetry.
 There are    71 symmetry adapted basis functions of B1  symmetry.
 There are    54 symmetry adapted basis functions of B2  symmetry.
   264 basis functions,   468 primitive gaussians,   335 cartesian basis functions
    24 alpha electrons       24 beta electrons
       nuclear repulsion energy       202.1367406429 Hartrees.
 NAtoms=    4 NActive=    4 NUniq=    2 SFac= 4.00D+00 NAtFMM=   60 NAOKFM=F Big=F
 Integral buffers will be    131072 words long.
 Raffenetti 2 integral format.
 Two-electron integral symmetry is turned on.
 One-electron integrals computed using PRISM.
  12 Symmetry operations used in ECPInt.
 ECPInt:  NShTT=    3081 NPrTT=   10530 LenC2=    2899 LenP2D=    7890.
 LDataN:  DoStor=T MaxTD1= 8 Len=  415
 NBasis=   264 RedAO= T EigKep=  8.45D-04  NBF=   100    39    71    54
 NBsUse=   264 1.00D-06 EigRej= -1.00D+00 NBFU=   100    39    71    54
 Initial guess from the checkpoint file:  "/data/hutter/SMG16/PBE/Gau-12962.chk"
 B after Tr=     0.000000   -0.000000   -0.000000
         Rot=    1.000000    0.000000   -0.000000    0.000000 Ang=   0.00 deg.
 Initial guess orbital symmetries:
       Occupied  (A1') (E') (E') (A1') (A1') (A2") (E') (E') (A1')
                 (E') (E') (A2") (A1') (E') (E') (A1') (E') (E')
                 (E") (E") (A2") (E') (E') (A2')
       Virtual   (A1') (E") (E") (E') (E') (A1') (A2") (E') (E')
                 (E") (E") (A2") (A1') (E') (E') (A1') (E') (E')
                 (A2") (A1') (E") (E") (E') (E') (E') (E') (A1')
                 (A1') (E") (E") (E') (E') (A2") (A2') (E') (E')
                 (A2") (A1") (A1') (E") (E") (E') (E') (A2') (E')
                 (E') (E") (E") (A1') (A2") (E') (E') (E") (E")
                 (E') (E') (A2") (A1') (E') (E') (A2") (E") (E")
                 (A2') (A1') (E') (E') (A1') (E') (E') (E") (E")
                 (A1') (A1") (A1') (E') (E') (E') (E') (A2') (A2")
                 (E") (E") (E') (E') (A2") (E') (E') (A1') (E")
                 (E") (A2') (A1") (A1') (E') (E') (A1') (E") (E")
                 (A2") (E') (E') (E") (E") (E') (E') (A1') (E')
                 (E') (E") (E") (E') (E') (A2") (A2') (A1') (A2')
                 (E") (E") (E') (E') (E') (E') (A2") (A1') (E")
                 (E") (E') (E') (A1") (A1') (E") (E") (E') (E')
                 (A1') (A2') (A2") (E') (E') (E") (E") (A1') (E')
                 (E') (A1") (E") (E") (A2") (E') (E') (A1') (A2')
                 (E') (E') (A2") (E") (E") (A2') (E') (E') (A1')
                 (E') (E') (A1') (E") (E") (A2') (A2") (E') (E')
                 (E") (E") (E') (E') (A1") (E') (E') (E") (E")
                 (A1') (A1') (A2') (E") (E") (A1") (E') (E') (A2")
                 (A1') (E') (E') (A2') (E") (E") (E') (E') (A2")
                 (E") (E") (E') (E') (A1') (A1") (E') (E') (E")
                 (E") (A2') (A2") (E') (E') (A1') (A1') (E') (E')
                 (E") (E") (A1') (E') (E') (A1") (A2") (E") (E")
                 (E') (E') (A2') (A1') (E') (E') (A1') (A1') (E')
                 (E') (A1') (A1') (E') (E') (A1')
 Keep J ints in memory in symmetry-blocked form, NReq=766283983.
 Requested convergence on RMS density matrix=1.00D-08 within 128 cycles.
 Requested convergence on MAX density matrix=1.00D-06.
 Requested convergence on             energy=1.00D-06.
 No special actions if energy rises.
 SCF Done:  E(RPBE-PBE) =  -1060.17444223     A.U. after    7 cycles
            NFock=  7  Conv=0.38D-09     -V/T= 2.0023
  12 Symmetry operations used in ECPInt.
 ECPInt:  NShTT=    3081 NPrTT=   10530 LenC2=    2899 LenP2D=    7890.
 LDataN:  DoStor=T MaxTD1= 9 Len=  602
 Calling FoFJK, ICntrl=      2527 FMM=F ISym2X=1 I1Cent= 0 IOpClX= 0 NMat=1 NMatS=1 NMatT=0.
 ***** Axes restored to original set *****
 -------------------------------------------------------------------
 Center     Atomic                   Forces (Hartrees/Bohr)
 Number     Number              X              Y              Z
 -------------------------------------------------------------------
      1       21           0.000000000   -0.000000000    0.000000000
      2        9           0.000000222   -0.000000385    0.000000000
      3        9           0.000000222    0.000000385   -0.000000000
      4        9          -0.000000444   -0.000000000    0.000000000
 -------------------------------------------------------------------
 Cartesian Forces:  Max     0.000000444 RMS     0.000000222

 GradGradGradGradGradGradGradGradGradGradGradGradGradGradGradGradGradGrad
 Berny optimization.
 Using GEDIIS/GDIIS optimizer.
 FormGI is forming the generalized inverse of G from B-inverse, IUseBI=4.
 Internal  Forces:  Max     0.000000444 RMS     0.000000291
 Search for a local minimum.
 Step number   3 out of a maximum of   20
 All quantities printed in internal units (Hartrees-Bohrs-Radians)
 Mixed Optimization -- En-DIIS/RFO-DIIS
 Update second derivatives using D2CorX and points    1    2    3
 DE= -2.58D-05 DEPred=-2.45D-05 R= 1.05D+00
 TightC=F SS=  1.41D+00  RLast= 1.41D-02 DXNew= 5.0454D-01 4.2403D-02
 Trust test= 1.05D+00 RLast= 1.41D-02 DXMaxT set to 3.00D-01
 The second derivative matrix:
                          R1        R2        R3        A1        A2
           R1           0.23208
           R2           0.01256   0.23208
           R3           0.01256   0.01256   0.23208
           A1           0.00000   0.00000   0.00000   0.25000
           A2           0.00000   0.00000   0.00000   0.00000   0.25000
           A3          -0.00000  -0.00000  -0.00000  -0.00000  -0.00000
           D1           0.00000   0.00000   0.00000   0.00000   0.00000
                          A3        D1
           A3           0.25000
           D1          -0.00000   0.04035
 ITU=  1  1  0
 Use linear search instead of GDIIS.
     Eigenvalues ---    0.04035   0.21952   0.21952   0.25000   0.25000
     Eigenvalues ---    0.25720
 RFO step:  Lambda= 0.00000000D+00 EMin= 4.03464233D-02
 Quartic linear search produced a step of -0.00021.
 Iteration  1 RMS(Cart)=  0.00000112 RMS(Int)=  0.00000000
 Iteration  2 RMS(Cart)=  0.00000000 RMS(Int)=  0.00000000
 ClnCor:  largest displacement from symmetrization is 1.10D-12 for atom     4.
 Variable       Old X    -DE/DX   Delta X   Delta X   Delta X     New X
                                 (Linear)    (Quad)   (Total)
    R1        3.49910   0.00000   0.00000  -0.00000   0.00000   3.49910
    R2        3.49910   0.00000   0.00000   0.00000   0.00000   3.49910
    R3        3.49910   0.00000   0.00000   0.00000   0.00000   3.49910
    A1        2.09440  -0.00000   0.00000  -0.00000   0.00000   2.09440
    A2        2.09440  -0.00000   0.00000  -0.00000  -0.00000   2.09440
    A3        2.09440   0.00000   0.00000   0.00000   0.00000   2.09440
    D1        3.14159   0.00000   0.00000   0.00000   0.00000   3.14159
         Item               Value     Threshold  Converged?
 Maximum Force            0.000000     0.000450     YES
 RMS     Force            0.000000     0.000300     YES
 Maximum Displacement     0.000002     0.001800     YES
 RMS     Displacement     0.000001     0.001200     YES
 Predicted change in Energy=-1.150546D-12
 Optimization completed.
    -- Stationary point found.
                           ----------------------------
                           !   Optimized Parameters   !
                           ! (Angstroms and Degrees)  !
 --------------------------                            --------------------------
 ! Name  Definition              Value          Derivative Info.                !
 --------------------------------------------------------------------------------
 ! R1    R(1,2)                  1.8516         -DE/DX =    0.0                 !
 ! R2    R(1,3)                  1.8516         -DE/DX =    0.0                 !
 ! R3    R(1,4)                  1.8516         -DE/DX =    0.0                 !
 ! A1    A(2,1,3)              120.0            -DE/DX =    0.0                 !
 ! A2    A(2,1,4)              120.0            -DE/DX =    0.0                 !
 ! A3    A(3,1,4)              120.0            -DE/DX =    0.0                 !
 ! D1    D(2,1,4,3)            180.0            -DE/DX =    0.0                 !
 --------------------------------------------------------------------------------
 GradGradGradGradGradGradGradGradGradGradGradGradGradGradGradGradGradGrad

                          Input orientation:                          
 ---------------------------------------------------------------------
 Center     Atomic      Atomic             Coordinates (Angstroms)
 Number     Number       Type             X           Y           Z
 ---------------------------------------------------------------------
      1         21           0        8.958273    8.500000    8.500000
      2          9           0        9.884094    6.896431    8.500000
      3          9           0        9.884094   10.103569    8.500000
      4          9           0        7.106630    8.500000    8.500000
 ---------------------------------------------------------------------
                    Distance matrix (angstroms):
                    1          2          3          4
     1  Sc   0.000000
     2  F    1.851643   0.000000
     3  F    1.851643   3.207139   0.000000
     4  F    1.851643   3.207139   3.207139   0.000000
 Stoichiometry    F3Sc
 Framework group  D3H[O(Sc),3C2(F)]
 Deg. of freedom     1
 Full point group                 D3H     NOp  12
 Largest Abelian subgroup         C2V     NOp   4
 Largest concise Abelian subgroup C2      NOp   2
                         Standard orientation:                         
 ---------------------------------------------------------------------
 Center     Atomic      Atomic             Coordinates (Angstroms)
 Number     Number       Type             X           Y           Z
 ---------------------------------------------------------------------
      1         21           0        0.000000    0.000000    0.000000
      2          9           0       -0.000000    1.851643    0.000000
      3          9           0        1.603569   -0.925821    0.000000
      4          9           0       -1.603569   -0.925821   -0.000000
 ---------------------------------------------------------------------
 Rotational constants (GHZ):           5.1724291           5.1724291           2.5862145

 **********************************************************************

            Population analysis using the SCF Density.

 **********************************************************************

 Orbital symmetries:
       Occupied  (A1') (E') (E') (A1') (A1') (A2") (E') (E') (A1')
                 (E') (E') (A2") (A1') (E') (E') (E') (E') (A1')
                 (E") (E") (A2") (E') (E') (A2')
       Virtual   (A1') (E") (E") (E') (E') (A1') (A2") (E') (E')
                 (E") (E") (A2") (A1') (E') (E') (A1') (E') (E')
                 (A2") (A1') (E") (E") (E') (E') (E') (E') (A1')
                 (A1') (E") (E") (A2") (E') (E') (A2') (E') (E')
                 (A2") (A1") (A1') (E") (E") (E') (E') (A2') (E')
                 (E') (E") (E") (A1') (A2") (E') (E') (E") (E")
                 (E') (E') (A2") (A1') (E') (E') (A2") (E") (E")
                 (A2') (A1') (E') (E') (A1') (E') (E') (A1') (E")
                 (E") (A1") (A1') (E') (E') (E') (E') (A2') (A2")
                 (E") (E") (E') (E') (A2") (E') (E') (A1') (E")
                 (E") (A2') (A1") (A1') (E') (E') (A1') (E") (E")
                 (A2") (E') (E') (E") (E") (E') (E') (A1') (E')
                 (E') (E") (E") (E') (E') (A2") (A1') (A2') (A2')
                 (E") (E") (E') (E') (E') (E') (A2") (A1') (E")
                 (E") (E') (E') (A1") (A1') (E") (E") (E') (E')
                 (A1') (A2') (A2") (E') (E') (E") (E") (A1') (E')
                 (E') (A1") (E") (E") (A2") (E') (E') (A1') (A2')
                 (E') (E') (A2") (E") (E") (A2') (E') (E') (A1')
                 (E') (E') (A1') (E") (E") (A2') (A2") (E') (E')
                 (E") (E") (E') (E') (A1") (E') (E') (E") (E")
                 (A1') (A1') (A2') (E") (E") (A1") (E') (E') (A2")
                 (A1') (E') (E') (A2') (E") (E") (E') (E') (A2")
                 (E") (E") (E') (E') (A1') (A1") (E') (E') (E")
                 (E") (A2') (A2") (A1') (E') (E') (A1') (E') (E')
                 (E") (E") (A1') (E') (E') (A1") (A2") (E") (E")
                 (E') (E') (A2') (A1') (E') (E') (A1') (A1') (E')
                 (E') (A1') (A1') (E') (E') (A1')
 The electronic state is 1-A1'.
 Alpha  occ. eigenvalues -- -160.65594 -24.22676 -24.22676 -24.22676 -17.27167
 Alpha  occ. eigenvalues --  -14.26755 -14.26409 -14.26409  -2.00613  -1.25764
 Alpha  occ. eigenvalues --   -1.25764  -1.24910  -1.03207  -1.00808  -1.00808
 Alpha  occ. eigenvalues --   -0.37501  -0.37501  -0.37498  -0.35848  -0.35848
 Alpha  occ. eigenvalues --   -0.34860  -0.34176  -0.34176  -0.33795
 Alpha virt. eigenvalues --   -0.13202  -0.09568  -0.09568  -0.03110  -0.03110
 Alpha virt. eigenvalues --   -0.02221  -0.01434   0.01276   0.01276   0.06401
 Alpha virt. eigenvalues --    0.06401   0.06640   0.06746   0.07276   0.07276
 Alpha virt. eigenvalues --    0.08285   0.10833   0.10833   0.24588   0.24865
 Alpha virt. eigenvalues --    0.25211   0.25211   0.28648   0.28648   0.29836
 Alpha virt. eigenvalues --    0.29836   0.30863   0.33086   0.33170   0.33170
 Alpha virt. eigenvalues --    0.34711   0.34716   0.34716   0.38293   0.47665
 Alpha virt. eigenvalues --    0.47665   0.48991   0.50025   0.50202   0.50520
 Alpha virt. eigenvalues --    0.50520   0.50759   0.50759   0.61992   0.62478
 Alpha virt. eigenvalues --    0.62478   0.67082   0.67082   0.69504   0.70462
 Alpha virt. eigenvalues --    0.75757   0.75757   0.81251   0.81251   0.83014
 Alpha virt. eigenvalues --    0.83014   0.83818   0.85000   0.92724   0.92724
 Alpha virt. eigenvalues --    1.03572   1.03627   1.03627   1.05104   1.13325
 Alpha virt. eigenvalues --    1.14571   1.14571   1.24048   1.35831   1.35831
 Alpha virt. eigenvalues --    1.45156   1.45231   1.45231   1.58264   1.59249
 Alpha virt. eigenvalues --    1.61432   1.61432   1.70839   1.70839   1.71124
 Alpha virt. eigenvalues --    1.71634   1.74125   1.74125   1.74445   1.74445
 Alpha virt. eigenvalues --    1.78690   1.79566   1.79566   1.81071   1.84039
 Alpha virt. eigenvalues --    1.84039   2.19056   2.25737   2.28447   2.31882
 Alpha virt. eigenvalues --    2.31882   2.46654   2.48427   2.48427   2.60562
 Alpha virt. eigenvalues --    2.61676   2.61676   2.61976   2.61976   2.70475
 Alpha virt. eigenvalues --    2.70475   2.90897   3.16298   3.16298   3.89495
 Alpha virt. eigenvalues --    3.89495   3.94194   3.94194   3.95073   4.01617
 Alpha virt. eigenvalues --    4.02093   4.06098   4.06135   4.06135   4.09129
 Alpha virt. eigenvalues --    4.09129   4.09309   4.09309   4.10006   4.10603
 Alpha virt. eigenvalues --    4.19261   4.19261   4.23300   4.23300   4.28839
 Alpha virt. eigenvalues --    4.38852   4.45683   4.45683   4.46505   4.46505
 Alpha virt. eigenvalues --    4.52806   4.58471   4.58755   4.83583   4.83583
 Alpha virt. eigenvalues --    4.92854   4.92854   5.01550   5.04608   5.04608
 Alpha virt. eigenvalues --    5.09045   5.38222   5.38222   5.40883   5.42546
 Alpha virt. eigenvalues --    5.42546   5.45883   5.54057   5.63115   5.63115
 Alpha virt. eigenvalues --    6.16483   6.19189   6.19189   6.21687   6.22079
 Alpha virt. eigenvalues --    6.22079   6.55415   7.05745   7.05745   7.39225
 Alpha virt. eigenvalues --   11.24542  11.24542  11.24597  11.24847  11.24939
 Alpha virt. eigenvalues --   11.24939  11.25161  11.25161  11.25208  11.25208
 Alpha virt. eigenvalues --   11.25706  11.25728  11.25728  11.25734  11.25734
 Alpha virt. eigenvalues --   11.25739  11.26358  11.26820  11.27804  11.27804
 Alpha virt. eigenvalues --   11.28286  11.29023  11.29023  11.30121  11.32067
 Alpha virt. eigenvalues --   11.36501  11.36501  14.37668  14.37981  14.37981
 Alpha virt. eigenvalues --   14.39345  14.39345  14.39794  14.41443  14.41443
 Alpha virt. eigenvalues --   14.41728  14.41728  14.43914  14.46411  14.58002
 Alpha virt. eigenvalues --   14.58002  14.58129  14.58129  14.64493  14.64925
 Alpha virt. eigenvalues --   14.69938  14.69945  14.69945  15.02466  15.06516
 Alpha virt. eigenvalues --   15.06516  15.61651  15.61651  15.67019  15.69767
 Alpha virt. eigenvalues --   15.69767  15.72462  15.89740  15.90229  15.90229
 Alpha virt. eigenvalues --   15.92749  15.92749  15.98253  16.09651  16.21306
 Alpha virt. eigenvalues --   16.21306  22.60549  53.78498  53.80249  53.80249
 Alpha virt. eigenvalues --   75.58605 284.17236 284.19471 284.19471 475.37941
          Condensed to atoms (all electrons):
               1          2          3          4
     1  Sc  18.801702   0.289452   0.289452   0.289452
     2  F    0.289452   9.151640   0.001111   0.001111
     3  F    0.289452   0.001111   9.151640   0.001111
     4  F    0.289452   0.001111   0.001111   9.151640
 Mulliken charges:
               1
     1  Sc   1.329941
     2  F   -0.443314
     3  F   -0.443314
     4  F   -0.443314
 Sum of Mulliken charges =  -0.00000
 Mulliken charges with hydrogens summed into heavy atoms:
               1
     1  Sc   1.329941
     2  F   -0.443314
     3  F   -0.443314
     4  F   -0.443314
 Electronic spatial extent (au):  <R**2>=            406.7949
 Charge=             -0.0000 electrons
 Dipole moment (field-independent basis, Debye):
    X=             -0.0000    Y=             -0.0000    Z=              0.0000  Tot=              0.0000
 Quadrupole moment (field-independent basis, Debye-Ang):
   XX=            -38.5373   YY=            -38.5373   ZZ=            -25.4378
   XY=             -0.0000   XZ=              0.0000   YZ=              0.0000
 Traceless Quadrupole moment (field-independent basis, Debye-Ang):
   XX=             -4.3665   YY=             -4.3665   ZZ=              8.7330
   XY=             -0.0000   XZ=              0.0000   YZ=              0.0000
 Octapole moment (field-independent basis, Debye-Ang**2):
  XXX=              0.0000  YYY=             -9.6093  ZZZ=             -0.0000  XYY=              0.0000
  XXY=              9.6093  XXZ=             -0.0000  XZZ=              0.0000  YZZ=              0.0000
  YYZ=             -0.0000  XYZ=             -0.0000
 Hexadecapole moment (field-independent basis, Debye-Ang**3):
 XXXX=           -219.0987 YYYY=           -219.0987 ZZZZ=            -19.7326 XXXY=             -0.0000
 XXXZ=              0.0000 YYYX=             -0.0000 YYYZ=              0.0000 ZZZX=              0.0000
 ZZZY=              0.0000 XXYY=            -73.0329 XXZZ=            -36.2699 YYZZ=            -36.2699
 XXYZ=              0.0000 YYXZ=              0.0000 ZZXY=             -0.0000
 N-N= 2.021367406429D+02 E-N=-2.921883518101D+03  KE= 1.057724666384D+03
 Symmetry A1   KE= 7.739927987831D+02
 Symmetry A2   KE= 5.913262615027D+00
 Symmetry B1   KE= 1.836084745251D+02
 Symmetry B2   KE= 9.421013046131D+01
 Unable to Open any file for archive entry.
 1\1\GINC-TCOPT10\FOpt\RPBEPBE\def2QZVPP\F3Sc1\HUTTER\30-Jul-2021\0\\#N
  RPBEPBE/Def2QZVPP scf=tight Int(Grid=ultrafine) OPT FREQ\\Mol job 1\\
 0,1\Sc,8.9582729019,8.5,8.5\F,9.8840941664,6.8964305312,8.5\F,9.884094
 1664,10.1035694688,8.5\F,7.1066303729,8.5,8.5\\Version=ES64L-G16RevC.0
 1\State=1-A1'\HF=-1060.1744422\RMSD=3.818e-10\RMSF=2.221e-07\Dipole=0.
 ,0.,0.\Quadrupole=-3.2463809,-3.2463809,6.4927618,0.,0.,0.\PG=D03H [O(
 Sc1),3C2(F1)]\\@
 The archive entry for this job was punched.


 The cat could very well be man's best friend
 but would never stoop to admitting it.
                               -- Doug Larson
 Job cpu time:       0 days  0 hours  8 minutes  4.3 seconds.
 Elapsed time:       0 days  0 hours  1 minutes  2.2 seconds.
 File lengths (MBytes):  RWF=     37 Int=      0 D2E=      0 Chk=      6 Scr=      1
 Normal termination of Gaussian 16 at Fri Jul 30 19:51:48 2021.
 Link1:  Proceeding to internal job step number  2.
 ----------------------------------------------------------------------
 #N Geom=AllCheck Guess=TCheck SCRF=Check GenChk RPBEPBE/def2QZVPP Freq
 ----------------------------------------------------------------------
 1/10=4,29=7,30=1,38=1,40=1/1,3;
 2/12=2,40=1/2;
 3/5=45,7=202,11=2,14=-4,25=1,30=1,70=2,71=2,74=1009,75=-5,116=1,140=1/1,2,3;
 4/5=101/1;
 5/5=2,32=2,38=6,98=1/2;
 8/6=4,10=90,11=11/1;
 11/6=1,8=1,9=11,15=111,16=1/1,2,10;
 10/6=1/2;
 6/7=2,8=2,9=2,10=2,28=1/1;
 7/8=1,10=1,25=1/1,2,3,16;
 1/10=4,30=1/3;
 99//99;
 Structure from the checkpoint file:  "/data/hutter/SMG16/PBE/Gau-12962.chk"
 ---------
 Mol job 1
 ---------
 Charge =  0 Multiplicity = 1
 Redundant internal coordinates found in file.  (old form).
 Sc,0,8.9582729019,8.5,8.5
 F,0,9.8840941664,6.8964305312,8.5
 F,0,9.8840941664,10.1035694688,8.5
 F,0,7.1066303729,8.5,8.5
 Recover connectivity data from disk.

 GradGradGradGradGradGradGradGradGradGradGradGradGradGradGradGradGradGrad
 Berny optimization.
 Initialization pass.
                           ----------------------------
                           !    Initial Parameters    !
                           ! (Angstroms and Degrees)  !
 --------------------------                            --------------------------
 ! Name  Definition              Value          Derivative Info.                !
 --------------------------------------------------------------------------------
 ! R1    R(1,2)                  1.8516         calculate D2E/DX2 analytically  !
 ! R2    R(1,3)                  1.8516         calculate D2E/DX2 analytically  !
 ! R3    R(1,4)                  1.8516         calculate D2E/DX2 analytically  !
 ! A1    A(2,1,3)              120.0            calculate D2E/DX2 analytically  !
 ! A2    A(2,1,4)              120.0            calculate D2E/DX2 analytically  !
 ! A3    A(3,1,4)              120.0            calculate D2E/DX2 analytically  !
 ! D1    D(2,1,4,3)            180.0            calculate D2E/DX2 analytically  !
 --------------------------------------------------------------------------------
 Trust Radius=3.00D-01 FncErr=1.00D-07 GrdErr=1.00D-07 EigMax=2.50D+02 EigMin=1.00D-04
 Number of steps in this run=      2 maximum allowed number of steps=      2.
 GradGradGradGradGradGradGradGradGradGradGradGradGradGradGradGradGradGrad

                          Input orientation:                          
 ---------------------------------------------------------------------
 Center     Atomic      Atomic             Coordinates (Angstroms)
 Number     Number       Type             X           Y           Z
 ---------------------------------------------------------------------
      1         21           0        8.958273    8.500000    8.500000
      2          9           0        9.884094    6.896431    8.500000
      3          9           0        9.884094   10.103569    8.500000
      4          9           0        7.106630    8.500000    8.500000
 ---------------------------------------------------------------------
                    Distance matrix (angstroms):
                    1          2          3          4
     1  Sc   0.000000
     2  F    1.851643   0.000000
     3  F    1.851643   3.207139   0.000000
     4  F    1.851643   3.207139   3.207139   0.000000
 Stoichiometry    F3Sc
 Framework group  D3H[O(Sc),3C2(F)]
 Deg. of freedom     1
 Full point group                 D3H     NOp  12
 Largest Abelian subgroup         C2V     NOp   4
 Largest concise Abelian subgroup C2      NOp   2
                         Standard orientation:                         
 ---------------------------------------------------------------------
 Center     Atomic      Atomic             Coordinates (Angstroms)
 Number     Number       Type             X           Y           Z
 ---------------------------------------------------------------------
      1         21           0        0.000000    0.000000    0.000000
      2          9           0       -0.000000    1.851643    0.000000
      3          9           0        1.603569   -0.925821    0.000000
      4          9           0       -1.603569   -0.925821   -0.000000
 ---------------------------------------------------------------------
 Rotational constants (GHZ):           5.1724291           5.1724291           2.5862145
 Standard basis: def2QZVPP (5D, 7F)
 There are   133 symmetry adapted cartesian basis functions of A1  symmetry.
 There are    46 symmetry adapted cartesian basis functions of A2  symmetry.
 There are    90 symmetry adapted cartesian basis functions of B1  symmetry.
 There are    66 symmetry adapted cartesian basis functions of B2  symmetry.
 There are   100 symmetry adapted basis functions of A1  symmetry.
 There are    39 symmetry adapted basis functions of A2  symmetry.
 There are    71 symmetry adapted basis functions of B1  symmetry.
 There are    54 symmetry adapted basis functions of B2  symmetry.
   264 basis functions,   468 primitive gaussians,   335 cartesian basis functions
    24 alpha electrons       24 beta electrons
       nuclear repulsion energy       202.1367406429 Hartrees.
 NAtoms=    4 NActive=    4 NUniq=    2 SFac= 4.00D+00 NAtFMM=   60 NAOKFM=F Big=F
 Integral buffers will be    131072 words long.
 Raffenetti 2 integral format.
 Two-electron integral symmetry is turned on.
 One-electron integrals computed using PRISM.
  12 Symmetry operations used in ECPInt.
 ECPInt:  NShTT=    3081 NPrTT=   10530 LenC2=    2899 LenP2D=    7890.
 LDataN:  DoStor=T MaxTD1= 8 Len=  415
 NBasis=   264 RedAO= T EigKep=  8.45D-04  NBF=   100    39    71    54
 NBsUse=   264 1.00D-06 EigRej= -1.00D+00 NBFU=   100    39    71    54
 Initial guess from the checkpoint file:  "/data/hutter/SMG16/PBE/Gau-12962.chk"
 B after Tr=     0.000000    0.000000   -0.000000
         Rot=    1.000000    0.000000    0.000000   -0.000000 Ang=   0.00 deg.
 Initial guess orbital symmetries:
       Occupied  (A1') (E') (E') (A1') (A1') (A2") (E') (E') (A1')
                 (E') (E') (A2") (A1') (E') (E') (E') (E') (A1')
                 (E") (E") (A2") (E') (E') (A2')
       Virtual   (A1') (E") (E") (E') (E') (A1') (A2") (E') (E')
                 (E") (E") (A2") (A1') (E') (E') (A1') (E') (E')
                 (A2") (A1') (E") (E") (E') (E') (E') (E') (A1')
                 (A1') (E") (E") (A2") (E') (E') (A2') (E') (E')
                 (A2") (A1") (A1') (E") (E") (E') (E') (A2') (E')
                 (E') (E") (E") (A1') (A2") (E') (E') (E") (E")
                 (E') (E') (A2") (A1') (E') (E') (A2") (E") (E")
                 (A2') (A1') (E') (E') (A1') (E') (E') (A1') (E")
                 (E") (A1") (A1') (E') (E') (E') (E') (A2') (A2")
                 (E") (E") (E') (E') (A2") (E') (E') (A1') (E")
                 (E") (A2') (A1") (A1') (E') (E') (A1') (E") (E")
                 (A2") (E') (E') (E") (E") (E') (E') (A1') (E')
                 (E') (E") (E") (E') (E') (A2") (A1') (A2') (A2')
                 (E") (E") (E') (E') (E') (E') (A2") (A1') (E")
                 (E") (E') (E') (A1") (A1') (E") (E") (E') (E')
                 (A1') (A2') (A2") (E') (E') (E") (E") (A1') (E')
                 (E') (A1") (E") (E") (A2") (E') (E') (A1') (A2')
                 (E') (E') (A2") (E") (E") (A2') (E') (E') (A1')
                 (E') (E') (A1') (E") (E") (A2') (A2") (E') (E')
                 (E") (E") (E') (E') (A1") (E') (E') (E") (E")
                 (A1') (A1') (A2') (E") (E") (A1") (E') (E') (A2")
                 (A1') (E') (E') (A2') (E") (E") (E') (E') (A2")
                 (E") (E") (E') (E') (A1') (A1") (E') (E') (E")
                 (E") (A2') (A2") (A1') (E') (E') (A1') (E') (E')
                 (E") (E") (A1') (E') (E') (A1") (A2") (E") (E")
                 (E') (E') (A2') (A1') (E') (E') (A1') (A1') (E')
                 (E') (A1') (A1') (E') (E') (A1')
 Keep J ints in memory in symmetry-blocked form, NReq=766283983.
 Requested convergence on RMS density matrix=1.00D-08 within 128 cycles.
 Requested convergence on MAX density matrix=1.00D-06.
 Requested convergence on             energy=1.00D-06.
 No special actions if energy rises.
 SCF Done:  E(RPBE-PBE) =  -1060.17444223     A.U. after    1 cycles
            NFock=  1  Conv=0.10D-09     -V/T= 2.0023
 DoSCS=F DFT=T ScalE2(SS,OS)=  1.000000  1.000000
 Range of M.O.s used for correlation:     1   264
 NBasis=   264 NAE=    24 NBE=    24 NFC=     0 NFV=     0
 NROrb=    264 NOA=    24 NOB=    24 NVA=   240 NVB=   240

 **** Warning!!: The largest alpha MO coefficient is  0.11581053D+02

  12 Symmetry operations used in ECPInt.
 ECPInt:  NShTT=    3081 NPrTT=   10530 LenC2=    2899 LenP2D=    7890.
 LDataN:  DoStor=T MaxTD1= 9 Len=  602
 Symmetrizing basis deriv contribution to polar:
 IMax=3 JMax=2 DiffMx= 0.00D+00
 G2DrvN: will do     5 centers at a time, making    1 passes.
 Calling FoFCou, ICntrl=  3507 FMM=F I1Cent=   0 AccDes= 0.00D+00.
 End of G2Drv F.D. properties file   721 does not exist.
 End of G2Drv F.D. properties file   722 does not exist.
 End of G2Drv F.D. properties file   788 does not exist.
          IDoAtm=1111
          Differentiating once with respect to electric field.
                with respect to dipole field.
          Differentiating once with respect to nuclear coordinates.
 Keep J ints in memory in symmetry-blocked form, NReq=766286594.
          There are     9 degrees of freedom in the 1st order CPHF.  IDoFFX=4 NUNeed=     9.
      9 vectors produced by pass  0 Test12= 6.40D-14 1.11D-08 XBig12= 3.89D+01 2.21D+00.
 AX will form     9 AO Fock derivatives at one time.
      9 vectors produced by pass  1 Test12= 6.40D-14 1.11D-08 XBig12= 2.55D+01 1.46D+00.
      9 vectors produced by pass  2 Test12= 6.40D-14 1.11D-08 XBig12= 7.67D-01 2.04D-01.
      9 vectors produced by pass  3 Test12= 6.40D-14 1.11D-08 XBig12= 2.99D-02 5.52D-02.
      9 vectors produced by pass  4 Test12= 6.40D-14 1.11D-08 XBig12= 1.84D-04 3.23D-03.
      9 vectors produced by pass  5 Test12= 6.40D-14 1.11D-08 XBig12= 8.65D-07 3.04D-04.
      6 vectors produced by pass  6 Test12= 6.40D-14 1.11D-08 XBig12= 1.52D-09 1.08D-05.
      4 vectors produced by pass  7 Test12= 6.40D-14 1.11D-08 XBig12= 2.92D-12 6.40D-07.
      3 vectors produced by pass  8 Test12= 6.40D-14 1.11D-08 XBig12= 5.09D-15 1.55D-08.
 InvSVY:  IOpt=1 It=  1 EMax= 8.88D-16
 Solved reduced A of dimension    67 with     9 vectors.
 Isotropic polarizability for W=    0.000000       30.41 Bohr**3.
 End of Minotr F.D. properties file   721 does not exist.
 End of Minotr F.D. properties file   722 does not exist.
 End of Minotr F.D. properties file   788 does not exist.

 **********************************************************************

            Population analysis using the SCF Density.

 **********************************************************************

 Orbital symmetries:
       Occupied  (A1') (E') (E') (A1') (A1') (A2") (E') (E') (A1')
                 (E') (E') (A2") (A1') (E') (E') (E') (E') (A1')
                 (E") (E") (A2") (E') (E') (A2')
       Virtual   (A1') (E") (E") (E') (E') (A1') (A2") (E') (E')
                 (E") (E") (A2") (A1') (E') (E') (A1') (E') (E')
                 (A2") (A1') (E") (E") (E') (E') (E') (E') (A1')
                 (A1') (E") (E") (A2") (E') (E') (A2') (E') (E')
                 (A2") (A1") (A1') (E") (E") (E') (E') (A2') (E')
                 (E') (E") (E") (A1') (A2") (E') (E') (E") (E")
                 (E') (E') (A2") (A1') (E') (E') (A2") (E") (E")
                 (A2') (A1') (E') (E') (A1') (E') (E') (A1') (E")
                 (E") (A1") (A1') (E') (E') (E') (E') (A2') (A2")
                 (E") (E") (E') (E') (A2") (E') (E') (A1') (E")
                 (E") (A2') (A1") (A1') (E') (E') (A1') (E") (E")
                 (A2") (E') (E') (E") (E") (E') (E') (A1') (E')
                 (E') (E") (E") (E') (E') (A2") (A1') (A2') (A2')
                 (E") (E") (E') (E') (E') (E') (A2") (A1') (E")
                 (E") (E') (E') (A1") (A1') (E") (E") (E') (E')
                 (A1') (A2') (A2") (E') (E') (E") (E") (A1') (E')
                 (E') (A1") (E") (E") (A2") (E') (E') (A1') (A2')
                 (E') (E') (A2") (E") (E") (A2') (E') (E') (A1')
                 (E') (E') (A1') (E") (E") (A2') (A2") (E') (E')
                 (E") (E") (E') (E') (A1") (E') (E') (E") (E")
                 (A1') (A1') (A2') (E") (E") (A1") (E') (E') (A2")
                 (A1') (E') (E') (A2') (E") (E") (E') (E') (A2")
                 (E") (E") (E') (E') (A1') (A1") (E') (E') (E")
                 (E") (A2') (A2") (A1') (E') (E') (A1') (E') (E')
                 (E") (E") (A1') (E') (E') (A1") (A2") (E") (E")
                 (E') (E') (A2') (A1') (E') (E') (A1') (A1') (E')
                 (E') (A1') (A1') (E') (E') (A1')
 The electronic state is 1-A1'.
 Alpha  occ. eigenvalues -- -160.65594 -24.22676 -24.22676 -24.22676 -17.27167
 Alpha  occ. eigenvalues --  -14.26755 -14.26409 -14.26409  -2.00613  -1.25764
 Alpha  occ. eigenvalues --   -1.25764  -1.24910  -1.03207  -1.00808  -1.00808
 Alpha  occ. eigenvalues --   -0.37501  -0.37501  -0.37498  -0.35848  -0.35848
 Alpha  occ. eigenvalues --   -0.34860  -0.34176  -0.34176  -0.33795
 Alpha virt. eigenvalues --   -0.13202  -0.09568  -0.09568  -0.03110  -0.03110
 Alpha virt. eigenvalues --   -0.02221  -0.01434   0.01276   0.01276   0.06401
 Alpha virt. eigenvalues --    0.06401   0.06640   0.06746   0.07276   0.07276
 Alpha virt. eigenvalues --    0.08285   0.10833   0.10833   0.24588   0.24865
 Alpha virt. eigenvalues --    0.25211   0.25211   0.28648   0.28648   0.29836
 Alpha virt. eigenvalues --    0.29836   0.30863   0.33086   0.33170   0.33170
 Alpha virt. eigenvalues --    0.34711   0.34716   0.34716   0.38293   0.47665
 Alpha virt. eigenvalues --    0.47665   0.48991   0.50025   0.50202   0.50520
 Alpha virt. eigenvalues --    0.50520   0.50759   0.50759   0.61992   0.62478
 Alpha virt. eigenvalues --    0.62478   0.67082   0.67082   0.69504   0.70462
 Alpha virt. eigenvalues --    0.75757   0.75757   0.81251   0.81251   0.83014
 Alpha virt. eigenvalues --    0.83014   0.83818   0.85000   0.92724   0.92724
 Alpha virt. eigenvalues --    1.03572   1.03627   1.03627   1.05104   1.13325
 Alpha virt. eigenvalues --    1.14571   1.14571   1.24048   1.35831   1.35831
 Alpha virt. eigenvalues --    1.45156   1.45231   1.45231   1.58264   1.59249
 Alpha virt. eigenvalues --    1.61432   1.61432   1.70839   1.70839   1.71124
 Alpha virt. eigenvalues --    1.71634   1.74125   1.74125   1.74445   1.74445
 Alpha virt. eigenvalues --    1.78690   1.79566   1.79566   1.81071   1.84039
 Alpha virt. eigenvalues --    1.84039   2.19056   2.25737   2.28447   2.31882
 Alpha virt. eigenvalues --    2.31882   2.46654   2.48427   2.48427   2.60562
 Alpha virt. eigenvalues --    2.61676   2.61676   2.61976   2.61976   2.70475
 Alpha virt. eigenvalues --    2.70475   2.90897   3.16298   3.16298   3.89495
 Alpha virt. eigenvalues --    3.89495   3.94194   3.94194   3.95073   4.01617
 Alpha virt. eigenvalues --    4.02093   4.06098   4.06135   4.06135   4.09129
 Alpha virt. eigenvalues --    4.09129   4.09309   4.09309   4.10006   4.10603
 Alpha virt. eigenvalues --    4.19261   4.19261   4.23300   4.23300   4.28839
 Alpha virt. eigenvalues --    4.38852   4.45683   4.45683   4.46505   4.46505
 Alpha virt. eigenvalues --    4.52806   4.58471   4.58755   4.83583   4.83583
 Alpha virt. eigenvalues --    4.92854   4.92854   5.01550   5.04608   5.04608
 Alpha virt. eigenvalues --    5.09045   5.38222   5.38222   5.40883   5.42546
 Alpha virt. eigenvalues --    5.42546   5.45883   5.54057   5.63115   5.63115
 Alpha virt. eigenvalues --    6.16483   6.19189   6.19189   6.21687   6.22079
 Alpha virt. eigenvalues --    6.22079   6.55415   7.05745   7.05745   7.39225
 Alpha virt. eigenvalues --   11.24542  11.24542  11.24597  11.24847  11.24939
 Alpha virt. eigenvalues --   11.24939  11.25161  11.25161  11.25208  11.25208
 Alpha virt. eigenvalues --   11.25706  11.25728  11.25728  11.25734  11.25734
 Alpha virt. eigenvalues --   11.25739  11.26358  11.26820  11.27804  11.27804
 Alpha virt. eigenvalues --   11.28286  11.29023  11.29023  11.30121  11.32067
 Alpha virt. eigenvalues --   11.36501  11.36501  14.37668  14.37981  14.37981
 Alpha virt. eigenvalues --   14.39345  14.39345  14.39794  14.41443  14.41443
 Alpha virt. eigenvalues --   14.41728  14.41728  14.43914  14.46411  14.58002
 Alpha virt. eigenvalues --   14.58002  14.58129  14.58129  14.64493  14.64925
 Alpha virt. eigenvalues --   14.69938  14.69945  14.69945  15.02466  15.06516
 Alpha virt. eigenvalues --   15.06516  15.61651  15.61651  15.67019  15.69767
 Alpha virt. eigenvalues --   15.69767  15.72462  15.89740  15.90229  15.90229
 Alpha virt. eigenvalues --   15.92749  15.92749  15.98253  16.09651  16.21306
 Alpha virt. eigenvalues --   16.21306  22.60549  53.78498  53.80249  53.80249
 Alpha virt. eigenvalues --   75.58605 284.17236 284.19471 284.19471 475.37941
          Condensed to atoms (all electrons):
               1          2          3          4
     1  Sc  18.801702   0.289452   0.289452   0.289452
     2  F    0.289452   9.151640   0.001111   0.001111
     3  F    0.289452   0.001111   9.151640   0.001111
     4  F    0.289452   0.001111   0.001111   9.151640
 Mulliken charges:
               1
     1  Sc   1.329941
     2  F   -0.443314
     3  F   -0.443314
     4  F   -0.443314
 Sum of Mulliken charges =   0.00000
 Mulliken charges with hydrogens summed into heavy atoms:
               1
     1  Sc   1.329941
     2  F   -0.443314
     3  F   -0.443314
     4  F   -0.443314
 APT charges:
               1
     1  Sc   2.260361
     2  F   -0.753441
     3  F   -0.753450
     4  F   -0.753450
 Sum of APT charges =   0.00002
 APT charges with hydrogens summed into heavy atoms:
               1
     1  Sc   2.260361
     2  F   -0.753441
     3  F   -0.753450
     4  F   -0.753450
 Electronic spatial extent (au):  <R**2>=            406.7949
 Charge=              0.0000 electrons
 Dipole moment (field-independent basis, Debye):
    X=             -0.0000    Y=             -0.0000    Z=              0.0000  Tot=              0.0000
 Quadrupole moment (field-independent basis, Debye-Ang):
   XX=            -38.5373   YY=            -38.5373   ZZ=            -25.4378
   XY=             -0.0000   XZ=              0.0000   YZ=             -0.0000
 Traceless Quadrupole moment (field-independent basis, Debye-Ang):
   XX=             -4.3665   YY=             -4.3665   ZZ=              8.7330
   XY=             -0.0000   XZ=              0.0000   YZ=             -0.0000
 Octapole moment (field-independent basis, Debye-Ang**2):
  XXX=              0.0000  YYY=             -9.6093  ZZZ=             -0.0000  XYY=             -0.0000
  XXY=              9.6093  XXZ=             -0.0000  XZZ=              0.0000  YZZ=             -0.0000
  YYZ=              0.0000  XYZ=             -0.0000
 Hexadecapole moment (field-independent basis, Debye-Ang**3):
 XXXX=           -219.0987 YYYY=           -219.0987 ZZZZ=            -19.7326 XXXY=             -0.0000
 XXXZ=              0.0000 YYYX=              0.0000 YYYZ=             -0.0000 ZZZX=              0.0000
 ZZZY=             -0.0000 XXYY=            -73.0329 XXZZ=            -36.2699 YYZZ=            -36.2699
 XXYZ=              0.0000 YYXZ=              0.0000 ZZXY=              0.0000
 N-N= 2.021367406429D+02 E-N=-2.921883517133D+03  KE= 1.057724666021D+03
 Symmetry A1   KE= 7.739927986427D+02
 Symmetry A2   KE= 5.913262586512D+00
 Symmetry B1   KE= 1.836084744142D+02
 Symmetry B2   KE= 9.421013037741D+01
  Exact polarizability:      34.832       0.000      34.833       0.000      -0.000      21.558
 Approx polarizability:      57.700      -0.000      57.700      -0.000       0.000      30.179
  12 Symmetry operations used in ECPInt.
 ECPInt:  NShTT=    3081 NPrTT=   10530 LenC2=    2899 LenP2D=    7890.
 LDataN:  DoStor=T MaxTD1=10 Len=  848
 Calling FoFJK, ICntrl=    100527 FMM=F ISym2X=1 I1Cent= 0 IOpClX= 0 NMat=1 NMatS=1 NMatT=0.
 Full mass-weighted force constant matrix:
 Low frequencies ---   -4.8294   -4.8291   -0.0734    0.0050    0.0466    7.7111
 Low frequencies ---   70.7911  163.4354  163.4369
 Diagonal vibrational polarizability:
       26.3093226      26.3089301     572.7273644
 Harmonic frequencies (cm**-1), IR intensities (KM/Mole), Raman scattering
 activities (A**4/AMU), depolarization ratios for plane and unpolarized
 incident light, reduced masses (AMU), force constants (mDyne/A),
 and normal coordinates:
                      1                      2                      3
                     A2"                    E'                     E'
 Frequencies --     70.7911               163.4354               163.4369
 Red. masses --     28.0540                20.6465                20.6465
 Frc consts  --      0.0828                 0.3249                 0.3249
 IR Inten    --    106.6527                11.2748                11.2752
  Atom  AN      X      Y      Z        X      Y      Z        X      Y      Z
     1  21    -0.00  -0.00   0.59    -0.25   0.00   0.00    -0.00  -0.25   0.00
     2   9    -0.00   0.00  -0.47     0.72   0.00  -0.00     0.00  -0.32  -0.00
     3   9     0.00  -0.00  -0.47    -0.06   0.45  -0.00     0.45   0.46  -0.00
     4   9     0.00   0.00  -0.47    -0.06  -0.45  -0.00    -0.45   0.46  -0.00
                      4                      5                      6
                     A1'                    E'                     E'
 Frequencies --    601.2842               698.4969               698.4987
 Red. masses --     18.9984                25.0959                25.0959
 Frc consts  --      4.0469                 7.2141                 7.2141
 IR Inten    --      0.0000               271.0327               271.0445
  Atom  AN      X      Y      Z        X      Y      Z        X      Y      Z
     1  21     0.00   0.00  -0.00     0.00   0.48   0.00     0.48  -0.00   0.00
     2   9    -0.00   0.58   0.00    -0.00  -0.71  -0.00    -0.05   0.00  -0.00
     3   9     0.50  -0.29   0.00     0.29  -0.22  -0.00    -0.55   0.29  -0.00
     4   9    -0.50  -0.29   0.00    -0.29  -0.22  -0.00    -0.55  -0.29  -0.00

 -------------------
 - Thermochemistry -
 -------------------
 Temperature   298.150 Kelvin.  Pressure   1.00000 Atm.
 Atom     1 has atomic number 21 and mass  44.95591
 Atom     2 has atomic number  9 and mass  18.99840
 Atom     3 has atomic number  9 and mass  18.99840
 Atom     4 has atomic number  9 and mass  18.99840
 Molecular mass:   101.95112 amu.
 Principal axes and moments of inertia in atomic units:
                           1         2         3
     Eigenvalues --   348.91560 348.91560 697.83120
           X           -0.66692   0.74513   0.00000
           Y            0.74513   0.66692   0.00000
           Z           -0.00000   0.00000   1.00000
 This molecule is an oblate symmetric top.
 Rotational symmetry number  6.
 Rotational temperatures (Kelvin)      0.24824     0.24824     0.12412
 Rotational constants (GHZ):           5.17243     5.17243     2.58621
 Zero-point vibrational energy      14330.9 (Joules/Mol)
                                    3.42517 (Kcal/Mol)
 Warning -- explicit consideration of   4 degrees of freedom as
           vibrations may cause significant error
 Vibrational temperatures:    101.85   235.15   235.15   865.11  1004.98
          (Kelvin)           1004.98
 
 Zero-point correction=                           0.005458 (Hartree/Particle)
 Thermal correction to Energy=                    0.010709
 Thermal correction to Enthalpy=                  0.011654
 Thermal correction to Gibbs Free Energy=        -0.022733
 Sum of electronic and zero-point Energies=          -1060.168984
 Sum of electronic and thermal Energies=             -1060.163733
 Sum of electronic and thermal Enthalpies=           -1060.162789
 Sum of electronic and thermal Free Energies=        -1060.197175
 
                     E (Thermal)             CV                S
                      KCal/Mol        Cal/Mol-Kelvin    Cal/Mol-Kelvin
 Total                    6.720             14.398             72.372
 Electronic               0.000              0.000              0.000
 Translational            0.889              2.981             39.776
 Rotational               0.889              2.981             22.383
 Vibrational              4.943              8.436             10.214
 Vibration     1          0.598              1.968              4.131
 Vibration     2          0.623              1.887              2.510
 Vibration     3          0.623              1.887              2.510
 Vibration     4          0.960              1.029              0.447
                       Q            Log10(Q)             Ln(Q)
 Total Bot       0.286037D+11         10.456422         24.076802
 Total V=0       0.927025D+13         12.967092         29.857832
 Vib (Bot)       0.406528D-01         -1.390909         -3.202687
 Vib (Bot)    1  0.291308D+01          0.464353          1.069212
 Vib (Bot)    2  0.123565D+01          0.091897          0.211601
 Vib (Bot)    3  0.123564D+01          0.091893          0.211591
 Vib (Bot)    4  0.248006D+00         -0.605537         -1.394302
 Vib (V=0)       0.131753D+02          1.119760          2.578342
 Vib (V=0)    1  0.345568D+01          0.538534          1.240020
 Vib (V=0)    2  0.183298D+01          0.263158          0.605944
 Vib (V=0)    3  0.183297D+01          0.263156          0.605938
 Vib (V=0)    4  0.105813D+01          0.024538          0.056501
 Electronic      0.100000D+01          0.000000          0.000000
 Translational   0.404615D+08          7.607042         17.515861
 Rotational      0.173896D+05          4.240290          9.763628
 ***** Axes restored to original set *****
 -------------------------------------------------------------------
 Center     Atomic                   Forces (Hartrees/Bohr)
 Number     Number              X              Y              Z
 -------------------------------------------------------------------
      1       21           0.000000000   -0.000000000    0.000000000
      2        9           0.000000221   -0.000000383    0.000000000
      3        9           0.000000221    0.000000383    0.000000000
      4        9          -0.000000443   -0.000000000   -0.000000000
 -------------------------------------------------------------------
 Cartesian Forces:  Max     0.000000443 RMS     0.000000221
 FormGI is forming the generalized inverse of G from B-inverse, IUseBI=4.

 GradGradGradGradGradGradGradGradGradGradGradGradGradGradGradGradGradGrad
 Berny optimization.
 Internal  Forces:  Max     0.000000443 RMS     0.000000290
 Search for a local minimum.
 Step number   1 out of a maximum of    2
 All quantities printed in internal units (Hartrees-Bohrs-Radians)
 Second derivative matrix not updated -- analytic derivatives used.
 The second derivative matrix:
                          R1        R2        R3        A1        A2
           R1           0.22322
           R2           0.01836   0.22322
           R3           0.01836   0.01836   0.22322
           A1          -0.00583  -0.00583   0.01166   0.04045
           A2          -0.00583   0.01166  -0.00583  -0.02022   0.04045
           A3           0.01166  -0.00583  -0.00583  -0.02022  -0.02022
           D1           0.00000   0.00000  -0.00000  -0.00000   0.00000
                          A3        D1
           A3           0.04045
           D1           0.00000   0.00486
 ITU=  0
     Eigenvalues ---    0.00486   0.05858   0.05858   0.20695   0.20695
     Eigenvalues ---    0.25994
 Angle between quadratic step and forces=   0.00 degrees.
 Linear search not attempted -- first point.
 Iteration  1 RMS(Cart)=  0.00000111 RMS(Int)=  0.00000000
 Iteration  2 RMS(Cart)=  0.00000000 RMS(Int)=  0.00000000
 ClnCor:  largest displacement from symmetrization is 1.60D-11 for atom     3.
 Variable       Old X    -DE/DX   Delta X   Delta X   Delta X     New X
                                 (Linear)    (Quad)   (Total)
    R1        3.49910   0.00000   0.00000   0.00000   0.00000   3.49910
    R2        3.49910   0.00000   0.00000   0.00000   0.00000   3.49910
    R3        3.49910   0.00000   0.00000   0.00000   0.00000   3.49910
    A1        2.09440  -0.00000   0.00000   0.00000  -0.00000   2.09440
    A2        2.09440   0.00000   0.00000   0.00000   0.00000   2.09440
    A3        2.09440  -0.00000   0.00000  -0.00000   0.00000   2.09440
    D1        3.14159  -0.00000   0.00000   0.00000   0.00000   3.14159
         Item               Value     Threshold  Converged?
 Maximum Force            0.000000     0.000450     YES
 RMS     Force            0.000000     0.000300     YES
 Maximum Displacement     0.000002     0.001800     YES
 RMS     Displacement     0.000001     0.001200     YES
 Predicted change in Energy=-1.130359D-12
 Optimization completed.
    -- Stationary point found.
                           ----------------------------
                           !   Optimized Parameters   !
                           ! (Angstroms and Degrees)  !
 --------------------------                            --------------------------
 ! Name  Definition              Value          Derivative Info.                !
 --------------------------------------------------------------------------------
 ! R1    R(1,2)                  1.8516         -DE/DX =    0.0                 !
 ! R2    R(1,3)                  1.8516         -DE/DX =    0.0                 !
 ! R3    R(1,4)                  1.8516         -DE/DX =    0.0                 !
 ! A1    A(2,1,3)              120.0            -DE/DX =    0.0                 !
 ! A2    A(2,1,4)              120.0            -DE/DX =    0.0                 !
 ! A3    A(3,1,4)              120.0            -DE/DX =    0.0                 !
 ! D1    D(2,1,4,3)            180.0            -DE/DX =    0.0                 !
 --------------------------------------------------------------------------------
 GradGradGradGradGradGradGradGradGradGradGradGradGradGradGradGradGradGrad

 Dipole is zero, so no output in dipole orientation.

 ----------------------------------------------------------------------

 Electric dipole moment (input orientation):
 (Debye = 10**-18 statcoulomb cm , SI units = C m)
                  (au)            (Debye)         (10**-30 SI)
   Tot        0.000000D+00      0.000000D+00      0.000000D+00
   x          0.000000D+00      0.000000D+00      0.000000D+00
   y          0.000000D+00      0.000000D+00      0.000000D+00
   z          0.000000D+00      0.000000D+00      0.000000D+00

 Dipole polarizability, Alpha (input orientation).
 (esu units = cm**3 , SI units = C**2 m**2 J**-1)
 Alpha(0;0):
               (au)            (10**-24 esu)      (10**-40 SI)
   iso        0.304078D+02      0.450597D+01      0.501356D+01
   aniso      0.132746D+02      0.196710D+01      0.218869D+01
   xx         0.348324D+02      0.516163D+01      0.574309D+01
   yx        -0.416531D-03     -0.617235D-04     -0.686766D-04
   yy         0.348329D+02      0.516170D+01      0.574317D+01
   zx         0.000000D+00      0.000000D+00      0.000000D+00
   zy         0.000000D+00      0.000000D+00      0.000000D+00
   zz         0.215580D+02      0.319457D+01      0.355443D+01

 ----------------------------------------------------------------------
 Unable to Open any file for archive entry.
 1\1\GINC-TCOPT10\Freq\RPBEPBE\def2QZVPP\F3Sc1\HUTTER\30-Jul-2021\0\\#N
  Geom=AllCheck Guess=TCheck SCRF=Check GenChk RPBEPBE/def2QZVPP Freq\\
 Mol job 1\\0,1\Sc,8.9582729019,8.5,8.5\F,9.8840941664,6.8964305312,8.5
 \F,9.8840941664,10.1035694688,8.5\F,7.1066303729,8.5,8.5\\Version=ES64
 L-G16RevC.01\State=1-A1'\HF=-1060.1744422\RMSD=1.009e-10\RMSF=2.213e-0
 7\ZeroPoint=0.0054584\Thermal=0.0107093\ETot=-1060.1637329\HTot=-1060.
 1627887\GTot=-1060.1971752\Dipole=0.,0.,0.\DipoleDeriv=2.5614712,0.000
 0256,0.,0.0000256,2.5614416,0.,0.,0.,1.6581688,-0.6412799,0.3681048,0.
 ,0.3681048,-1.0663308,0.,0.,0.,-0.5527125,-0.6412908,-0.3681034,0.,-0.
 3681224,-1.06634,0.,0.,0.,-0.5527203,-1.2788729,-0.0000142,0.,0.000004
 7,-0.428758,0.,0.,0.,-0.5527203\Polar=34.8324083,-0.0004165,34.8328893
 ,0.,0.,21.5580001\Quadrupole=-3.246381,-3.246381,6.492762,0.,0.,0.\PG=
 D03H [O(Sc1),3C2(F1)]\NImag=0\\0.35556782,0.00000150,0.35556608,0.,0.,
 0.00476549,-0.07102416,0.08226874,0.,0.06324858,0.08226874,-0.16601993
 ,0.,-0.09235814,0.16989457,0.,0.,-0.00158911,0.,0.,0.00051853,-0.07102
 408,-0.08226867,0.,0.01262581,-0.00831012,0.,0.06324858,-0.08227014,-0
 .16602041,0.,0.00831012,-0.01067534,0.,0.09235814,0.16989457,0.,0.,-0.
 00158865,0.,0.,0.00053529,0.,0.,0.00051853,-0.21351873,-0.00000082,0.,
 -0.00485005,0.01839982,0.,-0.00485005,-0.01839982,0.,0.22321756,0.0000
 0065,-0.02352577,0.,0.00177957,0.00680053,0.,-0.00177957,0.00680053,0.
 ,0.,0.00992558,0.,0.,-0.00158865,0.,0.,0.00053529,0.,0.,0.00053529,0.,
 0.,0.00051853\\0.,0.,0.,-0.00000022,0.00000038,0.,-0.00000022,-0.00000
 038,0.,0.00000044,0.,0.\\\@
 The archive entry for this job was punched.


 Where a calculator on the ENIAC is equipped with 18,000
 vacuum tubes and weighs 30 tons, computers inthe future
 may  have only 1,000 vacuum tubes and weigh only 1 1/2 tons.
              ---Popular Mechanics, March 1949
 Job cpu time:       0 days  0 hours  9 minutes  2.5 seconds.
 Elapsed time:       0 days  0 hours  1 minutes  8.2 seconds.
 File lengths (MBytes):  RWF=     37 Int=      0 D2E=      0 Chk=      7 Scr=      1
 Normal termination of Gaussian 16 at Fri Jul 30 19:52:57 2021.
