 Entering Gaussian System, Link 0=g16
 Initial command:
 /sw-ng/spack/opt/spack/linux-opensuse_leap15-sandybridge/pgi-18.10/gaussian-src-16-C.01-zldqaomctopxhethwccpmxmwefdscg3m/g16/l1.exe "/data/hutter/SMG16/PBE/Gau-61019.inp" -scrdir="/data/hutter/SMG16/PBE/"
 Entering Link 1 = /sw-ng/spack/opt/spack/linux-opensuse_leap15-sandybridge/pgi-18.10/gaussian-src-16-C.01-zldqaomctopxhethwccpmxmwefdscg3m/g16/l1.exe PID=     61020.
  
 Copyright (c) 1988-2019, Gaussian, Inc.  All Rights Reserved.
  
 This is part of the Gaussian(R) 16 program.  It is based on
 the Gaussian(R) 09 system (copyright 2009, Gaussian, Inc.),
 the Gaussian(R) 03 system (copyright 2003, Gaussian, Inc.),
 the Gaussian(R) 98 system (copyright 1998, Gaussian, Inc.),
 the Gaussian(R) 94 system (copyright 1995, Gaussian, Inc.),
 the Gaussian 92(TM) system (copyright 1992, Gaussian, Inc.),
 the Gaussian 90(TM) system (copyright 1990, Gaussian, Inc.),
 the Gaussian 88(TM) system (copyright 1988, Gaussian, Inc.),
 the Gaussian 86(TM) system (copyright 1986, Carnegie Mellon
 University), and the Gaussian 82(TM) system (copyright 1983,
 Carnegie Mellon University). Gaussian is a federally registered
 trademark of Gaussian, Inc.
  
 This software contains proprietary and confidential information,
 including trade secrets, belonging to Gaussian, Inc.
  
 This software is provided under written license and may be
 used, copied, transmitted, or stored only in accord with that
 written license.
  
 The following legend is applicable only to US Government
 contracts under FAR:
  
                    RESTRICTED RIGHTS LEGEND
  
 Use, reproduction and disclosure by the US Government is
 subject to restrictions as set forth in subparagraphs (a)
 and (c) of the Commercial Computer Software - Restricted
 Rights clause in FAR 52.227-19.
  
 Gaussian, Inc.
 340 Quinnipiac St., Bldg. 40, Wallingford CT 06492
  
  
 ---------------------------------------------------------------
 Warning -- This program may not be used in any manner that
 competes with the business of Gaussian, Inc. or will provide
 assistance to any competitor of Gaussian, Inc.  The licensee
 of this program is prohibited from giving any competitor of
 Gaussian, Inc. access to this program.  By using this program,
 the user acknowledges that Gaussian, Inc. is engaged in the
 business of creating and licensing software in the field of
 computational chemistry and represents and warrants to the
 licensee that it is not a competitor of Gaussian, Inc. and that
 it will not use this program in any manner prohibited above.
 ---------------------------------------------------------------
  

 Cite this work as:
 Gaussian 16, Revision C.01,
 M. J. Frisch, G. W. Trucks, H. B. Schlegel, G. E. Scuseria, 
 M. A. Robb, J. R. Cheeseman, G. Scalmani, V. Barone, 
 G. A. Petersson, H. Nakatsuji, X. Li, M. Caricato, A. V. Marenich, 
 J. Bloino, B. G. Janesko, R. Gomperts, B. Mennucci, H. P. Hratchian, 
 J. V. Ortiz, A. F. Izmaylov, J. L. Sonnenberg, D. Williams-Young, 
 F. Ding, F. Lipparini, F. Egidi, J. Goings, B. Peng, A. Petrone, 
 T. Henderson, D. Ranasinghe, V. G. Zakrzewski, J. Gao, N. Rega, 
 G. Zheng, W. Liang, M. Hada, M. Ehara, K. Toyota, R. Fukuda, 
 J. Hasegawa, M. Ishida, T. Nakajima, Y. Honda, O. Kitao, H. Nakai, 
 T. Vreven, K. Throssell, J. A. Montgomery, Jr., J. E. Peralta, 
 F. Ogliaro, M. J. Bearpark, J. J. Heyd, E. N. Brothers, K. N. Kudin, 
 V. N. Staroverov, T. A. Keith, R. Kobayashi, J. Normand, 
 K. Raghavachari, A. P. Rendell, J. C. Burant, S. S. Iyengar, 
 J. Tomasi, M. Cossi, J. M. Millam, M. Klene, C. Adamo, R. Cammi, 
 J. W. Ochterski, R. L. Martin, K. Morokuma, O. Farkas, 
 J. B. Foresman, and D. J. Fox, Gaussian, Inc., Wallingford CT, 2019.
 
 ******************************************
 Gaussian 16:  ES64L-G16RevC.01  3-Jul-2019
                30-Jul-2021 
 ******************************************
 %mem=8GB
 %NProcShare=8
 Will use up to    8 processors via shared memory.
 -----------------------------------------------------------
 #N RPBEPBE/Def2QZVPP scf=tight Int(Grid=ultrafine) OPT FREQ
 -----------------------------------------------------------
 1/18=20,19=15,26=4,38=1/1,3;
 2/9=110,12=2,17=6,18=5,40=1/2;
 3/5=45,7=202,11=2,25=1,30=1,71=1,74=1009,75=-5,116=1/1,2,3;
 4//1;
 5/5=2,32=2,38=5/2;
 6/7=2,8=2,9=2,10=2,28=1/1;
 7//1,2,3,16;
 1/18=20,19=15,26=4/3(2);
 2/9=110/2;
 99//99;
 2/9=110/2;
 3/5=45,7=202,11=2,25=1,30=1,71=1,74=1009,75=-5,116=1/1,2,3;
 4/5=5,16=3,69=1/1;
 5/5=2,32=2,38=5/2;
 7//1,2,3,16;
 1/18=20,19=15,26=4/3(-5);
 2/9=110/2;
 6/7=2,8=2,9=2,10=2,19=2,28=1/1;
 99/9=1/99;
 ---------
 Mol job 1
 ---------
 Symbolic Z-matrix:
 Charge =  0 Multiplicity = 1
 Au                    8.        8.        6.86227 
 Cl                    8.        8.        9.13773 
 

 GradGradGradGradGradGradGradGradGradGradGradGradGradGradGradGradGradGrad
 Berny optimization.
 Initialization pass.
                           ----------------------------
                           !    Initial Parameters    !
                           ! (Angstroms and Degrees)  !
 --------------------------                            --------------------------
 ! Name  Definition              Value          Derivative Info.                !
 --------------------------------------------------------------------------------
 ! R1    R(1,2)                  2.2755         estimate D2E/DX2                !
 --------------------------------------------------------------------------------
 Trust Radius=3.00D-01 FncErr=1.00D-07 GrdErr=1.00D-06 EigMax=2.50D+02 EigMin=1.00D-04
 Number of steps in this run=     20 maximum allowed number of steps=    100.
 GradGradGradGradGradGradGradGradGradGradGradGradGradGradGradGradGradGrad

                          Input orientation:                          
 ---------------------------------------------------------------------
 Center     Atomic      Atomic             Coordinates (Angstroms)
 Number     Number       Type             X           Y           Z
 ---------------------------------------------------------------------
      1         79           0        8.000000    8.000000    6.862266
      2         17           0        8.000000    8.000000    9.137735
 ---------------------------------------------------------------------
 Stoichiometry    AuCl
 Framework group  C*V[C*(ClAu)]
 Deg. of freedom     1
 Full point group                 C*V     NOp   4
 Largest Abelian subgroup         C2V     NOp   4
 Largest concise Abelian subgroup C1      NOp   1
                         Standard orientation:                         
 ---------------------------------------------------------------------
 Center     Atomic      Atomic             Coordinates (Angstroms)
 Number     Number       Type             X           Y           Z
 ---------------------------------------------------------------------
      1         79           0        0.000000    0.000000    0.402948
      2         17           0        0.000000    0.000000   -1.872521
 ---------------------------------------------------------------------
 Rotational constants (GHZ):           0.0000000           3.2867640           3.2867640
 Standard basis: def2QZVPP (5D, 7F)
 There are    87 symmetry adapted cartesian basis functions of A1  symmetry.
 There are    23 symmetry adapted cartesian basis functions of A2  symmetry.
 There are    46 symmetry adapted cartesian basis functions of B1  symmetry.
 There are    46 symmetry adapted cartesian basis functions of B2  symmetry.
 There are    64 symmetry adapted basis functions of A1  symmetry.
 There are    20 symmetry adapted basis functions of A2  symmetry.
 There are    37 symmetry adapted basis functions of B1  symmetry.
 There are    37 symmetry adapted basis functions of B2  symmetry.
   158 basis functions,   260 primitive gaussians,   202 cartesian basis functions
    18 alpha electrons       18 beta electrons
       nuclear repulsion energy        75.1160482200 Hartrees.
 NAtoms=    2 NActive=    2 NUniq=    2 SFac= 1.00D+00 NAtFMM=   60 NAOKFM=F Big=F
 Integral buffers will be    131072 words long.
 Raffenetti 2 integral format.
 Two-electron integral symmetry is turned on.
 One-electron integrals computed using PRISM.
   4 Symmetry operations used in ECPInt.
 ECPInt:  NShTT=     990 NPrTT=    2574 LenC2=     980 LenP2D=    2356.
 LDataN:  DoStor=T MaxTD1= 8 Len=  415
 NBasis=   158 RedAO= T EigKep=  1.04D-03  NBF=    64    20    37    37
 NBsUse=   158 1.00D-06 EigRej= -1.00D+00 NBFU=    64    20    37    37
 Defaulting to unpruned grid for atomic number  79.
 ExpMin= 2.50D-02 ExpMax= 1.47D+06 ExpMxC= 1.67D+03 IAcc=3 IRadAn=         5 AccDes= 0.00D+00
 Harris functional with IExCor= 1009 and IRadAn=       5 diagonalized for initial guess.
 HarFok:  IExCor= 1009 AccDes= 0.00D+00 IRadAn=         5 IDoV= 1 UseB2=F ITyADJ=14
 ICtDFT=  3500011 ScaDFX=  1.000000  1.000000  1.000000  1.000000
 Defaulting to unpruned grid for atomic number  79.
 FoFCou: FMM=F IPFlag=           0 FMFlag=      100000 FMFlg1=           0
         NFxFlg=           0 DoJE=T BraDBF=F KetDBF=T FulRan=T
         wScrn=  0.000000 ICntrl=       500 IOpCl=  0 I1Cent=   200000004 NGrid=           0
         NMat0=    1 NMatS0=      1 NMatT0=    0 NMatD0=    1 NMtDS0=    0 NMtDT0=    0
 Petite list used in FoFCou.
 Initial guess orbital symmetries:
       Occupied  (SG) (SG) (SG) (PI) (PI) (SG) (SG) (PI) (PI) (SG)
                 (SG) (PI) (PI) (SG) (DLTA) (DLTA) (PI) (PI)
       Virtual   (SG) (PI) (PI) (SG) (SG) (PI) (PI) (SG) (SG) (PI)
                 (PI) (DLTA) (DLTA) (SG) (PI) (PI) (DLTA) (DLTA)
                 (SG) (PI) (PI) (PHI) (PHI) (DLTA) (DLTA) (SG)
                 (SG) (PI) (PI) (SG) (PI) (PI) (SG) (DLTA) (DLTA)
                 (PI) (PI) (PHI) (PHI) (SG) (PI) (PI) (DLTA) (DLTA)
                 (PI) (PI) (SG) (PHI) (PHI) (DLTA) (DLTA) (SG)
                 (DLTA) (DLTA) (PI) (PI) (SG) (PI) (PI) (SG) (SG)
                 (PHI) (PHI) (DLTA) (DLTA) (PI) (PI) (SG) (PHI)
                 (PHI) (?A) (?A) (DLTA) (DLTA) (SG) (PI) (PI) (SG)
                 (DLTA) (DLTA) (PI) (PI) (SG) (?A) (?A) (PHI) (PHI)
                 (DLTA) (DLTA) (PI) (PI) (SG) (PI) (PI) (PHI) (PHI)
                 (DLTA) (DLTA) (SG) (PI) (PI) (SG) (DLTA) (DLTA)
                 (PI) (PI) (SG) (PHI) (PHI) (DLTA) (DLTA) (PI)
                 (PI) (SG) (?A) (?A) (PHI) (PHI) (DLTA) (DLTA)
                 (PI) (PI) (SG) (SG) (DLTA) (DLTA) (PI) (PI) (SG)
                 (PI) (PI) (SG) (SG) (PI) (PI) (SG) (SG) (SG) (SG)
                 (SG)
 The electronic state of the initial guess is 1-SG.
 Keep J ints in memory in symmetry-blocked form, NReq=98933213.
 Requested convergence on RMS density matrix=1.00D-08 within 128 cycles.
 Requested convergence on MAX density matrix=1.00D-06.
 Requested convergence on             energy=1.00D-06.
 No special actions if energy rises.
 Defaulting to unpruned grid for atomic number  79.
 Defaulting to unpruned grid for atomic number  79.
 Defaulting to unpruned grid for atomic number  79.
 Defaulting to unpruned grid for atomic number  79.
 Defaulting to unpruned grid for atomic number  79.
 Defaulting to unpruned grid for atomic number  79.
 Defaulting to unpruned grid for atomic number  79.
 Defaulting to unpruned grid for atomic number  79.
 EnCoef did   100 forward-backward iterations
 EnCoef did     3 forward-backward iterations
 SCF Done:  E(RPBE-PBE) =  -595.831377856     A.U. after   12 cycles
            NFock= 12  Conv=0.39D-08     -V/T= 2.1794

 **********************************************************************

            Population analysis using the SCF Density.

 **********************************************************************

 Orbital symmetries:
       Occupied  (SG) (SG) (SG) (PI) (PI) (SG) (SG) (PI) (PI) (SG)
                 (SG) (PI) (PI) (DLTA) (DLTA) (SG) (PI) (PI)
       Virtual   (SG) (PI) (PI) (SG) (SG) (PI) (PI) (SG) (SG) (PI)
                 (PI) (DLTA) (DLTA) (SG) (PI) (PI) (DLTA) (DLTA)
                 (SG) (PI) (PI) (PHI) (PHI) (DLTA) (DLTA) (SG)
                 (SG) (PI) (PI) (SG) (PI) (PI) (SG) (DLTA) (DLTA)
                 (PI) (PI) (PHI) (PHI) (SG) (PI) (PI) (DLTA) (DLTA)
                 (PI) (PI) (SG) (DLTA) (DLTA) (PHI) (PHI) (SG)
                 (PI) (PI) (DLTA) (DLTA) (SG) (PI) (PI) (SG) (SG)
                 (PHI) (PHI) (DLTA) (DLTA) (PI) (PI) (SG) (PHI)
                 (PHI) (?A) (?A) (DLTA) (DLTA) (SG) (PI) (PI) (SG)
                 (DLTA) (DLTA) (PI) (PI) (SG) (PHI) (PHI) (?A)
                 (?A) (DLTA) (DLTA) (PI) (PI) (SG) (PI) (PI) (PHI)
                 (PHI) (DLTA) (DLTA) (SG) (PI) (PI) (SG) (DLTA)
                 (DLTA) (PI) (PI) (SG) (PHI) (PHI) (DLTA) (DLTA)
                 (PI) (PI) (SG) (PHI) (PHI) (?A) (?A) (DLTA) (DLTA)
                 (PI) (PI) (SG) (SG) (DLTA) (DLTA) (PI) (PI) (SG)
                 (PI) (PI) (SG) (SG) (PI) (PI) (SG) (SG) (SG) (SG)
                 (SG)
 The electronic state is 1-SG.
 Alpha  occ. eigenvalues -- -100.66380  -9.17161  -6.99580  -6.98545  -6.98545
 Alpha  occ. eigenvalues --   -4.03171  -2.25757  -2.24001  -2.24001  -0.72485
 Alpha  occ. eigenvalues --   -0.37905  -0.32569  -0.32569  -0.28715  -0.28714
 Alpha  occ. eigenvalues --   -0.26679  -0.25005  -0.25005
 Alpha virt. eigenvalues --   -0.17808  -0.02879  -0.02879   0.00694   0.04310
 Alpha virt. eigenvalues --    0.07265   0.07265   0.11507   0.17356   0.19397
 Alpha virt. eigenvalues --    0.19397   0.23436   0.23436   0.26108   0.26315
 Alpha virt. eigenvalues --    0.26315   0.28399   0.28399   0.33074   0.34507
 Alpha virt. eigenvalues --    0.34507   0.34909   0.34909   0.43872   0.43872
 Alpha virt. eigenvalues --    0.45527   0.53329   0.58452   0.58452   0.62466
 Alpha virt. eigenvalues --    0.72408   0.72408   0.75996   0.92006   0.92007
 Alpha virt. eigenvalues --    0.93138   0.93138   0.94844   0.94844   0.98595
 Alpha virt. eigenvalues --    1.08420   1.08420   1.13606   1.13606   1.16867
 Alpha virt. eigenvalues --    1.16867   1.17357   1.27870   1.27870   1.28139
 Alpha virt. eigenvalues --    1.28139   1.30975   1.34547   1.34547   1.35384
 Alpha virt. eigenvalues --    1.35385   1.46530   1.70008   1.70008   1.96454
 Alpha virt. eigenvalues --    2.13562   2.19300   2.19300   2.19335   2.19335
 Alpha virt. eigenvalues --    2.21318   2.21318   2.29389   2.42535   2.42535
 Alpha virt. eigenvalues --    2.43459   2.43464   2.45305   2.45306   2.54053
 Alpha virt. eigenvalues --    2.63693   2.63693   2.87374   3.16036   3.16036
 Alpha virt. eigenvalues --    3.29437   3.29437   3.38936   3.50362   3.50362
 Alpha virt. eigenvalues --    3.51234   3.51234   3.55778   3.55778   3.66653
 Alpha virt. eigenvalues --    3.66653   3.72736   3.80632   3.80632   3.82678
 Alpha virt. eigenvalues --    3.82678   3.89486   3.89486   4.10251   4.19723
 Alpha virt. eigenvalues --    4.19723   4.32654   5.16183   5.16199   5.29887
 Alpha virt. eigenvalues --    5.29887   5.50008   5.59970   5.59970   5.60547
 Alpha virt. eigenvalues --    5.60549   5.64491   5.64491   5.81954   6.27311
 Alpha virt. eigenvalues --    6.27311   6.27787   6.27819   6.31680   6.31681
 Alpha virt. eigenvalues --    6.51910   6.51910   6.53937   8.21568  10.47729
 Alpha virt. eigenvalues --   10.47729  10.57708  10.57708  10.68013  25.47925
 Alpha virt. eigenvalues --   25.47925  28.29110  33.29420  41.34237  41.34237
 Alpha virt. eigenvalues --   41.36909  45.65925  97.63379 206.79587 523.92685
          Condensed to atoms (all electrons):
               1          2
     1  Au  18.347617   0.260385
     2  Cl   0.260385  17.131614
 Mulliken charges:
               1
     1  Au   0.391998
     2  Cl  -0.391998
 Sum of Mulliken charges =  -0.00000
 Mulliken charges with hydrogens summed into heavy atoms:
               1
     1  Au   0.391998
     2  Cl  -0.391998
 Electronic spatial extent (au):  <R**2>=            303.4454
 Charge=             -0.0000 electrons
 Dipole moment (field-independent basis, Debye):
    X=              0.0000    Y=              0.0000    Z=              3.2489  Tot=              3.2489
 Quadrupole moment (field-independent basis, Debye-Ang):
   XX=            -36.0434   YY=            -36.0434   ZZ=            -34.9320
   XY=              0.0000   XZ=              0.0000   YZ=              0.0000
 Traceless Quadrupole moment (field-independent basis, Debye-Ang):
   XX=             -0.3705   YY=             -0.3705   ZZ=              0.7409
   XY=              0.0000   XZ=              0.0000   YZ=              0.0000
 Octapole moment (field-independent basis, Debye-Ang**2):
  XXX=              0.0000  YYY=              0.0000  ZZZ=             50.8761  XYY=              0.0000
  XXY=              0.0000  XXZ=             16.6797  XZZ=              0.0000  YZZ=              0.0000
  YYZ=             16.6797  XYZ=              0.0000
 Hexadecapole moment (field-independent basis, Debye-Ang**3):
 XXXX=            -43.0504 YYYY=            -43.0504 ZZZZ=           -312.3017 XXXY=              0.0000
 XXXZ=              0.0000 YYYX=              0.0000 YYYZ=              0.0000 ZZZX=              0.0000
 ZZZY=              0.0000 XXYY=            -14.3501 XXZZ=            -63.5300 YYZZ=            -63.5300
 XXYZ=              0.0000 YYXZ=              0.0000 ZZXY=              0.0000
 N-N= 7.511604822002D+01 E-N=-1.528951567173D+03  KE= 5.051981793190D+02
 Symmetry A1   KE= 3.878161543905D+02
 Symmetry A2   KE= 4.943185618799D+00
 Symmetry B1   KE= 5.621941966213D+01
 Symmetry B2   KE= 5.621941964763D+01
   4 Symmetry operations used in ECPInt.
 ECPInt:  NShTT=     990 NPrTT=    2574 LenC2=     980 LenP2D=    2356.
 LDataN:  DoStor=T MaxTD1= 9 Len=  602
 Calling FoFJK, ICntrl=      2527 FMM=F ISym2X=1 I1Cent= 0 IOpClX= 0 NMat=1 NMatS=1 NMatT=0.
 Defaulting to unpruned grid for atomic number  79.
 Defaulting to unpruned grid for atomic number  79.
 Defaulting to unpruned grid for atomic number  79.
 Defaulting to unpruned grid for atomic number  79.
 Defaulting to unpruned grid for atomic number  79.
 Defaulting to unpruned grid for atomic number  79.
 Defaulting to unpruned grid for atomic number  79.
 Defaulting to unpruned grid for atomic number  79.
 ***** Axes restored to original set *****
 -------------------------------------------------------------------
 Center     Atomic                   Forces (Hartrees/Bohr)
 Number     Number              X              Y              Z
 -------------------------------------------------------------------
      1       79          -0.000000000   -0.000000000    0.013632038
      2       17          -0.000000000   -0.000000000   -0.013632038
 -------------------------------------------------------------------
 Cartesian Forces:  Max     0.013632038 RMS     0.007870461

 GradGradGradGradGradGradGradGradGradGradGradGradGradGradGradGradGradGrad
 Berny optimization.
 FormGI is forming the generalized inverse of G from B-inverse, IUseBI=4.
 Internal  Forces:  Max     0.013632038 RMS     0.013632038
 Search for a local minimum.
 Step number   1 out of a maximum of   20
 All quantities printed in internal units (Hartrees-Bohrs-Radians)
 Mixed Optimization -- RFO/linear search
 Second derivative matrix not updated -- first step.
 The second derivative matrix:
                          R1
           R1           0.22287
 ITU=  0
     Eigenvalues ---    0.22287
 RFO step:  Lambda=-8.30706666D-04 EMin= 2.22873367D-01
 Linear search not attempted -- first point.
 Iteration  1 RMS(Cart)=  0.04308954 RMS(Int)=  0.00000000
 Iteration  2 RMS(Cart)=  0.00000000 RMS(Int)=  0.00000000
 ClnCor:  largest displacement from symmetrization is 0.00D+00 for atom     0.
 Variable       Old X    -DE/DX   Delta X   Delta X   Delta X     New X
                                 (Linear)    (Quad)   (Total)
    R1        4.30001  -0.01363   0.00000  -0.06094  -0.06094   4.23908
         Item               Value     Threshold  Converged?
 Maximum Force            0.013632     0.000450     NO 
 RMS     Force            0.013632     0.000300     NO 
 Maximum Displacement     0.030469     0.001800     NO 
 RMS     Displacement     0.043090     0.001200     NO 
 Predicted change in Energy=-4.168957D-04
 GradGradGradGradGradGradGradGradGradGradGradGradGradGradGradGradGradGrad

                          Input orientation:                          
 ---------------------------------------------------------------------
 Center     Atomic      Atomic             Coordinates (Angstroms)
 Number     Number       Type             X           Y           Z
 ---------------------------------------------------------------------
      1         79           0        8.000000    8.000000    6.878389
      2         17           0        8.000000    8.000000    9.121611
 ---------------------------------------------------------------------
 Stoichiometry    AuCl
 Framework group  C*V[C*(ClAu)]
 Deg. of freedom     1
 Full point group                 C*V     NOp   4
 Largest Abelian subgroup         C2V     NOp   4
 Largest concise Abelian subgroup C1      NOp   1
                         Standard orientation:                         
 ---------------------------------------------------------------------
 Center     Atomic      Atomic             Coordinates (Angstroms)
 Number     Number       Type             X           Y           Z
 ---------------------------------------------------------------------
      1         79           0        0.000000    0.000000    0.397237
      2         17           0        0.000000    0.000000   -1.845985
 ---------------------------------------------------------------------
 Rotational constants (GHZ):           0.0000000           3.3819394           3.3819394
 Standard basis: def2QZVPP (5D, 7F)
 There are    87 symmetry adapted cartesian basis functions of A1  symmetry.
 There are    23 symmetry adapted cartesian basis functions of A2  symmetry.
 There are    46 symmetry adapted cartesian basis functions of B1  symmetry.
 There are    46 symmetry adapted cartesian basis functions of B2  symmetry.
 There are    64 symmetry adapted basis functions of A1  symmetry.
 There are    20 symmetry adapted basis functions of A2  symmetry.
 There are    37 symmetry adapted basis functions of B1  symmetry.
 There are    37 symmetry adapted basis functions of B2  symmetry.
   158 basis functions,   260 primitive gaussians,   202 cartesian basis functions
    18 alpha electrons       18 beta electrons
       nuclear repulsion energy        76.1958610729 Hartrees.
 NAtoms=    2 NActive=    2 NUniq=    2 SFac= 1.00D+00 NAtFMM=   60 NAOKFM=F Big=F
 Integral buffers will be    131072 words long.
 Raffenetti 2 integral format.
 Two-electron integral symmetry is turned on.
 One-electron integrals computed using PRISM.
   4 Symmetry operations used in ECPInt.
 ECPInt:  NShTT=     990 NPrTT=    2574 LenC2=     981 LenP2D=    2358.
 LDataN:  DoStor=T MaxTD1= 8 Len=  415
 NBasis=   158 RedAO= T EigKep=  1.01D-03  NBF=    64    20    37    37
 NBsUse=   158 1.00D-06 EigRej= -1.00D+00 NBFU=    64    20    37    37
 Defaulting to unpruned grid for atomic number  79.
 Initial guess from the checkpoint file:  "/data/hutter/SMG16/PBE/Gau-61020.chk"
 B after Tr=     0.000000    0.000000    0.000000
         Rot=    1.000000    0.000000    0.000000    0.000000 Ang=   0.00 deg.
 Initial guess orbital symmetries:
       Occupied  (SG) (SG) (SG) (PI) (PI) (SG) (SG) (PI) (PI) (SG)
                 (SG) (PI) (PI) (DLTA) (DLTA) (SG) (PI) (PI)
       Virtual   (SG) (PI) (PI) (SG) (SG) (PI) (PI) (SG) (SG) (PI)
                 (PI) (DLTA) (DLTA) (SG) (PI) (PI) (DLTA) (DLTA)
                 (SG) (PI) (PI) (PHI) (PHI) (DLTA) (DLTA) (SG)
                 (SG) (PI) (PI) (SG) (PI) (PI) (SG) (DLTA) (DLTA)
                 (PI) (PI) (PHI) (PHI) (SG) (PI) (PI) (DLTA) (DLTA)
                 (PI) (PI) (SG) (DLTA) (DLTA) (PHI) (PHI) (SG)
                 (PI) (PI) (DLTA) (DLTA) (SG) (PI) (PI) (SG) (SG)
                 (PHI) (PHI) (DLTA) (DLTA) (PI) (PI) (SG) (PHI)
                 (PHI) (?A) (?A) (DLTA) (DLTA) (SG) (PI) (PI) (SG)
                 (DLTA) (DLTA) (PI) (PI) (SG) (PHI) (PHI) (?A)
                 (?A) (DLTA) (DLTA) (PI) (PI) (SG) (PI) (PI) (PHI)
                 (PHI) (DLTA) (DLTA) (SG) (PI) (PI) (SG) (DLTA)
                 (DLTA) (PI) (PI) (SG) (PHI) (PHI) (DLTA) (DLTA)
                 (PI) (PI) (SG) (PHI) (PHI) (?A) (?A) (DLTA) (DLTA)
                 (PI) (PI) (SG) (SG) (DLTA) (DLTA) (PI) (PI) (SG)
                 (PI) (PI) (SG) (SG) (PI) (PI) (SG) (SG) (SG) (SG)
                 (SG)
 ExpMin= 2.50D-02 ExpMax= 1.47D+06 ExpMxC= 1.67D+03 IAcc=3 IRadAn=         5 AccDes= 0.00D+00
 Harris functional with IExCor= 1009 and IRadAn=       5 diagonalized for initial guess.
 HarFok:  IExCor= 1009 AccDes= 0.00D+00 IRadAn=         5 IDoV= 1 UseB2=F ITyADJ=14
 ICtDFT=  3500011 ScaDFX=  1.000000  1.000000  1.000000  1.000000
 Defaulting to unpruned grid for atomic number  79.
 FoFCou: FMM=F IPFlag=           0 FMFlag=      100000 FMFlg1=           0
         NFxFlg=           0 DoJE=T BraDBF=F KetDBF=T FulRan=T
         wScrn=  0.000000 ICntrl=       500 IOpCl=  0 I1Cent=   200000004 NGrid=           0
         NMat0=    1 NMatS0=      1 NMatT0=    0 NMatD0=    1 NMtDS0=    0 NMtDT0=    0
 Petite list used in FoFCou.
 Keep J ints in memory in symmetry-blocked form, NReq=98933213.
 Requested convergence on RMS density matrix=1.00D-08 within 128 cycles.
 Requested convergence on MAX density matrix=1.00D-06.
 Requested convergence on             energy=1.00D-06.
 No special actions if energy rises.
 Defaulting to unpruned grid for atomic number  79.
 Defaulting to unpruned grid for atomic number  79.
 Defaulting to unpruned grid for atomic number  79.
 Defaulting to unpruned grid for atomic number  79.
 Defaulting to unpruned grid for atomic number  79.
 Defaulting to unpruned grid for atomic number  79.
 Defaulting to unpruned grid for atomic number  79.
 Defaulting to unpruned grid for atomic number  79.
 SCF Done:  E(RPBE-PBE) =  -595.831989886     A.U. after   10 cycles
            NFock= 10  Conv=0.27D-08     -V/T= 2.1794
   4 Symmetry operations used in ECPInt.
 ECPInt:  NShTT=     990 NPrTT=    2574 LenC2=     981 LenP2D=    2358.
 LDataN:  DoStor=T MaxTD1= 9 Len=  602
 Calling FoFJK, ICntrl=      2527 FMM=F ISym2X=1 I1Cent= 0 IOpClX= 0 NMat=1 NMatS=1 NMatT=0.
 Defaulting to unpruned grid for atomic number  79.
 Defaulting to unpruned grid for atomic number  79.
 Defaulting to unpruned grid for atomic number  79.
 Defaulting to unpruned grid for atomic number  79.
 Defaulting to unpruned grid for atomic number  79.
 Defaulting to unpruned grid for atomic number  79.
 Defaulting to unpruned grid for atomic number  79.
 Defaulting to unpruned grid for atomic number  79.
 ***** Axes restored to original set *****
 -------------------------------------------------------------------
 Center     Atomic                   Forces (Hartrees/Bohr)
 Number     Number              X              Y              Z
 -------------------------------------------------------------------
      1       79          -0.000000000   -0.000000000    0.006252119
      2       17          -0.000000000   -0.000000000   -0.006252119
 -------------------------------------------------------------------
 Cartesian Forces:  Max     0.006252119 RMS     0.003609662

 GradGradGradGradGradGradGradGradGradGradGradGradGradGradGradGradGradGrad
 Berny optimization.
 Using GEDIIS/GDIIS optimizer.
 Internal  Forces:  Max     0.006252119 RMS     0.006252119
 Search for a local minimum.
 Step number   2 out of a maximum of   20
 All quantities printed in internal units (Hartrees-Bohrs-Radians)
 Mixed Optimization -- RFO/linear search
 Update second derivatives using D2CorX and points    1    2
 DE= -6.12D-04 DEPred=-4.17D-04 R= 1.47D+00
 TightC=F SS=  1.41D+00  RLast= 6.09D-02 DXNew= 5.0454D-01 1.8281D-01
 Trust test= 1.47D+00 RLast= 6.09D-02 DXMaxT set to 3.00D-01
 The second derivative matrix:
                          R1
           R1           0.12111
 ITU=  1  0
 Use linear search instead of GDIIS.
     Eigenvalues ---    0.12111
 RFO step:  Lambda= 0.00000000D+00 EMin= 1.21105741D-01
 Quartic linear search produced a step of  0.73783.
 Iteration  1 RMS(Cart)=  0.03179291 RMS(Int)=  0.00000000
 Iteration  2 RMS(Cart)=  0.00000000 RMS(Int)=  0.00000000
 ClnCor:  largest displacement from symmetrization is 0.00D+00 for atom     0.
 Variable       Old X    -DE/DX   Delta X   Delta X   Delta X     New X
                                 (Linear)    (Quad)   (Total)
    R1        4.23908  -0.00625  -0.04496   0.00000  -0.04496   4.19411
         Item               Value     Threshold  Converged?
 Maximum Force            0.006252     0.000450     NO 
 RMS     Force            0.006252     0.000300     NO 
 Maximum Displacement     0.022481     0.001800     NO 
 RMS     Displacement     0.031793     0.001200     NO 
 Predicted change in Energy=-1.586952D-04
 GradGradGradGradGradGradGradGradGradGradGradGradGradGradGradGradGradGrad

                          Input orientation:                          
 ---------------------------------------------------------------------
 Center     Atomic      Atomic             Coordinates (Angstroms)
 Number     Number       Type             X           Y           Z
 ---------------------------------------------------------------------
      1         79           0        8.000000    8.000000    6.890285
      2         17           0        8.000000    8.000000    9.109715
 ---------------------------------------------------------------------
 Stoichiometry    AuCl
 Framework group  C*V[C*(ClAu)]
 Deg. of freedom     1
 Full point group                 C*V     NOp   4
 Largest Abelian subgroup         C2V     NOp   4
 Largest concise Abelian subgroup C1      NOp   1
                         Standard orientation:                         
 ---------------------------------------------------------------------
 Center     Atomic      Atomic             Coordinates (Angstroms)
 Number     Number       Type             X           Y           Z
 ---------------------------------------------------------------------
      1         79           0        0.000000    0.000000    0.393024
      2         17           0        0.000000    0.000000   -1.826405
 ---------------------------------------------------------------------
 Rotational constants (GHZ):           0.0000000           3.4548385           3.4548385
 Standard basis: def2QZVPP (5D, 7F)
 There are    87 symmetry adapted cartesian basis functions of A1  symmetry.
 There are    23 symmetry adapted cartesian basis functions of A2  symmetry.
 There are    46 symmetry adapted cartesian basis functions of B1  symmetry.
 There are    46 symmetry adapted cartesian basis functions of B2  symmetry.
 There are    64 symmetry adapted basis functions of A1  symmetry.
 There are    20 symmetry adapted basis functions of A2  symmetry.
 There are    37 symmetry adapted basis functions of B1  symmetry.
 There are    37 symmetry adapted basis functions of B2  symmetry.
   158 basis functions,   260 primitive gaussians,   202 cartesian basis functions
    18 alpha electrons       18 beta electrons
       nuclear repulsion energy        77.0127000660 Hartrees.
 NAtoms=    2 NActive=    2 NUniq=    2 SFac= 1.00D+00 NAtFMM=   60 NAOKFM=F Big=F
 Integral buffers will be    131072 words long.
 Raffenetti 2 integral format.
 Two-electron integral symmetry is turned on.
 One-electron integrals computed using PRISM.
   4 Symmetry operations used in ECPInt.
 ECPInt:  NShTT=     990 NPrTT=    2574 LenC2=     982 LenP2D=    2361.
 LDataN:  DoStor=T MaxTD1= 8 Len=  415
 NBasis=   158 RedAO= T EigKep=  9.93D-04  NBF=    64    20    37    37
 NBsUse=   158 1.00D-06 EigRej= -1.00D+00 NBFU=    64    20    37    37
 Defaulting to unpruned grid for atomic number  79.
 Initial guess from the checkpoint file:  "/data/hutter/SMG16/PBE/Gau-61020.chk"
 B after Tr=     0.000000    0.000000   -0.000000
         Rot=    1.000000    0.000000    0.000000    0.000000 Ang=   0.00 deg.
 Initial guess orbital symmetries:
       Occupied  (SG) (SG) (SG) (PI) (PI) (SG) (SG) (PI) (PI) (SG)
                 (SG) (PI) (PI) (DLTA) (DLTA) (SG) (PI) (PI)
       Virtual   (SG) (PI) (PI) (SG) (SG) (PI) (PI) (SG) (SG) (PI)
                 (PI) (DLTA) (DLTA) (SG) (PI) (PI) (DLTA) (DLTA)
                 (SG) (PI) (PI) (PHI) (PHI) (DLTA) (DLTA) (SG)
                 (SG) (PI) (PI) (SG) (PI) (PI) (SG) (DLTA) (DLTA)
                 (PI) (PI) (PHI) (PHI) (SG) (PI) (PI) (DLTA) (DLTA)
                 (PI) (PI) (SG) (DLTA) (DLTA) (PHI) (PHI) (SG)
                 (PI) (PI) (DLTA) (DLTA) (SG) (PI) (PI) (SG) (SG)
                 (PHI) (PHI) (DLTA) (DLTA) (PI) (PI) (SG) (PHI)
                 (PHI) (?A) (?A) (DLTA) (DLTA) (SG) (PI) (PI) (SG)
                 (DLTA) (DLTA) (PI) (PI) (SG) (PHI) (PHI) (?A)
                 (?A) (DLTA) (DLTA) (PI) (PI) (SG) (PI) (PI) (PHI)
                 (PHI) (DLTA) (DLTA) (SG) (PI) (PI) (SG) (DLTA)
                 (DLTA) (PI) (PI) (SG) (PHI) (PHI) (DLTA) (DLTA)
                 (PI) (PI) (SG) (PHI) (PHI) (?A) (?A) (DLTA) (DLTA)
                 (PI) (PI) (SG) (SG) (DLTA) (DLTA) (PI) (PI) (SG)
                 (PI) (PI) (SG) (SG) (PI) (PI) (SG) (SG) (SG) (SG)
                 (SG)
 ExpMin= 2.50D-02 ExpMax= 1.47D+06 ExpMxC= 1.67D+03 IAcc=3 IRadAn=         5 AccDes= 0.00D+00
 Harris functional with IExCor= 1009 and IRadAn=       5 diagonalized for initial guess.
 HarFok:  IExCor= 1009 AccDes= 0.00D+00 IRadAn=         5 IDoV= 1 UseB2=F ITyADJ=14
 ICtDFT=  3500011 ScaDFX=  1.000000  1.000000  1.000000  1.000000
 Defaulting to unpruned grid for atomic number  79.
 FoFCou: FMM=F IPFlag=           0 FMFlag=      100000 FMFlg1=           0
         NFxFlg=           0 DoJE=T BraDBF=F KetDBF=T FulRan=T
         wScrn=  0.000000 ICntrl=       500 IOpCl=  0 I1Cent=   200000004 NGrid=           0
         NMat0=    1 NMatS0=      1 NMatT0=    0 NMatD0=    1 NMtDS0=    0 NMtDT0=    0
 Petite list used in FoFCou.
 Keep J ints in memory in symmetry-blocked form, NReq=98933213.
 Requested convergence on RMS density matrix=1.00D-08 within 128 cycles.
 Requested convergence on MAX density matrix=1.00D-06.
 Requested convergence on             energy=1.00D-06.
 No special actions if energy rises.
 Defaulting to unpruned grid for atomic number  79.
 Defaulting to unpruned grid for atomic number  79.
 Defaulting to unpruned grid for atomic number  79.
 Defaulting to unpruned grid for atomic number  79.
 Defaulting to unpruned grid for atomic number  79.
 Defaulting to unpruned grid for atomic number  79.
 Defaulting to unpruned grid for atomic number  79.
 Defaulting to unpruned grid for atomic number  79.
 SCF Done:  E(RPBE-PBE) =  -595.832132847     A.U. after    9 cycles
            NFock=  9  Conv=0.25D-08     -V/T= 2.1794
   4 Symmetry operations used in ECPInt.
 ECPInt:  NShTT=     990 NPrTT=    2574 LenC2=     982 LenP2D=    2361.
 LDataN:  DoStor=T MaxTD1= 9 Len=  602
 Calling FoFJK, ICntrl=      2527 FMM=F ISym2X=1 I1Cent= 0 IOpClX= 0 NMat=1 NMatS=1 NMatT=0.
 Defaulting to unpruned grid for atomic number  79.
 Defaulting to unpruned grid for atomic number  79.
 Defaulting to unpruned grid for atomic number  79.
 Defaulting to unpruned grid for atomic number  79.
 Defaulting to unpruned grid for atomic number  79.
 Defaulting to unpruned grid for atomic number  79.
 Defaulting to unpruned grid for atomic number  79.
 Defaulting to unpruned grid for atomic number  79.
 ***** Axes restored to original set *****
 -------------------------------------------------------------------
 Center     Atomic                   Forces (Hartrees/Bohr)
 Number     Number              X              Y              Z
 -------------------------------------------------------------------
      1       79          -0.000000000   -0.000000000   -0.000016041
      2       17          -0.000000000   -0.000000000    0.000016041
 -------------------------------------------------------------------
 Cartesian Forces:  Max     0.000016041 RMS     0.000009261

 GradGradGradGradGradGradGradGradGradGradGradGradGradGradGradGradGradGrad
 Berny optimization.
 Using GEDIIS/GDIIS optimizer.
 Internal  Forces:  Max     0.000016041 RMS     0.000016041
 Search for a local minimum.
 Step number   3 out of a maximum of   20
 All quantities printed in internal units (Hartrees-Bohrs-Radians)
 Mixed Optimization -- En-DIIS/RFO-DIIS
 Update second derivatives using D2CorX and points    2    3
 DE= -1.43D-04 DEPred=-1.59D-04 R= 9.01D-01
 TightC=F SS=  1.41D+00  RLast= 4.50D-02 DXNew= 5.0454D-01 1.3489D-01
 Trust test= 9.01D-01 RLast= 4.50D-02 DXMaxT set to 3.00D-01
 The second derivative matrix:
                          R1
           R1           0.13941
 ITU=  1  1
 Use linear search instead of GDIIS.
     Eigenvalues ---    0.13941
 RFO step:  Lambda= 0.00000000D+00 EMin= 1.39410269D-01
 Quartic linear search produced a step of -0.00242.
 Iteration  1 RMS(Cart)=  0.00007680 RMS(Int)=  0.00000000
 Iteration  2 RMS(Cart)=  0.00000000 RMS(Int)=  0.00000000
 ClnCor:  largest displacement from symmetrization is 0.00D+00 for atom     0.
 Variable       Old X    -DE/DX   Delta X   Delta X   Delta X     New X
                                 (Linear)    (Quad)   (Total)
    R1        4.19411   0.00002   0.00011  -0.00000   0.00011   4.19422
         Item               Value     Threshold  Converged?
 Maximum Force            0.000016     0.000450     YES
 RMS     Force            0.000016     0.000300     YES
 Maximum Displacement     0.000054     0.001800     YES
 RMS     Displacement     0.000077     0.001200     YES
 Predicted change in Energy=-9.199265D-10
 Optimization completed.
    -- Stationary point found.
                           ----------------------------
                           !   Optimized Parameters   !
                           ! (Angstroms and Degrees)  !
 --------------------------                            --------------------------
 ! Name  Definition              Value          Derivative Info.                !
 --------------------------------------------------------------------------------
 ! R1    R(1,2)                  2.2194         -DE/DX =    0.0                 !
 --------------------------------------------------------------------------------
 GradGradGradGradGradGradGradGradGradGradGradGradGradGradGradGradGradGrad

                          Input orientation:                          
 ---------------------------------------------------------------------
 Center     Atomic      Atomic             Coordinates (Angstroms)
 Number     Number       Type             X           Y           Z
 ---------------------------------------------------------------------
      1         79           0        8.000000    8.000000    6.890285
      2         17           0        8.000000    8.000000    9.109715
 ---------------------------------------------------------------------
 Stoichiometry    AuCl
 Framework group  C*V[C*(ClAu)]
 Deg. of freedom     1
 Full point group                 C*V     NOp   4
 Largest Abelian subgroup         C2V     NOp   4
 Largest concise Abelian subgroup C1      NOp   1
                         Standard orientation:                         
 ---------------------------------------------------------------------
 Center     Atomic      Atomic             Coordinates (Angstroms)
 Number     Number       Type             X           Y           Z
 ---------------------------------------------------------------------
      1         79           0        0.000000    0.000000    0.393024
      2         17           0        0.000000    0.000000   -1.826405
 ---------------------------------------------------------------------
 Rotational constants (GHZ):           0.0000000           3.4548385           3.4548385

 **********************************************************************

            Population analysis using the SCF Density.

 **********************************************************************

 Orbital symmetries:
       Occupied  (SG) (SG) (SG) (PI) (PI) (SG) (SG) (PI) (PI) (SG)
                 (SG) (PI) (PI) (DLTA) (DLTA) (SG) (PI) (PI)
       Virtual   (SG) (PI) (PI) (SG) (SG) (PI) (PI) (SG) (SG) (PI)
                 (PI) (DLTA) (DLTA) (SG) (PI) (PI) (DLTA) (DLTA)
                 (SG) (PI) (PI) (PHI) (PHI) (DLTA) (DLTA) (SG)
                 (SG) (PI) (PI) (SG) (PI) (PI) (SG) (DLTA) (DLTA)
                 (PI) (PI) (PHI) (PHI) (SG) (PI) (PI) (DLTA) (DLTA)
                 (PI) (PI) (SG) (DLTA) (DLTA) (PHI) (PHI) (SG)
                 (PI) (PI) (DLTA) (DLTA) (SG) (PI) (PI) (SG) (SG)
                 (PHI) (PHI) (DLTA) (DLTA) (PI) (PI) (SG) (PHI)
                 (PHI) (?A) (?A) (DLTA) (DLTA) (SG) (PI) (PI) (SG)
                 (DLTA) (DLTA) (PI) (PI) (SG) (PHI) (PHI) (?A)
                 (?A) (DLTA) (DLTA) (PI) (PI) (SG) (PI) (PI) (PHI)
                 (PHI) (DLTA) (DLTA) (SG) (PI) (PI) (SG) (DLTA)
                 (DLTA) (PI) (PI) (SG) (PHI) (PHI) (DLTA) (DLTA)
                 (PI) (PI) (SG) (PHI) (PHI) (?A) (?A) (DLTA) (DLTA)
                 (PI) (PI) (SG) (SG) (DLTA) (DLTA) (PI) (PI) (SG)
                 (PI) (PI) (SG) (SG) (PI) (PI) (SG) (SG) (SG) (SG)
                 (SG)
 The electronic state is 1-SG.
 Alpha  occ. eigenvalues -- -100.66565  -9.17377  -6.99785  -6.98761  -6.98761
 Alpha  occ. eigenvalues --   -4.03341  -2.26050  -2.24108  -2.24108  -0.73054
 Alpha  occ. eigenvalues --   -0.38663  -0.33178  -0.33178  -0.28751  -0.28750
 Alpha  occ. eigenvalues --   -0.26622  -0.24897  -0.24897
 Alpha virt. eigenvalues --   -0.17385  -0.02766  -0.02766   0.00856   0.04326
 Alpha virt. eigenvalues --    0.07234   0.07234   0.11983   0.17556   0.19260
 Alpha virt. eigenvalues --    0.19260   0.23224   0.23224   0.25899   0.26587
 Alpha virt. eigenvalues --    0.26587   0.28401   0.28401   0.32989   0.34858
 Alpha virt. eigenvalues --    0.34858   0.34938   0.34938   0.44305   0.44305
 Alpha virt. eigenvalues --    0.45291   0.53742   0.58439   0.58439   0.62633
 Alpha virt. eigenvalues --    0.72287   0.72287   0.76622   0.91551   0.91551
 Alpha virt. eigenvalues --    0.93691   0.93691   0.94881   0.94881   0.99236
 Alpha virt. eigenvalues --    1.08579   1.08579   1.13742   1.13742   1.17156
 Alpha virt. eigenvalues --    1.17156   1.17441   1.27597   1.27598   1.27953
 Alpha virt. eigenvalues --    1.27953   1.31283   1.35520   1.35520   1.36549
 Alpha virt. eigenvalues --    1.36549   1.49943   1.73262   1.73262   1.96293
 Alpha virt. eigenvalues --    2.13217   2.19293   2.19293   2.19415   2.19415
 Alpha virt. eigenvalues --    2.20415   2.20415   2.31456   2.42477   2.42477
 Alpha virt. eigenvalues --    2.43517   2.43524   2.45929   2.45929   2.57486
 Alpha virt. eigenvalues --    2.65092   2.65092   2.87610   3.16192   3.16192
 Alpha virt. eigenvalues --    3.30442   3.30442   3.38957   3.50226   3.50226
 Alpha virt. eigenvalues --    3.50961   3.50961   3.57101   3.57101   3.69350
 Alpha virt. eigenvalues --    3.69350   3.72426   3.81113   3.81113   3.82535
 Alpha virt. eigenvalues --    3.82535   3.90632   3.90632   4.17089   4.23172
 Alpha virt. eigenvalues --    4.23172   4.34661   5.16274   5.16287   5.30346
 Alpha virt. eigenvalues --    5.30346   5.52505   5.59932   5.59932   5.60393
 Alpha virt. eigenvalues --    5.60395   5.64860   5.64860   5.86140   6.27318
 Alpha virt. eigenvalues --    6.27318   6.27749   6.27773   6.32867   6.32869
 Alpha virt. eigenvalues --    6.54599   6.54599   6.58041   8.23279  10.47766
 Alpha virt. eigenvalues --   10.47766  10.58442  10.58442  10.70247  25.60834
 Alpha virt. eigenvalues --   25.60834  28.30477  34.05572  41.34081  41.34081
 Alpha virt. eigenvalues --   41.36913  45.67674  97.65163 206.79744 523.95717
          Condensed to atoms (all electrons):
               1          2
     1  Au  18.342614   0.272427
     2  Cl   0.272427  17.112531
 Mulliken charges:
               1
     1  Au   0.384959
     2  Cl  -0.384959
 Sum of Mulliken charges =  -0.00000
 Mulliken charges with hydrogens summed into heavy atoms:
               1
     1  Au   0.384959
     2  Cl  -0.384959
 Electronic spatial extent (au):  <R**2>=            292.4421
 Charge=              0.0000 electrons
 Dipole moment (field-independent basis, Debye):
    X=              0.0000    Y=              0.0000    Z=              3.1271  Tot=              3.1271
 Quadrupole moment (field-independent basis, Debye-Ang):
   XX=            -36.0967   YY=            -36.0967   ZZ=            -34.6748
   XY=              0.0000   XZ=              0.0000   YZ=              0.0000
 Traceless Quadrupole moment (field-independent basis, Debye-Ang):
   XX=             -0.4740   YY=             -0.4740   ZZ=              0.9479
   XY=              0.0000   XZ=              0.0000   YZ=              0.0000
 Octapole moment (field-independent basis, Debye-Ang**2):
  XXX=              0.0000  YYY=              0.0000  ZZZ=             49.1416  XYY=              0.0000
  XXY=              0.0000  XXZ=             16.1309  XZZ=              0.0000  YZZ=              0.0000
  YYZ=             16.1309  XYZ=              0.0000
 Hexadecapole moment (field-independent basis, Debye-Ang**3):
 XXXX=            -43.2652 YYYY=            -43.2652 ZZZZ=           -297.4037 XXXY=              0.0000
 XXXZ=              0.0000 YYYX=              0.0000 YYYZ=              0.0000 ZZZX=              0.0000
 ZZZY=              0.0000 XXYY=            -14.4217 XXZZ=            -60.9978 YYZZ=            -60.9978
 XXYZ=              0.0000 YYXZ=              0.0000 ZZXY=              0.0000
 N-N= 7.701270006604D+01 E-N=-1.532680221582D+03  KE= 5.052183646927D+02
 Symmetry A1   KE= 3.878205158368D+02
 Symmetry A2   KE= 4.945447688373D+00
 Symmetry B1   KE= 5.622620058381D+01
 Symmetry B2   KE= 5.622620058381D+01
 Unable to Open any file for archive entry.
 1\1\GINC-TCOPT10\FOpt\RPBEPBE\def2QZVPP\Au1Cl1\HUTTER\30-Jul-2021\0\\#
 N RPBEPBE/Def2QZVPP scf=tight Int(Grid=ultrafine) OPT FREQ\\Mol job 1\
 \0,1\Au,8.,8.,6.8902853751\Cl,8.,8.,9.1097146249\\Version=ES64L-G16Rev
 C.01\State=1-SG\HF=-595.8321328\RMSD=2.530e-09\RMSF=9.261e-06\Dipole=0
 .,0.,-1.2302982\Quadrupole=-0.3523866,-0.3523866,0.7047732,0.,0.,0.\PG
 =C*V [C*(Cl1Au1)]\\@
 The archive entry for this job was punched.


 A MATHEMATICIAN IS A MACHINE FOR TURNING COFFEE INTO THEOREMS.
     -- QUOTED BY PAUL ERDOS
 Job cpu time:       0 days  0 hours  4 minutes 52.6 seconds.
 Elapsed time:       0 days  0 hours  0 minutes 37.6 seconds.
 File lengths (MBytes):  RWF=     15 Int=      0 D2E=      0 Chk=      3 Scr=      1
 Normal termination of Gaussian 16 at Fri Jul 30 09:43:29 2021.
 Link1:  Proceeding to internal job step number  2.
 ----------------------------------------------------------------------
 #N Geom=AllCheck Guess=TCheck SCRF=Check GenChk RPBEPBE/def2QZVPP Freq
 ----------------------------------------------------------------------
 1/10=4,29=7,30=1,38=1,40=1/1,3;
 2/12=2,40=1/2;
 3/5=45,7=202,11=2,14=-4,25=1,30=1,70=2,71=2,74=1009,75=-5,116=1,140=1/1,2,3;
 4/5=101/1;
 5/5=2,32=2,38=6,98=1/2;
 8/6=4,10=90,11=11/1;
 11/6=1,8=1,9=11,15=111,16=1/1,2,10;
 10/6=1/2;
 6/7=2,8=2,9=2,10=2,28=1/1;
 7/8=1,10=1,25=1/1,2,3,16;
 1/10=4,30=1/3;
 99//99;
 Structure from the checkpoint file:  "/data/hutter/SMG16/PBE/Gau-61020.chk"
 ---------
 Mol job 1
 ---------
 Charge =  0 Multiplicity = 1
 Redundant internal coordinates found in file.  (old form).
 Au,0,8.,8.,6.8902853751
 Cl,0,8.,8.,9.1097146249
 Recover connectivity data from disk.

 GradGradGradGradGradGradGradGradGradGradGradGradGradGradGradGradGradGrad
 Berny optimization.
 Initialization pass.
                           ----------------------------
                           !    Initial Parameters    !
                           ! (Angstroms and Degrees)  !
 --------------------------                            --------------------------
 ! Name  Definition              Value          Derivative Info.                !
 --------------------------------------------------------------------------------
 ! R1    R(1,2)                  2.2194         calculate D2E/DX2 analytically  !
 --------------------------------------------------------------------------------
 Trust Radius=3.00D-01 FncErr=1.00D-07 GrdErr=1.00D-07 EigMax=2.50D+02 EigMin=1.00D-04
 Number of steps in this run=      2 maximum allowed number of steps=      2.
 GradGradGradGradGradGradGradGradGradGradGradGradGradGradGradGradGradGrad

                          Input orientation:                          
 ---------------------------------------------------------------------
 Center     Atomic      Atomic             Coordinates (Angstroms)
 Number     Number       Type             X           Y           Z
 ---------------------------------------------------------------------
      1         79           0        8.000000    8.000000    6.890285
      2         17           0        8.000000    8.000000    9.109715
 ---------------------------------------------------------------------
 Stoichiometry    AuCl
 Framework group  C*V[C*(ClAu)]
 Deg. of freedom     1
 Full point group                 C*V     NOp   4
 Largest Abelian subgroup         C2V     NOp   4
 Largest concise Abelian subgroup C1      NOp   1
                         Standard orientation:                         
 ---------------------------------------------------------------------
 Center     Atomic      Atomic             Coordinates (Angstroms)
 Number     Number       Type             X           Y           Z
 ---------------------------------------------------------------------
      1         79           0        0.000000    0.000000    0.393024
      2         17           0        0.000000    0.000000   -1.826405
 ---------------------------------------------------------------------
 Rotational constants (GHZ):           0.0000000           3.4548385           3.4548385
 Standard basis: def2QZVPP (5D, 7F)
 There are    87 symmetry adapted cartesian basis functions of A1  symmetry.
 There are    23 symmetry adapted cartesian basis functions of A2  symmetry.
 There are    46 symmetry adapted cartesian basis functions of B1  symmetry.
 There are    46 symmetry adapted cartesian basis functions of B2  symmetry.
 There are    64 symmetry adapted basis functions of A1  symmetry.
 There are    20 symmetry adapted basis functions of A2  symmetry.
 There are    37 symmetry adapted basis functions of B1  symmetry.
 There are    37 symmetry adapted basis functions of B2  symmetry.
   158 basis functions,   260 primitive gaussians,   202 cartesian basis functions
    18 alpha electrons       18 beta electrons
       nuclear repulsion energy        77.0127000660 Hartrees.
 NAtoms=    2 NActive=    2 NUniq=    2 SFac= 1.00D+00 NAtFMM=   60 NAOKFM=F Big=F
 Integral buffers will be    131072 words long.
 Raffenetti 2 integral format.
 Two-electron integral symmetry is turned on.
 One-electron integrals computed using PRISM.
   4 Symmetry operations used in ECPInt.
 ECPInt:  NShTT=     990 NPrTT=    2574 LenC2=     982 LenP2D=    2361.
 LDataN:  DoStor=T MaxTD1= 8 Len=  415
 NBasis=   158 RedAO= T EigKep=  9.93D-04  NBF=    64    20    37    37
 NBsUse=   158 1.00D-06 EigRej= -1.00D+00 NBFU=    64    20    37    37
 Defaulting to unpruned grid for atomic number  79.
 Initial guess from the checkpoint file:  "/data/hutter/SMG16/PBE/Gau-61020.chk"
 B after Tr=     0.000000    0.000000    0.000000
         Rot=    1.000000    0.000000    0.000000    0.000000 Ang=   0.00 deg.
 Initial guess orbital symmetries:
       Occupied  (SG) (SG) (SG) (PI) (PI) (SG) (SG) (PI) (PI) (SG)
                 (SG) (PI) (PI) (DLTA) (DLTA) (SG) (PI) (PI)
       Virtual   (SG) (PI) (PI) (SG) (SG) (PI) (PI) (SG) (SG) (PI)
                 (PI) (DLTA) (DLTA) (SG) (PI) (PI) (DLTA) (DLTA)
                 (SG) (PI) (PI) (PHI) (PHI) (DLTA) (DLTA) (SG)
                 (SG) (PI) (PI) (SG) (PI) (PI) (SG) (DLTA) (DLTA)
                 (PI) (PI) (PHI) (PHI) (SG) (PI) (PI) (DLTA) (DLTA)
                 (PI) (PI) (SG) (DLTA) (DLTA) (PHI) (PHI) (SG)
                 (PI) (PI) (DLTA) (DLTA) (SG) (PI) (PI) (SG) (SG)
                 (PHI) (PHI) (DLTA) (DLTA) (PI) (PI) (SG) (PHI)
                 (PHI) (?A) (?A) (DLTA) (DLTA) (SG) (PI) (PI) (SG)
                 (DLTA) (DLTA) (PI) (PI) (SG) (PHI) (PHI) (?A)
                 (?A) (DLTA) (DLTA) (PI) (PI) (SG) (PI) (PI) (PHI)
                 (PHI) (DLTA) (DLTA) (SG) (PI) (PI) (SG) (DLTA)
                 (DLTA) (PI) (PI) (SG) (PHI) (PHI) (DLTA) (DLTA)
                 (PI) (PI) (SG) (PHI) (PHI) (?A) (?A) (DLTA) (DLTA)
                 (PI) (PI) (SG) (SG) (DLTA) (DLTA) (PI) (PI) (SG)
                 (PI) (PI) (SG) (SG) (PI) (PI) (SG) (SG) (SG) (SG)
                 (SG)
 Keep J ints in memory in symmetry-blocked form, NReq=98933213.
 Requested convergence on RMS density matrix=1.00D-08 within 128 cycles.
 Requested convergence on MAX density matrix=1.00D-06.
 Requested convergence on             energy=1.00D-06.
 No special actions if energy rises.
 Defaulting to unpruned grid for atomic number  79.
 Defaulting to unpruned grid for atomic number  79.
 Defaulting to unpruned grid for atomic number  79.
 Defaulting to unpruned grid for atomic number  79.
 Defaulting to unpruned grid for atomic number  79.
 Defaulting to unpruned grid for atomic number  79.
 Defaulting to unpruned grid for atomic number  79.
 Defaulting to unpruned grid for atomic number  79.
 SCF Done:  E(RPBE-PBE) =  -595.832132847     A.U. after    1 cycles
            NFock=  1  Conv=0.16D-08     -V/T= 2.1794
 DoSCS=F DFT=T ScalE2(SS,OS)=  1.000000  1.000000
 Range of M.O.s used for correlation:     1   158
 NBasis=   158 NAE=    18 NBE=    18 NFC=     0 NFV=     0
 NROrb=    158 NOA=    18 NOB=    18 NVA=   140 NVB=   140

 **** Warning!!: The largest alpha MO coefficient is  0.10199515D+02


 **** Warning!!: The smallest alpha delta epsilon is  0.75120221D-01

   4 Symmetry operations used in ECPInt.
 ECPInt:  NShTT=     990 NPrTT=    2574 LenC2=     982 LenP2D=    2361.
 LDataN:  DoStor=T MaxTD1= 9 Len=  602
 Symmetrizing basis deriv contribution to polar:
 IMax=3 JMax=2 DiffMx= 0.00D+00
 G2DrvN: will do     3 centers at a time, making    1 passes.
 Calling FoFCou, ICntrl=  3507 FMM=F I1Cent=   0 AccDes= 0.00D+00.
 Defaulting to unpruned grid for atomic number  79.
 Defaulting to unpruned grid for atomic number  79.
 Defaulting to unpruned grid for atomic number  79.
 Defaulting to unpruned grid for atomic number  79.
 Defaulting to unpruned grid for atomic number  79.
 Defaulting to unpruned grid for atomic number  79.
 Defaulting to unpruned grid for atomic number  79.
 Defaulting to unpruned grid for atomic number  79.
 End of G2Drv F.D. properties file   721 does not exist.
 End of G2Drv F.D. properties file   722 does not exist.
 End of G2Drv F.D. properties file   788 does not exist.
          IDoAtm=11
          Differentiating once with respect to electric field.
                with respect to dipole field.
          Differentiating once with respect to nuclear coordinates.
 Defaulting to unpruned grid for atomic number  79.
 Keep J ints in memory in symmetry-blocked form, NReq=98934648.
 Defaulting to unpruned grid for atomic number  79.
 Defaulting to unpruned grid for atomic number  79.
 Defaulting to unpruned grid for atomic number  79.
 Defaulting to unpruned grid for atomic number  79.
 Defaulting to unpruned grid for atomic number  79.
 Defaulting to unpruned grid for atomic number  79.
 Defaulting to unpruned grid for atomic number  79.
 Defaulting to unpruned grid for atomic number  79.
          There are     9 degrees of freedom in the 1st order CPHF.  IDoFFX=6 NUNeed=     3.
      6 vectors produced by pass  0 Test12= 2.80D-14 1.11D-08 XBig12= 2.10D+02 9.85D+00.
 AX will form     6 AO Fock derivatives at one time.
      6 vectors produced by pass  1 Test12= 2.80D-14 1.11D-08 XBig12= 6.86D+01 3.60D+00.
      6 vectors produced by pass  2 Test12= 2.80D-14 1.11D-08 XBig12= 4.85D+00 5.51D-01.
      6 vectors produced by pass  3 Test12= 2.80D-14 1.11D-08 XBig12= 9.08D-01 3.45D-01.
      6 vectors produced by pass  4 Test12= 2.80D-14 1.11D-08 XBig12= 1.04D-02 3.76D-02.
      6 vectors produced by pass  5 Test12= 2.80D-14 1.11D-08 XBig12= 1.54D-04 2.80D-03.
      4 vectors produced by pass  6 Test12= 2.80D-14 1.11D-08 XBig12= 1.52D-06 3.15D-04.
      4 vectors produced by pass  7 Test12= 2.80D-14 1.11D-08 XBig12= 2.02D-09 1.18D-05.
      4 vectors produced by pass  8 Test12= 2.80D-14 1.11D-08 XBig12= 2.72D-11 1.05D-06.
      1 vectors produced by pass  9 Test12= 2.80D-14 1.11D-08 XBig12= 1.76D-13 7.98D-08.
 InvSVY:  IOpt=1 It=  1 EMax= 6.66D-16
 Solved reduced A of dimension    49 with     6 vectors.
 Isotropic polarizability for W=    0.000000       47.05 Bohr**3.
 End of Minotr F.D. properties file   721 does not exist.
 End of Minotr F.D. properties file   722 does not exist.
 End of Minotr F.D. properties file   788 does not exist.

 **********************************************************************

            Population analysis using the SCF Density.

 **********************************************************************

 Orbital symmetries:
       Occupied  (SG) (SG) (SG) (PI) (PI) (SG) (SG) (PI) (PI) (SG)
                 (SG) (PI) (PI) (DLTA) (DLTA) (SG) (PI) (PI)
       Virtual   (SG) (PI) (PI) (SG) (SG) (PI) (PI) (SG) (SG) (PI)
                 (PI) (DLTA) (DLTA) (SG) (PI) (PI) (DLTA) (DLTA)
                 (SG) (PI) (PI) (PHI) (PHI) (DLTA) (DLTA) (SG)
                 (SG) (PI) (PI) (SG) (PI) (PI) (SG) (DLTA) (DLTA)
                 (PI) (PI) (PHI) (PHI) (SG) (PI) (PI) (DLTA) (DLTA)
                 (PI) (PI) (SG) (DLTA) (DLTA) (PHI) (PHI) (SG)
                 (PI) (PI) (DLTA) (DLTA) (SG) (PI) (PI) (SG) (SG)
                 (PHI) (PHI) (DLTA) (DLTA) (PI) (PI) (SG) (PHI)
                 (PHI) (?A) (?A) (DLTA) (DLTA) (SG) (PI) (PI) (SG)
                 (DLTA) (DLTA) (PI) (PI) (SG) (PHI) (PHI) (?A)
                 (?A) (DLTA) (DLTA) (PI) (PI) (SG) (PI) (PI) (PHI)
                 (PHI) (DLTA) (DLTA) (SG) (PI) (PI) (SG) (DLTA)
                 (DLTA) (PI) (PI) (SG) (PHI) (PHI) (DLTA) (DLTA)
                 (PI) (PI) (SG) (PHI) (PHI) (?A) (?A) (DLTA) (DLTA)
                 (PI) (PI) (SG) (SG) (DLTA) (DLTA) (PI) (PI) (SG)
                 (PI) (PI) (SG) (SG) (PI) (PI) (SG) (SG) (SG) (SG)
                 (SG)
 The electronic state is 1-SG.
 Alpha  occ. eigenvalues -- -100.66565  -9.17377  -6.99785  -6.98761  -6.98761
 Alpha  occ. eigenvalues --   -4.03341  -2.26050  -2.24108  -2.24108  -0.73054
 Alpha  occ. eigenvalues --   -0.38663  -0.33178  -0.33178  -0.28751  -0.28750
 Alpha  occ. eigenvalues --   -0.26622  -0.24897  -0.24897
 Alpha virt. eigenvalues --   -0.17385  -0.02766  -0.02766   0.00856   0.04326
 Alpha virt. eigenvalues --    0.07234   0.07234   0.11983   0.17556   0.19260
 Alpha virt. eigenvalues --    0.19260   0.23224   0.23224   0.25899   0.26587
 Alpha virt. eigenvalues --    0.26587   0.28401   0.28401   0.32989   0.34858
 Alpha virt. eigenvalues --    0.34858   0.34938   0.34938   0.44305   0.44305
 Alpha virt. eigenvalues --    0.45291   0.53742   0.58439   0.58439   0.62633
 Alpha virt. eigenvalues --    0.72287   0.72287   0.76622   0.91551   0.91551
 Alpha virt. eigenvalues --    0.93691   0.93691   0.94881   0.94881   0.99236
 Alpha virt. eigenvalues --    1.08579   1.08579   1.13742   1.13742   1.17156
 Alpha virt. eigenvalues --    1.17156   1.17441   1.27597   1.27598   1.27953
 Alpha virt. eigenvalues --    1.27953   1.31283   1.35520   1.35520   1.36549
 Alpha virt. eigenvalues --    1.36549   1.49943   1.73262   1.73262   1.96293
 Alpha virt. eigenvalues --    2.13217   2.19293   2.19293   2.19415   2.19415
 Alpha virt. eigenvalues --    2.20415   2.20415   2.31456   2.42477   2.42477
 Alpha virt. eigenvalues --    2.43517   2.43524   2.45929   2.45929   2.57486
 Alpha virt. eigenvalues --    2.65092   2.65092   2.87610   3.16192   3.16192
 Alpha virt. eigenvalues --    3.30442   3.30442   3.38957   3.50226   3.50226
 Alpha virt. eigenvalues --    3.50961   3.50961   3.57101   3.57101   3.69350
 Alpha virt. eigenvalues --    3.69350   3.72426   3.81113   3.81113   3.82535
 Alpha virt. eigenvalues --    3.82535   3.90632   3.90632   4.17089   4.23172
 Alpha virt. eigenvalues --    4.23172   4.34661   5.16274   5.16287   5.30346
 Alpha virt. eigenvalues --    5.30346   5.52505   5.59932   5.59932   5.60393
 Alpha virt. eigenvalues --    5.60395   5.64860   5.64860   5.86140   6.27318
 Alpha virt. eigenvalues --    6.27318   6.27749   6.27773   6.32867   6.32869
 Alpha virt. eigenvalues --    6.54599   6.54599   6.58041   8.23279  10.47766
 Alpha virt. eigenvalues --   10.47766  10.58442  10.58442  10.70247  25.60834
 Alpha virt. eigenvalues --   25.60834  28.30477  34.05572  41.34081  41.34081
 Alpha virt. eigenvalues --   41.36913  45.67674  97.65163 206.79744 523.95717
          Condensed to atoms (all electrons):
               1          2
     1  Au  18.342614   0.272427
     2  Cl   0.272427  17.112532
 Mulliken charges:
               1
     1  Au   0.384959
     2  Cl  -0.384959
 Sum of Mulliken charges =  -0.00000
 Mulliken charges with hydrogens summed into heavy atoms:
               1
     1  Au   0.384959
     2  Cl  -0.384959
 APT charges:
               1
     1  Au   0.345542
     2  Cl  -0.345542
 Sum of APT charges =  -0.00000
 APT charges with hydrogens summed into heavy atoms:
               1
     1  Au   0.345542
     2  Cl  -0.345542
 Electronic spatial extent (au):  <R**2>=            292.4421
 Charge=             -0.0000 electrons
 Dipole moment (field-independent basis, Debye):
    X=              0.0000    Y=              0.0000    Z=              3.1271  Tot=              3.1271
 Quadrupole moment (field-independent basis, Debye-Ang):
   XX=            -36.0967   YY=            -36.0967   ZZ=            -34.6748
   XY=              0.0000   XZ=              0.0000   YZ=              0.0000
 Traceless Quadrupole moment (field-independent basis, Debye-Ang):
   XX=             -0.4740   YY=             -0.4740   ZZ=              0.9479
   XY=              0.0000   XZ=              0.0000   YZ=              0.0000
 Octapole moment (field-independent basis, Debye-Ang**2):
  XXX=              0.0000  YYY=              0.0000  ZZZ=             49.1416  XYY=              0.0000
  XXY=              0.0000  XXZ=             16.1309  XZZ=              0.0000  YZZ=              0.0000
  YYZ=             16.1309  XYZ=              0.0000
 Hexadecapole moment (field-independent basis, Debye-Ang**3):
 XXXX=            -43.2652 YYYY=            -43.2652 ZZZZ=           -297.4037 XXXY=              0.0000
 XXXZ=              0.0000 YYYX=              0.0000 YYYZ=              0.0000 ZZZX=              0.0000
 ZZZY=              0.0000 XXYY=            -14.4217 XXZZ=            -60.9978 YYZZ=            -60.9978
 XXYZ=              0.0000 YYXZ=              0.0000 ZZXY=              0.0000
 N-N= 7.701270006604D+01 E-N=-1.532680226651D+03  KE= 5.052183665423D+02
 Symmetry A1   KE= 3.878205169039D+02
 Symmetry A2   KE= 4.945447779912D+00
 Symmetry B1   KE= 5.622620092925D+01
 Symmetry B2   KE= 5.622620092925D+01
  Exact polarizability:      38.742       0.000      38.742       0.000       0.000      63.678
 Approx polarizability:      76.620      -0.000      76.620      -0.000      -0.000     154.082
   4 Symmetry operations used in ECPInt.
 ECPInt:  NShTT=     990 NPrTT=    2574 LenC2=     982 LenP2D=    2361.
 LDataN:  DoStor=T MaxTD1=10 Len=  848
 Calling FoFJK, ICntrl=    100527 FMM=F ISym2X=1 I1Cent= 0 IOpClX= 0 NMat=1 NMatS=1 NMatT=0.
 Defaulting to unpruned grid for atomic number  79.
 Defaulting to unpruned grid for atomic number  79.
 Defaulting to unpruned grid for atomic number  79.
 Defaulting to unpruned grid for atomic number  79.
 Defaulting to unpruned grid for atomic number  79.
 Defaulting to unpruned grid for atomic number  79.
 Defaulting to unpruned grid for atomic number  79.
 Defaulting to unpruned grid for atomic number  79.
 Full mass-weighted force constant matrix:
 Low frequencies ---   -0.0027   -0.0027   -0.0006    7.2603    7.2603  362.5786
 Diagonal vibrational polarizability:
        0.0000000       0.0000000       1.3601020
 Harmonic frequencies (cm**-1), IR intensities (KM/Mole), Raman scattering
 activities (A**4/AMU), depolarization ratios for plane and unpolarized
 incident light, reduced masses (AMU), force constants (mDyne/A),
 and normal coordinates:
                      1
                     SG
 Frequencies --    362.5786
 Red. masses --     39.9189
 Frc consts  --      3.0920
 IR Inten    --      6.6442
  Atom  AN      X      Y      Z
     1  79    -0.00  -0.00  -0.17
     2  17    -0.00  -0.00   0.98

 -------------------
 - Thermochemistry -
 -------------------
 Temperature   298.150 Kelvin.  Pressure   1.00000 Atm.
 Atom     1 has atomic number 79 and mass 196.96660
 Atom     2 has atomic number 17 and mass  34.96885
 Molecular mass:   231.93545 amu.
 Principal axes and moments of inertia in atomic units:
                           1         2         3
     Eigenvalues --     0.00000 522.38077 522.38077
           X            0.00000  -0.00000   1.00000
           Y            0.00000   1.00000   0.00000
           Z            1.00000   0.00000   0.00000
 This molecule is a prolate symmetric top.
 Rotational symmetry number  1.
 Warning -- assumption of classical behavior for rotation
           may cause significant error
 Rotational temperature (Kelvin)      0.16581
 Rotational constant (GHZ):           3.454839
 Zero-point vibrational energy       2168.7 (Joules/Mol)
                                    0.51833 (Kcal/Mol)
 Warning -- explicit consideration of   1 degrees of freedom as
           vibrations may cause significant error
 Vibrational temperatures:    521.67
          (Kelvin)
 
 Zero-point correction=                           0.000826 (Hartree/Particle)
 Thermal correction to Energy=                    0.003534
 Thermal correction to Enthalpy=                  0.004478
 Thermal correction to Gibbs Free Energy=        -0.024133
 Sum of electronic and zero-point Energies=           -595.831307
 Sum of electronic and thermal Energies=              -595.828599
 Sum of electronic and thermal Enthalpies=            -595.827655
 Sum of electronic and thermal Free Energies=         -595.856266
 
                     E (Thermal)             CV                S
                      KCal/Mol        Cal/Mol-Kelvin    Cal/Mol-Kelvin
 Total                    2.218              6.517             60.217
 Electronic               0.000              0.000              0.000
 Translational            0.889              2.981             42.226
 Rotational               0.592              1.987             16.880
 Vibrational              0.736              1.549              1.111
 Vibration     1          0.736              1.549              1.111
                       Q            Log10(Q)             Ln(Q)
 Total Bot       0.125988D+12         11.100328         25.559450
 Total V=0       0.302182D+12         11.480268         26.434295
 Vib (Bot)       0.504649D+00         -0.297011         -0.683892
 Vib (Bot)    1  0.504649D+00         -0.297011         -0.683892
 Vib (V=0)       0.121040D+01          0.082930          0.190952
 Vib (V=0)    1  0.121040D+01          0.082930          0.190952
 Electronic      0.100000D+01          0.000000          0.000000
 Translational   0.138837D+09          8.142505         18.748810
 Rotational      0.179818D+04          3.254834          7.494533
 ***** Axes restored to original set *****
 -------------------------------------------------------------------
 Center     Atomic                   Forces (Hartrees/Bohr)
 Number     Number              X              Y              Z
 -------------------------------------------------------------------
      1       79          -0.000000000   -0.000000000   -0.000016067
      2       17          -0.000000000   -0.000000000    0.000016067
 -------------------------------------------------------------------
 Cartesian Forces:  Max     0.000016067 RMS     0.000009276
 FormGI is forming the generalized inverse of G from B-inverse, IUseBI=4.

 GradGradGradGradGradGradGradGradGradGradGradGradGradGradGradGradGradGrad
 Berny optimization.
 Internal  Forces:  Max     0.000016067 RMS     0.000016067
 Search for a local minimum.
 Step number   1 out of a maximum of    2
 All quantities printed in internal units (Hartrees-Bohrs-Radians)
 Second derivative matrix not updated -- analytic derivatives used.
 The second derivative matrix:
                          R1
           R1           0.14774
 ITU=  0
     Eigenvalues ---    0.14774
 Angle between quadratic step and forces=   0.00 degrees.
 Linear search not attempted -- first point.
 Iteration  1 RMS(Cart)=  0.00007690 RMS(Int)=  0.00000000
 Iteration  2 RMS(Cart)=  0.00000000 RMS(Int)=  0.00000000
 ClnCor:  largest displacement from symmetrization is 0.00D+00 for atom     0.
 Variable       Old X    -DE/DX   Delta X   Delta X   Delta X     New X
                                 (Linear)    (Quad)   (Total)
    R1        4.19411   0.00002   0.00000   0.00011   0.00011   4.19422
         Item               Value     Threshold  Converged?
 Maximum Force            0.000016     0.000450     YES
 RMS     Force            0.000016     0.000300     YES
 Maximum Displacement     0.000054     0.001800     YES
 RMS     Displacement     0.000077     0.001200     YES
 Predicted change in Energy=-8.736017D-10
 Optimization completed.
    -- Stationary point found.
                           ----------------------------
                           !   Optimized Parameters   !
                           ! (Angstroms and Degrees)  !
 --------------------------                            --------------------------
 ! Name  Definition              Value          Derivative Info.                !
 --------------------------------------------------------------------------------
 ! R1    R(1,2)                  2.2194         -DE/DX =    0.0                 !
 --------------------------------------------------------------------------------
 GradGradGradGradGradGradGradGradGradGradGradGradGradGradGradGradGradGrad


 ----------------------------------------------------------------------

 Electric dipole moment (input orientation):
 (Debye = 10**-18 statcoulomb cm , SI units = C m)
                  (au)            (Debye)         (10**-30 SI)
   Tot        0.123030D+01      0.312711D+01      0.104309D+02
   x          0.000000D+00      0.000000D+00      0.000000D+00
   y          0.000000D+00      0.000000D+00      0.000000D+00
   z         -0.123030D+01     -0.312711D+01     -0.104309D+02

 Dipole polarizability, Alpha (input orientation).
 (esu units = cm**3 , SI units = C**2 m**2 J**-1)
 Alpha(0;0):
               (au)            (10**-24 esu)      (10**-40 SI)
   iso        0.470540D+02      0.697268D+01      0.775815D+01
   aniso      0.249357D+02      0.369508D+01      0.411134D+01
   xx         0.387421D+02      0.574098D+01      0.638770D+01
   yx         0.000000D+00      0.000000D+00      0.000000D+00
   yy         0.387421D+02      0.574098D+01      0.638770D+01
   zx         0.000000D+00      0.000000D+00      0.000000D+00
   zy         0.000000D+00      0.000000D+00      0.000000D+00
   zz         0.636777D+02      0.943607D+01      0.104990D+02

 ----------------------------------------------------------------------

 Dipole orientation:
    79         15.11780900        -15.11780900        -13.02075228
    17         15.11780900        -15.11780900        -17.21486571

 Electric dipole moment (dipole orientation):
 (Debye = 10**-18 statcoulomb cm , SI units = C m)
                  (au)            (Debye)         (10**-30 SI)
   Tot        0.123030D+01      0.312711D+01      0.104309D+02
   x          0.000000D+00      0.000000D+00      0.000000D+00
   y          0.000000D+00      0.000000D+00      0.000000D+00
   z          0.123030D+01      0.312711D+01      0.104309D+02

 Dipole polarizability, Alpha (dipole orientation).
 (esu units = cm**3 , SI units = C**2 m**2 J**-1)
 Alpha(0;0):
               (au)            (10**-24 esu)      (10**-40 SI)
   iso        0.470540D+02      0.697268D+01      0.775815D+01
   aniso      0.249357D+02      0.369508D+01      0.411134D+01
   xx         0.387421D+02      0.574098D+01      0.638770D+01
   yx         0.000000D+00      0.000000D+00      0.000000D+00
   yy         0.387421D+02      0.574098D+01      0.638770D+01
   zx         0.000000D+00      0.000000D+00      0.000000D+00
   zy         0.000000D+00      0.000000D+00      0.000000D+00
   zz         0.636777D+02      0.943607D+01      0.104990D+02

 ----------------------------------------------------------------------
 Unable to Open any file for archive entry.
 1\1\GINC-TCOPT10\Freq\RPBEPBE\def2QZVPP\Au1Cl1\HUTTER\30-Jul-2021\0\\#
 N Geom=AllCheck Guess=TCheck SCRF=Check GenChk RPBEPBE/def2QZVPP Freq\
 \Mol job 1\\0,1\Au,8.,8.,6.8902853751\Cl,8.,8.,9.1097146249\\Version=E
 S64L-G16RevC.01\State=1-SG\HF=-595.8321328\RMSD=1.553e-09\RMSF=9.276e-
 06\Thermal=0.0035341\ETot=-595.8285988\HTot=-595.8276546\GTot=-595.856
 2657\Dipole=0.,0.,-1.2302997\DipoleDeriv=0.2933724,0.,0.,0.,0.2933724,
 0.,0.,0.,0.4498826,-0.2933724,0.,0.,0.,-0.2933724,0.,0.,0.,-0.4498826\
 Polar=38.7420642,0.,38.7420642,0.,0.,63.6777292\Quadrupole=-0.3523851,
 -0.3523851,0.7047702,0.,0.,0.\PG=C*V [C*(Cl1Au1)]\NImag=0\\0.00005924,
 0.,0.00005924,0.,0.,0.14774155,-0.00005924,0.,0.,0.00005924,0.,-0.0000
 5924,0.,0.,0.00005924,0.,0.,-0.14774155,0.,0.,0.14774155\\0.,0.,0.0000
 1607,0.,0.,-0.00001607\\\@
 The archive entry for this job was punched.


 ARTHROPOD AXIOM: A COMPUTER SYSTEM IS LIKE A SPIDER'S WEB.
 YOU CANNOT PULL ON ONE END WITHOUT MAKING THE OTHER END MOVE.
     -- GREG WETTSTEIN
 Job cpu time:       0 days  0 hours  5 minutes 51.2 seconds.
 Elapsed time:       0 days  0 hours  0 minutes 44.3 seconds.
 File lengths (MBytes):  RWF=     15 Int=      0 D2E=      0 Chk=      3 Scr=      1
 Normal termination of Gaussian 16 at Fri Jul 30 09:44:13 2021.
