       2
 i =        1, E =       -74.9844344164
 Ag         6.9999999994        6.9999999994        5.7162700754
 Ag         7.0000000006        7.0000000006        8.2837299246
       2
 i =        2, E =       -74.9844347774
 Ag         6.9999999994        6.9999999994        5.7153934203
 Ag         7.0000000006        7.0000000006        8.2846065797
       2
 i =        3, E =       -74.9844347774
 Ag         6.9999999994        6.9999999994        5.7153934203
 Ag         7.0000000006        7.0000000006        8.2846065797
