       2
 i =        1, E =       -48.3259247496
 Au         6.4999999613        6.4999999827        5.3734860965
 Cl         6.5000000387        6.5000000173        7.6265142068
       2
 i =        2, E =       -48.3259260142
 Au         6.4999999614        6.4999999827        5.3723477606
 Cl         6.5000000386        6.5000000173        7.6276528704
       2
 i =        3, E =       -48.3259260142
 Au         6.4999999614        6.4999999827        5.3723477606
 Cl         6.5000000386        6.5000000173        7.6276528704
