       5
 i =        1, E =        -8.0837335824
  C         6.0000562533        5.9998891246        5.9999680181
  H         6.6312632576        6.6312637831        6.6312612635
  H         5.3687457235        6.6312412425        5.3687486626
  H         5.3687150394        5.3686985024        6.6312931463
  H         6.6313444833        5.3686584008        5.3686594757
       5
 i =        2, E =        -8.0837813125
  C         6.0000035291        5.9999920332        5.9999984409
  H         6.6287006837        6.6285835684        6.6286363073
  H         5.3713649112        6.6285840493        5.3713050516
  H         5.3714078793        5.3712744211        6.6286174624
  H         6.6286470049        5.3713184575        5.3713737299
       5
 i =        3, E =        -8.0837814133
  C         6.0000774108        5.9998336254        5.9999621338
  H         6.6287551603        6.6286947863        6.6287213402
  H         5.3712982155        6.6286688442        5.3712689549
  H         5.3712553935        5.3711786000        6.6287618659
  H         6.6288430456        5.3711404451        5.3711696491
       5
 i =        4, E =        -8.0837814133
  C         6.0000774108        5.9998336254        5.9999621338
  H         6.6287551603        6.6286947863        6.6287213402
  H         5.3712982155        6.6286688442        5.3712689549
  H         5.3712553935        5.3711786000        6.6287618659
  H         6.6288430456        5.3711404451        5.3711696491
