       2
 i =        1, E =       -21.6700148117
  C         5.9999999625        6.0000000026        5.4337746054
  O         6.0000000375        5.9999999974        6.5664241696
       2
 i =        2, E =       -21.6700151012
  C         5.9999999626        6.0000000021        5.4331564591
  O         6.0000000306        5.9999999983        6.5659915310
       2
 i =        3, E =       -21.6700151012
  C         5.9999999626        6.0000000021        5.4331564591
  O         6.0000000306        5.9999999983        6.5659915310
