       2
 i =        1, E =       -65.1584105735
 Hf         6.5000000505        6.4999999387        5.6531121934
  O         6.4999999496        6.5000000612        7.3475352430
       2
 i =        2, E =       -65.1584228719
 Hf         6.5000000402        6.4999999502        5.6545532427
  O         6.4999999683        6.5000000394        7.3447553732
       2
 i =        3, E =       -65.1584235391
 Hf         6.5000000348        6.4999999568        5.6539827303
  O         6.4999999772        6.5000000284        7.3449527703
       2
 i =        4, E =       -65.1584235391
 Hf         6.5000000348        6.4999999568        5.6539827303
  O         6.4999999772        6.5000000284        7.3449527703
