       2
 i =        1, E =       -38.4001730261
  K         7.0000000000        7.0000000015        5.7182157550
 Br         7.0000000000        6.9999999985        8.2817889679
       2
 i =        2, E =       -38.4009579563
  K         7.0000000000        7.0000000014        5.6622698669
 Br         7.0000000000        6.9999999986        8.3377263181
       2
 i =        3, E =       -38.4011969817
  K         7.0000000000        7.0000000013        5.6789476366
 Br         7.0000000000        6.9999999987        8.3210470340
       2
 i =        4, E =       -38.4012011692
  K         7.0000000000        7.0000000011        5.6815955183
 Br         7.0000000000        6.9999999989        8.3184102681
       2
 i =        5, E =       -38.4012011898
  K         7.0000000000        7.0000000011        5.6814257982
 Br         7.0000000000        6.9999999989        8.3185884587
       2
 i =        6, E =       -38.4012011898
  K         7.0000000000        7.0000000011        5.6814257982
 Br         7.0000000000        6.9999999989        8.3185884587
