       4
 i =        1, E =      -150.6620457575
  P         7.9237664156        7.6658492626        8.1538681659
 Na         8.7160506106        5.5570101012        6.8480299469
 Na         9.3211999312        9.4434100666        6.8573767865
 Na         5.6790516736        8.0286744469        6.8526811379
       4
 i =        2, E =      -150.6622435921
  P         7.9229918190        7.6661147328        8.1510785982
 Na         8.7043299876        5.5567577941        6.8526403839
 Na         9.3214968564        9.4436248355        6.8582472487
 Na         5.6791554713        8.0300221757        6.8525744163
       4
 i =        3, E =      -150.6623572348
  P         7.9221722014        7.6665811722        8.1495008387
 Na         8.7026836595        5.5551988971        6.8521018495
 Na         9.3205915083        9.4439183301        6.8523430397
 Na         5.6799776166        8.0243714163        6.8525118768
       4
 i =        4, E =      -150.6623683177
  P         7.9211771174        7.6673480432        8.1470776932
 Na         8.7043417036        5.5562742082        6.8518492433
 Na         9.3205840674        9.4439893130        6.8514750981
 Na         5.6791151576        8.0241432997        6.8521713488
       4
 i =        5, E =      -150.6624200834
  P         7.9129111327        7.6738662170        8.1267253452
 Na         8.7056900499        5.5556749733        6.8518584583
 Na         9.3210243832        9.4440192269        6.8534562630
 Na         5.6795296349        8.0264118751        6.8517884319
       4
 i =        6, E =      -150.6624378609
  P         7.9129472878        7.6737833150        8.1264456556
 Na         8.7035588612        5.5557364812        6.8519731917
 Na         9.3208151754        9.4442161797        6.8519671445
 Na         5.6789741067        8.0246441905        6.8519523598
       4
 i =        7, E =      -150.6624411722
  P         7.9125888406        7.6740268788        8.1226273611
 Na         8.7034579093        5.5552747637        6.8517589577
 Na         9.3207843628        9.4440015382        6.8519782926
 Na         5.6798122477        8.0244431860        6.8519215603
       4
 i =        8, E =      -150.6624435736
  P         7.9125909302        7.6740220339        8.1223038719
 Na         8.7036028882        5.5556881718        6.8519083231
 Na         9.3208516858        9.4442279886        6.8519698717
 Na         5.6789242638        8.0246590102        6.8518865756
       4
 i =        9, E =      -150.6624464555
  P         7.9122592312        7.6742374215        8.1174385552
 Na         8.7040896787        5.5555998015        6.8521493166
 Na         9.3209600349        9.4446021848        6.8519539528
 Na         5.6791793355        8.0252635156        6.8519896669
       4
 i =       10, E =      -150.6624479900
  P         7.9122718909        7.6742463725        8.1173130956
 Na         8.7036453504        5.5556025885        6.8518706274
 Na         9.3208867439        9.4442529652        6.8519295368
 Na         5.6788895207        8.0247046509        6.8518381673
       4
 i =       11, E =      -150.6624483294
  P         7.9122379016        7.6742662556        8.1163668444
 Na         8.7035540813        5.5555782105        6.8518029548
 Na         9.3209255333        9.4443796419        6.8518816768
 Na         5.6791561253        8.0245424230        6.8518271469
       4
 i =       12, E =      -150.6624483294
  P         7.9122375572        7.6742664554        8.1163572991
 Na         8.7035532038        5.5555779639        6.8518022991
 Na         9.3209259327        9.4443809574        6.8518811956
 Na         5.6791588491        8.0245408399        6.8518270509
