       3
 i =        1, E =      -158.1040608790
 Pd         7.4999418312        7.5001183315        7.5012492705
  O         5.6239152635        7.4999318575        7.4985050700
  O         9.3761430346        7.4999546068        7.4985081988
       3
 i =        2, E =      -158.1040610245
 Pd         7.5002168919        7.5004597198        7.5007248173
  O         5.6238624815        7.4997447432        7.4982732910
  O         9.3758981758        7.4997762186        7.4982773352
       3
 i =        3, E =      -158.1040610297
 Pd         7.5002168919        7.5004597198        7.5007248173
  O         5.6238624815        7.4997447432        7.4982732910
  O         9.3758981758        7.4997762186        7.4982773352
