       4
 i =        1, E =       -78.2171533978
 Sb         6.5810402207        6.9999999430        7.4751393092
  F         5.7515738472        8.4363841117        6.5061760429
  F         5.7515738275        5.5636159228        6.5061760963
  F         8.2379662547        7.0000000236        6.5052008284
       4
 i =        2, E =       -78.2174478807
 Sb         6.5764442787        7.0000000007        7.4862645376
  F         5.7559468335        8.4250766680        6.5074642329
  F         5.7559467780        5.5749233569        6.5074643134
  F         8.2152403259        7.0000000443        6.5028238584
       4
 i =        3, E =       -78.2173562022
 Sb         6.5752071888        7.0000001128        7.5240762937
  F         5.7654561460        8.3907084719        6.5102644561
  F         5.7654559189        5.6092915943        6.5102647072
  F         8.1765954648        7.0000001573        6.4928363126
       4
 i =        4, E =       -78.2176342351
 Sb         6.5771789917        7.0000000736        7.5097495251
  F         5.7628274587        8.4120576430        6.5129536949
  F         5.7628272508        5.5879424056        6.5129539786
  F         8.1956694131        7.0000001861        6.4931629331
       4
 i =        5, E =       -78.2177802026
 Sb         6.5874819482        7.0000000979        7.5104476547
  F         5.7659427669        8.4133213437        6.5214451087
  F         5.7659424307        5.5866786955        6.5214455591
  F         8.2050910146        7.0000003938        6.4866128189
       4
 i =        6, E =       -78.2150127724
 Sb         6.8374819482        7.0000006037        7.5445691094
  F         5.8539135379        8.4358744545        6.7282520150
  F         5.8539102595        5.5641256143        6.7282555358
  F         8.4044710560        7.0000061542        6.3170769982
       4
 i =        7, E =       -78.2176972278
 Sb         6.6771210523        7.0000004641        7.5193352546
  F         5.7948094961        8.4171257357        6.5901301316
  F         5.7948094923        5.5828744700        6.5901311443
  F         8.2727168119        7.0000040590        6.4362171942
       4
 i =        8, E =       -78.2177354297
 Sb         6.6650907825        7.0000006650        7.5245883311
  F         5.7758813647        8.4056365407        6.5790646343
  F         5.7758819485        5.5943639662        6.5790648975
  F         8.2519550368        7.0000080450        6.4468526221
       4
 i =        9, E =       -78.2178622210
 Sb         6.6918555096        7.0000011550        7.5344723042
  F         5.7828903727        8.4030770076        6.6033828311
  F         5.7828918630        5.5969236387        6.6033831449
  F         8.2688715815        7.0000167784        6.4400163662
       4
 i =       10, E =       -78.2179343023
 Sb         6.6819453976        7.0000015731        7.5349608398
  F         5.7876234460        8.4025552476        6.5919385760
  F         5.7876252773        5.5974455816        6.5919386491
  F         8.2645152816        7.0000300106        6.4477937562
       4
 i =       11, E =       -78.2179816252
 Sb         6.6823839325        7.0000030849        7.5404641694
  F         5.7898596137        8.4000567094        6.5919605992
  F         5.7898633480        5.5999451473        6.5919594751
  F         8.2644399835        7.0000709569        6.4580851248
       4
 i =       12, E =       -78.2171271563
 Sb         6.6647209464        7.0000309452        7.6011925254
  F         5.8083521936        8.3823521512        6.5893330506
  F         5.8083977402        5.6176661991        6.5893138239
  F         8.2520620784        7.0007903013        6.5907381287
       4
 i =       13, E =       -78.2178416569
 Sb         6.6769312065        7.0000261693        7.5657123490
  F         5.8009851863        8.3961639369        6.5960298360
  F         5.8010473219        5.6038510449        6.5960100978
  F         8.2636933363        7.0006264705        6.5070082895
       4
 i =       14, E =       -78.2180255308
 Sb         6.6787011689        7.0000559684        7.5472848232
  F         5.7899482315        8.4017336992        6.5950352798
  F         5.7900738315        5.5982837223        6.5950176299
  F         8.2637069456        7.0010916933        6.4716814332
       4
 i =       15, E =       -78.2180231274
 Sb         6.6793294600        7.0001006412        7.5459477008
  F         5.7886133241        8.4015918543        6.5960508943
  F         5.7887175529        5.5984676096        6.5960243368
  F         8.2639083513        7.0024701675        6.4673806628
       4
 i =       16, E =       -78.2180296910
 Sb         6.6785282596        7.0002031454        7.5490140943
  F         5.7891948873        8.4002323166        6.5973327304
  F         5.7893366021        5.5999071909        6.5972743720
  F         8.2637992423        7.0053450670        6.4717149664
       4
 i =       17, E =       -78.2180638525
 Sb         6.6770708014        7.0007445894        7.5523117746
  F         5.7898692595        8.3989757045        6.5981979459
  F         5.7907575759        5.6014607503        6.5979281069
  F         8.2644571492        7.0184676502        6.4775809285
       4
 i =       18, E =       -78.1975624165
 Sb         6.7602027705        7.0463724489        7.5169022771
  F         5.6991605708        8.5083295639        6.5641013973
  F         5.7335355981        5.4944367362        6.5469350068
  F         8.2543543055        7.2390753283        6.2275809285
       4
 i =       19, E =       -78.2148215945
 Sb         6.6782428342        7.0229976393        7.5842243999
  F         5.7691784319        8.4212107390        6.5924814440
  F         5.7904701803        5.5837601487        6.5828953852
  F         8.2643633677        7.2621775226        6.4775809285
       4
 i =       20, E =       -78.2168531964
 Sb         6.7082353095        7.0143265214        7.5229844327
  F         5.7636190648        8.4304562948        6.5916255363
  F         5.7779510182        5.5761120455        6.5914010375
  F         8.2661394461        7.0121775226        6.3970373541
