       3
 i =        1, E =       -41.3775458274
 Se         6.9999999940        7.0000000066        7.4191742861
  O         5.6318833567        6.9999999981        6.5718808737
  O         8.3681166494        6.9999999953        6.5718808620
       3
 i =        2, E =       -41.3776195347
 Se         7.0000002996        7.0000000057        7.4311768422
  O         5.6429321774        6.9999999984        6.5685600645
  O         8.3570675245        6.9999999945        6.5685602296
       3
 i =        3, E =       -41.3776203624
 Se         6.9999963243        7.0000000045        7.4327547993
  O         5.6423761480        6.9999999990        6.5696369105
  O         8.3576275128        6.9999999935        6.5696346168
       3
 i =        4, E =       -41.3776214460
 Se         7.0000021815        7.0000000043        7.4323405507
  O         5.6427131191        6.9999999990        6.5700928765
  O         8.3572847431        6.9999999933        6.5700941977
       3
 i =        5, E =       -41.3776608399
 Se         6.9997453130        6.9999999886        7.4498326270
  O         5.6399040288        7.0000000089        6.5928723205
  O         8.3603489714        6.9999999748        6.5927147036
       3
 i =        6, E =       -41.3776644089
 Se         7.0002054998        6.9999999888        7.4511126725
  O         5.6396980589        7.0000000091        6.5919447453
  O         8.3601006436        6.9999999741        6.5920866123
       3
 i =        7, E =       -41.3776681531
 Se         6.9995800832        6.9999999888        7.4534220889
  O         5.6418120824        7.0000000103        6.5917753494
  O         8.3586045194        6.9999999707        6.5915071295
       3
 i =        8, E =       -41.3776698279
 Se         7.0000102905        6.9999999888        7.4543250039
  O         5.6428182987        7.0000000112        6.5917580676
  O         8.3571716177        6.9999999682        6.5917709269
       3
 i =        9, E =       -41.3776716501
 Se         7.0001008546        6.9999999891        7.4577689461
  O         5.6425438194        7.0000000207        6.5952546780
  O         8.3573566399        6.9999999417        6.5953191690
       3
 i =       10, E =       -41.3776716948
 Se         6.9999904994        6.9999999890        7.4579100379
  O         5.6426208828        7.0000000215        6.5954113177
  O         8.3573890791        6.9999999396        6.5954030332
       3
 i =       11, E =       -41.3776716948
 Se         6.9999916041        6.9999999891        7.4579089837
  O         5.6426200914        7.0000000214        6.5954101137
  O         8.3573887743        6.9999999396        6.5954025569
