       5
 i =        1, E =      -107.0031613391
  S         7.0000001837        6.9999720083        7.4823634004
  F         5.3274170821        6.9999692072        7.4138472438
  F         8.6725832586        6.9999692089        7.4138566978
  F         7.0000044375        8.2258445454        6.5007672355
  F         7.0000044320        5.7741553232        6.5006970234
       5
 i =        2, E =      -107.0038399718
  S         7.0000005279        6.9999701602        7.4974417741
  F         5.3426529226        6.9999545409        7.4014750327
  F         8.6573482201        6.9999545423        7.4014822094
  F         7.0000065533        8.2109704152        6.5003302332
  F         7.0000065458        5.7890297370        6.5002351954
       5
 i =        3, E =      -107.0038638182
  S         7.0000011481        6.9999635592        7.5003878443
  F         5.3427637684        6.9999468399        7.4018397011
  F         8.6572378480        6.9999468405        7.4018462124
  F         7.0000074349        8.2128173007        6.4988821103
  F         7.0000074269        5.7871874415        6.4987766649
       5
 i =        4, E =      -107.0038676692
  S         7.0000025887        6.9999518374        7.5000247952
  F         5.3443222342        6.9999229469        7.4029056588
  F         8.6556812220        6.9999229452        7.4029108898
  F         7.0000100774        8.2131686246        6.4982075014
  F         7.0000100681        5.7868397174        6.4980674574
       5
 i =        5, E =      -107.0038829921
  S         7.0000284024        6.9997024867        7.4975527964
  F         5.3444062658        6.9993864525        7.4060772083
  F         8.6556377736        6.9993863937        7.4060811220
  F         7.0000660901        8.2078320415        6.4878841332
  F         7.0000660500        5.7922059670        6.4869769544
       5
 i =        6, E =      -107.0039089623
  S         7.0000479010        6.9993649873        7.4902340443
  F         5.3435370399        6.9988577018        7.4018558267
  F         8.6565278619        6.9988575673        7.4018917489
  F         7.0001173965        8.2105531927        6.4859926330
  F         7.0001174395        5.7895431002        6.4851161452
       5
 i =        7, E =      -107.0039175667
  S         7.0000595594        6.9994240513        7.4895858177
  F         5.3432855911        6.9983788428        7.3996894126
  F         8.6568044740        6.9983786333        7.3997429713
  F         7.0001645246        8.2115231313        6.4836187544
  F         7.0001646477        5.7882384391        6.4825165819
       5
 i =        8, E =      -107.0039296786
  S         7.0001176323        6.9990069162        7.4862423855
  F         5.3447017402        6.9965958311        7.3974140675
  F         8.6554805427        6.9965953860        7.3975223002
  F         7.0003455905        8.2091391625        6.4787512047
  F         7.0003462119        5.7900550779        6.4774801893
       5
 i =        9, E =      -107.0039410096
  S         7.0003202294        6.9972225155        7.4818033381
  F         5.3432725288        6.9918698246        7.3990887441
  F         8.6571394845        6.9918688672        7.3993756904
  F         7.0008498647        8.2071961403        6.4748901436
  F         7.0008513781        5.7911759567        6.4738458084
       5
 i =       10, E =      -107.0039554041
  S         7.0003654739        6.9976907414        7.4849933899
  F         5.3435006540        6.9898705938        7.3984865410
  F         8.6570791160        6.9898706765        7.3988345166
  F         7.0010985796        8.2073360056        6.4755869042
  F         7.0010983475        5.7893150369        6.4732229496
       5
 i =       11, E =      -107.0040288309
  S         7.0009763353        6.9939889151        7.4900553021
  F         5.3464829922        6.9756921101        7.3972281112
  F         8.6551237417        6.9757036059        7.3981132773
  F         7.0029574972        8.2059963985        6.4829592659
  F         7.0029456359        5.7856278414        6.4773657212
       5
 i =       12, E =      -107.0040470978
  S         7.0013728018        6.9907180516        7.4883582973
  F         5.3464278413        6.9729989915        7.3982093630
  F         8.6555136906        6.9730187951        7.3993758260
  F         7.0038366393        8.2054056172        6.4845851235
  F         7.0038184330        5.7858295905        6.4786473131
       5
 i =       13, E =      -107.0040732731
  S         7.0025165426        6.9853539879        7.4881141897
  F         5.3441875385        6.9721772924        7.4011632895
  F         8.6591599345        6.9722380626        7.4031905644
  F         7.0069925188        8.2032749605        6.4858631394
  F         7.0069555049        5.7828086079        6.4745743724
       5
 i =       14, E =      -107.0041176308
  S         7.0059546528        6.9784271717        7.4871154340
  F         5.3478151659        6.9725355206        7.4017562298
  F         8.6617768391        6.9728259235        7.4062803067
  F         7.0170404894        8.1944635406        6.4903159951
  F         7.0171402361        5.7805342881        6.4669143519
       5
 i =       15, E =      -107.0041467801
  S         7.0080440990        6.9767689517        7.4893118843
  F         5.3489714578        6.9717557249        7.3993088434
  F         8.6623671908        6.9721207682        7.4049569064
  F         7.0182630382        8.1967908671        6.4886027495
  F         7.0187358982        5.7821352502        6.4692101889
       5
 i =       16, E =      -107.0041798447
  S         7.0119583645        6.9811383363        7.4892879883
  F         5.3536746256        6.9701282350        7.3953546330
  F         8.6650069967        6.9706965455        7.4031814156
  F         7.0226565819        8.1980330646        6.4892270043
  F         7.0241863324        5.7824902288        6.4728361780
       5
 i =       17, E =      -107.0041972881
  S         7.0155510871        6.9834406524        7.4885992555
  F         5.3555989682        6.9717518838        7.3954964962
  F         8.6712848712        6.9725773291        7.4048085962
  F         7.0263361908        8.2015605833        6.4885623430
  F         7.0275655961        5.7811957720        6.4729240017
       5
 i =       18, E =      -107.0042042171
  S         7.0177692540        6.9833306378        7.4869862944
  F         5.3568731830        6.9727525644        7.3961341794
  F         8.6742081963        6.9736337256        7.4052291368
  F         7.0270694986        8.2024089075        6.4882962203
  F         7.0277134238        5.7829362799        6.4733873948
       5
 i =       19, E =      -107.0042138584
  S         7.0216448107        6.9852231423        7.4872708773
  F         5.3596088691        6.9742073033        7.3976347286
  F         8.6806992126        6.9749458583        7.4037788208
  F         7.0273129118        8.2023755396        6.4872219344
  F         7.0270467283        5.7858178838        6.4711350870
       5
 i =       20, E =      -107.0042195376
  S         7.0237818171        6.9863211775        7.4864026971
  F         5.3621175166        6.9740625598        7.3999119609
  F         8.6858496975        6.9743522583        7.4012890122
  F         7.0283739351        8.2021748228        6.4860655955
  F         7.0292612700        5.7865203458        6.4708805640
