       4
 i =        1, E =       -76.1316283340
 Sn         7.4565578382        6.9999999836        7.3359398980
  F         8.3380991699        5.4399869461        6.6291771104
  F         8.3380992244        8.5600131194        6.6291771411
  F         5.6674671603        6.9999999485        6.6279399443
       4
 i =        2, E =       -76.1317154878
 Sn         7.4546402610        7.0000000161        7.3348848400
  F         8.3332939129        5.4465362664        6.6325024612
  F         8.3332938650        8.5534638387        6.6325025301
  F         5.6721059644        6.9999998720        6.6303217096
       4
 i =        3, E =       -76.1318482486
 Sn         7.4487879865        7.0000000638        7.3413162987
  F         8.3351291953        5.4597082317        6.6395009179
  F         8.3351291007        8.5402919997        6.6395011096
  F         5.6721548787        6.9999996258        6.6355291547
       4
 i =        4, E =       -76.1130340655
 Sn         7.3906853079        6.9999988474        7.5913162987
  F         8.4013073913        5.4828934172        6.6921230219
  F         8.4013080901        8.5171072968        6.6921231911
  F         5.5292278637        6.9999937689        6.6765811128
       4
 i =        5, E =       -76.1066210028
 Sn         7.2638095383        6.9999993223        7.7938761245
  F         8.4589793897        5.7328934172        6.8375300459
  F         8.4589794974        8.2671098520        6.8375324906
  F         5.4811274615        6.9999873551        6.7847553413
       4
 i =        6, E =       -76.1275792132
 Sn         7.3473664786        6.9999999797        7.5438761245
  F         8.3936606694        5.6340371653        6.7613658495
  F         8.3936603662        8.3659647668        6.7613675159
  F         5.5981726536        6.9999926549        6.7280307922
       4
 i =        7, E =       -76.1309577142
 Sn         7.3926612329        7.0000003918        7.4420214728
  F         8.3768412150        5.5127256676        6.7037101255
  F         8.3768400170        8.4872782224        6.7037133114
  F         5.6325962526        6.9999885580        6.6612395361
       4
 i =        8, E =       -76.1315193638
 Sn         7.4035800845        6.9999991048        7.4190276703
  F         8.3757007212        5.5069090811        6.7156885050
  F         8.3756974965        8.4930925797        6.7156917709
  F         5.6514970140        6.9999741608        6.6517324318
       4
 i =        9, E =       -76.1317991072
 Sn         7.4340731450        6.9999969734        7.3949142267
  F         8.3740976500        5.4795040017        6.7186576920
  F         8.3740858166        8.5204975685        6.7186555469
  F         5.6796474665        6.9999227735        6.6377392416
       4
 i =       10, E =       -76.1318812383
 Sn         7.4408086015        6.9999908709        7.4013143887
  F         8.3775411538        5.4734968143        6.7248912324
  F         8.3775101488        8.5265036790        6.7248875804
  F         5.6749757103        6.9998279198        6.6448116067
       4
 i =       11, E =       -76.1318691862
 Sn         7.4396377051        6.9999736717        7.4211924111
  F         8.3859300807        5.4826870487        6.7267021797
  F         8.3858459516        8.5173137089        6.7266962558
  F         5.6633565710        6.9995496533        6.6685725490
       4
 i =       12, E =       -76.1319547162
 Sn         7.4475310436        6.9999581616        7.4071921129
  F         8.3855691974        5.4736389737        6.7160824470
  F         8.3854608738        8.5263545746        6.7160770200
  F         5.6743224226        6.9992281861        6.6607576487
       4
 i =       13, E =       -76.1320037286
 Sn         7.4491175023        6.9999252379        7.4061215952
  F         8.3911119849        5.4761395196        6.7232051374
  F         8.3909507019        8.5238424475        6.7231856818
  F         5.6818161903        6.9983375143        6.6561746915
       4
 i =       14, E =       -76.1320225026
 Sn         7.4567907257        6.9998318518        7.4073283018
  F         8.3999651162        5.4770630848        6.7223896326
  F         8.3997122128        8.5228739240        6.7223676728
  F         5.6874471736        6.9957035897        6.6593849679
       4
 i =       15, E =       -76.1320586253
 Sn         7.4609836178        6.9996869211        7.4078726726
  F         8.3990631614        5.4773164074        6.7188352664
  F         8.3987517445        8.5225309747        6.7187884255
  F         5.6926641595        6.9910030353        6.6574459227
       4
 i =       16, E =       -76.1288244331
 Sn         7.6271751677        6.9936056690        7.4314266037
  F         8.3946271383        5.4742847118        6.6250153709
  F         8.3902555542        8.5221242067        6.6237625416
  F         5.8982547806        6.8046417217        6.6065806499
       4
 i =       17, E =       -76.1318574428
 Sn         7.5013966022        6.9957566783        7.4066309356
  F         8.4019850118        5.4708657894        6.6933348032
  F         8.3953048983        8.5267190509        6.6921543670
  F         5.7443706950        6.9426440551        6.6437508607
       4
 i =       18, E =       -76.1292907600
 Sn         7.3341839478        7.0072573643        7.4112466519
  F         8.3850761500        5.4820120123        6.7993774721
  F         8.3996685099        8.5206803562        6.7984472089
  F         5.5282321420        7.1369628040        6.7183045565
       4
 i =       19, E =       -76.1319896605
 Sn         7.4604203471        6.9991427839        7.4113189136
  F         8.3973445256        5.4736000716        6.7241136916
  F         8.3954558708        8.5249753579        6.7218005338
  F         5.6889275792        7.0050345246        6.6729612918
       4
 i =       20, E =       -76.1321565026
 Sn         7.4786091388        6.9983973683        7.4110145696
  F         8.4007082863        5.4755531621        6.7097814555
  F         8.4009423894        8.5239263182        6.7118157338
  F         5.7178170544        6.9859805408        6.6531944483
