       5
 i =        1, E =        -5.7874896616
 Sn         6.5000000002        6.4999999990        6.5000000002
  H         7.4726773350        5.5273226682        7.4726773387
  H         5.5273226647        7.4726773391        7.4726773349
  H         5.5273226643        5.5273226613        5.5273226662
  H         7.4726773359        7.4726773324        5.5273226600
       5
 i =        2, E =        -5.7876531889
 Sn         6.4999999996        6.5000000003        6.4999999998
  H         7.4804035238        5.5195964793        7.4804035274
  H         5.5195964767        7.4804035270        7.4804035226
  H         5.5195964759        5.5195964730        5.5195964782
  H         7.4804035240        7.4804035205        5.5195964720
       5
 i =        3, E =        -5.7876539934
 Sn         6.4999999998        6.5000000001        6.4999999999
  H         7.4799063218        5.5200936812        7.4799063252
  H         5.5200936786        7.4799063250        7.4799063202
  H         5.5200936779        5.5200936751        5.5200936805
  H         7.4799063219        7.4799063186        5.5200936742
       5
 i =        4, E =        -5.7876539934
 Sn         6.4999999998        6.5000000001        6.4999999999
  H         7.4799063218        5.5200936812        7.4799063252
  H         5.5200936786        7.4799063250        7.4799063202
  H         5.5200936779        5.5200936751        5.5200936805
  H         7.4799063219        7.4799063186        5.5200936742
