       3
 i =        1, E =       -40.0763040533
 Te         7.0000000236        6.9999999433        7.4860802623
  O         5.4821396613        7.0000000710        6.4956023005
  O         8.5178603151        6.9999999860        6.4956023259
       3
 i =        2, E =       -40.0763131752
 Te         6.9999999970        6.9999999432        7.4873749083
  O         5.4850537047        7.0000000861        6.4928496790
  O         8.5149463021        6.9999999828        6.4928496981
       3
 i =        3, E =       -40.0763228498
 Te         6.9999999807        6.9999999439        7.4860953167
  O         5.4884783916        7.0000001302        6.4867751450
  O         8.5115216323        6.9999999730        6.4867751642
       3
 i =        4, E =       -40.0763285737
 Te         6.9999999611        6.9999999467        7.4794700649
  O         5.4927582603        7.0000002431        6.4743172196
  O         8.5072417867        6.9999999471        6.4743172465
       3
 i =        5, E =       -40.0763390015
 Te         6.9999999766        6.9999999467        7.4786344570
  O         5.4900323037        7.0000002472        6.4775743925
  O         8.5099677300        6.9999999461        6.4775744214
       3
 i =        6, E =       -40.0763512087
 Te         6.9999999927        6.9999999474        7.4714347854
  O         5.4867033288        7.0000003815        6.4752039362
  O         8.5132966956        6.9999999168        6.4752039657
       3
 i =        7, E =       -40.0763546606
 Te         7.0000000065        6.9999999479        7.4648655744
  O         5.4850825191        7.0000006070        6.4707657419
  O         8.5149174959        6.9999998679        6.4707657651
       3
 i =        8, E =       -40.0763546855
 Te         6.9999999583        6.9999999476        7.4651176980
  O         5.4852497007        7.0000007396        6.4706993302
  O         8.5147503608        6.9999998397        6.4706993289
       3
 i =        9, E =       -40.0763546855
 Te         6.9999999583        6.9999999476        7.4651176980
  O         5.4852497007        7.0000007396        6.4706993302
  O         8.5147503608        6.9999998397        6.4706993289
