       2
 i =        1, E =       -50.5660100325
 Tl         6.4999999972        6.5000000019        5.5563108418
  H         6.5000000028        6.4999999981        7.4436892470
       2
 i =        2, E =       -50.5660297206
 Tl         6.4999999972        6.5000000019        5.5503170755
  H         6.5000000028        6.4999999981        7.4496832010
       2
 i =        3, E =       -50.5660297447
 Tl         6.4999999973        6.5000000018        5.5505173763
  H         6.5000000027        6.4999999982        7.4494832310
       2
 i =        4, E =       -50.5660297447
 Tl         6.4999999973        6.5000000018        5.5505173763
  H         6.5000000027        6.4999999982        7.4494832310
