       2
 i =        1, E =       -83.9147562747
  W         6.5000001026        6.4999999650        5.6821786683
  O         6.4999998973        6.5000000349        7.3190698543
       2
 i =        2, E =       -83.9147628420
  W         6.5000000998        6.4999999659        5.6842190961
  O         6.4999999210        6.5000000270        7.3186334112
       2
 i =        3, E =       -83.9147633122
  W         6.5000001001        6.4999999659        5.6847786112
  O         6.4999999348        6.5000000221        7.3194145018
       2
 i =        4, E =       -83.9147633122
  W         6.5000001001        6.4999999659        5.6847786112
  O         6.4999999348        6.5000000221        7.3194145018
