       2
 i =        1, E =       -54.1461277777
  Y         6.5000000266        6.4999999891        5.6059797705
  O         6.4999999733        6.5000000106        7.3910730353
       2
 i =        2, E =       -54.1461333775
  Y         6.5000000259        6.4999999895        5.6088368972
  O         6.4999999806        6.5000000075        7.3914081390
       2
 i =        3, E =       -54.1461352793
  Y         6.5000000255        6.4999999900        5.6108803079
  O         6.4999999873        6.5000000046        7.3932193432
       2
 i =        4, E =       -54.1461293315
  Y         6.5000000190        6.4999999951        5.6365000281
  O         6.5000000631        6.4999999733        7.4179824107
       2
 i =        5, E =       -54.1461410270
  Y         6.5000000223        6.4999999924        5.6227265390
  O         6.5000000186        6.4999999918        7.4050045356
       2
 i =        6, E =       -54.1461408315
  Y         6.5000000231        6.4999999910        5.6182394318
  O         6.5000000003        6.5000000003        7.4006998668
       2
 i =        7, E =       -54.1461412977
  Y         6.5000000224        6.4999999918        5.6207302966
  O         6.5000000072        6.4999999971        7.4031360852
       2
 i =        8, E =       -54.1461412983
  Y         6.5000000220        6.4999999924        5.6207703840
  O         6.5000000050        6.4999999975        7.4031900085
       2
 i =        9, E =       -54.1461412983
  Y         6.5000000220        6.4999999924        5.6207703840
  O         6.5000000050        6.4999999975        7.4031900085
