       2
 i =        1, E =       -62.6017116822
 Zr         6.5000000182        6.5000000079        5.6476291027
  O         6.4999999818        6.4999999921        7.3545307222
       2
 i =        2, E =       -62.6017264260
 Zr         6.5000000176        6.5000000078        5.6481457439
  O         6.4999999872        6.4999999943        7.3507223748
       2
 i =        3, E =       -62.6017278780
 Zr         6.5000000175        6.5000000076        5.6467153173
  O         6.4999999905        6.4999999959        7.3498045513
       2
 i =        4, E =       -62.6017278780
 Zr         6.5000000175        6.5000000076        5.6467153173
  O         6.4999999905        6.4999999959        7.3498045513
